##TITLE=Library Entry 46569
##JCAMP-DX=Revision 4.10 
##DATA TYPE=MASS SPECTRUM
##SAMPLE DESCRIPTION=MASS SPECTROMETRY CENTER, UNIV. OF UTAH EPA-PTSEL 5480
##NAMES=HP
##CAS NAME=Mercury, chlorophenyl-
##MOLFORM=C6H5ClHg
##CAS REGISTRY NO=100-56-1
##MP= -300
##BP= -300
##MW= 314
##$RETENTION INDEX=0
##$CONDENSED SPECTRUM=NO
##NPOINTS= 45
##XYDATA=(XY..XY) 1 
    36         48
    37         47
    38         63
    39         45
    40          6
    49         44
    50        313
    51        542
    52         33
    61          7
    62          4
    73         29
    74        104
    75         67
    76         58
    77        999
    78         88
   112        105
   113          4
   114         35
   198         17
   199         30
   200         41
   201         24
   202         51
   204         10
   234          5
   235         15
   236          9
   237         22
   239          8
   275         12
   276         22
   277         34
   278         17
   279         40
   281          7
   310         46
   311         80
   312        127
   313         98
   314        175
   315         34
   316         78
   318          7