##TITLE=Library Entry 1385
##JCAMP-DX=Revision 4.10 
##DATA TYPE=MASS SPECTRUM
##SAMPLE DESCRIPTION=Japan AIST/NIMC Database- Spectrum MS-NW-3757
##NAMES=HP
##CAS NAME=Benzene, 1,4-dinitro-
##MOLFORM=C6H4N2O4
##CAS REGISTRY NO=100-25-4
##MP= -300
##BP= -300
##MW= 168
##$RETENTION INDEX=1417
##$CONDENSED SPECTRUM=NO
##NPOINTS= 75
##XYDATA=(XY..XY) 1 
    12          1
    14          1
    16          2
    17          1
    18          3
    25          4
    26         15
    27          9
    28         48
    29          3
    30        999
    31          5
    32          2
    36          5
    37         49
    38         76
    39         54
    40          5
    41          1
    42          2
    43          1
    44          4
    45          4
    46         17
    48          2
    49         19
    50        538
    51         68
    52         24
    53         36
    54         12
    55          1
    60          5
    61         27
    62         45
    63        149
    64        227
    65         16
    66          6
    67          2
    68          6
    72          2
    73         29
    74        195
    75        809
    76        587
    77         54
    78          3
    79          4
    80          4
    82          5
    86          2
    87          4
    88          4
    89          2
    90          5
    91          6
    92        280
    93         21
    94          2
    96          1
   105          4
   106          7
   107          1
   108          4
   121          2
   122        305
   123         22
   124          2
   138          5
   152         25
   153          2
   168        920
   169         67
   170          9