##TITLE=Library Entry 76910
##JCAMP-DX=Revision 4.10 
##DATA TYPE=MASS SPECTRUM
##SAMPLE DESCRIPTION=Japan AIST/NIMC Database- Spectrum MS-NW-8720
##NAMES=HP
##CAS NAME=3-Pyridinecarbonitrile
##MOLFORM=C6H4N2
##CAS REGISTRY NO=100-54-9
##MP= -300
##BP= -300
##MW= 104
##$RETENTION INDEX=1012
##$CONDENSED SPECTRUM=NO
##NPOINTS= 38
##XYDATA=(XY..XY) 1 
    12          1
    24          1
    25          5
    26         65
    27          9
    28         26
    36          5
    37         25
    38         30
    39         16
    40          4
    41          1
    48          7
    49         33
    50        215
    51        125
    52         53
    53         42
    54          1
    57          1
    60          2
    61          4
    62          7
    63          7
    64         36
    65          2
    74          9
    75         79
    76        170
    77        557
    78         50
    79          2
   100          2
   101          2
   103         32
   104        999
   105         75
   106          2