##TITLE=Library Entry 22216
##JCAMP-DX=Revision 4.10 
##DATA TYPE=MASS SPECTRUM
##SAMPLE DESCRIPTION=Japan AIST/NIMC Database- Spectrum MS-NW-4548
##NAMES=HP
##CAS NAME=Cyclamic acid
##MOLFORM=C6H13NO3S
##CAS REGISTRY NO=100-88-9
##MP= -300
##BP= -300
##MW= 179
##$RETENTION INDEX=0
##$CONDENSED SPECTRUM=NO
##NPOINTS= 68
##XYDATA=(XY..XY) 1 
    14          1
    15         11
    16          3
    17         18
    18         87
    24          1
    26          6
    27         48
    28         81
    29         32
    30         95
    31          2
    32         17
    34          1
    36          1
    37          2
    38          5
    39         41
    40          7
    41         48
    42         49
    43        227
    44         14
    45          2
    46          1
    48         99
    49          1
    50          5
    51          6
    52          4
    53         13
    54         22
    55         27
    56        999
    57         53
    58          2
    63          1
    64         84
    65          3
    66          4
    67         18
    68          6
    69          9
    70         66
    71          4
    76          1
    77          4
    78          1
    79          6
    80        147
    81         12
    82         15
    83         11
    84          2
    91          2
    93          1
    94          1
    96          2
    97          4
    98         21
    99        125
   100          9
   123          1
   135          6
   136          6
   155          1
   178          1
   179          4