##TITLE=Library Entry 84806
##JCAMP-DX=Revision 4.10 
##DATA TYPE=MASS SPECTRUM
##SAMPLE DESCRIPTION=NIST Mass Spectrometry Data Center, 1990.
##NAMES=HP
##CAS NAME=Anisole
##MOLFORM=C7H8O
##CAS REGISTRY NO=100-66-3
##MP= -300
##BP= -300
##MW= 108
##$RETENTION INDEX=920
##$CONDENSED SPECTRUM=NO
##NPOINTS= 48
##XYDATA=(XY..XY) 1 
    13          3
    14         10
    15         50
    18          1
    25          3
    26         16
    27         29
    28         11
    29         23
    30          4
    31          7
    32          3
    37         36
    38         93
    39        353
    40         17
    41          6
    43          2
    49         18
    50        142
    51        185
    52         48
    53         20
    54          8
    55          6
    60          4
    61         26
    62         49
    63        117
    64         77
    65        726
    66         51
    73         13
    74         47
    75         17
    76         26
    77        208
    78        728
    79        179
    80         17
    91          3
    92         23
    93        143
    94         11
   105          2
   108        999
   109         79
   110          4