##TITLE=Library Entry 26265
##JCAMP-DX=Revision 4.10 
##DATA TYPE=MASS SPECTRUM
##SAMPLE DESCRIPTION=NIST Mass Spectrometry Data Center, 1998.
##NAMES=HP
##CAS NAME=N-Ethylmorpholine
##MOLFORM=C6H13NO
##CAS REGISTRY NO=100-74-3
##MP= -300
##BP= -300
##MW= 115
##$RETENTION INDEX=871
##$CONDENSED SPECTRUM=NO
##NPOINTS= 51
##XYDATA=(XY..XY) 1 
    14          1
    15         13
    26         17
    27         90
    28        151
    29        107
    30         53
    31         12
    38          1
    39         11
    40         12
    41         83
    42        834
    43         49
    44         26
    45         11
    50          6
    51          2
    52          9
    53          5
    54         65
    55         53
    56        300
    57        999
    58         75
    59          5
    66          1
    67          1
    68         11
    69          4
    70        118
    71          9
    72         16
    73          1
    80          1
    82          3
    83          1
    84         51
    85         32
    86         20
    87          1
    98          6
   100        869
   101         53
   102          3
   112          2
   113          2
   114         62
   115        319
   116         24
   117          1