##TITLE=Library Entry 31932
##JCAMP-DX=Revision 4.10 
##DATA TYPE=MASS SPECTRUM
##SAMPLE DESCRIPTION=Japan AIST/NIMC Database- Spectrum MS-NW-1737
##NAMES=HP
##CAS NAME=Phenol, 4-nitro-
##MOLFORM=C6H5NO3
##CAS REGISTRY NO=100-02-7
##MP= -300
##BP= -300
##MW= 139
##$RETENTION INDEX=1545
##$CONDENSED SPECTRUM=NO
##NPOINTS= 75
##XYDATA=(XY..XY) 1 
    14          3
    15          3
    16          2
    18          2
    25          7
    26         33
    27         69
    28         47
    29         26
    30         88
    31          7
    32          8
    36          6
    37         52
    38        130
    39        645
    40         23
    41          4
    42         11
    43          9
    44          9
    46         10
    48          3
    49         15
    50         84
    51         75
    52         54
    53        140
    54         20
    55         29
    57          1
    60         10
    61         57
    62        115
    63        241
    64        106
    65        999
    66         62
    67         13
    68          5
    69          6
    73         10
    74         43
    75         33
    76          9
    77          4
    78          4
    79          9
    80          8
    81        286
    82         17
    83          1
    87          1
    89          1
    90          3
    91          6
    92         24
    93        233
    94         15
    95          3
    96          1
    97          2
   105          1
   106          1
   107         10
   108          3
   109        580
   110         39
   111          3
   122          2
   123         45
   124          3
   139        803
   140         57
   141          6