##TITLE=Library Entry 59607
##JCAMP-DX=Revision 4.10 
##DATA TYPE=MASS SPECTRUM
##SAMPLE DESCRIPTION=NIST Mass Spectrometry Data Center, 1998.
##NAMES=HP
##CAS NAME=Benzene, (bromomethyl)-
##MOLFORM=C7H7Br
##CAS REGISTRY NO=100-39-0
##MP= -300
##BP= -300
##MW= 170
##$RETENTION INDEX=1061
##$CONDENSED SPECTRUM=NO
##NPOINTS= 54
##XYDATA=(XY..XY) 1 
    26          4
    27          6
    36          1
    37          8
    38         21
    39         67
    40          6
    41         11
    43          4
    44          3
    45          9
    48          1
    49          6
    50         42
    51         50
    52         20
    53          3
    60          2
    61         16
    62         40
    63         95
    64         26
    65        169
    66         10
    73          2
    74          7
    75          5
    76          4
    77          1
    79          9
    80          2
    81          9
    82          2
    83          1
    84          2
    85         10
    86         13
    87          6
    88          2
    89         75
    90         33
    91        999
    92         86
    93          4
    95          1
   117          1
   119          1
   143          1
   145          1
   169          2
   170         59
   171          6
   172         57
   173          4