##TITLE=Library Entry 77117
##JCAMP-DX=Revision 4.10 
##DATA TYPE=MASS SPECTRUM
##SAMPLE DESCRIPTION=NIST Mass Spectrometry Data Center, 1998.
##NAMES=HP
##CAS NAME=Styrene
##MOLFORM=C8H8
##CAS REGISTRY NO=100-42-5
##MP= -300
##BP= -300
##MW= 104
##$RETENTION INDEX=893
##$CONDENSED SPECTRUM=NO
##NPOINTS= 50
##XYDATA=(XY..XY) 1 
    15          1
    25          1
    26          9
    27         21
    36          1
    37         11
    38         20
    39         68
    40          3
    41          2
    43          1
    48          1
    49         14
    50        136
    51        267
    52         88
    53         12
    54          1
    60          2
    61         16
    62         33
    63         79
    64          9
    65         15
    66          1
    72          1
    73         12
    74         63
    75         43
    76         52
    77        219
    78        464
    79         31
    80          1
    84          1
    85          3
    86          5
    87          8
    88          1
    89         21
    90          2
    97          2
    98          9
    99          2
   101          9
   102         84
   103        485
   104        999
   105         92
   106          3