##TITLE=Library Entry 11447
##JCAMP-DX=Revision 4.10 
##DATA TYPE=MASS SPECTRUM
##SAMPLE DESCRIPTION=Exported from NIST MS Search
##NAMES=HP
##CAS NAME=1,3-Dioxolane-4-methanol, 2,2-dimethyl-
##MOLFORM=C6H12O3
##CAS REGISTRY NO=100-79-8
##MP= -300
##BP= -300
##MW= 132
##$RETENTION INDEX=0
##$CONDENSED SPECTRUM=NO
##NPOINTS= 63
##XYDATA=(XY..XY) 1 
    12          1
    13          1
    14          7
    15         71
    16          2
    17          2
    18          6
    19         11
    20          1
    25          1
    26         10
    27         54
    28         73
    29        108
    30          9
    31        110
    32          9
    33          1
    36          1
    37          2
    38          5
    39         51
    40         15
    41         97
    42        110
    43        999
    44         55
    45         19
    46          1
    47          2
    53          2
    54          1
    55         17
    56          5
    57        205
    58         31
    59        270
    60         13
    61        122
    62          3
    63          1
    69          1
    70          1
    71          2
    72         85
    73         38
    74          3
    75         11
    76          1
    83         14
    84          1
    85          7
    86          3
    87          1
   100          1
   101        199
   102         14
   103          1
   116          1
   117        310
   118         18
   119          2
   131          1