##TITLE=Library Entry 77528
##JCAMP-DX=Revision 4.10 
##DATA TYPE=MASS SPECTRUM
##SAMPLE DESCRIPTION=Japan AIST/NIMC Database- Spectrum MS-IW-3644
##NAMES=HP
##CAS NAME=Benzenemethanamine, 3-methyl-
##MOLFORM=C8H11N
##CAS REGISTRY NO=100-81-2
##MP= -300
##BP= -300
##MW= 121
##$RETENTION INDEX=0
##$CONDENSED SPECTRUM=NO
##NPOINTS= 79
##XYDATA=(XY..XY) 1 
    15          2
    16          1
    26          3
    27         29
    28        168
    29         32
    30        271
    31          4
    37          6
    38         19
    39        109
    40         12
    41         29
    42         10
    43          6
    44          4
    45          4
    46         12
    47          2
    49          3
    50         38
    51         90
    52         34
    53         32
    54         13
    55          2
    56          1
    57          1
    58         29
    59         86
    60         13
    61          9
    62         30
    63         75
    64         18
    65        140
    66         17
    67          6
    68          1
    72          2
    73          2
    74         11
    75         11
    76         14
    77        297
    78         85
    79        175
    80         22
    81          2
    84          1
    85          4
    86          7
    87          6
    88          2
    89         48
    90         24
    91        428
    92        107
    93        470
    94         41
    95          2
    98          1
    99          1
   101          2
   102         17
   103         79
   104        999
   105        271
   106        575
   107         46
   108          2
   116          9
   117         21
   118         58
   119         29
   120        879
   121        363
   122         29
   123          1