##TITLE=Library Entry 3950
##JCAMP-DX=Revision 4.10 
##DATA TYPE=MASS SPECTRUM
##SAMPLE DESCRIPTION=NIST Mass Spectrometry Data Center, 1992
##NAMES=HP
##CAS NAME=Cyclohexanone, oxime
##MOLFORM=C6H11NO
##CAS REGISTRY NO=100-64-1
##MP= -300
##BP= -300
##MW= 113
##$RETENTION INDEX=1074
##$CONDENSED SPECTRUM=NO
##NPOINTS= 77
##XYDATA=(XY..XY) 1 
    14          3
    15         49
    16          3
    17         13
    18         31
    19          1
    26        106
    27        503
    28        199
    29        260
    30        100
    31         45
    37         37
    38         89
    39        639
    40        204
    41        999
    42        351
    43        111
    44        101
    45         24
    46        105
    47          4
    49         12
    50         51
    51        111
    52         85
    53        236
    54        563
    55        644
    56         80
    57         84
    58          4
    59        466
    60         18
    61         10
    62         12
    63         19
    64         21
    65         66
    66         83
    67        418
    68        385
    69        263
    70         95
    71         10
    72        463
    73         29
    74         11
    76          7
    77         50
    78         24
    79        149
    80        109
    81        291
    82         70
    83         33
    84        195
    85        244
    86         17
    91          5
    92          8
    93         17
    94         48
    95         23
    96        232
    97         95
    98        328
    99         18
   108          4
   109          4
   110         14
   111         20
   112          4
   113        970
   114         70
   115          8