##TITLE=Library Entry 5144
##JCAMP-DX=Revision 4.10 
##DATA TYPE=MASS SPECTRUM
##SAMPLE DESCRIPTION=NIST Mass Spectrometry Data Center, 1998.
##NAMES=HP
##CAS NAME=Piperidine, 1-nitroso-
##MOLFORM=C5H10N2O
##CAS REGISTRY NO=100-75-4
##MP= -300
##BP= -300
##MW= 114
##$RETENTION INDEX=1040
##$CONDENSED SPECTRUM=NO
##NPOINTS= 52
##XYDATA=(XY..XY) 1 
    14          1
    15         16
    25          1
    26         27
    27        125
    28        174
    29        135
    30        174
    31          3
    37          6
    38         15
    39        159
    40         34
    41        257
    42        999
    43         53
    44         12
    45          1
    49          2
    50         15
    51         22
    52         19
    53         52
    54         83
    55        607
    56        315
    57         33
    58          2
    62          1
    63          1
    64          1
    65          7
    66          2
    67         28
    68         19
    69         15
    70          3
    78          1
    79          1
    80          8
    81          2
    82         46
    83         45
    84         62
    85          5
    86          3
    97         13
    98          1
    99          2
   114        821
   115         54
   116          3