##TITLE=Library Entry 64996
##JCAMP-DX=Revision 4.10 
##DATA TYPE=MASS SPECTRUM
##SAMPLE DESCRIPTION=Japan AIST/NIMC Database- Spectrum MS-NW-3646
##NAMES=HP
##CAS NAME=Benzeneethanol, .alpha.,.alpha.-dimethyl-
##MOLFORM=C10H14O
##CAS REGISTRY NO=100-86-7
##MP= -300
##BP= -300
##MW= 150
##$RETENTION INDEX=1127
##$CONDENSED SPECTRUM=NO
##NPOINTS= 77
##XYDATA=(XY..XY) 1 
    14          1
    15         15
    18          1
    26          3
    27         20
    28          3
    29         23
    31        116
    37          2
    38          9
    39         68
    40          7
    41         66
    42          4
    43        174
    44          5
    45          3
    49          1
    50         15
    51         40
    52         12
    53          8
    54          1
    55          7
    56          1
    57         46
    58         14
    59        790
    60         28
    61          3
    62          9
    63         30
    64          9
    65         99
    66          9
    67         10
    68          1
    73          1
    74          4
    75          4
    76          3
    77         25
    78         10
    79         11
    80          1
    85          1
    86          2
    87          2
    89         19
    90         12
    91        407
    92        999
    93         89
    94          4
   101          1
   102          3
   103          5
   104          2
   105          8
   106          1
   107          4
   108          4
   115         22
   116          9
   117         67
   118          7
   119          1
   127          1
   128          2
   129          2
   131          6
   132         16
   133          9
   134          3
   135        112
   136         11
   150          3