##TITLE=Library Entry 80541
##JCAMP-DX=Revision 4.10 
##DATA TYPE=MASS SPECTRUM
##SAMPLE DESCRIPTION=Japan AIST/NIMC Database- Spectrum MS-NW-4692
##NAMES=HP
##CAS NAME=Pyridine, 4-ethenyl-
##MOLFORM=C7H7N
##CAS REGISTRY NO=100-43-6
##MP= -300
##BP= -300
##MW= 105
##$RETENTION INDEX=1026
##$CONDENSED SPECTRUM=NO
##NPOINTS= 49
##XYDATA=(XY..XY) 1 
    14          8
    25          3
    26         40
    27         41
    28         39
    29          2
    31          2
    36          3
    37         20
    38         28
    39        106
    40          9
    41         11
    42          2
    44          2
    48          2
    49         18
    50        142
    51        253
    52        272
    53         27
    54         17
    55          1
    60          2
    61         11
    62         15
    63         44
    64         12
    65         88
    66         14
    67          2
    73          5
    74         20
    75         23
    76         41
    77        154
    78        396
    79        125
    80          9
    88          1
    90          4
    91          5
    92          1
   102          8
   103          9
   104        404
   105        999
   106         94
   107          5