##TITLE=Library Entry 54194
##JCAMP-DX=Revision 4.10 
##DATA TYPE=MASS SPECTRUM
##SAMPLE DESCRIPTION=Leung Pu, NIH, Bethesda, Maryland, U.S.
##NAMES=HP
##CAS NAME=Benzenesulfinic acid, 4-chloro-
##MOLFORM=C6H5ClO2S
##CAS REGISTRY NO=100-03-8
##MP= -300
##BP= -300
##MW= 176
##$RETENTION INDEX=0
##$CONDENSED SPECTRUM=NO
##NPOINTS= 59
##XYDATA=(XY..XY) 1 
    41         12
    42         35
    43         44
    45         67
    47        144
    48        173
    49        719
    50        247
    51        350
    55         14
    57         57
    61         42
    62         45
    63         73
    65        192
    69         93
    70         11
    71         40
    73         93
    74        194
    75        569
    76         83
    77        118
    79         52
    81         45
    82         49
    84        999
    85         32
    86        593
    87         36
    88        102
    93         15
    95         41
    99        170
   100         61
   101         55
   105         12
   107         47
   108         90
   111        552
   112        956
   113        157
   114        311
   115         43
   127        186
   128        269
   129         78
   130         68
   131        174
   133         62
   159        436
   160         36
   161        199
   162         15
   175         16
   176        566
   177         48
   178        226
   179         15