##TITLE=Library Entry 76518
##JCAMP-DX=Revision 4.10 
##DATA TYPE=MASS SPECTRUM
##SAMPLE DESCRIPTION=NIST Mass Spectrometry Data Center, 1998.
##NAMES=HP
##CAS NAME=Benzonitrile
##MOLFORM=C7H5N
##CAS REGISTRY NO=100-47-0
##MP= -300
##BP= -300
##MW= 103
##$RETENTION INDEX=985
##$CONDENSED SPECTRUM=NO
##NPOINTS= 42
##XYDATA=(XY..XY) 1 
    25          1
    26         12
    27          9
    36          3
    37         27
    38         26
    39         40
    40          3
    43          1
    48          4
    49         27
    50        171
    51        103
    52         55
    53          7
    60          4
    61         15
    62         16
    63         34
    64         18
    65          2
    72          2
    73         16
    74         49
    75         98
    76        374
    77         59
    78          3
    84          1
    85          2
    86          3
    87          3
    88          7
    89          1
    98          2
    99         13
   100          5
   101          3
   102         19
   103        999
   104         90
   105          3