##TITLE=Library Entry 76909
##JCAMP-DX=Revision 4.10 
##DATA TYPE=MASS SPECTRUM
##SAMPLE DESCRIPTION=Japan AIST/NIMC Database- Spectrum MS-NW-1377
##NAMES=HP
##CAS NAME=4-Pyridinecarbonitrile
##MOLFORM=C6H4N2
##CAS REGISTRY NO=100-48-1
##MP= -300
##BP= -300
##MW= 104
##$RETENTION INDEX=978
##$CONDENSED SPECTRUM=NO
##NPOINTS= 42
##XYDATA=(XY..XY) 1 
    12          2
    13          1
    14          1
    24          2
    25          8
    26        100
    27         11
    28         28
    36          6
    37         33
    38         28
    39         11
    40          6
    41          2
    44          1
    48          7
    49         32
    50        212
    51        118
    52         58
    53         52
    54          2
    57          2
    60          2
    61          5
    62          9
    63         11
    64        137
    65          6
    74          8
    75         60
    76        152
    77        544
    78         56
    79          2
   100          2
   101          2
   102          1
   103         44
   104        999
   105         72
   106          2