##TITLE=Library Entry 82858
##JCAMP-DX=Revision 4.10 
##DATA TYPE=MASS SPECTRUM
##SAMPLE DESCRIPTION=R.L.FOLTZ BATTELLE MEMORIAL INST., COLUMBUS LAB., OHIO,
 USA
##NAMES=HP
##CAS NAME=Benzylamine
##MOLFORM=C7H9N
##CAS REGISTRY NO=100-46-9
##MP= -300
##BP= -300
##MW= 107
##$RETENTION INDEX=1019
##$CONDENSED SPECTRUM=NO
##NPOINTS= 30
##XYDATA=(XY..XY) 1 
    26         15
    27         38
    28        158
    29         26
    30        230
    38         16
    39         48
    50         54
    51         89
    52         38
    53         18
    54         11
    63         27
    65         50
    74         13
    77        195
    78        122
    79        370
    80         29
    89         36
    90         12
    91        169
    92         28
   103         18
   104         86
   105         31
   106        999
   107        741
   108         56
   109          2