##TITLE=Library Entry 45589
##JCAMP-DX=Revision 4.10 
##DATA TYPE=MASS SPECTRUM
##SAMPLE DESCRIPTION=Japan AIST/NIMC Database- Spectrum MS-NW-1367
##NAMES=HP
##CAS NAME=Benzene, 1-chloro-4-nitro-
##MOLFORM=C6H4ClNO2
##CAS REGISTRY NO=100-00-5
##MP= -300
##BP= -300
##MW= 157
##$RETENTION INDEX=1234
##$CONDENSED SPECTRUM=NO
##NPOINTS= 76
##XYDATA=(XY..XY) 1 
    12          1
    16          1
    25          3
    26         10
    27         11
    28         17
    29          1
    30        237
    31          2
    32          2
    35          3
    36         10
    37         62
    38         60
    39         34
    40          2
    44          2
    46          7
    47          7
    48          5
    49         36
    50        385
    51        148
    52          9
    53          2
    55          1
    60          9
    61         43
    62         27
    63         54
    64         17
    65          3
    71          1
    72          9
    73         99
    74        227
    75        999
    76        154
    77          8
    84         23
    85         93
    86         12
    87         30
    88          4
    89          3
    90          9
    91          1
    92          5
    97          1
    98          2
    99        337
   100         19
   101        112
   102          6
   108          3
   109          4
   110         15
   111        982
   112         71
   113        311
   114         21
   122          1
   125          2
   126          2
   127        415
   128         28
   129        134
   130          9
   141         29
   142          2
   143          9
   157        874
   158         60
   159        281
   160         19
   161          2