##TITLE=Library Entry 18741
##JCAMP-DX=Revision 4.10 
##DATA TYPE=MASS SPECTRUM
##SAMPLE DESCRIPTION=Japan AIST/NIMC Database- Spectrum MS-NW-1051
##NAMES=HP
##CAS NAME=Cyclohexene, 4-ethenyl-
##MOLFORM=C8H12
##CAS REGISTRY NO=100-40-3
##MP= -300
##BP= -300
##MW= 108
##$RETENTION INDEX=827
##$CONDENSED SPECTRUM=NO
##NPOINTS= 68
##XYDATA=(XY..XY) 1 
    15          5
    26         12
    27        129
    28         11
    29         26
    37          5
    38         15
    39        286
    40         27
    41        166
    42          9
    43          7
    44          1
    45          2
    49          4
    50         31
    51         65
    52         37
    53        104
    54        999
    55         60
    56          5
    57          9
    59          2
    61          3
    62          7
    63         15
    64          3
    65         70
    66        366
    67        256
    68         15
    69          4
    70          3
    71          2
    72          1
    73          1
    74          6
    75          3
    76          3
    77        153
    78        161
    79        659
    80        389
    81         39
    82          3
    83          4
    84          1
    85          1
    87          1
    89          3
    90          1
    91        128
    92         14
    93        221
    94         15
    95          3
    97          1
   102          2
   103          6
   104          3
   105         16
   106          8
   107         15
   108        110
   109          9
   110          2
   111          1