##TITLE=Library Entry 48934
##JCAMP-DX=Revision 4.10 
##DATA TYPE=MASS SPECTRUM
##SAMPLE DESCRIPTION=Japan AIST/NIMC Database- Spectrum MS-NW-3009
##NAMES=HP
##CAS NAME=3-Cyclohexene-1-carboxaldehyde
##MOLFORM=C7H10O
##CAS REGISTRY NO=100-50-5
##MP= -300
##BP= -300
##MW= 110
##$RETENTION INDEX=1490
##$CONDENSED SPECTRUM=NO
##NPOINTS= 74
##XYDATA=(XY..XY) 1 
    14          2
    15          7
    17          1
    18          4
    25          2
    26         29
    27        237
    28         28
    29         56
    30          1
    31         14
    32          5
    36          1
    37         14
    38         30
    39        322
    40         42
    41        445
    42         23
    43         20
    44          5
    45          3
    49          7
    50         57
    51        108
    52         52
    53        415
    54        336
    55        120
    56         10
    57         14
    58          2
    60          1
    61          5
    62          7
    63         15
    64          3
    65         76
    66        169
    67        326
    68         66
    69         45
    70          7
    71          1
    73          3
    74          8
    75          7
    76          3
    77        234
    78        168
    79        999
    80        136
    81        766
    82         98
    83         22
    84          2
    86          1
    89          1
    90          2
    91        195
    92        309
    93         40
    94          6
    95        243
    96         15
    97          2
   105          4
   106          4
   107          6
   108          5
   109         71
   110        712
   111         57
   112          4