##TITLE=Library Entry 20780
##JCAMP-DX=Revision 4.10 
##DATA TYPE=MASS SPECTRUM
##SAMPLE DESCRIPTION=Chemical Concepts
##NAMES=HP
##CAS NAME=Cyclohexanemethanol
##MOLFORM=C7H14O
##CAS REGISTRY NO=100-49-2
##MP= -300
##BP= -300
##MW= 114
##$RETENTION INDEX=0
##$CONDENSED SPECTRUM=NO
##NPOINTS= 60
##XYDATA=(XY..XY) 1 
    26         24
    27        170
    28         94
    29        180
    30         25
    31        115
    33          2
    37          6
    38         11
    39        197
    40         35
    41        479
    42         73
    43         97
    44         35
    45        106
    46          9
    47          9
    50          9
    51         25
    52         13
    53         83
    54        157
    55        999
    56         79
    57         56
    58         38
    59         68
    60          5
    62          2
    63          5
    64          3
    65         18
    66         53
    67        497
    68        188
    69         37
    70         12
    71          6
    72          3
    73          4
    74          2
    75          3
    76          9
    77         23
    78          7
    79         32
    80         12
    81        464
    82        288
    83        734
    84         87
    85         10
    95         55
    96        403
    97         55
    98          5
   113          2
   114          7
   115          1