##TITLE=Library Entry 56007
##JCAMP-DX=Revision 4.10 
##DATA TYPE=MASS SPECTRUM
##SAMPLE DESCRIPTION=RADIAN CORP
##NAMES=HP
##CAS NAME=1,2-Ethanediamine, N,N-diethyl-
##MOLFORM=C6H16N2
##CAS REGISTRY NO=100-36-7
##MP= -300
##BP= -300
##MW= 116
##$RETENTION INDEX=0
##$CONDENSED SPECTRUM=NO
##NPOINTS= 37
##XYDATA=(XY..XY) 1 
    18          2
    26          4
    27         19
    28         10
    29         25
    30         80
    39          1
    40          3
    41         15
    42         47
    43         17
    54          8
    55          6
    56         36
    57         17
    58        198
    59          8
    68          3
    69          6
    70         11
    71         13
    72         34
    73          7
    82          1
    83          2
    84          8
    86        999
    87         70
    88          2
    97          3
    98          3
    99         10
   100          2
   101          2
   113          5
   116         26
   117          3