##TITLE=Library Entry 18606
##JCAMP-DX=Revision 4.10 
##DATA TYPE=MASS SPECTRUM
##SAMPLE DESCRIPTION=NIST Mass Spectrometry Data Center, 1994
##NAMES=HP
##CAS NAME=4-Cyanocyclohexene
##MOLFORM=C7H9N
##CAS REGISTRY NO=100-45-8
##MP= -300
##BP= -300
##MW= 107
##$RETENTION INDEX=0
##$CONDENSED SPECTRUM=NO
##NPOINTS= 75
##XYDATA=(XY..XY) 1 
     5          4
     6          2
     7          1
     9          4
    10          0
    11          2
    12          2
    13          1
    14         15
    15         42
    16          0
    17          2
    18          4
    19          2
    24          2
    26        177
    27        443
    28        152
    29         22
    30          3
    31          1
    32          1
    34          1
    37         68
    38        144
    39        817
    40        107
    41        544
    42         32
    43          6
    45          1
    46          4
    48          3
    49         23
    50        170
    51        283
    52        275
    53        220
    54        999
    55         62
    56          1
    61         14
    62         28
    63         52
    64         56
    65        113
    66        200
    67        269
    68         17
    72          1
    73          7
    74         19
    75         33
    76         33
    77        162
    78         86
    79        463
    80        436
    81         75
    82          3
    87          2
    88          3
    89          3
    90          5
    91          2
    92        199
    93         15
    99          3
   102          4
   103          3
   104         15
   105          3
   106        210
   107        370
   108         31