##TITLE=Library Entry 61874
##JCAMP-DX=Revision 4.10 
##DATA TYPE=MASS SPECTRUM
##SAMPLE DESCRIPTION=Japan AIST/NIMC Database- Spectrum MS-NW-3729
##NAMES=HP
##CAS NAME=Benzenemethanethiol
##MOLFORM=C7H8S
##CAS REGISTRY NO=100-53-8
##MP= -300
##BP= -300
##MW= 124
##$RETENTION INDEX=1104
##$CONDENSED SPECTRUM=NO
##NPOINTS= 62
##XYDATA=(XY..XY) 1 
    18          2
    26          3
    27          7
    28          3
    32          2
    33          4
    34          3
    37          6
    38         12
    39         60
    40          4
    41         11
    43          1
    44          3
    45         82
    46          4
    47          6
    49          2
    50         20
    51         45
    52         10
    53          4
    58          2
    59          1
    60          5
    61         10
    62         22
    63         40
    64         10
    65        115
    66          7
    69          9
    70          1
    71          2
    73          1
    74          5
    75          4
    76          2
    77         31
    78         13
    79         10
    80          1
    81          1
    82          1
    84          1
    85          2
    86          3
    87          2
    88          1
    89         32
    90         15
    91        999
    92         82
    93          3
    95          1
    97          3
   121         15
   122          3
   123          9
   124        319
   125         28
   126         15