##TITLE=Library Entry 98338
##JCAMP-DX=Revision 4.10 
##DATA TYPE=MASS SPECTRUM
##SAMPLE DESCRIPTION=Exported from NIST MS Search
##NAMES=HP
##CAS NAME=Benzene, 1-ethenyl-3-methyl-
##MOLFORM=C9H10
##CAS REGISTRY NO=100-80-1
##MP= -300
##BP= -300
##MW= 118
##$RETENTION INDEX=979
##$CONDENSED SPECTRUM=NO
##NPOINTS= 73
##XYDATA=(XY..XY) 1 
    15          1
    26          3
    27         25
    28          1
    29          1
    36          1
    37          5
    38         15
    39        100
    40         11
    41         14
    42          1
    43          8
    44          1
    45          2
    46          1
    49          3
    50         41
    51         80
    52         23
    53         15
    54          1
    55          2
    56          1
    57         26
    58         89
    59         23
    60          1
    61          9
    62         28
    63         72
    64         14
    65         80
    66         10
    67          1
    73          3
    74         19
    75         19
    76         15
    77         64
    78         41
    79          7
    80          1
    84          1
    85          4
    86          8
    87          9
    88          4
    89         47
    90         19
    91        263
    92         42
    93          2
    97          1
    98          2
    99          1
   100          1
   101          5
   102         31
   103        118
   104         11
   105          1
   109          1
   110          1
   111          1
   114          4
   115        280
   116         65
   117        887
   118        999
   119         94
   120          4
   121          1