##TITLE=Library Entry 80235
##JCAMP-DX=Revision 4.10 
##DATA TYPE=MASS SPECTRUM
##SAMPLE DESCRIPTION=D.HENNEBERG, MAX-PLANCK INSTITUTE, MULHEIM, WEST GERMAN
Y
##NAMES=HP
##CAS NAME=Pyridine, 2-ethenyl-
##MOLFORM=C7H7N
##CAS REGISTRY NO=100-69-6
##MP= -300
##BP= -300
##MW= 105
##$RETENTION INDEX=932
##$CONDENSED SPECTRUM=NO
##NPOINTS= 49
##XYDATA=(XY..XY) 1 
    26         38
    27         71
    28         36
    29          2
    34          2
    36          1
    38         14
    39         98
    40          9
    41          7
    43          1
    44          3
    45          1
    49          0
    50         89
    51        292
    52        305
    53         41
    54         21
    55          2
    62          5
    63         23
    64          9
    65         26
    66         14
    67          7
    68          0
    74          5
    75         13
    76         42
    77        106
    78        208
    79        772
    80         49
    81          3
    89          1
    90          2
    91         18
    92         15
    93          2
    94          1
    95          0
   102          7
   103         27
   104        499
   105        999
   106         75
   107          5
   108          0