##TITLE=Library Entry 37461
##JCAMP-DX=Revision 4.10 
##DATA TYPE=MASS SPECTRUM
##SAMPLE DESCRIPTION=NIST Mass Spectrometry Data Center, 2009
##NAMES=HP
##CAS NAME=Cyclohexanamine, N-methyl-
##MOLFORM=C7H15N
##CAS REGISTRY NO=100-60-7
##MP= -300
##BP= -300
##MW= 113
##$RETENTION INDEX=941
##$CONDENSED SPECTRUM=NO
##NPOINTS= 49
##XYDATA=(XY..XY) 1 
    15          4
    26          3
    27         23
    28         37
    29         23
    30         31
    31          2
    32          6
    37          1
    38          3
    39         41
    40          7
    41         60
    42         71
    43         17
    44         63
    45          2
    46          1
    50          3
    51          7
    52          5
    53         17
    54         19
    55         42
    56         62
    57        229
    58         14
    59          1
    63          1
    65          3
    66          2
    67         13
    68         21
    70        999
    71         65
    72          3
    81          7
    82         11
    83          7
    84         49
    85          4
    94          2
    96          1
    97          1
    98          3
   112         20
   113        216
   114         18
   115          1