##TITLE=Library Entry 31931
##JCAMP-DX=Revision 4.10 
##DATA TYPE=MASS SPECTRUM
##SAMPLE DESCRIPTION=Japan AIST/NIMC Database- Spectrum MS-NW-1703
##NAMES=HP
##CAS NAME=p-Nitroaniline
##MOLFORM=C6H6N2O2
##CAS REGISTRY NO=100-01-6
##MP= -300
##BP= -300
##MW= 138
##$RETENTION INDEX=1589
##$CONDENSED SPECTRUM=NO
##NPOINTS= 71
##XYDATA=(XY..XY) 1 
    14          3
    15          2
    16          3
    25          4
    26         20
    27         34
    28         16
    29          7
    30         93
    31          2
    32          2
    36          4
    37         46
    38        107
    39        371
    40         41
    41        123
    42         38
    43          3
    44         11
    45          6
    46          8
    48          1
    49          9
    50         49
    51         53
    52        144
    53         97
    54         41
    55          4
    57          2
    60          5
    61         35
    62         69
    63        153
    64        114
    65        999
    66        121
    67          6
    68          1
    69          1
    71          1
    73          4
    74         19
    75         13
    76          8
    77          4
    78          8
    79         14
    80        186
    81         12
    86          1
    87          3
    88          4
    89          6
    90         15
    91         46
    92        418
    93         29
   105          6
   106          4
   107          2
   108        448
   109         31
   110          2
   122         32
   123          2
   137          1
   138        734
   139         54
   140          5