##TITLE=Library Entry 58858
##JCAMP-DX=Revision 4.10 
##DATA TYPE=MASS SPECTRUM
##SAMPLE DESCRIPTION=MUS174 A. Mujsce, AT&T Bell Labs., Murray Hill, N.J., U
SA
##NAMES=HP
##CAS NAME=Benzene, 1-isocyanato-4-nitro-
##MOLFORM=C7H4N2O3
##CAS REGISTRY NO=100-28-7
##MP= -300
##BP= -300
##MW= 164
##$RETENTION INDEX=0
##$CONDENSED SPECTRUM=NO
##NPOINTS= 68
##XYDATA=(XY..XY) 1 
    25          8
    26         33
    27         21
    28        139
    30        148
    32         31
    33          5
    34          5
    36          7
    37        120
    38        122
    39        256
    41          7
    42          8
    44         18
    45          7
    46         35
    49         26
    50        131
    51        138
    52         94
    53         11
    54          9
    55          7
    57          4
    60         14
    61         82
    62        176
    63        474
    64        232
    65         18
    67          8
    73         17
    74         49
    75         41
    76         22
    77         17
    78        138
    79         13
    80         22
    81          4
    86         13
    87         26
    88         40
    90        999
    91         69
    92          5
    97          6
    99          4
   106        256
   107         20
   108          6
   117          8
   118        135
   119         14
   121          4
   124         10
   130          4
   134        551
   135         50
   137          4
   138          5
   148         64
   149         10
   161          5
   162          4
   164        787
   165         64