##TITLE=Library Entry 65449
##JCAMP-DX=Revision 4.10 
##DATA TYPE=MASS SPECTRUM
##SAMPLE DESCRIPTION=W. KELLY UNILEVER RESEARCH COLWORTH/WELWYN, BEDFORD U.K
.
##NAMES=HP
##CAS NAME=Benzenamine, N-hydroxy-
##MOLFORM=C6H7NO
##CAS REGISTRY NO=100-65-2
##MP= -300
##BP= -300
##MW= 109
##$RETENTION INDEX=0
##$CONDENSED SPECTRUM=NO
##NPOINTS= 37
##XYDATA=(XY..XY) 1 
    26         19
    27         32
    30         10
    37         54
    38        114
    39        267
    40         42
    41         26
    46         10
    49         16
    50         91
    51        199
    52         73
    53         24
    54         13
    61         29
    62         49
    63        124
    64        134
    65        805
    66        114
    67         10
    74         29
    75         16
    76         20
    77        205
    78        166
    79         42
    80         13
    91        101
    92        999
    93        248
    94         16
   107         75
   108         20
   109        825
   110         62