##TITLE=Library Entry 76908
##JCAMP-DX=Revision 4.10 
##DATA TYPE=MASS SPECTRUM
##SAMPLE DESCRIPTION=NIST Mass Spectrometry Data Center, 1994
##NAMES=HP
##CAS NAME=2-Pyridinecarbonitrile
##MOLFORM=C6H4N2
##CAS REGISTRY NO=100-70-9
##MP= -300
##BP= -300
##MW= 104
##$RETENTION INDEX=1074
##$CONDENSED SPECTRUM=NO
##NPOINTS= 39
##XYDATA=(XY..XY) 1 
    12         15
    13          6
    14          8
    24         12
    25         29
    26        185
    27         48
    28         54
    36         18
    37         84
    38        109
    39         55
    40          9
    48         18
    49         93
    50        370
    51        328
    52        171
    53         85
    54          3
    60          5
    61         10
    62         14
    63         17
    64         56
    65          8
    66          1
    74         14
    75        132
    76        191
    77        552
    78         95
    79          4
    86          1
   100          2
   101          2
   104        999
   105         72
   106          2