##TITLE=Library Entry 41066
##JCAMP-DX=Revision 4.10 
##DATA TYPE=MASS SPECTRUM
##SAMPLE DESCRIPTION=D.HENNEBERG, MAX-PLANCK INSTITUTE, MULHEIM, WEST GERMAN
Y
##NAMES=HP
##CAS NAME=Silane, butyltrimethyl-
##MOLFORM=C7H18Si
##CAS REGISTRY NO=1000-49-3
##MP= -300
##BP= -300
##MW= 130
##$RETENTION INDEX=723
##$CONDENSED SPECTRUM=NO
##NPOINTS= 59
##XYDATA=(XY..XY) 1 
    25          1
    26          1
    27          9
    29         16
    31         22
    33          0
    39          5
    41          5
    42          6
    43         64
    44         23
    45         78
    46          6
    47          3
    48          0
    49          0
    50          0
    51          0
    53          4
    54          1
    55         11
    56          3
    57         11
    58         23
    59        445
    60         29
    61         14
    62          0
    65          0
    66          1
    67          1
    68          0
    69          1
    70          2
    71          6
    72         13
    73        999
    74         79
    75         30
    76          0
    81          0
    83          1
    85          4
    86          3
    87         11
    88          1
    89          0
    97          0
    99          0
   101          8
   102          1
   103          0
   113          1
   114          0
   115        152
   116         16
   117          5
   130          5
   131          0