##TITLE=Library Entry 50549
##JCAMP-DX=Revision 4.10 
##DATA TYPE=MASS SPECTRUM
##SAMPLE DESCRIPTION=Japan AIST/NIMC Database- Spectrum MS-NW-9730
##NAMES=HP
##CAS NAME=1,3-Pentadiene, 2,4-dimethyl-
##MOLFORM=C7H12
##CAS REGISTRY NO=1000-86-8
##MP= -300
##BP= -300
##MW= 96
##$RETENTION INDEX=687
##$CONDENSED SPECTRUM=NO
##NPOINTS= 56
##XYDATA=(XY..XY) 1 
    15          4
    26          7
    27        108
    28         14
    29         54
    30          1
    37          6
    38         19
    39        260
    40         43
    41        362
    42         26
    43         36
    44          1
    45          4
    46          8
    47          4
    49          2
    50         32
    51         64
    52         28
    53        296
    54         98
    55        158
    56        136
    57          9
    59          1
    61          3
    62          8
    63         18
    64          3
    65         71
    66         36
    67        165
    68         37
    69          9
    70          1
    73          1
    74          6
    75          2
    76          1
    77         89
    78         14
    79        469
    80         44
    81        999
    82         70
    83          5
    91         15
    92          1
    93         13
    94          4
    95         47
    96        838
    97         66
    98          3