##TITLE=Library Entry 7231
##JCAMP-DX=Revision 4.10 
##DATA TYPE=MASS SPECTRUM
##SAMPLE DESCRIPTION=Exported from NIST MS Search
##NAMES=HP
##CAS NAME=Androstane-17-carboxylic acid, 3,11-bis(acetyloxy)-12-hydroxy-, m
ethyl ester, (3.beta.,5.alpha.,11.alpha.,12.beta.,17.beta.)-
##MOLFORM=C25H38O7
##CAS REGISTRY NO=10005-96-6
##MP= -300
##BP= -300
##MW= 450
##$RETENTION INDEX=0
##$CONDENSED SPECTRUM=NO
##NPOINTS= 168
##XYDATA=(XY..XY) 1 
    27        129
    28        233
    29        356
    31         84
    39         78
    41        778
    42        144
    43        999
    44        240
    45         84
    53         84
    54         40
    55        999
    56        249
    57        999
    58         44
    59        107
    61        151
    67        578
    68        138
    69        999
    70        233
    71        600
    77        151
    78         22
    79        444
    80        116
    81        999
    82        204
    83        533
    84        173
    85        356
    87         62
    91        378
    92        100
    93        556
    94        233
    95        622
    96        167
    97        444
    98        100
    99        111
   104         40
   105        400
   106        189
   107        400
   108        156
   109        389
   110        133
   111        300
   112         62
   113         78
   117         78
   118         67
   119        262
   120        116
   121        222
   122        111
   123        189
   124         78
   125        144
   126         62
   127         67
   129         62
   131        129
   132         40
   133        211
   134         93
   135        138
   136         49
   137        111
   138         44
   139         67
   140         33
   141         62
   143         67
   144         44
   145        189
   146         56
   147        233
   148         56
   149        156
   150         49
   151         67
   152         40
   153         67
   154         62
   155         62
   157         67
   159        167
   160         44
   161        111
   162         40
   163         71
   165         62
   169         67
   171         40
   173         62
   175         62
   177        129
   178         40
   179         40
   181         44
   182         44
   183         44
   189         78
   190         44
   191         67
   192         44
   193         62
   194         44
   195         44
   196         22
   197         44
   203         40
   204         44
   205         67
   206         49
   207         56
   208         40
   209         40
   210         22
   211         44
   217         44
   218         44
   219         44
   221        116
   222         44
   235         62
   236         22
   237         78
   252         56
   253        107
   254         27
   255         71
   270         49
   271         44
   283         40
   286         44
   287         40
   297         89
   298         89
   299         40
   312        189
   313        111
   314         22
   315         62
   329         84
   330        211
   331        129
   343         62
   344         22
   357         27
   358         89
   359         27
   372        160
   373         40
   375        107
   376         40
   390        800
   391        196
   392         44
   418         22
   419         62
   420         27
   450        511
   451        138
   452         27