##TITLE=Library Entry 6558
##JCAMP-DX=Revision 4.10 
##DATA TYPE=MASS SPECTRUM
##SAMPLE DESCRIPTION=Japan AIST/NIMC Database- Spectrum MS-IW- 758
##NAMES=HP
##CAS NAME=Ethanimidic acid, ethyl ester
##MOLFORM=C4H9NO
##CAS REGISTRY NO=1000-84-6
##MP= -300
##BP= -300
##MW= 87
##$RETENTION INDEX=0
##$CONDENSED SPECTRUM=NO
##NPOINTS= 30
##XYDATA=(XY..XY) 1 
    14          6
    15         58
    16         11
    26          9
    27         64
    28         33
    29        146
    30         20
    31         30
    39          8
    40         30
    41         65
    42        813
    43        999
    44        366
    45         73
    46          8
    58          3
    59        190
    60        393
    61         15
    62          1
    64          1
    70          6
    72         14
    73          2
    86          2
    87         11
    88         18
    89          1