##TITLE=Library Entry 34214
##JCAMP-DX=Revision 4.10 
##DATA TYPE=MASS SPECTRUM
##SAMPLE DESCRIPTION=Div. of Experiment Therapeutics WRAIR, WRAMC, Washingto
n DC 20307
##NAMES=HP
##CAS NAME=5-Bromo-n-pentanol, cyclohexyl ether
##MOLFORM=C11H21BrO
##CAS REGISTRY NO=100048-84-8
##MP= -300
##BP= -300
##MW= 248
##$RETENTION INDEX=0
##$CONDENSED SPECTRUM=NO
##NPOINTS= 103
##XYDATA=(XY..XY) 1 
    41        966
    42        190
    43        269
    44         56
    45         19
    47          3
    49         14
    51         28
    53        115
    55        671
    57        296
    58         15
    59          3
    61          1
    62          2
    63          4
    65         13
    67        134
    69        999
    70         58
    71         60
    72         16
    73          1
    74          0
    77          9
    79         32
    81        102
    82        221
    83        389
    84         12
    85         59
    87        200
    88          9
    89          0
    91          8
    93         15
    95         29
    96          5
    97         11
    98          7
    99         24
   100         43
   101          3
   103         21
   105          8
   107         47
   109         47
   110          0
   111          4
   113         30
   114          1
   115          2
   117          4
   119          5
   121          7
   122          3
   123          4
   124          0
   125          4
   126          2
   127          2
   128          1
   131          1
   133          2
   135          7
   137          4
   139          0
   141          2
   143          1
   145          1
   149        291
   151        331
   152          4
   153          0
   155          0
   159          0
   163          1
   165          5
   167         40
   169        113
   170         11
   171          0
   177          2
   179          3
   181          1
   183          0
   185         11
   186          0
   187          3
   194          0
   197          0
   205         14
   207         16
   208          0
   219          1
   221          1
   222          0
   247          1
   248         15
   249          4
   250         15
   251          3
   252          1