##TITLE=Library Entry 10507
##JCAMP-DX=Revision 4.10 
##DATA TYPE=MASS SPECTRUM
##SAMPLE DESCRIPTION=Exported from NIST MS Search
##NAMES=HP
##CAS NAME=Pregnan-20-one, 3-(acetyloxy)-14-hydroxy-, (3.beta.,5.beta.,14.be
ta.)-
##MOLFORM=C23H36O4
##CAS REGISTRY NO=10005-75-1
##MP= -300
##BP= -300
##MW= 376
##$RETENTION INDEX=0
##$CONDENSED SPECTRUM=NO
##NPOINTS= 176
##XYDATA=(XY..XY) 1 
    43        999
    44        101
    45         90
    53        169
    54         67
    55        652
    56         56
    57        112
    58         45
    59         49
    61         94
    65         79
    66         45
    67        551
    68         94
    69        281
    70         56
    71        220
    77        213
    78         63
    79        494
    80        117
    81        618
    82        101
    83        494
    84         94
    85        169
    86         63
    91        539
    92        146
    93        730
    94        416
    95        685
    96        146
    97        999
    98        685
    99         79
   105        382
   106        175
   107        562
   108        348
   109        506
   110        117
   111        427
   112        175
   113         90
   115         49
   117         85
   118        108
   119        247
   120        146
   121        404
   122        180
   123        191
   124         67
   125         67
   129         45
   130         34
   131        130
   132         56
   133        198
   134        146
   135        265
   136        124
   137         94
   139         72
   140         90
   141         45
   143         49
   144         40
   145        169
   146         72
   147        281
   148        124
   149        310
   150        117
   151         67
   152         34
   153         49
   155         79
   157         56
   158        124
   159        124
   160         72
   161        207
   162        146
   163        213
   164         56
   165         49
   167         45
   168         49
   171         56
   173         94
   174         72
   175        153
   176        101
   177        112
   178         45
   179         45
   180         45
   181        652
   182         90
   185         45
   187         94
   188         45
   189         67
   190         67
   191         40
   193         45
   197        270
   198         63
   199         40
   200         67
   201         67
   202        297
   203        157
   204         67
   205         27
   212        596
   213        292
   214         56
   215         85
   216         34
   217        139
   218         40
   227         63
   228         40
   229         45
   230        517
   231        472
   232        117
   233         45
   242         49
   245        213
   246         67
   247         27
   255        139
   256         45
   257         56
   258         22
   259         45
   260         63
   261         27
   264         63
   270         45
   271         22
   272        202
   273        153
   274         45
   275         18
   283         34
   288        449
   289        117
   290        809
   291        449
   292        153
   293         34
   298         72
   299         27
   300         22
   305         49
   306         22
   315         45
   316         49
   317         27
   330        108
   333         27
   334         27
   343         22
   348        584
   349        139
   350         27
   358         79
   359         27
   376         45
   377         22