##TITLE=Library Entry 6848
##JCAMP-DX=Revision 4.10 
##DATA TYPE=MASS SPECTRUM
##SAMPLE DESCRIPTION=V.A.Korolev, Moscow, Russia
##NAMES=HP
##CAS NAME=Dimethyl-1,2-oxazole-3-carboxylic acid
##MOLFORM=C6H7NO3
##CAS REGISTRY NO=100047-61-8
##MP= -300
##BP= -300
##MW= 141
##$RETENTION INDEX=0
##$CONDENSED SPECTRUM=NO
##NPOINTS= 43
##XYDATA=(XY..XY) 1 
    37         18
    38         29
    39         92
    40         33
    41         43
    42         84
    43        999
    44         72
    45        367
    46          7
    49          2
    50         22
    51         65
    52        132
    53         64
    54        318
    55        246
    56          8
    57          5
    62          8
    63         13
    64          4
    65          5
    66          8
    67          4
    68          5
    69         11
    70         20
    80          2
    81          9
    82        227
    83         10
    87          2
    95          6
    96        318
    97         43
    98          8
    99          8
   123          2
   124         23
   126          3
   141        135
   142          9