##TITLE=Library Entry 37599
##JCAMP-DX=Revision 4.10 
##DATA TYPE=MASS SPECTRUM
##SAMPLE DESCRIPTION=Tox21 Consortium/NIST Mass Spectrometry Data Center, 20
12
##NAMES=HP
##CAS NAME=Pexantel
##MOLFORM=C12H22N2O
##CAS REGISTRY NO=10001-13-5
##MP= -300
##BP= -300
##MW= 210
##$RETENTION INDEX=0
##$CONDENSED SPECTRUM=NO
##NPOINTS= 109
##XYDATA=(XY..XY) 1 
    15          7
    18          2
    26          3
    27         32
    28         44
    29         39
    30         19
    31          1
    38          1
    39         47
    40         10
    41        155
    42        206
    43        149
    44         90
    45          4
    46          1
    50          2
    51          6
    52          5
    53         35
    54         41
    55        260
    56        295
    57        186
    58        524
    59         19
    60          1
    63          4
    64          1
    65          7
    66          4
    67         26
    68         16
    70        999
    71        131
    72         35
    73          3
    74          1
    76          1
    77         12
    78          2
    79         24
    80          5
    81         45
    82         63
    83        647
    84         63
    85         35
    86          4
    87          2
    90          1
    91          1
    92          1
    93          1
    94          3
    95         11
    96          9
    97         28
    98         51
    99        479
   100         47
   101         25
   102          2
   107          1
   108          4
   109          6
   110         27
   111         29
   112         37
   113         21
   114          9
   115          3
   122          2
   123          1
   124         19
   125         25
   126         11
   127         34
   128          7
   129          1
   136          3
   137          4
   138         70
   139         18
   140          7
   141          2
   142          3
   150          1
   152         13
   153         13
   154         20
   155          9
   156          2
   164          1
   165          1
   166         16
   167          5
   168          8
   169          1
   181          1
   195          6
   196          1
   207          1
   208          4
   209          3
   210         79
   211         11
   212          1