##TITLE=Library Entry 72785
##JCAMP-DX=Revision 4.10 
##DATA TYPE=MASS SPECTRUM
##SAMPLE DESCRIPTION=Chemical Concepts
##NAMES=HP
##CAS NAME=5-Heptenoic acid, 2,6-dimethyl-2-vinyl-
##MOLFORM=C11H18O2
##CAS REGISTRY NO=100052-75-3
##MP= -300
##BP= -300
##MW= 182
##$RETENTION INDEX=0
##$CONDENSED SPECTRUM=NO
##NPOINTS= 119
##XYDATA=(XY..XY) 1 
    25          2
    27        154
    29         63
    30          2
    31          1
    37          2
    38          6
    39        187
    41        627
    42         29
    43         56
    45         63
    46          1
    47          0
    49          0
    50         14
    51         36
    52         19
    53        160
    54         60
    55        582
    56         71
    57         19
    58          7
    59          4
    61          1
    62          3
    63         10
    64          1
    65         41
    66         16
    67        234
    68         80
    69        301
    70         25
    71         14
    72         16
    73          1
    74          1
    75          1
    76          0
    77         48
    78         10
    79         65
    80         16
    81        157
    82        398
    83        605
    84         35
    85        166
    86          8
    87         12
    88          1
    89          1
    91         36
    92         11
    93         90
    94         16
    95         82
    96         34
    97          8
    98          3
    99         41
   100        999
   101         68
   102          7
   103          2
   104          1
   105          8
   106          2
   107         16
   108          8
   109         10
   110          3
   111         22
   112          2
   113          4
   114          2
   115          1
   116          1
   117          0
   118          0
   119          3
   120          0
   121         45
   122         11
   123          2
   124          1
   125          5
   126          7
   127          4
   128          1
   131          0
   133          0
   134          0
   135          6
   136        197
   137        103
   138          9
   139         14
   140          6
   141          0
   145          0
   146          1
   147          0
   149          0
   150          0
   152          0
   153          2
   154          1
   155          0
   163          0
   164         15
   165          2
   167          4
   173          0
   182         13
   183          2
   184          0