##TITLE=Library Entry 67998
##JCAMP-DX=Revision 4.10 
##DATA TYPE=MASS SPECTRUM
##SAMPLE DESCRIPTION=Chemical Concepts
##NAMES=HP
##CAS NAME=Cyclohexene, 1-methyl-3-vinyloxy-
##MOLFORM=C9H14O
##CAS REGISTRY NO=100144-30-7
##MP= -300
##BP= -300
##MW= 138
##$RETENTION INDEX=0
##$CONDENSED SPECTRUM=NO
##NPOINTS= 76
##XYDATA=(XY..XY) 1 
    25          0
    26         11
    27        105
    28          5
    29         24
    30          2
    31          1
    37          4
    38         12
    39        175
    40         27
    41        241
    42         23
    43         58
    44         37
    45          6
    46          5
    49          1
    50         18
    51         52
    52         24
    53        149
    54         28
    55        406
    56         19
    57          4
    59          0
    61          1
    62          7
    63         17
    64          4
    65         83
    66         29
    67        791
    68         57
    69         13
    70          3
    71          1
    73          0
    74          2
    75          2
    76          0
    77        224
    78         37
    79        415
    80         84
    81         53
    82         18
    83          4
    84          0
    87          0
    89          3
    90          1
    91        125
    92         19
    93        236
    94        295
    95        999
    96        233
    97         10
   103          0
   105          6
   107          3
   108          0
   109         20
   110          7
   111          2
   119          1
   120          2
   121          0
   122          0
   123         24
   124          1
   137          2
   138         38
   139          3