##TITLE=Library Entry 8821
##JCAMP-DX=Revision 4.10 
##DATA TYPE=MASS SPECTRUM
##SAMPLE DESCRIPTION=NIST Mass Spectrometry Data Center, 1994
##NAMES=HP
##CAS NAME=6-Pentadecanone
##MOLFORM=C15H30O
##CAS REGISTRY NO=1001-45-2
##MP= -300
##BP= -300
##MW= 226
##$RETENTION INDEX=0
##$CONDENSED SPECTRUM=NO
##NPOINTS= 83
##XYDATA=(XY..XY) 1 
    14          0
    15         10
    17          2
    18          4
    26         10
    27        218
    28         65
    29        403
    30          9
    39        108
    40         27
    41        523
    42        150
    43        999
    44         33
    45          2
    51          4
    52          2
    53         33
    54         20
    55        282
    56         61
    57        221
    58        501
    59        162
    60          7
    65          4
    66          3
    67         46
    68         20
    69         62
    70         37
    71        591
    72        132
    73          9
    77          3
    79          7
    81         65
    82         35
    83         33
    84         14
    85        159
    86         22
    87          2
    91          1
    93          2
    95         59
    96         37
    97         18
    98          1
    99        262
   100         29
   101          2
   109         11
   110         48
   111          8
   112         15
   113         14
   114         70
   115         66
   116          5
   123          4
   124          2
   125          1
   127         77
   128         11
   137          6
   138          2
   141         12
   142          3
   152          5
   153          1
   155        153
   156         18
   157          1
   169          2
   170         19
   171          6
   183         16
   184          2
   197          3
   226          5
   227          0