##TITLE=Library Entry 57992
##JCAMP-DX=Revision 4.10 
##DATA TYPE=MASS SPECTRUM
##SAMPLE DESCRIPTION=Institute of Organic Chemistry, Novosibirsk, USSR 1988
##NAMES=HP
##CAS NAME=Undecanoic acid, 2,6,10-trimethyl-, methyl ester
##MOLFORM=C15H30O2
##CAS REGISTRY NO=1001-79-2
##MP= -300
##BP= -300
##MW= 242
##$RETENTION INDEX=0
##$CONDENSED SPECTRUM=NO
##NPOINTS= 78
##XYDATA=(XY..XY) 1 
    39         11
    40          3
    41        105
    42         17
    43        126
    45         10
    53          6
    54          3
    55        175
    56         55
    57        186
    58         11
    59         50
    67         16
    68          3
    69        112
    70         15
    71         97
    73         13
    74         27
    75         12
    77          4
    80          6
    81          8
    82         33
    83         46
    85         20
    86          4
    87         56
    88        999
    89         54
    90          8
    93          2
    94         12
    95         20
    96          7
    97        113
    98         17
    99          6
   100          3
   101        432
   102         35
   107          5
   108          7
   109         16
   110          4
   111         14
   112          5
   113          6
   115         13
   123          7
   125         34
   126         14
   127          6
   128          3
   129         48
   130         13
   135          6
   137          3
   138          3
   139         10
   143          7
   152         88
   153          7
   154          3
   157        117
   158          9
   167          4
   171          5
   177          8
   185          5
   193          5
   195          7
   198         12
   211         10
   227          3
   242         33
   243          3