##TITLE=Library Entry 22167
##JCAMP-DX=Revision 4.10 
##DATA TYPE=MASS SPECTRUM
##SAMPLE DESCRIPTION=Japan AIST/NIMC Database- Spectrum MS-NW-3117
##NAMES=HP
##CAS NAME=Heptane, 2-chloro-
##MOLFORM=C7H15Cl
##CAS REGISTRY NO=1001-89-4
##MP= -300
##BP= -300
##MW= 134
##$RETENTION INDEX=908
##$CONDENSED SPECTRUM=NO
##NPOINTS= 67
##XYDATA=(XY..XY) 1 
    14          1
    15          9
    26         10
    27        174
    28         14
    29        196
    30          4
    35          2
    36         14
    37          2
    38          8
    39        127
    40         24
    41        515
    42        183
    43        553
    44         18
    45          4
    49          6
    50          6
    51         10
    52          4
    53         32
    54         51
    55        373
    56        999
    57        346
    58         14
    59          1
    61          3
    62          7
    63         50
    64          3
    65         15
    66          2
    67         15
    68         37
    69        511
    70        400
    71         87
    72          4
    75          4
    76          7
    77         13
    78          3
    79          5
    81          9
    82          5
    83         80
    84         14
    85         23
    86          2
    89          2
    90          2
    91          4
    93          1
    95          6
    96          5
    97         17
    98        218
    99         25
   100          1
   105         29
   106          2
   107          9
   133          1
   135          1