##TITLE=Library Entry 32381
##JCAMP-DX=Revision 4.10 
##DATA TYPE=MASS SPECTRUM
##SAMPLE DESCRIPTION=Chemical Concepts
##NAMES=HP
##CAS NAME=1,3-Pentadiene, 5-bromo-
##MOLFORM=C5H7Br
##CAS REGISTRY NO=1001-93-0
##MP= -300
##BP= -300
##MW= 146
##$RETENTION INDEX=0
##$CONDENSED SPECTRUM=NO
##NPOINTS= 58
##XYDATA=(XY..XY) 1 
    25          5
    26         43
    27        120
    28         13
    29          2
    31         13
    33          2
    36          3
    37         48
    38        104
    39        474
    40         85
    41        723
    42         26
    43          0
    48          1
    49          8
    50         39
    51         54
    52         50
    53         12
    54          0
    55          0
    60          4
    61         22
    62         32
    63         41
    64          9
    65        164
    66         91
    67        999
    68         58
    69          1
    72          1
    73          2
    79         24
    80         20
    81         25
    82         20
    83          1
    91          0
    92          0
    93          2
    94          0
    95          2
   104          0
   105          0
   106          0
   107          0
   108          0
   117          1
   119          2
   121          0
   131          0
   146         82
   147          4
   148         79
   149          4