##TITLE=Library Entry 37008
##JCAMP-DX=Revision 4.10 
##DATA TYPE=MASS SPECTRUM
##SAMPLE DESCRIPTION=Chemical Concepts
##NAMES=HP
##CAS NAME=2,6-Cyclooctadien-1-ol
##MOLFORM=C8H12O
##CAS REGISTRY NO=10017-18-2
##MP= -300
##BP= -300
##MW= 124
##$RETENTION INDEX=0
##$CONDENSED SPECTRUM=NO
##NPOINTS= 76
##XYDATA=(XY..XY) 1 
    27        198
    28         21
    29         83
    30          3
    31         34
    32          1
    36          0
    37         14
    38         34
    39        280
    40         45
    41        171
    42        203
    43         40
    44         14
    45          1
    47          0
    48          0
    49          5
    50         39
    51         64
    52         28
    53         67
    54         36
    55         91
    56          5
    57         24
    58          1
    60          1
    61          5
    62         10
    63         19
    64          3
    65         32
    66         18
    67         42
    68         20
    69        250
    70        999
    71         37
    72          2
    73          1
    74          6
    75          3
    76          2
    77         48
    78         43
    79         52
    80        119
    81         25
    82          5
    83         11
    84          0
    85          0
    86          0
    87          0
    89          1
    90          0
    91         36
    92          3
    93          4
    94          2
    95         18
    96          8
    97          0
    98          0
   102          0
   103          3
   104          0
   105          4
   106          9
   107          3
   108          0
   109          4
   123          0
   124          1