##TITLE=Library Entry 14856
##JCAMP-DX=Revision 4.10 
##DATA TYPE=MASS SPECTRUM
##SAMPLE DESCRIPTION=H. Fales, LC, NHLBI, NIH, Bethesda, MD 20892
##NAMES=HP
##CAS NAME=Nerbowdin, 3-acetyl
##MOLFORM=C19H23NO6
##CAS REGISTRY NO=100196-22-3
##MP= -300
##BP= -300
##MW= 361
##$RETENTION INDEX=0
##$CONDENSED SPECTRUM=NO
##NPOINTS= 232
##XYDATA=(XY..XY) 1 
    42        429
    43        999
    44        138
    45         63
    47          7
    49         36
    50         20
    51         88
    52         35
    53        118
    54         85
    55        266
    56        276
    57         65
    58         23
    59         14
    60          9
    61         22
    62         14
    63         73
    64         33
    65        108
    66         32
    67         47
    68         57
    69         57
    70         39
    71         36
    72         11
    73         13
    74         10
    75         26
    76         42
    77        197
    78         74
    79         77
    80         55
    81         34
    82         81
    83         30
    84         68
    85         17
    86         36
    87         17
    88         19
    89         99
    90         55
    91        160
    92         40
    93         31
    94         32
    95         21
    96         14
    97          8
    98         18
    99         12
   100         14
   101         28
   102         67
   103        106
   104         48
   105         69
   106         29
   107         51
   108         22
   109         13
   110         14
   111          7
   112          8
   113         13
   114         24
   115        181
   116         78
   117         67
   118         62
   119         49
   120         27
   121         29
   122         21
   123          7
   126          9
   127         50
   128         80
   129         59
   130         60
   131         78
   132         56
   133        139
   134         45
   135         25
   136         26
   137         15
   139          9
   140          9
   141         35
   142         29
   143         37
   144         50
   145         62
   146         43
   147         50
   148         15
   149         11
   150         17
   151         30
   152         19
   153         18
   154         21
   155         20
   156         21
   157         36
   158         29
   159         50
   160         32
   161         66
   162         19
   163         18
   165         98
   166         47
   167         16
   168         11
   169         14
   170         21
   171         30
   172         35
   173         42
   174         30
   175         41
   176         26
   177         33
   178         56
   179        103
   180         20
   181         16
   182         14
   183         17
   184         15
   185         21
   186         24
   187         40
   188         33
   189         66
   190         79
   191        136
   192         41
   193         23
   194          7
   195          7
   196          8
   197         15
   198         14
   199         17
   200         22
   201         23
   202         78
   203        239
   204        209
   205         72
   206         25
   207         10
   209         11
   210         10
   211         14
   212         12
   213         16
   214         17
   215         55
   216         51
   217        112
   218         83
   219         81
   220         78
   221         19
   222          6
   223         22
   224         14
   225         11
   226         12
   227         17
   228         37
   229         66
   230         96
   231        148
   232        248
   233         46
   234          8
   239         24
   240         17
   241         50
   242         36
   243         40
   244        154
   245         45
   246         45
   247         26
   248          9
   253         37
   254        393
   255        105
   256         57
   257         69
   258         55
   259         18
   260         34
   261          8
   268          8
   270         19
   271         23
   272        108
   273        117
   274         72
   275         26
   282         21
   283         13
   284         29
   285          7
   286         14
   300         48
   301         27
   302        534
   303        104
   304         13
   317          9
   318        171
   319         33
   330          8
   332          6
   344         21
   360         22
   361        706
   362        178
   363         30