##TITLE=Library Entry 6297
##JCAMP-DX=Revision 4.10 
##DATA TYPE=MASS SPECTRUM
##SAMPLE DESCRIPTION=R.T.HOLMAN,UNIVERSITY OF MINNESOTA
##NAMES=HP
##CAS NAME=Pentadecanoic acid, 2,6,10,14-tetramethyl-, methyl ester
##MOLFORM=C20H40O2
##CAS REGISTRY NO=1001-80-5
##MP= -300
##BP= -300
##MW= 312
##$RETENTION INDEX=0
##$CONDENSED SPECTRUM=NO
##NPOINTS= 81
##XYDATA=(XY..XY) 1 
    26         10
    27        194
    28         58
    29        390
    30         10
    31         22
    32          7
    39        140
    40         32
    41        750
    42        178
    43        999
    44         31
    45         28
    51          6
    52          5
    53         53
    54         25
    55        525
    56        167
    57        391
    58         41
    59        150
    60          8
    61          5
    65          9
    66          5
    67         43
    68         25
    69        244
    70         53
    71        150
    72         11
    73         38
    74         16
    75          3
    77          7
    78          2
    79         11
    80          3
    81         27
    82         12
    83         75
    84         12
    85         40
    86          4
    87         41
    88        688
    89         31
    90          5
    91          5
    93          5
    95         20
    96          8
    97        100
    98         18
    99          8
   101        175
   102         14
   109         11
   110          7
   111         21
   112          7
   113          7
   115         11
   123          5
   125         12
   126          7
   127          4
   129         22
   130          5
   137          3
   139          5
   157         22
   158          3
   167          3
   195          3
   222          4
   281          3
   312         21
   313          5