##TITLE=Library Entry 57630
##JCAMP-DX=Revision 4.10 
##DATA TYPE=MASS SPECTRUM
##SAMPLE DESCRIPTION=Chemical Concepts
##NAMES=HP
##CAS NAME=2H-Pyran-3-ol, 2-ethoxy-3,4-dihydro-, acetate
##MOLFORM=C9H14O4
##CAS REGISTRY NO=100145-26-4
##MP= -300
##BP= -300
##MW= 186
##$RETENTION INDEX=0
##$CONDENSED SPECTRUM=NO
##NPOINTS= 109
##XYDATA=(XY..XY) 1 
    26         11
    27         93
    28          4
    29        127
    30          9
    31         49
    37          1
    38          5
    39         72
    40         12
    41        103
    42         53
    43        733
    44         44
    45         19
    47         20
    50          7
    51         12
    52          8
    53         33
    54          9
    55         41
    56         11
    57         86
    58         18
    59         50
    60        396
    61         25
    62          2
    63          1
    65          1
    66          2
    67          6
    68         21
    69        167
    70         65
    71         21
    72         25
    73         28
    74          6
    75         16
    76          2
    77          3
    79          5
    80          6
    81        120
    82        261
    83         23
    84         19
    85         60
    86         12
    87         18
    88        999
    89         60
    90          8
    91          6
    92          2
    93          3
    94          3
    95         11
    96          5
    97         98
    98        154
    99        124
   100         13
   101         22
   102          7
   103          4
   105          4
   107          3
   108          4
   109          6
   110          8
   111          7
   112         13
   113          5
   114          3
   115         17
   116          8
   117         16
   118          2
   119          3
   121          3
   122          2
   123          4
   125         14
   126        369
   127         34
   128          5
   129          3
   130         47
   131          7
   132          2
   133          2
   134          2
   135          2
   136          2
   137          3
   138          3
   139          2
   140          2
   141         78
   142          7
   143          4
   144        123
   145         12
   185          0
   186         18
   187          2