##TITLE=Library Entry 66141
##JCAMP-DX=Revision 4.10 
##DATA TYPE=MASS SPECTRUM
##SAMPLE DESCRIPTION=Insect Chem. Ecol. Lab., USDA, Beltsville, MD 20705
##NAMES=HP
##CAS NAME=Octanoic acid, 1-ethenyl-1,5-dimethyl-4-hexenyl ester
##MOLFORM=C18H32O2
##CAS REGISTRY NO=10024-64-3
##MP= -300
##BP= -300
##MW= 280
##$RETENTION INDEX=0
##$CONDENSED SPECTRUM=NO
##NPOINTS= 115
##XYDATA=(XY..XY) 1 
    41        381
    43        315
    44          8
    45          8
    47          0
    49          4
    50          0
    51          8
    52          1
    53         60
    55        203
    56         12
    57        312
    58         15
    59         12
    60         13
    61          0
    63          0
    65         12
    66          2
    67        109
    68        124
    69        323
    70         25
    71         32
    72          5
    73          9
    74          0
    77         30
    78          6
    79         58
    80        645
    81        190
    82         45
    83         56
    84         15
    85          9
    86          4
    87          1
    89          1
    91         43
    92        284
    93        999
    94        145
    95         49
    96          7
    97         10
    98          4
    99          3
   101          2
   103          3
   105         19
   106         11
   107        112
   108         28
   109         85
   110         11
   111          8
   112          1
   113          0
   114          1
   115          1
   117          1
   118          0
   119          8
   121        258
   122         24
   123         16
   124          3
   125          5
   127        105
   128          7
   129          0
   131          0
   132          1
   133          1
   134          5
   135         10
   136        206
   137         71
   138         49
   139         11
   140          0
   141          2
   143          2
   145          2
   146          1
   147          3
   149         12
   150          2
   151          2
   152          4
   153          7
   154         20
   155          3
   162          1
   169          0
   170          0
   185          0
   193          0
   197          1
   198          0
   209          4
   210          0
   211          1
   212          1
   236          3
   237          2
   238          1
   251          0
   252          1
   265          0
   279          0
   280         25
   281          5