##TITLE=Library Entry 476
##JCAMP-DX=Revision 4.10 
##DATA TYPE=MASS SPECTRUM
##SAMPLE DESCRIPTION=MINISTRY OF TECH. E.R.D.E., WALTHAM ABBEY, UK
##NAMES=HP
##CAS NAME=Nitric acid, pentyl ester
##MOLFORM=C5H11NO3
##CAS REGISTRY NO=1002-16-0
##MP= -300
##BP= -300
##MW= 133
##$RETENTION INDEX=902
##$CONDENSED SPECTRUM=NO
##NPOINTS= 44
##XYDATA=(XY..XY) 1 
    12          1
    13          1
    14          9
    15         36
    24          2
    25          3
    26         26
    27         29
    28        221
    29        999
    30        150
    31         95
    37          6
    38         12
    39        157
    40         27
    41        795
    42        102
    43        286
    44         56
    45         32
    46        476
    47          4
    50          2
    51          3
    52          2
    53          6
    54          6
    55         91
    56         34
    57        680
    58        131
    59          7
    60         10
    69         95
    70         26
    71        118
    72          7
    76        395
    77          7
    85          4
    90          4
   104          2
   115          3