##TITLE=Library Entry 53454
##JCAMP-DX=Revision 4.10 
##DATA TYPE=MASS SPECTRUM
##SAMPLE DESCRIPTION=J.VOTH UNIV. OF CALIF, DAVIS, CALIFORNIA, 95616, USA
##NAMES=HP
##CAS NAME=Aziridine, 2-methyl-3-(1-methylethyl)-, trans-
##MOLFORM=C6H13N
##CAS REGISTRY NO=10027-95-9
##MP= -300
##BP= -300
##MW= 99
##$RETENTION INDEX=0
##$CONDENSED SPECTRUM=NO
##NPOINTS= 54
##XYDATA=(XY..XY) 1 
    12          3
    13          6
    14         27
    15        195
    16         20
    25          5
    26         76
    27        351
    28        715
    29        233
    30        106
    31         29
    32          3
    37         14
    38         33
    39        231
    40         40
    41        377
    42        277
    43        116
    44        372
    45         21
    46          3
    49          2
    50         10
    51         15
    52         16
    53         27
    54         44
    55         83
    56        281
    57        152
    58         16
    63          2
    65          7
    66          3
    67         58
    68         46
    69         29
    70         48
    71         14
    72          4
    79          3
    80          6
    81          6
    82         18
    83          6
    84        999
    85         68
    86          2
    97          2
    98         28
    99         29
   100          3