##TITLE=Library Entry 1329
##JCAMP-DX=Revision 4.10 
##DATA TYPE=MASS SPECTRUM
##SAMPLE DESCRIPTION=H. SUESS, CIBA-GEIGY AG, MUNCHWILEN
##NAMES=HP
##CAS NAME=trans-1,4-Bis(aminomethyl)cyclohexane
##MOLFORM=C8H18N2
##CAS REGISTRY NO=10029-07-9
##MP= -300
##BP= -300
##MW= 142
##$RETENTION INDEX=0
##$CONDENSED SPECTRUM=NO
##NPOINTS= 20
##XYDATA=(XY..XY) 1 
    30        999
    41         70
    54        120
    55        120
    56        150
    67        200
    68        120
    70         60
    79        130
    81        200
    82        100
    93         50
    94         60
    95        200
    96        200
   108        140
   112        600
   113        460
   125        750
   142         40