##TITLE=Library Entry 74432
##JCAMP-DX=Revision 4.10 
##DATA TYPE=MASS SPECTRUM
##SAMPLE DESCRIPTION=Chemical Concepts
##NAMES=HP
##CAS NAME=Silane, 2-butenylethenylmethoxymethyl-
##MOLFORM=C8H16OSi
##CAS REGISTRY NO=100222-21-7
##MP= -300
##BP= -300
##MW= 156
##$RETENTION INDEX=0
##$CONDENSED SPECTRUM=NO
##NPOINTS= 84
##XYDATA=(XY..XY) 1 
    26          2
    27         12
    28          3
    29          6
    30          0
    31          2
    36          0
    38          0
    39          9
    40          0
    41          5
    42          2
    43         22
    44          3
    45         80
    46          6
    47          6
    50          1
    51          1
    52          0
    53          7
    54          3
    55         18
    56          2
    57          5
    58          3
    59         94
    60          8
    61         24
    62          1
    63          0
    66          1
    67          3
    68          1
    69         12
    70          7
    71        156
    72         14
    73         11
    74          8
    75        238
    76         19
    77         10
    79          1
    80          0
    81          3
    82          1
    83          4
    84          0
    85          4
    86          2
    87         21
    88          3
    89          5
    95          3
    96          1
    97          9
    98          1
    99         26
   101        999
   102         90
   103         37
   104          2
   105          3
   107          1
   109          8
   110          1
   111          4
   112          1
   113          5
   114          1
   115          2
   124          1
   125          0
   127          1
   128          3
   129          4
   130          1
   139          0
   141          9
   142          1
   156         41
   157          6
   158          2