##TITLE=Library Entry 2836
##JCAMP-DX=Revision 4.10 
##DATA TYPE=MASS SPECTRUM
##SAMPLE DESCRIPTION=S.A. Rang et al., IR & MS of Unsatd. Hydrocarbons, 1977
##NAMES=HP
##CAS NAME=3-Undecene, (E)-
##MOLFORM=C11H22
##CAS REGISTRY NO=1002-68-2
##MP= -300
##BP= -300
##MW= 154
##$RETENTION INDEX=1086
##$CONDENSED SPECTRUM=NO
##NPOINTS= 72
##XYDATA=(XY..XY) 1 
    25          1
    26         14
    27        211
    28         70
    29        310
    30          7
    31          0
    37          1
    38          5
    39        188
    40         34
    41        999
    42        253
    43        607
    44         13
    45          1
    49          0
    50          3
    51         11
    52          8
    53         84
    54         98
    55        714
    56        571
    57        263
    58         10
    62          0
    63          2
    64          0
    65         16
    66         12
    67        122
    68         70
    69        642
    70        464
    71         75
    72          3
    75          0
    76          0
    77         10
    78          2
    79         13
    80          3
    81         24
    82         42
    83        173
    84        150
    85         37
    86          2
    91          6
    92          3
    93          1
    94          0
    95          5
    96         14
    97         98
    98         47
    99          5
   109          1
   110          6
   111         47
   112         17
   113          2
   124          1
   125         13
   126         14
   127          1
   139          0
   152          0
   154        126
   155         14
   156          0