##TITLE=Library Entry 49355
##JCAMP-DX=Revision 4.10 
##DATA TYPE=MASS SPECTRUM
##SAMPLE DESCRIPTION=A.A.Kutin, Moscow, Russia
##NAMES=HP
##CAS NAME=Adamantane-2-carboxylic acid, 4-oxo-
##MOLFORM=C11H14O3
##CAS REGISTRY NO=100228-31-7
##MP= -300
##BP= -300
##MW= 194
##$RETENTION INDEX=0
##$CONDENSED SPECTRUM=NO
##NPOINTS= 132
##XYDATA=(XY..XY) 1 
    35          0
    36          2
    37          6
    38         32
    39        471
    40         82
    41        422
    42         52
    43         93
    44         13
    45        175
    46         10
    47         11
    49          1
    50         42
    51        135
    52         72
    53        217
    54         90
    55        206
    56         14
    57         30
    58         13
    59         11
    60        102
    61          7
    62         13
    63         39
    64         11
    65        138
    66        103
    67        205
    68        103
    69         46
    70         55
    71         21
    72          4
    73         47
    74         16
    75          8
    77        375
    78        258
    79        999
    80        268
    81        364
    82         65
    83         25
    84         21
    85         20
    86        294
    87         29
    88         12
    89         11
    91        305
    92        176
    93        173
    94         89
    95         95
    96         55
    97        103
    98         54
    99         27
   100         12
   101          1
   102          7
   103         17
   104        100
   105         75
   106         66
   107        135
   108         96
   109        137
   110         32
   111         20
   112         22
   113          5
   114          1
   115         21
   116         27
   117         38
   118          9
   119         56
   120        423
   121        131
   122         32
   123         35
   124         24
   125         12
   126          3
   127          2
   128          4
   129         14
   130         34
   131         36
   132         23
   133         38
   134         30
   135         24
   136          4
   137         16
   138         41
   139         28
   140          5
   145          2
   147         28
   148        361
   149        108
   150         83
   151         89
   152        113
   153         16
   154          4
   157          2
   158          9
   159          4
   161         16
   162          2
   165          3
   166         16
   167          1
   169          2
   171          1
   172          0
   175          0
   176        226
   177         40
   178          4
   179         26
   180          2
   194        776
   195         98
   196         10