##TITLE=Library Entry 32368
##JCAMP-DX=Revision 4.10 
##DATA TYPE=MASS SPECTRUM
##SAMPLE DESCRIPTION=D.HENNEBERG, MAX-PLANCK INSTITUTE, MULHEIM, WEST GERMAN
Y
##NAMES=HP
##CAS NAME=1,3,7-Octatriene
##MOLFORM=C8H12
##CAS REGISTRY NO=1002-35-3
##MP= -300
##BP= -300
##MW= 108
##$RETENTION INDEX=807
##$CONDENSED SPECTRUM=NO
##NPOINTS= 59
##XYDATA=(XY..XY) 1 
    24          0
    25          6
    26         18
    27        193
    28         30
    29         30
    30          0
    31          1
    34          0
    35          2
    36          0
    37         15
    38         27
    39        413
    40         45
    41        769
    42         23
    43          0
    44          1
    45          0
    46          0
    48          0
    49          3
    50         25
    51         54
    52         25
    53         50
    54        144
    55         11
    59          0
    61          2
    62          4
    63         22
    64          4
    65        146
    66         50
    67        999
    68         43
    69          0
    74          2
    75          2
    76          1
    77         44
    78         17
    79         87
    80         42
    81          4
    89          1
    90          0
    91         21
    92          2
    93        101
    94          6
   103          0
   105          1
   106          0
   107          2
   108         43
   109          3