##TITLE=Library Entry 7873
##JCAMP-DX=Revision 4.10 
##DATA TYPE=MASS SPECTRUM
##SAMPLE DESCRIPTION=D.HENNEBERG, MAX-PLANCK INSTITUTE, MULHEIM, WEST GERMAN
Y
##NAMES=HP
##CAS NAME=Decane, 2,9-dimethyl-
##MOLFORM=C12H26
##CAS REGISTRY NO=1002-17-1
##MP= -300
##BP= -300
##MW= 170
##$RETENTION INDEX=1126
##$CONDENSED SPECTRUM=NO
##NPOINTS= 53
##XYDATA=(XY..XY) 1 
    23          0
    24          0
    25          1
    26          9
    27        117
    29        149
    30          4
    33          3
    35          2
    36          0
    37          5
    38          2
    39         73
    40          6
    41        361
    42        188
    43        999
    44         25
    51         10
    52          0
    53         16
    54          8
    55        110
    56        184
    57        799
    58         36
    65          1
    66          0
    67          7
    68          8
    69         62
    70         34
    71        422
    72         22
    81          0
    82          3
    83         14
    84         21
    85        248
    86         15
    97          3
    98          8
    99         52
   100          3
   111         10
   112          1
   113         18
   114          0
   126         17
   127         58
   128          5
   155         15
   156          1