##TITLE=Library Entry 14773
##JCAMP-DX=Revision 4.10 
##DATA TYPE=MASS SPECTRUM
##SAMPLE DESCRIPTION=LAC, NIDDK, NIH, Bethesda, MD 20892
##NAMES=HP
##CAS NAME=Testoster-3,11-dione, 9-thiocyanato-, acetate
##MOLFORM=C22H27NO4S
##CAS REGISTRY NO=100267-04-7
##MP= -300
##BP= -300
##MW= 401
##$RETENTION INDEX=0
##$CONDENSED SPECTRUM=NO
##NPOINTS= 232
##XYDATA=(XY..XY) 1 
    41        161
    43        999
    44         16
    45         11
    49         10
    51         16
    53         60
    55        182
    56         11
    57         20
    58         14
    59        120
    60          9
    61         10
    65         38
    66         13
    67         71
    68         13
    69         52
    71         18
    77        102
    78         26
    79        119
    80         55
    81         71
    82         19
    83         19
    84         10
    91        167
    92         23
    93         87
    94         33
    95         83
    96         16
    97         33
    98         12
   103         25
   104         15
   105        111
   106         21
   107         63
   108         20
   109         30
   110         16
   111         24
   112          9
   113          9
   115         57
   116         25
   117         59
   118         21
   119         55
   120         23
   121        109
   122        190
   123         50
   124         17
   125          8
   127         18
   128         41
   129         40
   130         19
   131         58
   132         23
   133         67
   134         36
   135         49
   136         40
   137         19
   139         16
   140          9
   141         25
   142         18
   143         39
   144         19
   145         50
   146         23
   147         66
   148         37
   149         54
   150         12
   151         10
   152         12
   153         18
   154         12
   155         26
   156         13
   157         25
   158         18
   159         42
   160         81
   161        160
   162         51
   163         67
   164         17
   165         35
   166         15
   167         16
   168          9
   169         19
   170         12
   171         29
   172         14
   173         42
   174         16
   175         20
   176         13
   177         13
   178         12
   179         15
   180         11
   181         21
   182         11
   183         20
   184         14
   185         28
   186         23
   187         37
   188         27
   189         55
   190         14
   191         12
   192          9
   193         10
   194          9
   195         52
   196         15
   197         27
   198         19
   199         27
   200         13
   201         15
   202         10
   203         10
   204          9
   205          9
   206         11
   207         10
   208         22
   209         22
   210         11
   211         22
   212         15
   213         28
   214         14
   215         11
   218         17
   219         14
   220         20
   221         12
   222         24
   223         81
   224         37
   225         26
   226         15
   227         17
   228          9
   229          8
   230          8
   234         10
   235         51
   236         32
   237         21
   238         20
   239         38
   240         27
   241         38
   242         11
   246          9
   248         36
   249         19
   250          8
   251         10
   253         11
   254         13
   255         20
   256          9
   257         13
   259          9
   262         12
   264         12
   265         22
   266         16
   267         26
   268          8
   269         15
   270          8
   272         11
   273          9
   277         82
   278         23
   279         14
   280         42
   281         16
   282         22
   283         35
   284         17
   285         16
   286          8
   287         16
   298         21
   299         19
   300         44
   301        112
   302         41
   308         21
   312         11
   313         10
   314         25
   315         15
   316         17
   325         23
   326         58
   327         30
   328         10
   329         11
   341        203
   342        113
   343        197
   344        160
   345         42
   358         13
   359        108
   360         23
   368         19
   369         13
   373         15
   386         12
   399         28
   401        140
   402         39
   403         15