##TITLE=Library Entry 89831
##JCAMP-DX=Revision 4.10 
##DATA TYPE=MASS SPECTRUM
##SAMPLE DESCRIPTION=H. SUESS, CIBA-GEIGY AG, MUNCHWILEN, SWITZER
##NAMES=HP
##CAS NAME=cis-1,4-Bis(aminomethyl)cyclohexane
##MOLFORM=C8H18N2
##CAS REGISTRY NO=10029-09-1
##MP= -300
##BP= -300
##MW= 142
##$RETENTION INDEX=0
##$CONDENSED SPECTRUM=NO
##NPOINTS= 17
##XYDATA=(XY..XY) 1 
    30        550
    41         70
    54        110
    55        100
    56        150
    67        180
    68        100
    79         90
    81        150
    82        100
    95        150
    96        170
   112        200
   113        999
   114         70
   125        320
   142         30