##TITLE=Library Entry 69426
##JCAMP-DX=Revision 4.10 
##DATA TYPE=MASS SPECTRUM
##SAMPLE DESCRIPTION=Chemical Concepts
##NAMES=HP
##CAS NAME=1,6-Disilacyclodeca-3,8-diene, 1,6-dimethyl-1,6-divinyl-
##MOLFORM=C14H24Si2
##CAS REGISTRY NO=100222-23-9
##MP= -300
##BP= -300
##MW= 248
##$RETENTION INDEX=0
##$CONDENSED SPECTRUM=NO
##NPOINTS= 139
##XYDATA=(XY..XY) 1 
    26          7
    27         13
    28         86
    29         13
    31         17
    39         13
    41          6
    42         18
    43        252
    44         49
    45        321
    46         22
    47         10
    51          6
    52          5
    53         40
    54         18
    55        323
    56         29
    57         51
    58         43
    59        211
    60         16
    61          7
    63          3
    64          4
    66          5
    67         36
    68         24
    69        124
    70        226
    71        402
    72         43
    73         30
    74         10
    75          9
    77          5
    78         13
    79         32
    80         10
    81        105
    82         50
    83        156
    84         34
    85        197
    86         28
    87         18
    88          4
    89          3
    91          5
    92          3
    93        110
    94         20
    95        163
    96        999
    97        541
    98         93
    99         57
   100          5
   101         24
   102         12
   103         17
   104          3
   105          7
   106          6
   107         39
   108         37
   109        370
   110         61
   111         40
   112         47
   113         38
   114         17
   115         18
   116         15
   117          3
   119          5
   120          3
   121         28
   122         36
   123         51
   124        152
   125        149
   126         36
   127         39
   128         10
   129         23
   130          4
   131          4
   133          5
   134          8
   135         12
   136          9
   137          8
   138         12
   139         35
   140         92
   141         24
   142         12
   143          3
   147          5
   148          4
   149          7
   150          4
   151         34
   152         15
   153        104
   154         22
   155         13
   161          3
   163          6
   164          4
   165         26
   166        125
   167         33
   168         15
   169          3
   177         12
   178          6
   179         83
   180         21
   181         12
   191          6
   192         32
   193         52
   194         53
   195         16
   196          5
   205         13
   206          5
   207         19
   208          4
   219          5
   220         14
   221          4
   233          6
   248        181
   249         45
   250         17