##TITLE=Library Entry 33419
##JCAMP-DX=Revision 4.10 
##DATA TYPE=MASS SPECTRUM
##SAMPLE DESCRIPTION=Japan AIST/NIMC Database- Spectrum MS-NW-3225
##NAMES=HP
##CAS NAME=3-Hexyn-1-ol
##MOLFORM=C6H10O
##CAS REGISTRY NO=1002-28-4
##MP= -300
##BP= -300
##MW= 98
##$RETENTION INDEX=0
##$CONDENSED SPECTRUM=NO
##NPOINTS= 67
##XYDATA=(XY..XY) 1 
    14          3
    15         13
    17          3
    18         12
    19          1
    25          1
    26         20
    27        126
    28         21
    29         67
    30          6
    31        275
    32          2
    33          1
    36          2
    37         19
    38         37
    39        299
    40        172
    41        502
    42        119
    43         79
    44         17
    45          7
    46          1
    47          1
    48          1
    49          9
    50         51
    51         89
    52         67
    53        452
    54         34
    55         77
    56         21
    57         25
    58          5
    59          2
    60          2
    61         12
    62         23
    63         39
    64          9
    65        139
    66         62
    67        630
    68        999
    69         86
    70         17
    71          5
    73          2
    74          6
    75          3
    77         54
    78          9
    79        135
    80         59
    81         11
    82          7
    83         85
    84          5
    94          1
    95          2
    96          3
    97         10
    98        131
    99          9