##TITLE=Library Entry 80721
##JCAMP-DX=Revision 4.10 
##DATA TYPE=MASS SPECTRUM
##SAMPLE DESCRIPTION=Drug Lab
##NAMES=HP
##CAS NAME=Benzenemethanamine, .alpha.-methyl-N-(1-phenylethyl)-
##MOLFORM=C16H19N
##CAS REGISTRY NO=10024-74-5
##MP= -300
##BP= -300
##MW= 225
##$RETENTION INDEX=1651
##$CONDENSED SPECTRUM=NO
##NPOINTS= 81
##XYDATA=(XY..XY) 1 
    36          1
    38          5
    39         27
    40          4
    41          9
    42         49
    43          3
    44         49
    50         23
    51         77
    52         17
    53          9
    54          1
    56          1
    62          2
    63         20
    64          7
    65         23
    66          3
    70          1
    74          6
    75          8
    76         13
    77        257
    78         77
    79        211
    80         17
    81          1
    82          2
    87          1
    89         13
    90          7
    91         47
    92          6
    93          1
    94          1
    97          2
   101          2
   102         14
   103        120
   104         92
   105        999
   106        795
   107         64
   108          2
   115          3
   116          2
   117          4
   118          6
   119          3
   120         96
   121          7
   126          1
   128          1
   130          3
   131          2
   132          6
   141          1
   146          5
   148         14
   149          1
   152          2
   153          1
   165          7
   166          2
   167          2
   178          1
   193          2
   194          2
   195          1
   206          1
   207          1
   208          7
   210        508
   211         85
   212          7
   222          5
   223          3
   224          1
   225          8
   226          2