##TITLE=Library Entry 46138
##JCAMP-DX=Revision 4.10 
##DATA TYPE=MASS SPECTRUM
##SAMPLE DESCRIPTION=LAC, NIDDK, NIH, Bethesda, MD 20892
##NAMES=HP
##CAS NAME=1,2-Dihydro-11-oxo-prednisolone, 11-dehydroxy-9-thiocynato-
##MOLFORM=C22H27NO5S
##CAS REGISTRY NO=100267-05-8
##MP= -300
##BP= -300
##MW= 417
##$RETENTION INDEX=0
##$CONDENSED SPECTRUM=NO
##NPOINTS= 231
##XYDATA=(XY..XY) 1 
    41        335
    42        221
    43        627
    44         82
    45        160
    46         79
    47         87
    49         31
    51         56
    52         34
    53        169
    54         31
    55        436
    56         44
    57        118
    58        137
    59        223
    60        105
    61         33
    63         26
    64         27
    65        120
    66         44
    67        184
    68         41
    69        136
    70         31
    71        120
    72         27
    73         33
    75        999
    76         28
    77        366
    78        176
    79        306
    80         48
    81        149
    82         40
    83         97
    84         34
    85         50
    87         35
    89         27
    90         29
    91        495
    92         77
    93        161
    94         40
    95        134
    96         53
    97        296
    98         51
    99         40
   101         23
   102         23
   103         92
   104         55
   105        356
   106        100
   107        150
   108         41
   109         93
   110         42
   111         61
   112         24
   113         26
   115        240
   116         89
   117        218
   118         62
   119        201
   120         48
   121        212
   122        100
   123        144
   124         75
   125         34
   127         78
   128        231
   129        276
   130         68
   131        197
   132         53
   133        149
   134         55
   135         81
   136         58
   137         47
   138         24
   139         43
   141        185
   142        109
   143        308
   144         83
   145        225
   146         58
   147        129
   148         31
   149         53
   151         24
   152         54
   153         91
   154         62
   155        151
   156         71
   157        147
   158         55
   159        127
   160         93
   161        246
   162         83
   163         62
   164         22
   165         83
   166         46
   167         94
   168         46
   169        153
   170         51
   171        136
   172         50
   173        175
   174         52
   175         47
   177         30
   178         40
   179         54
   180         28
   181         92
   182         40
   183        134
   184         59
   185        144
   186         53
   187         98
   188         37
   189        165
   190         28
   191         26
   192         24
   193         44
   194         33
   195         73
   196         32
   197        117
   198         56
   199        191
   200         52
   201         38
   203         32
   205         24
   207        147
   208         37
   209        165
   210         53
   211        179
   212         86
   213        131
   214         61
   215         69
   221         29
   223        132
   224         48
   225        569
   226        128
   227        643
   228        138
   229         60
   230         38
   237         55
   238         55
   239        141
   240        217
   241        167
   242        135
   243         65
   244         21
   249         96
   250         38
   251         55
   252         41
   253         85
   254         42
   255        129
   256         80
   257        162
   258         75
   259         23
   263         25
   265         58
   266         32
   267        266
   268         66
   269         75
   270         33
   271         44
   275         20
   281         60
   282         23
   283         52
   284         96
   285        956
   286        194
   287         37
   293         36
   295        101
   296         33
   297         36
   298         27
   299        276
   300         91
   301         94
   302         21
   311         61
   313         24
   316         28
   326         58
   327         21
   329        158
   330         43
   341         21
   342         31
   343         22
   344        493
   345        122
   346         21
   357         39
   358        157
   359         60
   360         96
   417         37