##TITLE=Library Entry 1258
##JCAMP-DX=Revision 4.10 
##DATA TYPE=MASS SPECTRUM
##SAMPLE DESCRIPTION=Japan AIST/NIMC Database- Spectrum MS-NW-6132
##NAMES=HP
##CAS NAME=8-Aminocaprylic acid
##MOLFORM=C8H17NO2
##CAS REGISTRY NO=1002-57-9
##MP= -300
##BP= -300
##MW= 159
##$RETENTION INDEX=0
##$CONDENSED SPECTRUM=NO
##NPOINTS= 96
##XYDATA=(XY..XY) 1 
    15          6
    17          9
    18         15
    26          5
    27         49
    28         18
    29         30
    30        999
    31         23
    32          2
    37          1
    38          3
    39         39
    40          8
    41         77
    42         27
    43         24
    44         33
    45         66
    46          2
    50          2
    51          5
    52          3
    53         10
    54         10
    55         49
    56         34
    57          6
    58          6
    59         14
    60         12
    62          1
    63          1
    64          1
    65          2
    66          2
    67         12
    68         11
    69         15
    70          7
    71          2
    72         12
    73          9
    74          2
    75          1
    77          3
    78          2
    79          5
    80          6
    81          8
    82          9
    83          9
    84          4
    85          2
    86         29
    87         10
    88          1
    91          1
    92          1
    93          2
    94          5
    95          8
    96          7
    97          4
    98          3
    99          1
   100        115
   101          9
   103          1
   105          2
   106          1
   108          2
   109          1
   110          1
   111          2
   112          1
   113          2
   114          2
   116          1
   117          1
   118          1
   119          1
   120          1
   121          1
   122          2
   123          3
   124          5
   125          1
   126          1
   130          1
   140          2
   141          2
   142          4
   158          2
   159          6
   160          1