##TITLE=Library Entry 15128
##JCAMP-DX=Revision 4.10 
##DATA TYPE=MASS SPECTRUM
##SAMPLE DESCRIPTION=Exported from NIST MS Search
##NAMES=HP
##CAS NAME=Nitrous oxide
##MOLFORM=N2O
##CAS REGISTRY NO=10024-97-2
##MP= -300
##BP= -300
##MW= 44
##$RETENTION INDEX=182
##$CONDENSED SPECTRUM=NO
##NPOINTS= 9
##XYDATA=(XY..XY) 1 
    14        129
    15          1
    16         50
    28        108
    29          1
    30        311
    31          1
    44        999
    45          7