##TITLE=Library Entry 24164
##JCAMP-DX=Revision 4.10 
##DATA TYPE=MASS SPECTRUM
##SAMPLE DESCRIPTION=Exported from NIST MS Search
##NAMES=HP
##CAS NAME=Ethanol, 2-(octyloxy)-
##MOLFORM=C10H22O2
##CAS REGISTRY NO=10020-43-6
##MP= -300
##BP= -300
##MW= 174
##$RETENTION INDEX=1285
##$CONDENSED SPECTRUM=NO
##NPOINTS= 95
##XYDATA=(XY..XY) 1 
    15         15
    17         10
    18         44
    19         21
    26          4
    27        136
    28         26
    29        189
    30          7
    31        101
    32          5
    33         14
    38          2
    39         87
    40         17
    41        464
    42        131
    43        699
    44         55
    45        601
    46         17
    47          4
    50          2
    51          6
    52          3
    53         31
    54         14
    55        439
    56        336
    57        999
    58         54
    59         19
    60         20
    61         15
    62          9
    63         85
    64          2
    65          5
    66          2
    67         27
    68         33
    69        646
    70        348
    71        536
    72         35
    73         85
    74          9
    75        166
    76          7
    77          8
    79          4
    81         13
    82         35
    83        251
    84        619
    85        111
    86         11
    87         20
    88          4
    89          7
    90          2
    91          8
    95         10
    96          6
    97        134
    98         27
    99         12
   100          5
   101         11
   102          2
   103          4
   104         11
   105          2
   109         10
   110         12
   111        310
   112        269
   113         47
   114          3
   115          4
   117         19
   118          8
   119          3
   125          2
   126          3
   127         13
   128          2
   129          7
   131         24
   132          3
   143         13
   145          6
   159          2
   174          1
   175          5