##TITLE=Library Entry 10204
##JCAMP-DX=Revision 4.10 
##DATA TYPE=MASS SPECTRUM
##SAMPLE DESCRIPTION=Japan AIST/NIMC Database- Spectrum MS-NW-8305
##NAMES=HP
##CAS NAME=Decane, 1-chloro-
##MOLFORM=C10H21Cl
##CAS REGISTRY NO=1002-69-3
##MP= -300
##BP= -300
##MW= 176
##$RETENTION INDEX=1262
##$CONDENSED SPECTRUM=NO
##NPOINTS= 78
##XYDATA=(XY..XY) 1 
    15          3
    26          5
    27        135
    28         29
    29        242
    30          6
    35          1
    36          7
    38          3
    39         85
    40         16
    41        509
    42        157
    43        999
    44         34
    49         10
    50          1
    51          7
    52          2
    53         28
    54         26
    55        570
    56        204
    57        591
    58         25
    61          1
    62          3
    63         23
    64          1
    65          9
    66          2
    67         28
    68         27
    69        398
    70        135
    71        169
    72          9
    75          4
    76          2
    77         18
    78          2
    79          7
    81          8
    82         15
    83        143
    84         54
    85        101
    86          6
    89          1
    90          4
    91        832
    92         38
    93        262
    94         11
    95          2
    96          4
    97         83
    98         25
    99          4
   104          8
   105        153
   106         10
   107         48
   108          2
   110          1
   111         23
   112         10
   113          1
   118          2
   119         12
   120          1
   121          4
   132          1
   133          3
   135          1
   140          1
   147          2
   176          1