##TITLE=Library Entry 40629
##JCAMP-DX=Revision 4.10 
##DATA TYPE=MASS SPECTRUM
##SAMPLE DESCRIPTION=NIST Mass Spectrometry Data Center
##NAMES=HP
##CAS NAME=Pentadecanoic acid
##MOLFORM=C15H30O2
##CAS REGISTRY NO=1002-84-2
##MP= -300
##BP= -300
##MW= 242
##$RETENTION INDEX=1867
##$CONDENSED SPECTRUM=NO
##NPOINTS= 163
##XYDATA=(XY..XY) 1 
    15          2
    19          1
    26          4
    27        107
    28         29
    29        259
    30          7
    31         12
    36          1
    37          1
    38          3
    39        117
    40         27
    41        790
    42        175
    43        949
    44         34
    45        116
    46          3
    47          3
    50          3
    51          8
    52          4
    53         58
    54         61
    55        769
    56        186
    57        751
    58         38
    59         51
    60        931
    61        228
    62          9
    63          2
    64          1
    65         11
    66          6
    67         72
    68         51
    69        363
    70        101
    71        350
    72         25
    73        999
    74         95
    75         10
    76          2
    77          9
    78          4
    79         24
    80          9
    81         54
    82         54
    83        254
    84        112
    85        241
    86         25
    87        218
    88         28
    89          4
    91          7
    92          2
    93         16
    94          6
    95         36
    96         49
    97        190
    98        117
    99         84
   100         12
   101         97
   102         30
   103          6
   104          1
   105          2
   106          1
   107         12
   108          5
   109         16
   110         23
   111         79
   112         35
   113         50
   114          7
   115        145
   116         48
   117          6
   118          1
   119          1
   120          1
   121         14
   122          3
   123          8
   124         13
   125         35
   126         15
   127         32
   129        441
   130         51
   131          5
   132          1
   133          1
   135          7
   136          2
   137          3
   138          9
   139         13
   140          8
   141         10
   142          1
   143        164
   144         21
   145          2
   147          6
   148          4
   149          5
   150          1
   151          3
   152          8
   153          7
   154         11
   155          2
   157         92
   158         11
   159          1
   163          2
   165          1
   166          1
   167          2
   168          1
   169          1
   171         81
   172         12
   173          1
   177          1
   178          1
   180         20
   181          5
   182          8
   183          4
   184          1
   185        122
   186         17
   187          2
   191          1
   195          1
   196          1
   199        186
   200         26
   201          2
   205          1
   206          3
   208          1
   213         37
   214          6
   215          1
   223          1
   225          6
   226          1
   227          1
   242        159
   243         26
   244          2