##TITLE=Library Entry 81527
##JCAMP-DX=Revision 4.10 
##DATA TYPE=MASS SPECTRUM
##SAMPLE DESCRIPTION=A.A.Kutin, Moscow, Russia
##NAMES=HP
##CAS NAME=Penta-2,4-dienoic acid, 5-(2-furyl)-3-methyl-
##MOLFORM=C10H10O3
##CAS REGISTRY NO=100340-71-4
##MP= -300
##BP= -300
##MW= 178
##$RETENTION INDEX=0
##$CONDENSED SPECTRUM=NO
##NPOINTS= 98
##XYDATA=(XY..XY) 1 
    34          9
    36         20
    37         36
    38        141
    39        755
    40        378
    41        205
    42         85
    43        150
    44        139
    45        152
    46          3
    49          4
    50        163
    51        464
    52        188
    53        237
    54         39
    55        268
    56         41
    57         45
    60          5
    61         21
    62         98
    63        271
    64         79
    65        273
    66        137
    67         44
    68         65
    69         81
    70         24
    71         11
    73          8
    74         49
    75         58
    76         46
    77        656
    78        274
    79        403
    80         81
    81        165
    82         57
    83         17
    84         16
    85         10
    86         32
    87         19
    89        168
    90         70
    91        497
    92         77
    93         61
    94        107
    95         84
    96         14
    97         32
    98         67
   100         64
   101         10
   102         40
   103        335
   104        246
   105        999
   106        131
   107         63
   108         36
   109         12
   110         22
   111         12
   115         60
   116         40
   117         16
   118         41
   119         99
   120          6
   121         67
   122          5
   124          5
   129          5
   130         15
   131        354
   132        781
   133        813
   134        148
   135         53
   136          2
   145         14
   147          7
   149         90
   150         31
   159         11
   160        231
   161         51
   163         31
   178        902
   179         93
   180          9