##TITLE=Library Entry 49579
##JCAMP-DX=Revision 4.10 
##DATA TYPE=MASS SPECTRUM
##SAMPLE DESCRIPTION=Chemical Concepts
##NAMES=HP
##CAS NAME=Hydrogen bromide
##MOLFORM=BrH
##CAS REGISTRY NO=10035-10-6
##MP= -300
##BP= -300
##MW= 80
##$RETENTION INDEX=0
##$CONDENSED SPECTRUM=NO
##NPOINTS= 5
##XYDATA=(XY..XY) 1 
    79        390
    80        999
    81        378
    82        982
    83          0