##TITLE=Library Entry 22367
##JCAMP-DX=Revision 4.10 
##DATA TYPE=MASS SPECTRUM
##SAMPLE DESCRIPTION=Japan AIST/NIMC Database- Spectrum MS-NW-4935
##NAMES=HP
##CAS NAME=Cyclopentanamine
##MOLFORM=C5H11N
##CAS REGISTRY NO=1003-03-8
##MP= -300
##BP= -300
##MW= 85
##$RETENTION INDEX=0
##$CONDENSED SPECTRUM=NO
##NPOINTS= 39
##XYDATA=(XY..XY) 1 
    14          1
    15         14
    26          7
    27         28
    28         90
    29         31
    30        154
    31          2
    32          1
    36          1
    37          2
    38          5
    39         38
    40          7
    41         53
    42         61
    43        109
    44          7
    50          2
    51          3
    52          3
    53          5
    54         11
    55          7
    56        999
    57        173
    58          6
    65          4
    66          2
    67         24
    68         10
    69          4
    70         10
    80          2
    82          6
    83          2
    84         19
    85         92
    86          6