##TITLE=Library Entry 55363
##JCAMP-DX=Revision 4.10 
##DATA TYPE=MASS SPECTRUM
##SAMPLE DESCRIPTION=Japan AIST/NIMC Database- Spectrum MS-NW- 664
##NAMES=HP
##CAS NAME=Butanoic acid, 3-methyl-, hexyl ester
##MOLFORM=C11H22O2
##CAS REGISTRY NO=10032-13-0
##MP= -300
##BP= -300
##MW= 186
##$RETENTION INDEX=1244
##$CONDENSED SPECTRUM=NO
##NPOINTS= 88
##XYDATA=(XY..XY) 1 
    14          1
    15          9
    17          4
    18         19
    26          7
    27        156
    28         40
    29        248
    30          5
    31         12
    32          3
    37          2
    38          6
    39        124
    40         26
    41        489
    42        254
    43        787
    44         27
    45         23
    50          3
    51          6
    52          2
    53         22
    54         26
    55        310
    56        664
    57        668
    58         32
    59         47
    60        168
    61        265
    62          7
    63          2
    65          2
    66          1
    67         13
    68          9
    69        220
    70         20
    71         16
    72          7
    73          3
    74          2
    77          1
    79          1
    81          3
    82          9
    83         39
    84        811
    85        999
    86         58
    87        161
    88          9
    89          9
    97          1
    98         10
    99         10
   100         14
   101         19
   102         80
   103        926
   104         54
   105          5
   111          1
   112          2
   113          2
   114          4
   115         24
   116          4
   117          2
   128          2
   129         31
   130          3
   140          1
   141          2
   142          2
   143          7
   144         25
   145          2
   153          1
   156          2
   157          1
   158          1
   168          1
   171          1
   186          5
   187          1