##TITLE=Library Entry 76365
##JCAMP-DX=Revision 4.10 
##DATA TYPE=MASS SPECTRUM
##SAMPLE DESCRIPTION=NIST Mass Spectrometry Data Center, 2010
##NAMES=HP
##CAS NAME=Butanoic acid, 2-methyl-, hexyl ester
##MOLFORM=C11H22O2
##CAS REGISTRY NO=10032-15-2
##MP= -300
##BP= -300
##MW= 186
##$RETENTION INDEX=1236
##$CONDENSED SPECTRUM=NO
##NPOINTS= 66
##XYDATA=(XY..XY) 1 
    15          2
    26          5
    27         66
    28         31
    29        143
    30          4
    31          5
    39         60
    41        266
    42         89
    43        352
    44         15
    45          9
    47          4
    51          4
    52          1
    53         15
    54         14
    55        149
    56        295
    57        583
    58         27
    59          5
    60          1
    61          4
    65          1
    67          8
    68          4
    69        139
    70         11
    71          6
    72          3
    73         17
    74        154
    75         34
    76          2
    77          1
    81          1
    82          3
    83         26
    84        304
    85        502
    86         28
    87         71
    88          3
    99         12
   100          3
   101         10
   102         44
   103        999
   104         58
   105          6
   111          1
   115         12
   116          1
   128          1
   129         40
   130          3
   142          1
   143          3
   144          1
   156          1
   158         35
   159          4
   171          1
   186          1