##TITLE=Library Entry 8556
##JCAMP-DX=Revision 4.10 
##DATA TYPE=MASS SPECTRUM
##SAMPLE DESCRIPTION=Chuck Anderson, Aldrich Chemical Co.
##NAMES=HP
##CAS NAME=Acetic acid, 2-ethylbutyl ester
##MOLFORM=C8H16O2
##CAS REGISTRY NO=10031-87-5
##MP= -300
##BP= -300
##MW= 144
##$RETENTION INDEX=925
##$CONDENSED SPECTRUM=NO
##NPOINTS= 75
##XYDATA=(XY..XY) 1 
    13          0
    14          1
    15         18
    16          0
    19          0
    25          0
    26          3
    27         50
    28         10
    29         62
    30          2
    31         10
    32          0
    36          0
    37          0
    38          2
    39         59
    40          8
    41        160
    42        112
    43        999
    44         26
    45          7
    46          0
    49          0
    50          1
    51          3
    52          1
    53         10
    54          7
    55        128
    56         88
    57         11
    58          1
    59          6
    60          0
    61         18
    62          0
    63          0
    65          0
    66          0
    67          4
    68          1
    69        189
    70         42
    71         43
    72         13
    73         98
    74         97
    75         12
    76          0
    77          0
    79          0
    81          0
    82          0
    83          5
    84        188
    85         18
    86         26
    87          1
    88          0
    93          0
    97          0
    99          5
   100          0
   101          1
   103          0
   108          0
   111          0
   114          0
   115          7
   116          0
   129          1
   144          0
   145          0