##TITLE=Library Entry 31564
##JCAMP-DX=Revision 4.10 
##DATA TYPE=MASS SPECTRUM
##SAMPLE DESCRIPTION=Japan AIST/NIMC Database- Spectrum MS-IW-8023
##NAMES=HP
##CAS NAME=1-Chloroethyl sulfone
##MOLFORM=C4H8Cl2O2S
##CAS REGISTRY NO=10038-07-0
##MP= -300
##BP= -300
##MW= 190
##$RETENTION INDEX=0
##$CONDENSED SPECTRUM=NO
##NPOINTS= 57
##XYDATA=(XY..XY) 1 
    15          2
    25          1
    26         22
    27        396
    28         30
    29          5
    32          2
    35          1
    36          8
    38          3
    41          1
    42          1
    43         10
    44          4
    45          9
    46          1
    47          2
    48         14
    49          3
    50          3
    55          6
    56          1
    57          1
    58          2
    59          5
    60          4
    61         11
    62        235
    63        999
    64        107
    65        414
    66         34
    67          1
    68          1
    75          1
    76          2
    77          2
    83          3
    85          1
    89          3
    90          4
    91          2
    92         86
    93          4
    94          4
   110          1
   111         12
   112          1
   113          5
   126          2
   127          7
   128         10
   129         13
   130          4
   131          4
   191          5
   193          4