##TITLE=Library Entry 85717
##JCAMP-DX=Revision 4.10 
##DATA TYPE=MASS SPECTRUM
##SAMPLE DESCRIPTION=NIST Mass Spectrometry Data Center
##NAMES=HP
##CAS NAME=2-Thiophenecarbonitrile
##MOLFORM=C5H3NS
##CAS REGISTRY NO=1003-31-2
##MP= -300
##BP= -300
##MW= 109
##$RETENTION INDEX=0
##$CONDENSED SPECTRUM=NO
##NPOINTS= 63
##XYDATA=(XY..XY) 1 
    12          8
    13          4
    18          2
    24          6
    25         16
    26         28
    27         10
    28         13
    32         27
    33          5
    34          5
    36         21
    37         98
    38         89
    39         94
    40          5
    41          3
    44         29
    45        383
    46         10
    47         19
    48         13
    49         34
    50         36
    51         38
    52          9
    53          2
    54         13
    56         24
    57        108
    58        440
    59         17
    60         21
    61          4
    62         17
    63         24
    64         95
    65         56
    66          1
    68         15
    69         76
    70        105
    71          7
    72          4
    74         12
    75         36
    76         18
    77          1
    80         11
    81         31
    82        107
    83         53
    84          5
    85          2
    92          2
    93          2
    94          6
   106         10
   107         11
   109        999
   110         69
   111         46
   112          3