##TITLE=Library Entry 9143
##JCAMP-DX=Revision 4.10 
##DATA TYPE=MASS SPECTRUM
##SAMPLE DESCRIPTION=Japan AIST/NIMC Database- Spectrum MS-IW-6592
##NAMES=HP
##CAS NAME=2-Acetamido-2-deoxy-.alpha.-D-glucopyranose
##MOLFORM=C8H15NO6
##CAS REGISTRY NO=10036-64-3
##MP= -300
##BP= -300
##MW= 221
##$RETENTION INDEX=0
##$CONDENSED SPECTRUM=NO
##NPOINTS= 168
##XYDATA=(XY..XY) 1 
    12          2
    13          5
    14         30
    15        157
    16          4
    17          5
    18         25
    19          1
    24          1
    25          5
    26         34
    27         86
    28        268
    29        201
    30        538
    31        257
    32         73
    33          3
    34          1
    36          1
    37          6
    38         14
    39         53
    40         37
    41        102
    42        238
    43        999
    44        161
    45         91
    46         10
    47         31
    48          1
    49          3
    50          7
    51         14
    52         30
    53         28
    54         75
    55        159
    56        212
    57         77
    58        104
    59        485
    60        606
    61        222
    62          9
    63          4
    64          4
    65          9
    66         15
    67         12
    68         46
    69         41
    70         49
    71         97
    72        881
    73        304
    74         70
    75          6
    76          6
    77          4
    78          9
    79         14
    80         32
    81         22
    82         30
    83        287
    84        195
    85         80
    86         42
    87         11
    88        121
    89         18
    90          5
    91         35
    92          4
    93         10
    94         13
    95         21
    96        122
    97         58
    98         49
    99         15
   100        318
   101        378
   102         99
   103         50
   104          5
   105          2
   106          3
   107          9
   108         12
   109         39
   110         14
   111         10
   112        101
   113         45
   114        451
   115         57
   116          7
   117          3
   118         24
   119          3
   120          3
   121          3
   122          4
   123          9
   124         18
   125        149
   126         70
   127         11
   128          4
   129          2
   130        130
   131         13
   132         15
   133          9
   134          8
   135          7
   136          7
   137          5
   138         27
   139         13
   140          5
   141          8
   142        144
   143        178
   144         23
   145          3
   146          1
   147          1
   148         28
   149          9
   150          3
   151         18
   152          4
   153          2
   154         85
   155         28
   156         17
   157          9
   158          2
   159          1
   160         30
   161          5
   162          2
   165          1
   166          2
   167         22
   168          7
   169          2
   170          1
   172         26
   173          3
   174         15
   175          2
   178          1
   184          1
   185         19
   186         11
   187          1
   190         10
   191          1
   192          5
   203          2
   204         22
   205          2
   221          6