##TITLE=Library Entry 4705
##JCAMP-DX=Revision 4.10 
##DATA TYPE=MASS SPECTRUM
##SAMPLE DESCRIPTION=Japan AIST/NIMC Database- Spectrum MS-NW-7685
##NAMES=HP
##CAS NAME=2,4-Dimethylsulfolane
##MOLFORM=C6H12O2S
##CAS REGISTRY NO=1003-78-7
##MP= -300
##BP= -300
##MW= 148
##$RETENTION INDEX=0
##$CONDENSED SPECTRUM=NO
##NPOINTS= 83
##XYDATA=(XY..XY) 1 
    14          1
    15         13
    17          1
    18          3
    26          9
    27        116
    28         24
    29         80
    30          2
    31          1
    32          3
    33          2
    34          2
    35          1
    36          2
    37          6
    38         14
    39        196
    40         59
    41        536
    42        999
    43        169
    44          8
    45         11
    46          3
    47          3
    48          7
    49          2
    50          6
    51         12
    52          4
    53         35
    54         23
    55        727
    56        440
    57         21
    58          3
    59          7
    60          1
    61          4
    62          3
    63          7
    64          5
    65          7
    66          3
    67         27
    68         10
    69        306
    70         19
    71          2
    72          1
    73          4
    74          3
    75          1
    76          2
    77          3
    78          2
    79          2
    80          1
    81          6
    82         28
    83        537
    84         65
    85          4
    87          1
    90          6
    91          1
    92         22
    93          1
    94          1
    99          1
   101          5
   104         10
   105          1
   106         12
   107          1
   116          3
   117          1
   119          1
   131          1
   148          5
   149          4
   150          1