##TITLE=Library Entry 34977
##JCAMP-DX=Revision 4.10 
##DATA TYPE=MASS SPECTRUM
##SAMPLE DESCRIPTION=V.G.Zaikin, TIPS, Russian Acad. Sci.
##NAMES=HP
##CAS NAME=2-Methylthiolane, S,S-dioxide
##MOLFORM=C5H10O2S
##CAS REGISTRY NO=1003-46-9
##MP= -300
##BP= -300
##MW= 134
##$RETENTION INDEX=0
##$CONDENSED SPECTRUM=NO
##NPOINTS= 17
##XYDATA=(XY..XY) 1 
    53         40
    54         20
    55        520
    56         60
    57         10
    67         20
    68         30
    69        999
    70        340
    71         30
    84         10
    92         10
   106         10
   117         10
   134         30
   135          2
   136          1