##TITLE=Library Entry 18494
##JCAMP-DX=Revision 4.10 
##DATA TYPE=MASS SPECTRUM
##SAMPLE DESCRIPTION=A.A.Kutin, Moscow, Russia
##NAMES=HP
##CAS NAME=5-Oxazolecarbonitrile, 4-methyl-
##MOLFORM=C5H4N2O
##CAS REGISTRY NO=1003-52-7
##MP= -300
##BP= -300
##MW= 108
##$RETENTION INDEX=0
##$CONDENSED SPECTRUM=NO
##NPOINTS= 35
##XYDATA=(XY..XY) 1 
    36          9
    37         49
    38         88
    39         38
    40         45
    41         17
    42         61
    43         73
    44          4
    49          2
    50         21
    51        100
    52        256
    53        999
    54        252
    55        111
    56          3
    62          6
    63         16
    64         19
    65          6
    66         11
    67         93
    68          3
    76          4
    77          8
    78          7
    79         76
    80        678
    81         40
    82          2
   106          4
   108        547
   109         31
   110          0