##TITLE=Library Entry 60831
##JCAMP-DX=Revision 4.10 
##DATA TYPE=MASS SPECTRUM
##SAMPLE DESCRIPTION=NIST Mass Spectrometry Data Center, 1994
##NAMES=HP
##CAS NAME=Benzenebutanoic acid, ethyl ester
##MOLFORM=C12H16O2
##CAS REGISTRY NO=10031-93-3
##MP= -300
##BP= -300
##MW= 192
##$RETENTION INDEX=0
##$CONDENSED SPECTRUM=NO
##NPOINTS= 76
##XYDATA=(XY..XY) 1 
    14          4
    15         30
    19          3
    26         34
    27        176
    28         93
    29        249
    30         12
    31         14
    37          3
    38         17
    39        168
    40         15
    41        106
    42         58
    43         60
    44          3
    45        100
    50         39
    51        115
    52         32
    53         14
    54          3
    55         52
    56          6
    57          3
    58         33
    59          3
    60        511
    61        334
    62         28
    63         75
    64          6
    65        328
    66         21
    70        378
    71         18
    73         52
    75         11
    76         16
    77        113
    78         93
    79         49
    80          3
    85          3
    86          5
    88        731
    89        108
    91        999
    92         85
    93          5
   101          6
   102         20
   104        831
   105        296
   106         21
   107          4
   115         83
   116         25
   117        157
   118         47
   119         11
   120          3
   121         11
   127         11
   128          5
   129         52
   130          6
   146        384
   147        425
   148         47
   149          3
   163          3
   192        260
   193         36
   194          5