##TITLE=Library Entry 50086
##JCAMP-DX=Revision 4.10 
##DATA TYPE=MASS SPECTRUM
##SAMPLE DESCRIPTION=NIST Mass Spectrometry Data Center, 1990.
##NAMES=HP
##CAS NAME=Cyclohexane, ethylidene-
##MOLFORM=C8H14
##CAS REGISTRY NO=1003-64-1
##MP= -300
##BP= -300
##MW= 110
##$RETENTION INDEX=867
##$CONDENSED SPECTRUM=NO
##NPOINTS= 62
##XYDATA=(XY..XY) 1 
    14          0
    15         23
    26         29
    27        233
    28         60
    29         72
    30          1
    31          1
    37          6
    39        309
    40         70
    41        367
    42         40
    43         18
    44          1
    45          3
    49          3
    50         40
    51         85
    52         49
    53        176
    54        154
    55        131
    56         19
    57          1
    60          0
    61          3
    62          9
    63         20
    64          7
    65         67
    66         62
    67        628
    68        191
    69         87
    70          5
    73          1
    74          4
    75          3
    77         74
    78         30
    79        184
    80        102
    81        999
    82        203
    83         11
    89          2
    91         30
    92          5
    93         22
    94          2
    95        167
    96         12
   102          1
   103          6
   104         10
   105          2
   106          0
   107          2
   110        287
   111         23
   112          0