##TITLE=Library Entry 1541
##JCAMP-DX=Revision 4.10 
##DATA TYPE=MASS SPECTRUM
##SAMPLE DESCRIPTION=Japan AIST/NIMC Database- Spectrum MS-NW-7648
##NAMES=HP
##CAS NAME=L-Mannose
##MOLFORM=C6H12O6
##CAS REGISTRY NO=10030-80-5
##MP= -300
##BP= -300
##MW= 180
##$RETENTION INDEX=0
##$CONDENSED SPECTRUM=NO
##NPOINTS= 119
##XYDATA=(XY..XY) 1 
    12          6
    13         12
    14         55
    15        245
    16          5
    17         13
    18         65
    19          5
    24          3
    25         10
    26         55
    27        148
    28         99
    29        566
    30        121
    31        999
    32        164
    33         30
    36          2
    37          7
    38         10
    39         51
    40         10
    41         64
    42        293
    43        729
    44        245
    45        168
    46          7
    47         51
    49         20
    50          4
    51          5
    52          4
    53         12
    54         21
    55        142
    56        163
    57        218
    58         34
    59         35
    60        714
    61        506
    62         29
    63          4
    65          2
    67          3
    68         20
    69         54
    70         27
    71        229
    72        218
    73        817
    74         98
    75         13
    76          5
    77         17
    78          1
    79          5
    80          1
    81          8
    82          2
    83          9
    84         14
    85         82
    86         51
    87         19
    88          5
    89         29
    90         33
    91         44
    92          3
    93          2
    94          2
    95          3
    96          9
    97         29
    98         20
    99          5
   100          3
   101         35
   102         46
   103        105
   104          9
   105          2
   106          1
   107          2
   109          1
   110          1
   111          1
   112          1
   113         15
   114          8
   115         11
   116          8
   117          2
   118          2
   119         26
   120          4
   121          4
   123          1
   125          1
   126          7
   127          5
   128          1
   131         39
   132          6
   133         14
   134          2
   139          1
   143          1
   144          7
   145          2
   148          2
   149         20
   150          2
   151          1
   162          1
   163          1