##TITLE=Library Entry 13871
##JCAMP-DX=Revision 4.10 
##DATA TYPE=MASS SPECTRUM
##SAMPLE DESCRIPTION=E. KAISER UNIVERSITY OF MISSOURI, COLUMBIA, MO, USA
##NAMES=HP
##CAS NAME=4H-Pyran-4-one, 3-acetyl-2-methyl-6-phenyl-
##MOLFORM=C14H12O3
##CAS REGISTRY NO=10037-18-0
##MP= -300
##BP= -300
##MW= 228
##$RETENTION INDEX=0
##$CONDENSED SPECTRUM=NO
##NPOINTS= 106
##XYDATA=(XY..XY) 1 
    15        106
    26         11
    27         64
    31          8
    37          6
    38         25
    39        161
    40         15
    41         12
    42         20
    43        999
    44         24
    45          8
    46          4
    50         76
    51        195
    52         58
    53         24
    54          5
    55         29
    56          8
    57          4
    61          4
    62         26
    63         63
    64         21
    65         27
    66         31
    67        573
    68         40
    69        118
    70         16
    71          8
    74         27
    75         42
    76         63
    77        267
    78         48
    79         11
    80          4
    81          4
    82         13
    83         20
    84         12
    85          4
    86          5
    87         11
    88          8
    89         20
    90          8
    91         12
    92          5
    93         19
    98         15
    99          6
   100         27
   101         15
   102        156
   103         31
   104         27
   105        168
   106         34
   107         16
   108          8
   109         71
   110          8
   113         11
   114         31
   115         75
   116         18
   117         21
   118          8
   119          4
   125         20
   128         29
   129         77
   130         24
   131         30
   147        100
   148         23
   151         37
   152         11
   153         10
   154         16
   155         11
   156          8
   157         30
   158         34
   171         73
   172         31
   181         11
   182         11
   183         21
   184         15
   185        122
   186        152
   187         31
   199         38
   200         46
   210         72
   211         38
   212         27
   213        210
   227        156
   228        882
   229        169