##TITLE=Library Entry 12060
##JCAMP-DX=Revision 4.10 
##DATA TYPE=MASS SPECTRUM
##SAMPLE DESCRIPTION=F. TURECEK,HEYROVSKY INST PHYS CHEM & ELECTROCHEM,PRAGU
E,CZECH
##NAMES=HP
##CAS NAME=Ethyl 5-(5-methyl-2-furyl)-2,4-pentadienoate
##MOLFORM=C12H14O3
##CAS REGISTRY NO=100340-70-3
##MP= -300
##BP= -300
##MW= 206
##$RETENTION INDEX=0
##$CONDENSED SPECTRUM=NO
##NPOINTS= 78
##XYDATA=(XY..XY) 1 
    26         23
    27        134
    29        232
    38         14
    39         98
    40         12
    41         37
    43        999
    44         29
    45         21
    50         31
    51        122
    52         62
    53         59
    55         63
    59          9
    62         16
    63         60
    64         22
    65         66
    66         54
    67         14
    69         15
    77        159
    78         52
    79        128
    80         52
    81         30
    82         16
    84         13
    89         59
    90         36
    91        195
    92         34
    93         41
    94         15
    95         61
    97         10
   103         79
   104         27
   105        415
   106         47
   107         39
   108         19
   109         20
   115         21
   116         16
   117         32
   118        244
   119        171
   120         21
   121         33
   123         11
   131        110
   132        183
   133        683
   134        146
   135         91
   136         17
   137         14
   145         57
   146          9
   147         28
   148          8
   149         22
   159         22
   160        220
   161        341
   162         43
   163         71
   164         21
   165          9
   177         50
   178         17
   192          9
   206        573
   207         98
   208         12