##TITLE=Library Entry 72858
##JCAMP-DX=Revision 4.10 
##DATA TYPE=MASS SPECTRUM
##SAMPLE DESCRIPTION=ASES Database, Dalian Institute, P.R. China
##NAMES=HP
##CAS NAME=4-Amino-4,5(1H)-dihydro-1,2,4-triazole-5-one
##MOLFORM=C2H4N4O
##CAS REGISTRY NO=1003-23-2
##MP= -300
##BP= -300
##MW= 100
##$RETENTION INDEX=0
##$CONDENSED SPECTRUM=NO
##NPOINTS= 10
##XYDATA=(XY..XY) 1 
    41         29
    42        140
    43        329
    44        171
    45         39
    55         30
    57         29
    58         30
    69         30
   100        999