##TITLE=Library Entry 38213
##JCAMP-DX=Revision 4.10 
##DATA TYPE=MASS SPECTRUM
##SAMPLE DESCRIPTION=B. Derendyaev, Novosibirsk Institute of Organic Chemist
ry
##NAMES=HP
##CAS NAME=(Z)-CH3CH2CH=CH(OCH3)
##MOLFORM=C5H10O
##CAS REGISTRY NO=10034-12-5
##MP= -300
##BP= -300
##MW= 86
##$RETENTION INDEX=0
##$CONDENSED SPECTRUM=NO
##NPOINTS= 41
##XYDATA=(XY..XY) 1 
    12          2
    13          3
    14         13
    15        104
    16          9
    17         33
    18        137
    25          4
    26         53
    27        310
    28         99
    29        201
    30          9
    31         39
    37         16
    38         37
    39        253
    40         30
    41        830
    42         53
    43        110
    44         19
    45         77
    50         21
    51         21
    52          8
    53         90
    54         34
    55        160
    56         66
    57         30
    58         19
    59          8
    69         23
    70          7
    71        999
    72         49
    85         62
    86        435
    87         24
    88          2