##TITLE=Library Entry 85999
##JCAMP-DX=Revision 4.10 
##DATA TYPE=MASS SPECTRUM
##SAMPLE DESCRIPTION=Japan AIST/NIMC Database- Spectrum MS-NW-1345
##NAMES=HP
##CAS NAME=Pyridine, 3-methyl-, 1-oxide
##MOLFORM=C6H7NO
##CAS REGISTRY NO=1003-73-2
##MP= -300
##BP= -300
##MW= 109
##$RETENTION INDEX=0
##$CONDENSED SPECTRUM=NO
##NPOINTS= 71
##XYDATA=(XY..XY) 1 
    12          1
    13          1
    14          4
    15         14
    16          2
    25          3
    26         30
    27        134
    28         12
    29         19
    30         15
    31          1
    36          3
    37         42
    38         90
    39        503
    40        106
    41         59
    42         28
    43         90
    44         26
    45         19
    46          5
    47          3
    48          1
    49          9
    50         70
    51        126
    52         76
    53        345
    54        177
    55         25
    56          7
    57          2
    60         16
    61         20
    62         34
    63         74
    64         32
    65        218
    66        235
    67         64
    68          6
    69          3
    70          1
    73          2
    74          9
    75          7
    76          6
    77         47
    78         45
    79          6
    80        125
    81        117
    82         50
    83          3
    84          2
    87          2
    88          1
    90          2
    91          9
    92        177
    93        536
    94         36
    95          2
   106          3
   107          3
   108          8
   109        999
   110         70
   111          5