##TITLE=Library Entry 33888
##JCAMP-DX=Revision 4.10 
##DATA TYPE=MASS SPECTRUM
##SAMPLE DESCRIPTION=NIST Mass Spectrometry Data Center
##NAMES=HP
##CAS NAME=Curcumenone
##MOLFORM=C15H22O2
##CAS REGISTRY NO=100347-96-4
##MP= -300
##BP= -300
##MW= 234
##$RETENTION INDEX=1844
##$CONDENSED SPECTRUM=NO
##NPOINTS= 146
##XYDATA=(XY..XY) 1 
    15          1
    26          2
    27         45
    28          9
    29         46
    30          1
    31          4
    37          1
    38          6
    39        175
    40         57
    41        369
    42         51
    43        813
    44         18
    45         10
    50         11
    51         54
    52         34
    53        264
    54         29
    55        200
    56         12
    57         19
    58         15
    59          7
    60          2
    62          6
    63         25
    64          8
    65        151
    66         56
    67        720
    68        999
    69        170
    70         10
    71         88
    72          4
    73          2
    74          3
    75          5
    76          5
    77        267
    78         54
    79        337
    80         68
    81        186
    82         85
    83         58
    84         25
    85         44
    86          3
    88          1
    89          9
    90          4
    91        361
    92         56
    93        212
    94         48
    95        214
    96        262
    97         38
    98          5
    99          4
   101          3
   102          8
   103         45
   104         17
   105        324
   106         74
   107        413
   108        129
   109        168
   110         18
   111         10
   112          2
   113          4
   115         57
   116         23
   117         80
   118         21
   119        201
   120         71
   121        332
   122        135
   123        227
   124         25
   125          6
   126          4
   127          8
   128         22
   129         21
   130         18
   131         68
   132         20
   133        437
   134        133
   135        230
   136        199
   137         49
   139          6
   141          5
   143         50
   144         15
   145         48
   146         18
   147        102
   148         90
   149        609
   150         89
   151         28
   152          9
   156          3
   157         12
   158         29
   159         62
   160         14
   161        611
   162         79
   163        411
   164        149
   165         22
   166          4
   171          3
   173         37
   174         14
   175         54
   176        834
   177        236
   178         30
   179          3
   183          4
   188          5
   189          5
   191        161
   192         85
   193         52
   194          6
   201         28
   206          8
   217          5
   219        100
   220         16
   234        188
   235         32
   236          3