##TITLE=Library Entry 72334
##JCAMP-DX=Revision 4.10 
##DATA TYPE=MASS SPECTRUM
##SAMPLE DESCRIPTION=A.A.Kutin, Moscow, Russia
##NAMES=HP
##CAS NAME=Acethydrazide, 2-(4-methylphenylsulfonylamino)-N2-isopropylideno-
##MOLFORM=C12H17N3O3S
##CAS REGISTRY NO=100318-72-7
##MP= -300
##BP= -300
##MW= 283
##$RETENTION INDEX=0
##$CONDENSED SPECTRUM=NO
##NPOINTS= 83
##XYDATA=(XY..XY) 1 
    39         66
    40         22
    41         53
    42         59
    43         24
    44          6
    45         17
    50          4
    51         14
    52          3
    53          2
    54         10
    55         71
    56        107
    57         50
    58         22
    59          2
    62          1
    63         30
    65        164
    66         12
    67          1
    68          1
    69          2
    70         13
    72        375
    73         15
    74          1
    76          4
    77         16
    78          3
    79          6
    80          2
    83          9
    84          2
    85          5
    86          1
    87          1
    89         38
    91        642
    92         76
    93          5
    97          0
    99        999
   100         42
   101          2
   104          3
   105          1
   107          6
   108          3
   111         92
   114          1
   118          4
   119          1
   120          8
   121          0
   123          0
   128        221
   129         11
   132          4
   139         19
   140          4
   148          1
   155        529
   156         50
   157         33
   158          3
   162          2
   164          0
   167          0
   171          1
   175          0
   176          2
   184         96
   185         29
   186          8
   254        211
   255         30
   256         13
   257          1
   268         10
   283          9
   284          1