##TITLE=Library Entry 75919
##JCAMP-DX=Revision 4.10 
##DATA TYPE=MASS SPECTRUM
##SAMPLE DESCRIPTION=NIST Mass Spectrometry Data Center, 1992
##NAMES=HP
##CAS NAME=Dihydro-2(3H)-thiophenone
##MOLFORM=C4H6OS
##CAS REGISTRY NO=1003-10-7
##MP= -300
##BP= -300
##MW= 102
##$RETENTION INDEX=952
##$CONDENSED SPECTRUM=NO
##NPOINTS= 64
##XYDATA=(XY..XY) 1 
    12          4
    13          9
    14         29
    15         24
    16          0
    17          0
    18          3
    24          3
    25         16
    26         87
    27        198
    28        125
    29         25
    30          1
    31          0
    32         44
    33         14
    34          9
    35          8
    36          9
    37         43
    38         69
    39        249
    40         97
    41        447
    42        499
    43         26
    44         25
    45        274
    46        256
    47         55
    48         15
    49          4
    50          4
    51          1
    52          1
    53          5
    54          1
    55        574
    56         37
    57         32
    58         56
    59         89
    60         71
    61         12
    62          3
    64          0
    68         15
    69         25
    70          3
    71         20
    72          4
    73         18
    74         17
    75          1
    76          1
    81          1
    85          2
    87          1
    99          0
   102        999
   103         49
   104         46
   105          2