##TITLE=Library Entry 49627
##JCAMP-DX=Revision 4.10 
##DATA TYPE=MASS SPECTRUM
##SAMPLE DESCRIPTION=LAC, NIDDK, NIH, Bethesda, MD 20892
##NAMES=HP
##CAS NAME=2(1H)-Pyridinone, 5-methyl-
##MOLFORM=C6H7NO
##CAS REGISTRY NO=1003-68-5
##MP= -300
##BP= -300
##MW= 109
##$RETENTION INDEX=1191
##$CONDENSED SPECTRUM=NO
##NPOINTS= 43
##XYDATA=(XY..XY) 1 
    41         70
    42         29
    43         10
    44         11
    48          3
    49         23
    50        107
    51        151
    52        133
    53        373
    54        132
    55         62
    56          7
    57          2
    60          2
    61          9
    62         14
    63         25
    64         18
    65         23
    66         13
    67          4
    68          9
    69          5
    75          4
    76          4
    77          4
    78         11
    79         19
    80        999
    81        288
    82         30
    83          2
    84          0
    91          8
    92          8
    93          1
    94          0
   107          3
   108         60
   109        969
   110        136
   111          8