##TITLE=Library Entry 69840
##JCAMP-DX=Revision 4.10 
##DATA TYPE=MASS SPECTRUM
##SAMPLE DESCRIPTION=LAC, NIDDK, NIH, Bethesda, MD 20892
##NAMES=HP
##CAS NAME=Etiocholan-3-ol-17-one, 3,9-epoxy-11-thiocyano-
##MOLFORM=C20H27NO3S
##CAS REGISTRY NO=100333-57-1
##MP= -300
##BP= -300
##MW= 361
##$RETENTION INDEX=0
##$CONDENSED SPECTRUM=NO
##NPOINTS= 225
##XYDATA=(XY..XY) 1 
    41        388
    43        457
    45         83
    47         18
    49         24
    50          2
    51         31
    52         14
    53        182
    55        593
    56          9
    57         84
    59        175
    60         33
    61         11
    63          8
    64          1
    65         88
    67        239
    68         12
    69        154
    71         56
    72         11
    73         12
    74          4
    75          2
    77        171
    78          8
    79        278
    81        205
    82         34
    83         50
    84         23
    85         36
    86         22
    87         11
    88          5
    89          5
    91        229
    93        183
    95        219
    97        999
    98         75
    99          7
   100        117
   101         10
   102         11
   103         24
   105        174
   107        121
   108         33
   109        114
   110        210
   111        122
   112          4
   113         40
   115         90
   117         77
   119        111
   121        132
   122         50
   123        161
   124         68
   126        113
   127          6
   128         55
   129         48
   130         15
   131         66
   133         72
   135         66
   136         34
   137         83
   138          6
   139         35
   141         25
   142         14
   143         43
   145         67
   147         74
   149         51
   150         20
   151         19
   152         13
   154         71
   155         73
   157         54
   158         14
   159         37
   160          3
   161         43
   162         28
   163         35
   165         48
   166          2
   167         13
   168          3
   169         13
   170          5
   171         22
   173         30
   175         28
   176         11
   177         10
   178         14
   179         17
   180        236
   181         34
   182         17
   183         14
   185         19
   186          9
   187         19
   188         25
   189         20
   191         82
   192         14
   193          4
   194          2
   195         10
   196          6
   197         10
   199         14
   200          7
   201         12
   203         14
   204         10
   205         17
   206          1
   207         25
   209         14
   211         10
   213         13
   214          1
   215         12
   216         55
   217         15
   218          8
   219          7
   220          3
   221          9
   223          8
   225          8
   227         11
   229         13
   230          7
   231         14
   232         41
   233         13
   234          3
   235          3
   236          1
   237          1
   238          1
   239          3
   241          9
   242          1
   243          8
   245         24
   246         17
   247         14
   248          4
   249          1
   250          1
   251          6
   253          1
   255          4
   257         12
   258         27
   259         26
   260          6
   262          5
   263          1
   264          2
   265          1
   266          1
   267          2
   269         17
   270          1
   271          4
   272          3
   273         18
   274         10
   275        295
   276        172
   277         24
   278          6
   279          0
   283          4
   284         17
   285         11
   287         36
   288          2
   289         21
   290         12
   291          4
   292          3
   300         10
   301         86
   302         76
   303         25
   304         29
   305          8
   306          4
   307          1
   310          1
   311          1
   316          3
   317         14
   318          5
   319          2
   328         13
   329          1
   333          9
   334        122
   335         20
   336          8
   337          1
   343          1
   344          4
   346          2
   361        145
   362         24
   363          9
   364          1