##TITLE=Library Entry 595
##JCAMP-DX=Revision 4.10 
##DATA TYPE=MASS SPECTRUM
##SAMPLE DESCRIPTION=NIST Mass Spectrometry Data Center
##NAMES=HP
##CAS NAME=2-Nonynoic acid, ethyl ester
##MOLFORM=C11H18O2
##CAS REGISTRY NO=10031-92-2
##MP= -300
##BP= -300
##MW= 182
##$RETENTION INDEX=0
##$CONDENSED SPECTRUM=NO
##NPOINTS= 106
##XYDATA=(XY..XY) 1 
    12          2
    14         10
    15         55
    16          2
    17          3
    18          7
    19          8
    26         66
    27        619
    28        129
    29        999
    30         30
    31          9
    37         20
    38         98
    39        450
    40         74
    41        771
    42        141
    43        646
    44         28
    45         75
    47         71
    48          2
    49          4
    50         49
    51        110
    52         93
    53        235
    54         50
    55        436
    56         54
    57         39
    58          5
    60          5
    61          9
    62          8
    63         23
    64         11
    65        106
    66        380
    67        876
    68        182
    69        269
    70         54
    71         47
    72          4
    73         23
    75          4
    77        106
    79        572
    80         95
    81        349
    82         58
    83         67
    84        252
    85         75
    86        221
    87         14
    88          8
    89          2
    91         52
    92         16
    93        146
    94        127
    95        114
    96         24
    97        162
    98         52
    99         61
   100         11
   101          7
   102          1
   103          3
   105         13
   107        220
   108         96
   109        230
   110         29
   111        171
   112         66
   113         36
   114        123
   115          9
   117          9
   118          2
   119          3
   121         58
   122          5
   123          8
   125        189
   126         60
   127         15
   128          2
   135         82
   136         56
   137        481
   138         45
   139         59
   140          7
   141          2
   151          2
   153         68
   154         28
   155          7
   167          5