##TITLE=Library Entry 20216
##JCAMP-DX=Revision 4.10 
##DATA TYPE=MASS SPECTRUM
##SAMPLE DESCRIPTION=NIST Mass Spectrometry Data Center
##NAMES=HP
##CAS NAME=Methyl hexadec-9-enoate
##MOLFORM=C17H32O2
##CAS REGISTRY NO=10030-74-7
##MP= -300
##BP= -300
##MW= 268
##$RETENTION INDEX=1904
##$CONDENSED SPECTRUM=NO
##NPOINTS= 190
##XYDATA=(XY..XY) 1 
    15         12
    26          2
    27         57
    28         17
    29        125
    30          4
    31          6
    33          2
    39        112
    40         25
    41        559
    42        117
    43        401
    44         16
    45         24
    46          1
    50          2
    51          9
    52          9
    53        105
    54        241
    55        999
    56        206
    57        166
    58         11
    59        269
    60          8
    61          3
    62          1
    63          2
    65         41
    66         28
    67        416
    68        240
    69        745
    70        163
    71         88
    72         14
    73         67
    74        679
    75         85
    76          6
    77         40
    78         15
    79        129
    80         62
    81        419
    82        264
    83        612
    84        487
    85        101
    87        544
    88         49
    89          5
    91         45
    92         11
    93         69
    94         68
    95        312
    96        552
    97        552
    98        466
    99         63
   100         16
   101        109
   102         12
   103          3
   104          1
   105         29
   106         11
   107         53
   108         50
   109        196
   110        322
   111        286
   112        110
   113         61
   114         69
   115        107
   116         17
   117          4
   118          4
   119         58
   120         21
   121         73
   122         36
   123        264
   124        173
   125        149
   126         32
   127         64
   128         75
   129         68
   130         16
   131          3
   132          2
   133         50
   134         46
   135         67
   136         30
   137        157
   138        158
   139         87
   140         16
   141        134
   142         24
   143         52
   144          7
   145          3
   146          1
   147         45
   148         36
   149         37
   150         15
   151         97
   152        272
   153         76
   154         11
   155         38
   156          7
   157         14
   158          5
   159          1
   161         24
   162          9
   163         14
   164          6
   165         58
   166         50
   167         18
   168          4
   169         11
   170          2
   171         17
   172         10
   173          2
   175         15
   176          5
   177          5
   178          4
   179         34
   180         17
   181         10
   182          4
   183          6
   184          1
   185         17
   186         10
   187          2
   189          8
   190          3
   191          1
   192         74
   193         56
   194        251
   195         51
   196          5
   197          3
   198          1
   199          5
   200          6
   201          1
   203          1
   205          1
   207         32
   208         24
   209          4
   211          2
   213          3
   214          1
   217          3
   218         23
   219         19
   220          3
   221          7
   222          1
   225         13
   226          2
   227          1
   236        280
   237        183
   238         28
   239          6
   240          1
   250          5
   251          1
   266          1
   268         83
   269         19
   270          2