##TITLE=Library Entry 38149
##JCAMP-DX=Revision 4.10 
##DATA TYPE=MASS SPECTRUM
##SAMPLE DESCRIPTION=Chemical Concepts
##NAMES=HP
##CAS NAME=2-Butene, 1-methoxy-, (Z)-
##MOLFORM=C5H10O
##CAS REGISTRY NO=10034-16-9
##MP= -300
##BP= -300
##MW= 86
##$RETENTION INDEX=0
##$CONDENSED SPECTRUM=NO
##NPOINTS= 50
##XYDATA=(XY..XY) 1 
    23          0
    25          1
    26         60
    27        579
    28        112
    29        233
    30         19
    31         43
    32          8
    33         13
    34          0
    35          0
    36          2
    37         25
    38         61
    39        532
    40         38
    41        636
    42         44
    43         98
    44          6
    45        260
    46          6
    47          0
    48          0
    49          7
    50         41
    51         42
    52         17
    53        158
    54        155
    55        396
    56         60
    57          6
    58         20
    59         14
    60          0
    66          0
    67          0
    68          1
    69         15
    70          4
    71        999
    72         39
    73          2
    83          0
    84          0
    85         44
    86        155
    87          9