##TITLE=Library Entry 46344
##JCAMP-DX=Revision 4.10 
##DATA TYPE=MASS SPECTRUM
##SAMPLE DESCRIPTION=A.A.Kutin, Moscow, Russia
##NAMES=HP
##CAS NAME=Ethane-1,2-diimine, N,N'-bis(2H-1,3-dihydro-1,3-dioxoisoindol-2-y
l)-
##MOLFORM=C18H10N4O4
##CAS REGISTRY NO=100334-26-7
##MP= -300
##BP= -300
##MW= 346
##$RETENTION INDEX=0
##$CONDENSED SPECTRUM=NO
##NPOINTS= 109
##XYDATA=(XY..XY) 1 
    33          0
    34          0
    36          3
    37         30
    38         45
    39         75
    40         39
    41         15
    42         17
    43         36
    44         41
    45         20
    46          8
    50        483
    51         46
    52         25
    53         16
    54          3
    55         10
    56          2
    57          6
    60          2
    61          8
    62         15
    63         42
    64         36
    65          8
    66         12
    67          3
    68          2
    69          7
    70         13
    71          3
    72          1
    73         20
    74        127
    75        170
    76        999
    77        110
    78          5
    79          0
    83          2
    84          2
    85          0
    86          0
    87          1
    88         10
    90        193
    91         13
    92          6
    93          1
    97          0
   100          1
   102         75
   103        125
   104        880
   105        562
   106         42
   107          1
   114          0
   115          6
   116          9
   117          5
   118          8
   119          1
   120          1
   121          0
   128          6
   130        124
   131         12
   132         23
   133          4
   143          1
   144          3
   146         39
   147        461
   148         87
   149         23
   150          2
   151          1
   152          2
   161          6
   162          1
   164          3
   170          0
   171         10
   172         31
   173        200
   174         21
   175          0
   177          4
   178          0
   180          0
   185         28
   186         10
   187          1
   198          0
   199         10
   200         61
   201          7
   204          0
   207          0
   248          3
   278          1
   292          5
   293          0
   318          2
   346         29
   347          5