##TITLE=Library Entry 75914
##JCAMP-DX=Revision 4.10 
##DATA TYPE=MASS SPECTRUM
##SAMPLE DESCRIPTION=Chuck Anderson, Aldrich Chemical Co.
##NAMES=HP
##CAS NAME=Dihydro-3-(2H)-thiophenone
##MOLFORM=C4H6OS
##CAS REGISTRY NO=1003-04-9
##MP= -300
##BP= -300
##MW= 102
##$RETENTION INDEX=964
##$CONDENSED SPECTRUM=NO
##NPOINTS= 57
##XYDATA=(XY..XY) 1 
    13          3
    14         15
    15          6
    17          0
    18          0
    24          0
    25          6
    26         52
    27        103
    28        101
    29         12
    32          7
    33          4
    34          5
    35          1
    36          2
    37          9
    38         10
    39         24
    40          3
    41         14
    42         52
    43          5
    44         14
    45        239
    46        833
    47         48
    48         42
    49          5
    50          8
    51          3
    52          1
    53          5
    54          1
    55         58
    56         28
    57         23
    58         42
    59         99
    60        146
    61          9
    62          7
    68          2
    69          6
    71          6
    72          3
    73          4
    74        122
    75          4
    76          5
    81          1
    85          1
   100          2
   102        999
   103         44
   104         49
   105          1