##TITLE=Library Entry 99644
##JCAMP-DX=Revision 4.10 
##DATA TYPE=MASS SPECTRUM
##SAMPLE DESCRIPTION=Chemical Concepts
##NAMES=HP
##CAS NAME=Benzene, 1-ethyl-4-(2-methylpropyl)-
##MOLFORM=C12H18
##CAS REGISTRY NO=100319-40-2
##MP= -300
##BP= -300
##MW= 162
##$RETENTION INDEX=0
##$CONDENSED SPECTRUM=NO
##NPOINTS= 80
##XYDATA=(XY..XY) 1 
    26          0
    27         32
    29          9
    38          2
    39         45
    40          1
    41         65
    42          3
    43         24
    50          6
    51         22
    52          8
    53         10
    54          0
    55          9
    56          0
    57          2
    58          1
    61          0
    62          2
    63         14
    64         11
    65         32
    66          4
    67          1
    69          0
    70          1
    71          1
    73          0
    74          2
    75          3
    76          3
    77         42
    78         27
    79         28
    80          2
    86          1
    87          2
    88          1
    89         10
    90          5
    91        170
    92         16
    93         11
    94          0
    98          0
   101          2
   102          7
   103         36
   104         52
   105         68
   106         11
   107          0
   110          0
   111          0
   113          1
   114          2
   115         34
   116         14
   117         55
   118         22
   119        999
   120        147
   121          8
   127          3
   128          6
   129          5
   130          2
   131          7
   132          1
   133          5
   145          2
   146          1
   147         11
   148          1
   160          2
   161          5
   162        151
   163         20
   164          1