##TITLE=Library Entry 28097
##JCAMP-DX=Revision 4.10 
##DATA TYPE=MASS SPECTRUM
##SAMPLE DESCRIPTION=Exported from NIST MS Search
##NAMES=HP
##CAS NAME=Cyclopropane, (methoxymethyl)-
##MOLFORM=C5H10O
##CAS REGISTRY NO=1003-13-0
##MP= -300
##BP= -300
##MW= 86
##$RETENTION INDEX=0
##$CONDENSED SPECTRUM=NO
##NPOINTS= 22
##XYDATA=(XY..XY) 1 
    31         37
    39        202
    40         20
    41         12
    42         25
    43        229
    44          7
    45        510
    46         10
    50         25
    51         25
    52          5
    53         75
    54         27
    55        300
    56         25
    57         25
    58        999
    59         50
    85          5
    86        227
    87         25