##TITLE=Library Entry 50426
##JCAMP-DX=Revision 4.10 
##DATA TYPE=MASS SPECTRUM
##SAMPLE DESCRIPTION=TNO Volatile Compounds in Food - Chemical Concepts
##NAMES=HP
##CAS NAME=2-Furanpropanoic acid, ethyl ester
##MOLFORM=C9H12O3
##CAS REGISTRY NO=10031-90-0
##MP= -300
##BP= -300
##MW= 168
##$RETENTION INDEX=0
##$CONDENSED SPECTRUM=NO
##NPOINTS= 61
##XYDATA=(XY..XY) 1 
    26         21
    27        160
    28         32
    29        125
    30          7
    31         21
    32          1
    37          5
    38         25
    39        132
    40         33
    41        116
    42         24
    43         42
    44         14
    45         75
    50         11
    51         28
    52         17
    53        114
    54          8
    55         38
    57          2
    58          6
    59          5
    60          5
    61         15
    63          9
    65         66
    66         49
    67         88
    68         34
    69          6
    71          5
    73         17
    75          2
    77          5
    81        999
    82         56
    83          9
    86          5
    87          9
    88          4
    89         12
    93          6
    94        822
    95        124
    96         11
    97        291
    98         18
   101          8
   102          4
   103          8
   111          5
   121          5
   123         98
   124          8
   139         42
   140          7
   168        147
   169         15