##TITLE=Library Entry 18805
##JCAMP-DX=Revision 4.10 
##DATA TYPE=MASS SPECTRUM
##SAMPLE DESCRIPTION=Exported from NIST MS Search
##NAMES=HP
##CAS NAME=4H-Quinolizine, 1,6,9,9a-tetrahydro-
##MOLFORM=C9H13N
##CAS REGISTRY NO=1004-88-2
##MP= -300
##BP= -300
##MW= 135
##$RETENTION INDEX=0
##$CONDENSED SPECTRUM=NO
##NPOINTS= 34
##XYDATA=(XY..XY) 1 
    39        180
    40         19
    41         78
    42         17
    50         17
    51         41
    52         39
    53        172
    54        999
    55         84
    65         23
    66          9
    67         39
    68         19
    77         17
    78         19
    79         39
    80        247
    81        156
    82         60
    91         15
    93         37
    94         39
   106         29
   107          9
   117         23
   118          9
   120         96
   130         17
   132         49
   133         17
   134        313
   135        413
   136         39