##TITLE=Library Entry 92820
##JCAMP-DX=Revision 4.10 
##DATA TYPE=MASS SPECTRUM
##SAMPLE DESCRIPTION=VERN REINHOLD,A.D.LITTLE INC.,CAMBRIDGE,MASS
##NAMES=HP
##CAS NAME=Galactopyranoside, methyl 2-acetamido-2-deoxy-3,4,6-tri-O-methyl-
, .alpha.-D-
##MOLFORM=C12H23NO6
##CAS REGISTRY NO=10049-88-4
##MP= -300
##BP= -300
##MW= 277
##$RETENTION INDEX=0
##$CONDENSED SPECTRUM=NO
##NPOINTS= 119
##XYDATA=(XY..XY) 1 
    30         23
    31         11
    36         22
    38         19
    39         19
    41         36
    42         30
    43        148
    44         84
    45        176
    46         28
    47         21
    49         35
    50         20
    51         37
    52         61
    53         13
    55         36
    56         17
    57         18
    58         59
    59         29
    60         20
    61         20
    65         11
    67         21
    68         17
    69         38
    70         39
    71        123
    72         56
    73        632
    74         79
    75        407
    76         24
    77         27
    78         26
    79         93
    80         33
    83         26
    84         53
    85         33
    86        100
    87         33
    88        118
    89         37
    93         12
    95         23
    96         33
    97         22
    98         65
    99         29
   100         13
   101        131
   102         93
   104         15
   108         23
   109         12
   110         22
   111         67
   112         52
   113         20
   114         53
   115        999
   116        111
   117        139
   118         16
   119         16
   120         14
   124         13
   125         11
   126         19
   127         22
   128        315
   129         51
   130         39
   131         33
   133         12
   135         12
   138         26
   140         46
   141         22
   142         20
   143         56
   144         45
   145         20
   146         15
   147         44
   148         13
   149         21
   154         22
   155         16
   156         11
   158         49
   159         11
   160         11
   168         21
   170         18
   172         34
   173         61
   174         11
   176         13
   182         13
   183         16
   184         14
   185         35
   186         40
   187         19
   188         14
   200         12
   201         19
   202         22
   203        105
   204         31
   214         40
   216         12
   218         24
   245         13
   246         25