##TITLE=Library Entry 12280
##JCAMP-DX=Revision 4.10 
##DATA TYPE=MASS SPECTRUM
##SAMPLE DESCRIPTION=Chemical Concepts
##NAMES=HP
##CAS NAME=2,6-Dimethyl-4-thiopyrone
##MOLFORM=C7H8OS
##CAS REGISTRY NO=1004-37-1
##MP= -300
##BP= -300
##MW= 140
##$RETENTION INDEX=1193
##$CONDENSED SPECTRUM=NO
##NPOINTS= 87
##XYDATA=(XY..XY) 1 
    26         13
    27         48
    28         12
    29          4
    31          5
    34          3
    36          2
    37         19
    38         35
    39        121
    40          9
    41         15
    42         18
    43        999
    44         25
    45        115
    46          6
    47         11
    48          1
    49          7
    50         22
    51         32
    52         13
    53         87
    54          5
    55         14
    56          3
    57         42
    58         42
    59         38
    60          6
    61         20
    62         20
    63         33
    64          9
    65         43
    66          8
    67         14
    68          5
    69         61
    70         43
    71         14
    72          6
    73          3
    74          2
    75          1
    77         17
    78         16
    79         19
    80          2
    81         49
    82         16
    83         32
    84         14
    85         61
    86          3
    87          4
    91          2
    92          2
    93         27
    94          7
    95        154
    96        166
    97        159
    98         41
    99          9
   100          7
   101          5
   106          2
   107         22
   108         18
   110          1
   111         36
   112          6
   113          5
   123          3
   124          2
   125        108
   126          6
   127          4
   137          1
   138          9
   139         92
   140        862
   141         81
   142         42
   143          3