##TITLE=Library Entry 85083
##JCAMP-DX=Revision 4.10 
##DATA TYPE=MASS SPECTRUM
##SAMPLE DESCRIPTION=API 1503
##NAMES=HP
##CAS NAME=Borazine, 1,3,5-trimethyl-
##MOLFORM=C3H12B3N3
##CAS REGISTRY NO=1004-35-9
##MP= -300
##BP= -300
##MW= 123
##$RETENTION INDEX=0
##$CONDENSED SPECTRUM=NO
##NPOINTS= 81
##XYDATA=(XY..XY) 1 
     2          3
    10          1
    11          2
    12          2
    13          8
    14          2
    15         12
    16          1
    23          1
    24          1
    25          3
    26         11
    27         25
    28         42
    36          7
    37         36
    38         60
    39         24
    40         34
    41         38
    42         33
    43          3
    44          1
    45          6
    46         21
    47          1
    48          1
    49          4
    50          4
    51         59
    52         92
    53         68
    54         32
    55          6
    56          2
    57          2
    59          1
    60          7
    61          6
    62         11
    63         17
    64         41
    65        138
    66        344
    67        383
    68         11
    69          1
    73          1
    74          3
    75          9
    77         20
    78         12
    79         13
    80         25
    81         46
    82          2
    87          1
    88          6
    89         32
    90         95
    91        128
    92         46
    93         13
    94          6
   103          1
   104          2
   105         20
   106        194
   107        754
   108        999
   109         33
   110          1
   111          1
   118          1
   119          2
   120          8
   121         57
   122        220
   123        297
   124         13
   125          1