##TITLE=Library Entry 69722
##JCAMP-DX=Revision 4.10 
##DATA TYPE=MASS SPECTRUM
##SAMPLE DESCRIPTION=A.Pleshkova, Nesmeyanov Inst.Org.Elem.Cpds, Moscow
##NAMES=HP
##CAS NAME=2,4-Dimethyl-1,5-diazabicyclo[3.1.0]hexane (cis)
##MOLFORM=C6H12N2
##CAS REGISTRY NO=100463-01-2
##MP= -300
##BP= -300
##MW= 112
##$RETENTION INDEX=0
##$CONDENSED SPECTRUM=NO
##NPOINTS= 27
##XYDATA=(XY..XY) 1 
    39         31
    40         11
    41        292
    42        479
    43         92
    44         41
    53         10
    54         51
    55        322
    56        245
    57         21
    58         11
    67         13
    68         74
    69        454
    70        201
    71         31
    80         12
    82         13
    84         14
    97        999
    98         71
    99          5
   111         61
   112         54
   113         21
   114          3