##TITLE=Library Entry 11725
##JCAMP-DX=Revision 4.10 
##DATA TYPE=MASS SPECTRUM
##SAMPLE DESCRIPTION=Japan AIST/NIMC Database- Spectrum MS-NW-1676
##NAMES=HP
##CAS NAME=4H-Pyran-4-one, 2,6-dimethyl-
##MOLFORM=C7H8O2
##CAS REGISTRY NO=1004-36-0
##MP= -300
##BP= -300
##MW= 124
##$RETENTION INDEX=0
##$CONDENSED SPECTRUM=NO
##NPOINTS= 64
##XYDATA=(XY..XY) 1 
    13          2
    14          8
    15         62
    17          2
    18          7
    25          4
    26         28
    27         68
    28         48
    29         12
    31          6
    32          7
    36          1
    37         20
    38         49
    39        144
    40         27
    41         41
    42         79
    43        999
    44         23
    45          2
    47          3
    49          5
    50         21
    51         25
    52         10
    53         85
    54         10
    55         11
    56         39
    57          2
    61          4
    62          4
    63          4
    64          1
    65          7
    66          6
    67         28
    68         13
    69        515
    70         16
    71          2
    77          2
    78          1
    79          3
    81        203
    82         15
    83          2
    84         68
    85         31
    86          2
    94          2
    95        270
    96        211
    97         13
    98          1
   109         14
   110          1
   121          3
   123          1
   124        945
   125         77
   126          7