##TITLE=Library Entry 7883
##JCAMP-DX=Revision 4.10 
##DATA TYPE=MASS SPECTRUM
##SAMPLE DESCRIPTION=Exported from NIST MS Search
##NAMES=HP
##CAS NAME=1-Heptanol, 2-propyl-
##MOLFORM=C10H22O
##CAS REGISTRY NO=10042-59-8
##MP= -300
##BP= -300
##MW= 158
##$RETENTION INDEX=0
##$CONDENSED SPECTRUM=NO
##NPOINTS= 84
##XYDATA=(XY..XY) 1 
    13          1
    14          5
    15         35
    16          2
    17          2
    18          5
    19          5
    24          1
    25          2
    26         21
    27        360
    28         55
    29        439
    30         15
    31        211
    32          3
    33          2
    37          5
    38          9
    39        193
    40         38
    41        640
    42        187
    43        999
    44         49
    45         33
    46          1
    50          5
    51         12
    52          7
    53         52
    54         36
    55        532
    56        281
    57        697
    58         34
    59         10
    60          1
    62          1
    63          3
    64          1
    65          9
    66          7
    67         36
    68         35
    69        255
    70        291
    71        645
    72         37
    73          5
    75          1
    77          6
    78          2
    79          6
    80          3
    81         13
    82         35
    83        109
    84        199
    85        394
    86         34
    87          8
    91          2
    93          1
    95          3
    96         17
    97        155
    98         79
    99          8
   100          1
   101          1
   110          5
   111         44
   112         29
   113          3
   114          1
   115          2
   125          3
   126         41
   127         14
   128          2
   129          1
   140         38
   141          4