##TITLE=Library Entry 55740
##JCAMP-DX=Revision 4.10 
##DATA TYPE=MASS SPECTRUM
##SAMPLE DESCRIPTION=J.VOTH UNIV. OF CALIFORNIA, DAVIS, CALIFORNIA, 95616, U
SA
##NAMES=HP
##CAS NAME=1,4-Dioxaspiro[4.5]dec-6-ene
##MOLFORM=C8H12O2
##CAS REGISTRY NO=1004-58-6
##MP= -300
##BP= -300
##MW= 140
##$RETENTION INDEX=0
##$CONDENSED SPECTRUM=NO
##NPOINTS= 95
##XYDATA=(XY..XY) 1 
    12          2
    13          6
    14         35
    15        119
    16          6
    17          3
    18          9
    19          7
    24          0
    25          2
    26         45
    27        224
    28         99
    29         92
    30         12
    31         14
    32          1
    33          1
    34          1
    36          0
    37         10
    38         34
    39        273
    40         60
    41        163
    42        430
    43        163
    44          8
    45         32
    46          0
    47          0
    48          0
    49          2
    50         27
    51         56
    52         34
    53         23
    54         51
    55         60
    56          6
    57          4
    58          1
    59          0
    60          1
    61          1
    62          3
    63         10
    64          2
    65         27
    66         22
    67         87
    68         86
    69         11
    70          9
    71          3
    72          0
    73          3
    74          2
    75          2
    76          1
    77         50
    78         23
    79         99
    80         31
    81         73
    82          6
    83          7
    84          4
    85          3
    86        999
    87         49
    88          5
    89          0
    91          0
    93          0
    94          4
    95         49
    96         25
    97         11
    98         12
    99         43
   100          2
   109          0
   110         17
   111          3
   112        120
   113         12
   114          1
   125        109
   126          8
   127          0
   139          6
   140        247
   141         22
   142          2