##TITLE=Library Entry 35763
##JCAMP-DX=Revision 4.10 
##DATA TYPE=MASS SPECTRUM
##SAMPLE DESCRIPTION=A.Pleshkova, Nesmeyanov Inst.Org.Elem.Cpds, Moscow
##NAMES=HP
##CAS NAME=6-Methyl-1,5-diazabicyclo[3.1.0]hexane
##MOLFORM=C5H10N2
##CAS REGISTRY NO=100463-00-1
##MP= -300
##BP= -300
##MW= 98
##$RETENTION INDEX=0
##$CONDENSED SPECTRUM=NO
##NPOINTS= 28
##XYDATA=(XY..XY) 1 
    14         15
    15         62
    26         99
    27        189
    28        339
    29         44
    30         28
    38         18
    39         94
    40         91
    41        254
    42        572
    43         57
    44         26
    52         26
    53         16
    54         91
    55        146
    56        226
    57         12
    68         84
    69        999
    70        233
    71         11
    72          6
    97        908
    98        347
    99         23