##TITLE=Library Entry 38268
##JCAMP-DX=Revision 4.10 
##DATA TYPE=MASS SPECTRUM
##SAMPLE DESCRIPTION=Exported from NIST MS Search
##NAMES=HP
##CAS NAME=Furan, 2-butyltetrahydro-
##MOLFORM=C8H16O
##CAS REGISTRY NO=1004-29-1
##MP= -300
##BP= -300
##MW= 128
##$RETENTION INDEX=1004
##$CONDENSED SPECTRUM=NO
##NPOINTS= 66
##XYDATA=(XY..XY) 1 
     2          6
    13          2
    14          7
    15         34
    16          3
    17          2
    18          5
    19          1
    24          1
    25          1
    26         18
    27        188
    28         45
    29        159
    30          6
    31         17
    32          1
    33          1
    36          1
    37          3
    38          8
    39        109
    40         22
    41        208
    42         94
    43        346
    44         39
    45          7
    46          1
    49          1
    50          3
    51          6
    52          3
    53         17
    54         11
    55         51
    56         24
    57         48
    58          6
    65          3
    66          2
    67         16
    68         15
    69         25
    70         47
    71        999
    72         46
    73          3
    81          6
    82          4
    83          4
    84          4
    85          5
    86          1
    95          2
    96          1
    97          3
    98          1
    99          1
   111          1
   112          1
   113          1
   126          1
   127          4
   128          7
   129          1