##TITLE=Library Entry 13739
##JCAMP-DX=Revision 4.10 
##DATA TYPE=MASS SPECTRUM
##SAMPLE DESCRIPTION=A.A.Kutin, Moscow, Russia
##NAMES=HP
##CAS NAME=Cyclohexanone, 2,4-diacetyl-5-hydroxy-3-(4-methoxyphenyl)-5-methy
l-
##MOLFORM=C18H22O5
##CAS REGISTRY NO=100483-83-8
##MP= -300
##BP= -300
##MW= 318
##$RETENTION INDEX=0
##$CONDENSED SPECTRUM=NO
##NPOINTS= 214
##XYDATA=(XY..XY) 1 
    33          3
    34          1
    36          0
    37          0
    38          3
    39         23
    40         18
    41         23
    43        999
    44         23
    45          7
    46          0
    49          0
    50          5
    51         13
    52          5
    53         12
    54          2
    55         14
    57          5
    58          5
    59          1
    60          0
    61          2
    62          3
    63         12
    64          8
    65         15
    66          3
    67          5
    68          1
    69          9
    70          1
    71          3
    72          0
    73          0
    74          2
    75          4
    76          6
    77         36
    78         12
    79         12
    80          1
    81          2
    82          2
    83          3
    85         28
    86          1
    87          1
    89         16
    90         10
    91         21
    92          7
    93          4
    94          2
    95          1
    96          1
    97          1
    98          1
    99          1
   100          2
   101          5
   102         10
   103         15
   104          4
   105          6
   107         11
   108         10
   109          4
   110          0
   111          1
   112          0
   113          1
   114          2
   115         22
   116          8
   117          7
   118         10
   119          5
   120          3
   121         16
   122          1
   123          1
   124          1
   125          2
   126          1
   127          9
   128         12
   129          7
   130          3
   131         10
   132          8
   133         21
   134          5
   135          7
   136          0
   137          1
   139          2
   140          1
   141          5
   142          2
   143          3
   144          8
   145         12
   146          4
   147          8
   148          1
   149          6
   150          1
   151          2
   152          2
   153          3
   154          1
   155          2
   156          1
   157          4
   158          5
   159         13
   160          8
   161         47
   162          5
   163          1
   164          0
   165          2
   166          1
   167          1
   168          1
   169          2
   171          6
   172          4
   173          7
   174          4
   175         25
   176          8
   177         21
   178          2
   179          1
   181          2
   182          6
   183          4
   184          2
   185          6
   186          3
   187          8
   188          2
   189          5
   190          2
   191          9
   192          1
   193          0
   194          0
   195          1
   196          1
   197          4
   198          2
   199          5
   200         10
   201          5
   202          1
   203          4
   204          0
   208          0
   209          0
   210          0
   211          2
   212          4
   213          7
   215        163
   216         26
   217         24
   218          3
   219          0
   221          0
   223          0
   224          1
   225          2
   226          1
   227          1
   228          3
   229         12
   230          3
   231          1
   233          3
   234          0
   238          0
   239          7
   240          3
   241          2
   242          1
   243          2
   244          0
   245          0
   249          0
   252          0
   253          0
   254          4
   255          3
   257        132
   258         22
   259          3
   260          0
   267          0
   271          0
   272          5
   273          1
   275          3
   276          0
   282          0
   285          0
   291          0
   300          4
   301          0
   318          1
   319          0