##TITLE=Library Entry 109010
##JCAMP-DX=Revision 4.10 
##DATA TYPE=MASS SPECTRUM
##SAMPLE DESCRIPTION=Japan AIST/NIMC Database- Spectrum MS-NW-6123
##NAMES=HP
##CAS NAME=2,4,6-Pyrimidinetriamine
##MOLFORM=C4H7N5
##CAS REGISTRY NO=1004-38-2
##MP= -300
##BP= -300
##MW= 125
##$RETENTION INDEX=0
##$CONDENSED SPECTRUM=NO
##NPOINTS= 55
##XYDATA=(XY..XY) 1 
    13          1
    14          2
    15          2
    16          1
    26          2
    27         10
    28         75
    29          8
    30          3
    31          1
    32          1
    33          1
    34          1
    38          5
    39         11
    40         33
    41         54
    42         29
    43        201
    44         10
    45          1
    51          1
    52          3
    53         11
    54          6
    55         47
    56         62
    57          4
    59          4
    62         13
    63          1
    64          1
    65          3
    66         32
    67        108
    68         18
    69          3
    70          4
    71         14
    81          2
    82         27
    83         14
    84         79
    85         15
    86          1
    92          2
    97         25
    98        162
    99          8
   108          9
   109          2
   124          3
   125        999
   126         66
   127          2