##TITLE=Library Entry 21945
##JCAMP-DX=Revision 4.10 
##DATA TYPE=MASS SPECTRUM
##SAMPLE DESCRIPTION=Japan AIST/NIMC Database- Spectrum MS-NW-1208
##NAMES=HP
##CAS NAME=Acetic acid, mercapto-, butyl ester
##MOLFORM=C6H12O2S
##CAS REGISTRY NO=10047-28-6
##MP= -300
##BP= -300
##MW= 148
##$RETENTION INDEX=0
##$CONDENSED SPECTRUM=NO
##NPOINTS= 89
##XYDATA=(XY..XY) 1 
    12          1
    13          2
    14         21
    15         24
    16          1
    18          2
    25          1
    26         24
    27        234
    28         66
    29        995
    30         22
    31         68
    32          9
    33          8
    34          7
    35          1
    36          2
    37          3
    38          8
    39        124
    40         17
    41        933
    42        134
    43         92
    44         21
    45        115
    46        150
    47        567
    48         29
    49         25
    50          4
    51          5
    52          2
    53         13
    54          6
    55        160
    56        999
    57        957
    58         39
    59          5
    60          9
    61         11
    62          1
    63          8
    64         13
    65          1
    69          5
    70          2
    71         14
    72          6
    73         16
    74        202
    75        213
    76         16
    77         15
    78          2
    79          5
    83          1
    87          6
    88          9
    89        143
    90          8
    91         10
    92        293
    93        122
    94         16
    95          6
   101         21
   102          1
   103          3
   105         20
   106          2
   107          2
   109          5
   115          1
   117          1
   119         28
   120          2
   121          2
   124          1
   130          6
   131          1
   132          1
   146          4
   147          4
   148         98
   149         10
   150          6