##TITLE=Library Entry 58951
##JCAMP-DX=Revision 4.10 
##DATA TYPE=MASS SPECTRUM
##SAMPLE DESCRIPTION=G. Lange, Inst. Org. Chem., Univ. Wurzburg, Germany
##NAMES=HP
##CAS NAME=exo-Tetracyclo[5.1.0.0(2,4).0(3,5)]octan-6-ol, 8-bromo-8-chloro-
##MOLFORM=C8H8BrClO
##CAS REGISTRY NO=1005253-60-0
##MP= -300
##BP= -300
##MW= 234
##$RETENTION INDEX=0
##$CONDENSED SPECTRUM=NO
##NPOINTS= 162
##XYDATA=(XY..XY) 1 
    36         10
    37         30
    38        102
    39        438
    40         68
    41        111
    42         24
    43         64
    44         14
    45         39
    46          4
    47         16
    49         37
    50        174
    51        314
    52        106
    53        107
    54         11
    55        106
    56         10
    57        138
    58          9
    59         27
    60         18
    61        101
    62         89
    63        246
    64         57
    65        371
    66        378
    67         68
    68        192
    69         25
    70          7
    71          9
    72          9
    73        104
    74         58
    75        141
    76         48
    77        254
    78         87
    79         83
    80         17
    81         86
    82         16
    83         15
    84          6
    85         31
    86         22
    87         50
    88         12
    89        214
    90         89
    91        999
    92        127
    93         35
    94         46
    95         44
    96          3
    97         12
    98          9
    99         84
   100         28
   101        123
   102        170
   103        131
   104         22
   105         73
   106         10
   107         74
   108         10
   109         17
   111         31
   112         48
   113         38
   114         19
   115         33
   116          8
   117         23
   118         26
   119        162
   120         64
   121        167
   122         36
   123         16
   124         13
   125        312
   126        116
   127        252
   128         67
   129         82
   130         19
   131         19
   132          5
   133         39
   134         33
   135         23
   136         12
   137        174
   138         70
   139         82
   140         24
   141         19
   142          7
   143         13
   145          9
   146          3
   147          6
   149          9
   151          6
   152          4
   153         28
   154         16
   155        111
   156         20
   157         38
   158          8
   159         11
   161          6
   163          3
   165          8
   166         20
   167         20
   168         38
   169        372
   170         26
   171        417
   172         20
   173        103
   183         59
   184          5
   185         71
   186          2
   187         17
   190          7
   191          5
   192          9
   193         13
   194          3
   195          9
   197          1
   199          5
   201          8
   203         14
   204          9
   205         37
   206         21
   207         37
   208         13
   209         13
   216         25
   217          8
   218         31
   219         14
   220          8
   221          5
   234          8
   235          2
   236         11
   237          1
   238          2