##TITLE=Library Entry 35078
##JCAMP-DX=Revision 4.10 
##DATA TYPE=MASS SPECTRUM
##SAMPLE DESCRIPTION=D.HENNEBERG, MAX-PLANCK INSTITUTE, MULHEIM, WEST GERMAN
Y
##NAMES=HP
##CAS NAME=Cyclopentane, (3-methylbutyl)-
##MOLFORM=C10H20
##CAS REGISTRY NO=1005-68-1
##MP= -300
##BP= -300
##MW= 140
##$RETENTION INDEX=1006
##$CONDENSED SPECTRUM=NO
##NPOINTS= 48
##XYDATA=(XY..XY) 1 
    27        203
    28        290
    29        240
    36         50
    38         20
    39        210
    40         40
    41        740
    42        151
    43        470
    44        151
    45         10
    50         10
    51         35
    52         10
    53         70
    54         60
    55        718
    56        849
    57        489
    58         31
    65         20
    66         20
    67        190
    68        560
    69        999
    70        300
    71         60
    77         30
    78         50
    79         20
    80         10
    81         41
    82        130
    83        290
    84        200
    85         30
    91         20
    92         10
    95         10
    96         30
    97        130
    98         50
   110         10
   111         90
   112         70
   125         40
   140         40