##TITLE=Library Entry 48502
##JCAMP-DX=Revision 4.10 
##DATA TYPE=MASS SPECTRUM
##SAMPLE DESCRIPTION=P.A. Leclercq, Lab. Instrum. Anal., Tech. Univ. Eindhov
en, Netherlands
##NAMES=HP
##CAS NAME=1,3,2-Dioxaphosphorinane, 2-methoxy-5,5-dimethyl-
##MOLFORM=C6H13O3P
##CAS REGISTRY NO=1005-69-2
##MP= -300
##BP= -300
##MW= 164
##$RETENTION INDEX=0
##$CONDENSED SPECTRUM=NO
##NPOINTS= 74
##XYDATA=(XY..XY) 1 
    37          9
    39        468
    40        109
    41        841
    42        155
    43         83
    44          8
    45         15
    47        557
    48         59
    49         42
    50         22
    51         29
    52         12
    53        116
    55        587
    56        832
    57        121
    58         89
    59          6
    62        103
    63         15
    64          3
    65         36
    66         16
    67        123
    68        292
    69        276
    70        132
    71         82
    72          4
    77         73
    79        999
    80         54
    81         19
    82         25
    83         15
    85         21
    86         69
    87          5
    91         12
    92         15
    93         10
    94          4
    95         19
    96        190
    97        571
    98         10
    99          5
   103          4
   105         15
   106          3
   110         73
   111         21
   113         10
   117          9
   119         21
   121          7
   122          4
   123         48
   124          7
   125          7
   131          4
   132          9
   133         87
   134         48
   135         20
   136         36
   137         12
   149        225
   150         13
   163         28
   164        184
   165         12