##TITLE=Library Entry 69657
##JCAMP-DX=Revision 4.10 
##DATA TYPE=MASS SPECTRUM
##SAMPLE DESCRIPTION=A.Pleshkova, Nesmeyanov Inst.Org.Elem.Cpds, Moscow
##NAMES=HP
##CAS NAME=Pentafluoroguanidine
##MOLFORM=CF5N3
##CAS REGISTRY NO=10051-06-6
##MP= -300
##BP= -300
##MW= 149
##$RETENTION INDEX=0
##$CONDENSED SPECTRUM=NO
##NPOINTS= 26
##XYDATA=(XY..XY) 1 
    14        147
    15          1
    26        187
    27          3
    28        131
    29          1
    31        845
    32         10
    33        719
    34          3
    40        138
    41          3
    45        100
    46          2
    50        127
    51          2
    52        598
    53          2
    59        227
    60          4
    64        391
    65          6
    78        827
    79         16
    97        999
    98         19