##TITLE=Library Entry 2827
##JCAMP-DX=Revision 4.10 
##DATA TYPE=MASS SPECTRUM
##SAMPLE DESCRIPTION=Exported from NIST MS Search
##NAMES=HP
##CAS NAME=2-Undecanethiol, 2-methyl-
##MOLFORM=C12H26S
##CAS REGISTRY NO=10059-13-9
##MP= -300
##BP= -300
##MW= 202
##$RETENTION INDEX=0
##$CONDENSED SPECTRUM=NO
##NPOINTS= 117
##XYDATA=(XY..XY) 1 
    37          7
    38         14
    39        364
    41        999
    42        119
    43        717
    44         25
    45          8
    46          1
    47         10
    48          1
    49          1
    50         11
    51         35
    52         20
    53         40
    54         56
    55        849
    56        282
    57        604
    58         28
    59          6
    60          6
    61         16
    62          3
    63          8
    64          2
    65         30
    66         15
    67        133
    68         60
    69        826
    70        436
    71        211
    72         11
    73          2
    74          7
    75          7
    76          1
    77         32
    78          7
    79         33
    80          7
    81         75
    82         43
    83        487
    84        312
    85        112
    86          7
    87          2
    88          2
    89          4
    90          1
    91         17
    92          2
    93         10
    94          3
    95         48
    96         23
    97        193
    98        149
    99         24
   100          1
   101          1
   102          1
   103          3
   104          1
   105          3
   106          1
   107          5
   108          2
   109         28
   110         12
   111         64
   112         57
   113          9
   114          1
   115          2
   116          1
   117          2
   119          1
   121          2
   122          1
   123         19
   124          5
   125         23
   126         12
   127          3
   128          1
   129          2
   130          1
   131          2
   133          2
   135          1
   137         12
   138          3
   139         11
   140          9
   141          2
   143          2
   145          1
   147          1
   148          1
   149          1
   151          7
   152          2
   153          2
   154         18
   155          3
   157          1
   159          1
   165          3
   166          3
   167          1
   168         51
   169          7
   170          1