##TITLE=Library Entry 32651
##JCAMP-DX=Revision 4.10 
##DATA TYPE=MASS SPECTRUM
##SAMPLE DESCRIPTION=NIST Mass Spectrometry Data Center, 1994
##NAMES=HP
##CAS NAME=4-Ethyl-2,6,7-trioxa-1-phosphabicyclo[2.2.2]octane 1-oxide
##MOLFORM=C6H11O4P
##CAS REGISTRY NO=1005-93-2
##MP= -300
##BP= -300
##MW= 178
##$RETENTION INDEX=1828
##$CONDENSED SPECTRUM=NO
##NPOINTS= 104
##XYDATA=(XY..XY) 1 
    12          5
    15         83
    18          3
    26         96
    27        695
    28         94
    29        701
    30         95
    31         78
    37         20
    38         62
    39        787
    40        232
    41        589
    42        155
    43        102
    44         18
    45          8
    46          8
    47        316
    48         19
    49         10
    50         49
    51         80
    52         46
    53        387
    54         86
    55        388
    56        117
    57         59
    58          6
    61          3
    62          9
    63         49
    64         21
    65        185
    66         81
    67        999
    68        866
    69        159
    70         12
    71         25
    73          2
    77         31
    79        736
    80        211
    81         68
    82         18
    83        133
    84        191
    85         24
    86          4
    89          4
    90          4
    91         21
    92          4
    93        101
    94          3
    95         11
    96         20
    97         16
    98          3
    99        240
   100          5
   101          6
   102         11
   103         26
   104          6
   105         27
   106          6
   107          7
   109         10
   111         83
   113        141
   115         17
   116          6
   117          9
   118          6
   119         47
   120         23
   121         12
   122          9
   123         67
   124         28
   125         18
   129          7
   130          4
   131          5
   132          4
   133        195
   134         10
   135         10
   136         10
   137         12
   147         36
   148         33
   149        152
   150        754
   151        306
   152         19
   163        132
   164          9
   178         58
   179         11