##TITLE=Library Entry 194
##JCAMP-DX=Revision 4.10 
##DATA TYPE=MASS SPECTRUM
##SAMPLE DESCRIPTION=Chemical Concepts
##NAMES=HP
##CAS NAME=Chromium, tetracarbonyl[(1,2,3,4-.eta.)-2,3-dimethyl-1,3-butadien
e]-
##MOLFORM=C10H10CrO4
##CAS REGISTRY NO=100503-94-4
##MP= -300
##BP= -300
##MW= 246
##$RETENTION INDEX=0
##$CONDENSED SPECTRUM=NO
##NPOINTS= 123
##XYDATA=(XY..XY) 1 
    26         19
    27         84
    28        999
    29         21
    30          2
    31          1
    36          1
    37         14
    38         31
    39        285
    40         47
    41        235
    42         44
    43         18
    44          0
    45          0
    46          0
    49          3
    50         38
    51         31
    52        756
    53         84
    54         93
    55         21
    56          7
    57          6
    60          0
    61          3
    62          7
    63         12
    64          3
    65         45
    66         12
    67        287
    68         15
    69          9
    70          1
    71          1
    73          1
    74          2
    75          1
    76          1
    77         15
    78          8
    79         20
    80         40
    81         37
    82        191
    83         14
    84          3
    85          0
    88          0
    89          2
    90          4
    91         24
    92          5
    93         10
    94          1
    95          4
    96          0
    97          0
    99          0
   101          0
   102          0
   103          1
   104          1
   105          3
   106          0
   107          3
   108          9
   109          1
   111          0
   112          0
   113          0
   115          0
   116          0
   117          2
   118          1
   119          0
   120          0
   121          1
   122          0
   123          4
   124          0
   125          0
   127          0
   131          1
   132         14
   133          5
   134        289
   135         49
   136         11
   137          0
   138          0
   139          0
   147          0
   149          0
   151          0
   160          2
   161          1
   162         44
   163          9
   164          2
   166          0
   169          0
   188          2
   189          0
   190         34
   191          8
   192          2
   193          1
   194          0
   207          0
   208          0
   216          1
   218         25
   219          5
   220          1
   221          0
   244          1
   246         23
   247          4
   248          1