##TITLE=Library Entry 99581
##JCAMP-DX=Revision 4.10 
##DATA TYPE=MASS SPECTRUM
##SAMPLE DESCRIPTION=V.Zaikin,Inst.Petrochem.Synth.,RAS,Moscow
##NAMES=HP
##CAS NAME=Benzoic acid, 4-methyl-, 1-methylpropyl ester
##MOLFORM=C12H16O2
##CAS REGISTRY NO=100556-51-2
##MP= -300
##BP= -300
##MW= 192
##$RETENTION INDEX=0
##$CONDENSED SPECTRUM=NO
##NPOINTS= 76
##XYDATA=(XY..XY) 1 
    25          2
    26         16
    27         44
    28         12
    29         86
    30          3
    39         87
    40         25
    41        101
    42          6
    43         34
    44          2
    45          5
    50         29
    51         47
    52         25
    53         12
    54          4
    55         17
    56         65
    57         42
    58          3
    59          3
    61          3
    62         14
    63         43
    64         13
    65        117
    66          9
    67          4
    69          5
    70          6
    72          3
    73         78
    74          8
    75          6
    76          4
    77         19
    78          8
    79         31
    83          4
    84          4
    85          3
    86          3
    87          3
    88          2
    89         37
    90         36
    91        407
    92         58
    93         26
    95          3
    99          3
   104          3
   105          7
   106          2
   107         14
   108          2
   113          3
   115          2
   117          6
   118         11
   119        999
   120         98
   121          7
   131          4
   135         13
   136        211
   137        326
   138         30
   139          3
   163          7
   164          2
   177          3
   192          4
   193          1