##TITLE=Library Entry 83076
##JCAMP-DX=Revision 4.10 
##DATA TYPE=MASS SPECTRUM
##SAMPLE DESCRIPTION=Chemical Concepts
##NAMES=HP
##CAS NAME=Benzeneacetic acid, .alpha.-propanamido-, methyl ester
##MOLFORM=C12H15NO3
##CAS REGISTRY NO=100508-79-0
##MP= -300
##BP= -300
##MW= 221
##$RETENTION INDEX=0
##$CONDENSED SPECTRUM=NO
##NPOINTS= 57
##XYDATA=(XY..XY) 1 
    26          2
    27         18
    28         32
    29         99
    30          2
    31          2
    39          8
    41          3
    42          2
    49          8
    50         24
    51          7
    52          2
    53          3
    54          4
    55          3
    56        110
    57          4
    58          4
    62          6
    63          2
    64          4
    73          2
    75          3
    76          7
    77         81
    78         21
    79         68
    80          5
    89         10
    90         10
    91         15
   103          5
   104        168
   105         36
   106        999
   107         79
   108          3
   117          2
   118          7
   121         24
   122          3
   132          9
   133          7
   149         27
   150          5
   160          4
   161          4
   162        284
   163         29
   164        156
   165         28
   166          3
   189         90
   190         12
   221         22
   222          4