##TITLE=Library Entry 15775
##JCAMP-DX=Revision 4.10 
##DATA TYPE=MASS SPECTRUM
##SAMPLE DESCRIPTION=H. Fales, LC, NHLBI, NIH, Bethesda, MD 20892
##NAMES=HP
##CAS NAME=Nor-diazepam, 3-[[N-hydroxymethyl]aminocarbonyloxy]-
##MOLFORM=C18H16ClN3O4
##CAS REGISTRY NO=100509-07-7
##MP= -300
##BP= -300
##MW= 373
##$RETENTION INDEX=0
##$CONDENSED SPECTRUM=NO
##NPOINTS= 248
##XYDATA=(XY..XY) 1 
    41        243
    42        121
    43        531
    44        999
    45        185
    46         61
    47         13
    49         19
    50         26
    51         58
    52         24
    53         31
    54         38
    55        257
    56         87
    57        219
    58         34
    59         86
    60         59
    61         64
    62         13
    63         29
    64         10
    65         26
    66         19
    67         60
    68         37
    69        134
    70         42
    71        100
    72         19
    73         37
    74        597
    75        165
    76         27
    77        103
    78        134
    79         41
    80         14
    81         68
    82         42
    83         96
    84         46
    85         56
    86         12
    87        339
    88         42
    89         20
    90         25
    91         26
    92          6
    93         18
    94         33
    95         49
    96         36
    97         81
    98         42
    99         36
   100         15
   101         33
   102         25
   103         14
   104         29
   105         27
   106         81
   107         23
   108          9
   109         23
   110         19
   111         44
   112         18
   113         19
   114         24
   115         26
   116         22
   117         12
   118         13
   119         10
   120          4
   121         23
   122         16
   123         18
   124         79
   125         26
   126         13
   127         13
   128         11
   129         38
   130         11
   131          7
   132          9
   133          7
   134          5
   135         16
   136         11
   137         14
   138         14
   139         14
   140         15
   141         11
   142          6
   143         78
   144         16
   145          5
   146          5
   147          8
   148          2
   149         46
   150         17
   151         24
   152         22
   153         11
   154          8
   155          7
   156          2
   157         11
   158          2
   159          2
   161          4
   162          3
   163         11
   164         12
   165         28
   166         14
   167         18
   168          6
   169          5
   170          2
   171         10
   172          2
   173          2
   175          3
   176          4
   177         13
   178         10
   179         10
   180         10
   181         11
   182          4
   183          5
   185         18
   186          4
   187          2
   188          1
   189          1
   190          4
   191          8
   192          8
   193         23
   194          9
   195         13
   196          6
   197          5
   199         28
   200          6
   201          5
   202          1
   203          4
   205          7
   206          6
   207          6
   208          6
   209          4
   210          4
   211          2
   212          1
   213         14
   214          8
   215          4
   216          1
   217          1
   219          2
   220          5
   221         22
   222         10
   223          6
   224          5
   225          1
   226          2
   227         28
   228         28
   229         10
   230         10
   231          1
   235          5
   236          6
   237         10
   238          4
   239         16
   240          5
   241         20
   242          7
   243         20
   244          6
   245          9
   246          1
   253          5
   255         88
   256         54
   257         54
   258         24
   259         13
   262          4
   263          1
   264          6
   265          3
   266          1
   267         18
   268          4
   269         13
   270         36
   271        389
   272         64
   273        125
   274         22
   275          3
   279          1
   282          1
   283          5
   284         11
   285          4
   286          1
   294          2
   296          1
   298         90
   299         30
   300         97
   301         22
   302         33
   303          6
   310          0
   312          0
   313          0
   314          0
   315          0
   328          0
   329          0
   330          0
   343          0
   344          0
   345          0
   355          0
   356          0
   357          0
   372          0
   373          0
   374          0
   375          0