##TITLE=Library Entry 87806
##JCAMP-DX=Revision 4.10 
##DATA TYPE=MASS SPECTRUM
##SAMPLE DESCRIPTION=V.G. Zaikin, TIPS RAS, Moscow, Russia
##NAMES=HP
##CAS NAME=2-Thiophenecarboxylic acid, 2-butyl ester
##MOLFORM=C9H12O2S
##CAS REGISTRY NO=100556-52-3
##MP= -300
##BP= -300
##MW= 184
##$RETENTION INDEX=0
##$CONDENSED SPECTRUM=NO
##NPOINTS= 57
##XYDATA=(XY..XY) 1 
    26         55
    27        167
    28         15
    29        225
    30          8
    36          8
    37         21
    38         38
    39        431
    40         18
    41        151
    42         18
    43         89
    44         25
    45         89
    47          3
    49         21
    50         21
    51         21
    52         13
    53         39
    55         37
    56        132
    57        161
    58         25
    59         13
    69         15
    70          6
    71         15
    73         75
    74          3
    77          3
    79         11
    81         41
    82         38
    83        119
    84         38
    85         46
    86          3
    95          6
   100          6
   109          3
   110          6
   111        999
   112         59
   113         49
   114          5
   128        177
   129        226
   130         18
   131          8
   155         11
   156          2
   157          1
   184         15
   185          2
   186          1