##TITLE=Library Entry 50297
##JCAMP-DX=Revision 4.10 
##DATA TYPE=MASS SPECTRUM
##SAMPLE DESCRIPTION=Chemical Concepts
##NAMES=HP
##CAS NAME=7-(3-Hydroxy-propyl)-bicyclo[2.2.1]heptan-2-one
##MOLFORM=C10H16O2
##CAS REGISTRY NO=1005254-02-3
##MP= -300
##BP= -300
##MW= 168
##$RETENTION INDEX=0
##$CONDENSED SPECTRUM=NO
##NPOINTS= 101
##XYDATA=(XY..XY) 1 
    26         28
    27        361
    28         57
    29        170
    30          7
    31        362
    37          4
    38         31
    39        511
    40        112
    41        816
    42         75
    43        101
    44         31
    45         34
    50         27
    51         86
    52         60
    53        317
    54        146
    55        328
    56         25
    57         71
    58         12
    59          2
    60          1
    61          0
    62          5
    63         19
    64          4
    65         98
    66        143
    67        702
    68        171
    69         56
    70         34
    71        179
    72          9
    73          2
    74          3
    75          3
    76          1
    77        146
    78         82
    79        515
    80        845
    81        999
    82        334
    83         79
    84         18
    85         10
    86          9
    87          1
    91        113
    92         21
    93        370
    94        209
    95        208
    96        137
    97         59
    98         31
    99         23
   100          3
   103          1
   104          4
   105         19
   106         87
   107        136
   108        163
   109         85
   110         52
   111         20
   112          4
   113          3
   115          0
   116          0
   117          4
   118          0
   119         10
   120          4
   121         39
   122         39
   123         22
   124        104
   125         13
   126         75
   127          6
   131          0
   132          1
   135          8
   137          8
   138         46
   139          7
   140         69
   141          8
   149          9
   150         21
   151          2
   168        313
   169         36
   170          1