##TITLE=Library Entry 10423
##JCAMP-DX=Revision 4.10 
##DATA TYPE=MASS SPECTRUM
##SAMPLE DESCRIPTION=Chemical Concepts
##NAMES=HP
##CAS NAME=Bicyclo[3.3.0]octan-3-one, 6-hydroxy-6-methyl-
##MOLFORM=C9H14O2
##CAS REGISTRY NO=1005239-70-2
##MP= -300
##BP= -300
##MW= 154
##$RETENTION INDEX=0
##$CONDENSED SPECTRUM=NO
##NPOINTS= 93
##XYDATA=(XY..XY) 1 
    25          2
    26         30
    27        244
    28         22
    29        109
    30          2
    31         32
    37          5
    38         13
    39        219
    41        273
    42         41
    43        999
    44         15
    45         40
    46          2
    47          3
    48          2
    49          3
    50         19
    51         44
    52         25
    53        115
    54         78
    55        254
    56         33
    57         90
    58        252
    59         23
    60          3
    61          7
    62          3
    63         10
    64          1
    65         35
    66         41
    67        207
    68         82
    69         61
    70         62
    71        567
    72         88
    73         10
    74          1
    77         76
    78         32
    79        281
    80         44
    81        186
    82         46
    83        515
    84         64
    85         10
    86          2
    91         57
    92         26
    93        227
    94        468
    95        455
    96        786
    97        232
    98         33
    99          8
   100          3
   103          3
   105          3
   106          2
   107         25
   108         46
   109         47
   110          6
   111         31
   112         14
   113          7
   115          1
   117          2
   118          2
   119          1
   121         88
   122          7
   125          9
   126          4
   134          4
   135          6
   136         89
   137         19
   138          2
   139         82
   140          6
   152          2
   153          1
   154         84
   155          7