##TITLE=Library Entry 34808
##JCAMP-DX=Revision 4.10 
##DATA TYPE=MASS SPECTRUM
##SAMPLE DESCRIPTION=Chemical Concepts
##NAMES=HP
##CAS NAME=1,2,3-Undecanetriol
##MOLFORM=C11H24O3
##CAS REGISTRY NO=100537-15-3
##MP= -300
##BP= -300
##MW= 204
##$RETENTION INDEX=0
##$CONDENSED SPECTRUM=NO
##NPOINTS= 102
##XYDATA=(XY..XY) 1 
    26          2
    27         90
    28          8
    29        183
    30          6
    31         69
    33          0
    38          1
    39         49
    40         18
    41        338
    42         39
    43        228
    44        515
    45         82
    46          2
    47          4
    48          0
    49          1
    50          1
    51          3
    52          0
    53         16
    54         19
    55        487
    56         49
    57        306
    58         16
    59          5
    60         23
    61         84
    62         46
    63          4
    65          3
    66         34
    67         72
    68         58
    69        999
    70         66
    71         38
    72          6
    73         20
    74          6
    75          1
    77          4
    78          1
    79          9
    80          5
    81         74
    82        134
    83        507
    84         29
    85         10
    86          7
    87          7
    88         23
    89          2
    90          0
    91         14
    92          1
    93          6
    94          3
    95         83
    96         48
    97         47
    98          9
    99          6
   100          2
   101          2
   105          1
   107          2
   108          1
   109         11
   110          3
   111          2
   112          1
   113          4
   114          3
   115          0
   121          1
   123          3
   124         84
   125         50
   126          4
   127          0
   137          6
   138          1
   139          1
   141         18
   142         59
   143        136
   144         12
   145          0
   149          3
   155          6
   156          1
   161          0
   167          1
   173         18
   174          2
   187          1
   205          2