##TITLE=Library Entry 20802
##JCAMP-DX=Revision 4.10 
##DATA TYPE=MASS SPECTRUM
##SAMPLE DESCRIPTION=T. Jones, LC, NHLBI, NIH, Bethesda, MD 20892
##NAMES=HP
##CAS NAME=1,18-Nonadecadien-7,10-dione
##MOLFORM=C19H32O2
##CAS REGISTRY NO=100594-89-6
##MP= -300
##BP= -300
##MW= 292
##$RETENTION INDEX=0
##$CONDENSED SPECTRUM=NO
##NPOINTS= 232
##XYDATA=(XY..XY) 1 
    41        442
    42        122
    43        272
    44         26
    45          7
    46          0
    47          1
    48          2
    49          3
    50          3
    51          9
    52          7
    53        107
    54         79
    55        999
    56        133
    57        142
    58         21
    59          7
    60          1
    61          2
    62          2
    63          2
    64          0
    65         27
    66         21
    67        402
    68        105
    69        451
    70         66
    71        320
    72         42
    73         10
    74          1
    75          0
    76          1
    77         21
    78          9
    79        122
    80         35
    81        201
    82         55
    83        465
    84         71
    85        135
    86          9
    87          7
    88          0
    89          0
    90          0
    91         34
    92         12
    93        163
    94         99
    95        202
    96         57
    97        103
    98        185
    99        164
   100         11
   101          5
   102          0
   103          1
   104          3
   105         41
   106         24
   107        258
   108        101
   109        139
   110        117
   111        352
   112         47
   113         23
   114        179
   115         19
   116          2
   117          6
   118          8
   119         21
   120         12
   121         92
   122        112
   123         49
   124         74
   125        101
   126         27
   127        110
   128         24
   129          3
   130          0
   131         47
   132          6
   133         15
   134         10
   135        133
   136        241
   137         42
   138         24
   139        166
   140         36
   141         20
   142         10
   143          1
   144          0
   145          6
   146          5
   147         17
   148         38
   149        122
   150         20
   151         18
   152         11
   153         80
   154        202
   155         23
   156          4
   157          1
   158          0
   159          3
   160          1
   161          3
   162          3
   163         26
   164         34
   165         11
   166         41
   167         49
   168         12
   169          7
   170          1
   171          1
   173         19
   174          3
   175          2
   176          1
   177          6
   178          5
   179          5
   180          4
   181         76
   182         51
   183         12
   184          0
   185          0
   186          0
   187          1
   188          5
   189          2
   190          1
   191          7
   192          2
   193          2
   194          2
   195         32
   196          9
   197          2
   199          1
   200          0
   201          2
   202          0
   203          1
   204          1
   205          1
   206         12
   207          4
   208          1
   209         59
   210          8
   211          1
   212          0
   213          0
   214          0
   215          0
   216          0
   217          1
   218          0
   219          3
   220          1
   221          5
   222          1
   223          2
   224         45
   225          7
   226          0
   227          0
   228          0
   230          0
   231          1
   232          0
   233          1
   234          1
   235          4
   236          1
   237         45
   238          7
   239          0
   241          0
   243          0
   244          0
   245          1
   246          1
   247          0
   249         13
   250          3
   251         12
   252          2
   253          0
   256          1
   257          0
   259          0
   262          0
   263          6
   264          3
   265          0
   266          0
   270          0
   272          0
   273          0
   274          7
   275          2
   276          0
   277          1
   278          0
   280          0
   281          0
   287          0
   289          0
   290          0
   291          0
   292         23
   293         12
   294          2