##TITLE=Library Entry 28344
##JCAMP-DX=Revision 4.10 
##DATA TYPE=MASS SPECTRUM
##SAMPLE DESCRIPTION=Japan AIST/NIMC Database- Spectrum MS-NW-9731
##NAMES=HP
##CAS NAME=1,3-Propanediamine, N,N'-diethyl-
##MOLFORM=C7H18N2
##CAS REGISTRY NO=10061-68-4
##MP= -300
##BP= -300
##MW= 130
##$RETENTION INDEX=0
##$CONDENSED SPECTRUM=NO
##NPOINTS= 56
##XYDATA=(XY..XY) 1 
    15          9
    26          5
    27         46
    28        131
    29         87
    30        579
    31          9
    32          4
    38          1
    39         13
    40          5
    41         66
    42         85
    43         45
    44        257
    45        128
    46         12
    50         62
    52          1
    53          1
    54         10
    55          6
    56        184
    57         69
    58        999
    59         48
    60          3
    67          4
    68         11
    69          3
    70        911
    71         66
    72        192
    73         14
    74          1
    79          1
    80          1
    81          1
    82          4
    83          2
    84         86
    85        725
    86         62
    87         66
    88          4
    96          2
    97          1
    98          3
    99          2
   100          1
   101          9
   113          3
   115          2
   130         11
   131         21
   132          1