##TITLE=Library Entry 17636
##JCAMP-DX=Revision 4.10 
##DATA TYPE=MASS SPECTRUM
##SAMPLE DESCRIPTION=Chemical Concepts
##NAMES=HP
##CAS NAME=2,4-Nonadienoic acid, 7-hydroxy-9-(methoxymethoxy)-6,8-dimethyl-,
 methyl ester, [6S-(2E,4E,6R*,7R*,8R*)]-
##MOLFORM=C14H24O5
##CAS REGISTRY NO=100649-16-9
##MP= -300
##BP= -300
##MW= 272
##$RETENTION INDEX=0
##$CONDENSED SPECTRUM=NO
##NPOINTS= 187
##XYDATA=(XY..XY) 1 
    26          6
    27         35
    28         12
    29         46
    30         11
    31         55
    33         19
    38          2
    39         35
    40          9
    41         88
    42         42
    43        113
    44         22
    45        999
    46         23
    47          5
    50          3
    51         10
    52          8
    53         28
    54          8
    55         56
    56         13
    57         55
    58         23
    59         80
    60          7
    61         17
    63         14
    65         13
    66          7
    67         29
    68         31
    69         43
    70         10
    71        114
    72         19
    73        159
    74         12
    75         43
    76          3
    77         37
    78          9
    79        132
    80        192
    81        291
    82         46
    83         34
    84         19
    85         34
    86          7
    87         51
    88          6
    89          7
    90          2
    91         21
    92          8
    93         40
    94         12
    95         33
    96         12
    97         29
    98         28
    99         17
   100          9
   101        351
   102         25
   103         13
   104         36
   105         24
   106          9
   107         51
   108        435
   109         69
   110         10
   111        175
   112         20
   113         21
   114         15
   115         29
   116          6
   117          8
   118          5
   119         13
   120          5
   121         21
   122          7
   123         13
   124          5
   125         36
   126          9
   127         15
   128         15
   129         13
   130          4
   131         22
   132          5
   133         29
   134          6
   135         13
   136          6
   137         25
   138          9
   139         47
   140        753
   141         76
   142         17
   143          6
   144          3
   145          7
   146          5
   147         10
   148          7
   149         18
   150          5
   151         10
   152         21
   153         19
   154         10
   155         10
   156          3
   157          4
   158          2
   159          4
   160          3
   161          9
   162          4
   163          8
   164          5
   165          9
   166          5
   167          7
   168          7
   169         19
   170          5
   171          5
   172          2
   173          3
   175          3
   177          8
   178          5
   179         27
   180          8
   181         17
   182          4
   183          7
   184         11
   185          6
   186          2
   187          4
   189          2
   191          5
   192          3
   193         13
   194         12
   195          7
   196          2
   197          3
   199          2
   200          2
   201          2
   204          2
   205          3
   206          4
   207          5
   208          3
   209         13
   210         52
   211         17
   212          5
   213          3
   217          2
   219          2
   221         14
   222          9
   223          7
   224          3
   237          2
   239          2
   240          2
   241          7
   242          2
   243          2
   252          6
   253          3
   254          2