##TITLE=Library Entry 77567
##JCAMP-DX=Revision 4.10 
##DATA TYPE=MASS SPECTRUM
##SAMPLE DESCRIPTION=J.Gal, ET AL.Canadian J.Chem., 51,132 (1973)
##NAMES=HP
##CAS NAME=N-Ethylbenzimidoyl chloride
##MOLFORM=C9H10ClN
##CAS REGISTRY NO=1006-93-5
##MP= -300
##BP= -300
##MW= 167
##$RETENTION INDEX=0
##$CONDENSED SPECTRUM=NO
##NPOINTS= 29
##XYDATA=(XY..XY) 1 
    26         40
    27        120
    28         30
    29        110
    36        110
    38         40
    39         50
    49         30
    50         90
    51        170
    52         40
    62         30
    63         30
    64         20
    74         30
    75         50
    76        170
    77        280
    78         50
    89         40
    91         30
   103        240
   104        999
   105        100
   118         30
   132        800
   133        100
   167         60
   169         20