##TITLE=Library Entry 33871
##JCAMP-DX=Revision 4.10 
##DATA TYPE=MASS SPECTRUM
##SAMPLE DESCRIPTION=Exported from NIST MS Search
##NAMES=HP
##CAS NAME=6H-Purin-6-one, 3,7-dihydro-3-methyl-
##MOLFORM=C6H6N4O
##CAS REGISTRY NO=1006-11-7
##MP= -300
##BP= -300
##MW= 150
##$RETENTION INDEX=0
##$CONDENSED SPECTRUM=NO
##NPOINTS= 22
##XYDATA=(XY..XY) 1 
    41        600
    42        140
    52         40
    53        470
    54         50
    55         40
    64         40
    65         40
    66         60
    67        140
    68        999
    69         50
    81         30
    94        100
    95        340
    96         80
   122         90
   123        330
   124         40
   149         20
   150        700
   151         80