##TITLE=Library Entry 63454
##JCAMP-DX=Revision 4.10 
##DATA TYPE=MASS SPECTRUM
##SAMPLE DESCRIPTION=Chemical Concepts
##NAMES=HP
##CAS NAME=2-Oxazolidinone, 3-[2,4-dideoxy-3-O-[(1,1-dimethylethyl)dimethyls
ilyl]-5-O-(phenylmethyl)-l-arabinonoyl]-4-(1-methylethyl)-, (R)-
##MOLFORM=C26H43NO5Si
##CAS REGISTRY NO=100649-10-3
##MP= -300
##BP= -300
##MW= 477
##$RETENTION INDEX=0
##$CONDENSED SPECTRUM=NO
##NPOINTS= 192
##XYDATA=(XY..XY) 1 
    27          3
    28          2
    29          5
    31          0
    39          4
    40          1
    41         19
    42          3
    43          7
    44          0
    45          2
    47          2
    50          0
    51          1
    53          1
    54          1
    55          6
    56          2
    57          7
    58          2
    59         18
    60          1
    61          2
    63          1
    65          9
    66          0
    67          4
    68          3
    69         14
    70          2
    71          2
    72          2
    73        115
    74         11
    75         73
    76          5
    77          8
    78          2
    79          8
    80          1
    81          5
    82          3
    83          3
    84          1
    85         12
    86          6
    87          3
    88          1
    89         19
    90          5
    91        999
    92         80
    93          3
    95          3
    96          3
    97          3
    98          1
    99          8
   100         12
   101          5
   102          1
   103          1
   105          6
   106          1
   107          8
   108          2
   109          7
   110          7
   111          4
   112          2
   113          3
   114          2
   115         32
   116          4
   117          3
   118          2
   119          1
   124          1
   125          7
   126          2
   127          2
   128          4
   129          5
   130         17
   131          7
   132          1
   133          1
   135          2
   139          1
   140          3
   141          2
   142         17
   143         12
   144          4
   145         38
   146          5
   147          2
   149          2
   154          2
   155          4
   156          2
   157          8
   158          3
   159          3
   160         10
   161         10
   162          1
   165          1
   169          2
   170          3
   171          6
   172          2
   173          3
   174          3
   181          2
   182          1
   183          3
   184          3
   185         16
   186         20
   187         36
   188          7
   189          4
   195          3
   196          2
   198          2
   199        215
   200         34
   201         15
   202          2
   203          1
   204         11
   205          1
   210          3
   212          1
   215          1
   217          7
   218          1
   219          1
   220          9
   221          4
   224          3
   226          2
   227          1
   228          1
   236          4
   237          1
   238          7
   239          8
   240          2
   241          2
   242         61
   243         10
   244          7
   245          1
   254          8
   255          1
   256          1
   257          4
   258          1
   263          1
   270          3
   284          4
   285          1
   286          0
   291          3
   293          7
   294          4
   295          1
   298          1
   299          1
   310          0
   312         21
   313          4
   314          3
   315          0
   316          0
   328         56
   329         12
   330          3
   346          1
   349          4
   350          1
   370          1
   390          2
   391          0
   420         34
   421         10
   422          2
   462          0
   477          0
   478          0