##TITLE=Library Entry 44956
##JCAMP-DX=Revision 4.10 
##DATA TYPE=MASS SPECTRUM
##SAMPLE DESCRIPTION=J.VOTH, UNIV. OF CALIFORNIA, DAVIS, CALIFORNIA, 95616,
 USA
##NAMES=HP
##CAS NAME=1-Propene, 1,3-dichloro-, (Z)-
##MOLFORM=C3H4Cl2
##CAS REGISTRY NO=10061-01-5
##MP= -300
##BP= -300
##MW= 110
##$RETENTION INDEX=750
##$CONDENSED SPECTRUM=NO
##NPOINTS= 55
##XYDATA=(XY..XY) 1 
    12         22
    13         22
    14         20
    15          7
    24          8
    25         24
    26         69
    27         40
    28          1
    29          0
    35         60
    36         55
    37        151
    38        167
    39        624
    40         35
    41          3
    42          1
    43          1
    47         35
    48         33
    49        261
    50         13
    51         80
    52          1
    53          1
    54          2
    55          1
    59          1
    60          7
    61         17
    62          3
    63          5
    69          0
    71          2
    72          8
    73         45
    74         13
    75        999
    76         35
    77        317
    78         10
    81          0
    83         20
    84          1
    85         12
    87          2
   107          0
   109         13
   110        194
   111         14
   112        123
   113          5
   114         19
   115          0