##TITLE=Library Entry 1828
##JCAMP-DX=Revision 4.10 
##DATA TYPE=MASS SPECTRUM
##SAMPLE DESCRIPTION=Chemical Concepts
##NAMES=HP
##CAS NAME=2,5-Cyclooctadien-1-one
##MOLFORM=C8H10O
##CAS REGISTRY NO=10061-05-9
##MP= -300
##BP= -300
##MW= 122
##$RETENTION INDEX=0
##$CONDENSED SPECTRUM=NO
##NPOINTS= 88
##XYDATA=(XY..XY) 1 
    25          7
    26        158
    27        739
    28        135
    29         31
    30          1
    33          1
    34          3
    35          5
    37         60
    38        166
    39        999
    40        323
    41        296
    42        146
    43         45
    44         17
    45         27
    46          2
    47          3
    48          6
    49         23
    50        153
    51        242
    52        129
    53        418
    54        158
    55        323
    56         22
    57         10
    58          7
    59          6
    60          1
    61         25
    62         44
    63         87
    64         26
    65        202
    66        432
    67        173
    68        882
    69         47
    70          4
    71          3
    73          4
    74         21
    75          7
    76          1
    77        459
    78        221
    79        924
    80        273
    81        141
    82         41
    83         10
    85          0
    86          6
    87          3
    89         10
    91        130
    92         25
    93         70
    94        303
    95         52
    96         24
    97          0
    98          2
   101          0
   102          5
   103         22
   104         32
   105         22
   106         12
   107        126
   108         18
   109         13
   110          3
   112          3
   113          1
   114          0
   115          1
   116          0
   119          5
   120          8
   121         34
   122        161
   123         17
   124         12