##TITLE=Library Entry 11817
##JCAMP-DX=Revision 4.10 
##DATA TYPE=MASS SPECTRUM
##SAMPLE DESCRIPTION=V.A.Korolev, Moscow, Russia
##NAMES=HP
##CAS NAME=2,6-Diamino-3H-pyrimidin-4-one
##MOLFORM=C4H6N4O
##CAS REGISTRY NO=100643-27-4
##MP= -300
##BP= -300
##MW= 126
##$RETENTION INDEX=0
##$CONDENSED SPECTRUM=NO
##NPOINTS= 26
##XYDATA=(XY..XY) 1 
    38         53
    39        102
    40        215
    41        310
    42        472
    43        999
    44        112
    53         75
    54         27
    55        113
    56        169
    57         12
    65          6
    66         24
    67         76
    68        300
    69         49
    71         11
    83         21
    85         39
    86         48
    98        202
    99         20
   110         12
   126        605
   127         30