##TITLE=Library Entry 13018
##JCAMP-DX=Revision 4.10 
##DATA TYPE=MASS SPECTRUM
##SAMPLE DESCRIPTION=A. Brossi, LC, NIDDK, NIH, Bethesda, MD 20892
##NAMES=HP
##CAS NAME=2'-Methylphenyl-1thiogalactoside S,S-dioxide, tetraacetate(ester)
##MOLFORM=C21H26O11S
##CAS REGISTRY NO=100687-34-1
##MP= -300
##BP= -300
##MW= 486
##$RETENTION INDEX=0
##$CONDENSED SPECTRUM=NO
##NPOINTS= 233
##XYDATA=(XY..XY) 1 
    41         32
    43        999
    44         10
    45         33
    46          1
    47          2
    48          2
    49          1
    50          3
    51         10
    52          3
    53         11
    54          3
    55         27
    56         11
    57         37
    58          4
    59          5
    60         24
    61         33
    62          2
    63         11
    64          7
    65         66
    66          4
    67          3
    68          6
    69         43
    70         11
    71         29
    72          0
    73         71
    74          5
    75          2
    76          1
    77         39
    78         14
    79          3
    80          2
    81         92
    82          7
    83         11
    84          5
    85         87
    86         11
    87         10
    88          1
    89         19
    90          9
    91        178
    92         39
    93         10
    94          1
    95          3
    96          5
    97         85
    98         13
    99         40
   100          3
   101         10
   102          8
   103         63
   104          3
   105          3
   106          3
   107          4
   108          5
   109        434
   110         40
   111         40
   112          6
   113          9
   114          3
   115         53
   116         10
   117          2
   118          0
   119         12
   120          1
   121          5
   122          1
   123          3
   124          4
   125          8
   126          8
   127        338
   128         24
   129          7
   130          1
   131          3
   132          1
   133          4
   134          1
   135          1
   136          0
   137         13
   138         18
   139        122
   140         15
   141         18
   142          2
   143          7
   144          5
   145         96
   146          6
   147          2
   148          0
   149          1
   150          1
   151          8
   152          2
   153          2
   154          0
   155         11
   156         13
   157         26
   158          3
   159          2
   160          0
   161          1
   162          1
   163         19
   164          1
   165          1
   166          0
   167          4
   168          4
   169        819
   170         25
   171         15
   172          1
   173          2
   174          0
   175          0
   176          0
   177          0
   178          0
   179          0
   180          0
   181          0
   182          0
   183          0
   184          0
   185          3
   186          2
   187         61
   188          5
   189          4
   190          0
   191          3
   192          0
   193          0
   195          0
   197          0
   198          0
   199          3
   200          1
   201          0
   203          1
   204          0
   205         29
   206          2
   207          1
   209          1
   210          0
   211         33
   212          4
   213          1
   215          0
   217          0
   219          0
   222          0
   223          0
   224          0
   225          1
   227          1
   228          1
   229         73
   230          7
   231          2
   233          1
   234          0
   235          0
   239          0
   241          0
   242          0
   243          0
   245          0
   246          2
   247         26
   248          2
   249          2
   250          0
   251         18
   252          2
   253          1
   256          0
   257          0
   259          0
   262          0
   264         10
   265          3
   266          1
   267          0
   269          0
   271          9
   272          1
   273          0
   287          1
   288          0
   289         55
   290          7
   291          1
   293          2
   294          0
   296          0
   301          0
   306          2
   307          0
   311          0
   323          0
   325          0
   331        595
   332        105
   333         22
   334          2
   335          0
   342          0
   351          1
   353          1
   384          0
   426          0
   486          0