##TITLE=Library Entry 85619
##JCAMP-DX=Revision 4.10 
##DATA TYPE=MASS SPECTRUM
##SAMPLE DESCRIPTION=L.BAUER UNIV. OF ILLINOIS, CHICAGO, ILLINOIS, USA
##NAMES=HP
##CAS NAME=3-Pyridinol, 4-methyl-, acetate (ester)
##MOLFORM=C8H9NO2
##CAS REGISTRY NO=1006-96-8
##MP= -300
##BP= -300
##MW= 151
##$RETENTION INDEX=1897
##$CONDENSED SPECTRUM=NO
##NPOINTS= 15
##XYDATA=(XY..XY) 1 
    39         90
    43        810
    50         70
    51         90
    52         90
    53        180
    80        280
    81         50
    91         60
   108         40
   109        999
   110         80
   123         50
   151        150
   152         10