##TITLE=Library Entry 11081
##JCAMP-DX=Revision 4.10 
##DATA TYPE=MASS SPECTRUM
##SAMPLE DESCRIPTION=L.BAUER UNIV. OF ILLINOIS, CHICAGO, ILLINOIS, USA
##NAMES=HP
##CAS NAME=4-Pyridinemethanol, acetate (ester)
##MOLFORM=C8H9NO2
##CAS REGISTRY NO=1007-48-3
##MP= -300
##BP= -300
##MW= 151
##$RETENTION INDEX=0
##$CONDENSED SPECTRUM=NO
##NPOINTS= 20
##XYDATA=(XY..XY) 1 
    38         40
    39        200
    43        999
    50         80
    51        140
    52         80
    53         90
    63         50
    64         60
    65        130
    78         40
    79         60
    80        240
    91         60
    92        150
   108        160
   109        880
   110         70
   151        270
   152         30