##TITLE=Library Entry 85154
##JCAMP-DX=Revision 4.10 
##DATA TYPE=MASS SPECTRUM
##SAMPLE DESCRIPTION=Chemical Concepts
##NAMES=HP
##CAS NAME=2-Pyridinemethanol, acetate (ester)
##MOLFORM=C8H9NO2
##CAS REGISTRY NO=1007-49-4
##MP= -300
##BP= -300
##MW= 151
##$RETENTION INDEX=0
##$CONDENSED SPECTRUM=NO
##NPOINTS= 55
##XYDATA=(XY..XY) 1 
    26         11
    27         26
    28         15
    29          8
    31          2
    37          6
    38         17
    39        106
    40          8
    41          9
    42         11
    43        377
    44          8
    46          3
    49          3
    50         30
    51         81
    52         82
    53         44
    54          3
    55          2
    57          2
    61          2
    62          8
    63         24
    64         27
    65        174
    66         16
    75          2
    76          5
    77          3
    78        226
    79        196
    80        194
    81         14
    90          2
    91         14
    92        183
    93         35
    94          3
   104          2
   106         69
   107          7
   108        999
   109        718
   110         69
   111          3
   119          1
   120          1
   122          3
   123          1
   136         17
   137          1
   151          4
   152          8