##TITLE=Library Entry 31002
##JCAMP-DX=Revision 4.10 
##DATA TYPE=MASS SPECTRUM
##SAMPLE DESCRIPTION=Institute of Organic Chemistry, Novosibirsk, USSR 1988
##NAMES=HP
##CAS NAME=1,2,4,6-Tetra-O-acetyl-3-acetamido-3-deoxy-D-glucopyranose
##MOLFORM=C16H23NO10
##CAS REGISTRY NO=100759-98-6
##MP= -300
##BP= -300
##MW= 389
##$RETENTION INDEX=0
##$CONDENSED SPECTRUM=NO
##NPOINTS= 71
##XYDATA=(XY..XY) 1 
    59        309
    60        999
    61        119
    68        109
    70        109
    72        369
    73        159
    84        909
    85        199
    86        109
    88        219
    96        289
    97        159
    98        279
   101        369
   102        879
   103        139
   109        109
   112        569
   114        429
   115        809
   116        119
   125        229
   126        279
   127        129
   130        569
   138        339
   139        169
   144        329
   154        339
   156        129
   157        109
   167        309
   168        169
   172        479
   196        169
   209        259
   227        199
   228        139
   230         11
   231          4
   232         42
   233         12
   235         24
   241         49
   242         42
   244         56
   245         28
   246         26
   256         56
   258          4
   259          4
   262         42
   268          4
   269        179
   270        169
   271         24
   272         11
   274         28
   275         11
   283         11
   286         24
   287         85
   288         28
   289          4
   304         49
   305          4
   329          4
   330         26
   346         11
   347         24