##TITLE=Library Entry 33020
##JCAMP-DX=Revision 4.10 
##DATA TYPE=MASS SPECTRUM
##SAMPLE DESCRIPTION=Japan AIST/NIMC Database- Spectrum MS-NW-5583
##NAMES=HP
##CAS NAME=2-Norbornaneacetic acid
##MOLFORM=C9H14O2
##CAS REGISTRY NO=1007-01-8
##MP= -300
##BP= -300
##MW= 154
##$RETENTION INDEX=0
##$CONDENSED SPECTRUM=NO
##NPOINTS= 117
##XYDATA=(XY..XY) 1 
    14          3
    15         10
    16          1
    17          2
    18          7
    26         13
    27        155
    28         41
    29         88
    30          3
    31         11
    32          5
    37          5
    38         15
    39        247
    40         60
    41        346
    42         35
    43        111
    44         10
    45         53
    46          4
    47          2
    49          2
    50         16
    51         43
    52         26
    53        135
    54        199
    55        190
    56         23
    57         33
    58         10
    59          3
    60         73
    61         16
    62          6
    63         12
    64          3
    65         63
    66        296
    67        999
    68        524
    69         67
    70         47
    71        130
    72         14
    73         19
    74          6
    75          2
    76          1
    77         84
    78         27
    79        346
    80        125
    81        118
    82         67
    83         58
    84         39
    85        468
    86         55
    87        204
    88         13
    89          3
    90          1
    91         50
    92         68
    93         99
    94        876
    95        626
    96         49
    97         30
    98          7
    99          9
   100         12
   101          2
   102          1
   103          3
   104          1
   105          6
   106          5
   107         37
   108        163
   109         64
   110          8
   111         16
   112         50
   113         37
   114          2
   115          1
   117          3
   118          9
   119          3
   120          1
   121         17
   122          3
   123          9
   124          9
   125        107
   126         72
   127          7
   128          1
   129          1
   133          1
   134          3
   135          8
   136        197
   137         27
   138          2
   139         14
   140          2
   141          1
   152          4
   153          4
   154         62
   155          7
   156          1