##TITLE=Library Entry 10940
##JCAMP-DX=Revision 4.10 
##DATA TYPE=MASS SPECTRUM
##SAMPLE DESCRIPTION=Chemical Concepts
##NAMES=HP
##CAS NAME=1-Methyl-5-[1-(2,4-dinitrophenylhydrazono)ethyl]furan
##MOLFORM=C13H12N4O5
##CAS REGISTRY NO=100725-19-7
##MP= -300
##BP= -300
##MW= 304
##$RETENTION INDEX=0
##$CONDENSED SPECTRUM=NO
##NPOINTS= 110
##XYDATA=(XY..XY) 1 
    33         63
    39        384
    40         53
    43        999
    46         17
    51        357
    53        755
    54         39
    55         40
    56          5
    57          4
    63        269
    64         80
    65        133
    66         21
    67         12
    68         15
    69         10
    70          5
    71          4
    75        280
    77        275
    78         79
    79        117
    80         37
    81         36
    82         15
    83          4
    84          3
    85          4
    88         25
    89         24
    90         19
    91         22
    93        257
    94         21
    95         19
    96          8
    97         11
   101          8
   102         10
   103         15
   104         12
   105         21
   107        767
   108        140
   109        114
   110          9
   115         58
   116         14
   117          6
   118          3
   119          4
   120          5
   122        120
   123         49
   124         37
   125         50
   126          7
   127         20
   128         30
   129         15
   130          6
   131          6
   132          4
   133          4
   134         13
   135         10
   139         40
   140         25
   141         11
   142         10
   143          9
   144          6
   150         27
   151          7
   152         28
   153         26
   154         12
   155          8
   156          7
   157          3
   165          5
   167          9
   168         39
   169         16
   170         16
   171          6
   181         10
   182         23
   183         10
   184          8
   185          8
   186          3
   195          3
   196          6
   197          7
   198          4
   199          5
   211          5
   212          5
   213          7
   214         11
   215          3
   227          3
   228          9
   229          3
   257          3
   304        174
   305         28