##TITLE=Library Entry 50351
##JCAMP-DX=Revision 4.10 
##DATA TYPE=MASS SPECTRUM
##SAMPLE DESCRIPTION=M. Cojocaru, Dep. Chem., Bar-Ilan Univ., Israel
##NAMES=HP
##CAS NAME=1H-Pyrrole, 1-(3-bromopropyl)-
##MOLFORM=C7H10BrN
##CAS REGISTRY NO=100779-91-7
##MP= -300
##BP= -300
##MW= 187
##$RETENTION INDEX=0
##$CONDENSED SPECTRUM=NO
##NPOINTS= 24
##XYDATA=(XY..XY) 1 
    65         10
    66         17
    67         52
    68         22
    77         24
    78         73
    79         45
    80        828
    81        999
    82         62
    93         76
    94         14
    95         11
   103         11
   106         89
   107         39
   108        261
   109         19
   117         14
   118         13
   187        674
   188        162
   189        638
   190        149