##TITLE=Library Entry 13013
##JCAMP-DX=Revision 4.10 
##DATA TYPE=MASS SPECTRUM
##SAMPLE DESCRIPTION=A. Brossi, LC, NIDDK, NIH, Bethesda, MD 20892
##NAMES=HP
##CAS NAME=2'-Methylphenyl-thio-.beta.-d-galactoside, tetraacetate(ester)
##MOLFORM=C21H26O9S
##CAS REGISTRY NO=100760-91-6
##MP= -300
##BP= -300
##MW= 454
##$RETENTION INDEX=0
##$CONDENSED SPECTRUM=NO
##NPOINTS= 229
##XYDATA=(XY..XY) 1 
    42        122
    43        999
    44         74
    45         15
    47          5
    48          0
    49          1
    50          1
    51          7
    52          2
    53          9
    54          2
    55         21
    56          5
    57         13
    58          3
    59          4
    60          9
    61         17
    62          1
    63          5
    64          1
    65         18
    66          1
    67          1
    68          3
    69         33
    70          7
    71         19
    72          1
    73         25
    74          1
    75          1
    76          0
    77         25
    78          7
    79         14
    80          1
    81        108
    82          8
    83          9
    84          5
    85         48
    86          7
    87          9
    88          0
    89         11
    90          5
    91         67
    92         13
    93          5
    94          1
    95          2
    96          3
    97         64
    98          9
    99         35
   100          2
   101          7
   102          5
   103         59
   104          3
   105          4
   106          0
   107          0
   108          0
   109        380
   110          3
   111          8
   112          1
   113          5
   114          2
   115         47
   116          6
   117          2
   118          0
   119          2
   120          0
   121         11
   122          4
   123         49
   124         56
   125         18
   126         10
   127        251
   128         19
   129          5
   130          1
   131          2
   132          1
   133          2
   134          3
   135          7
   136          1
   137         26
   138          3
   139         61
   140          4
   141         14
   142          2
   143          4
   144          2
   145         49
   146          2
   147          2
   148          1
   149          7
   150          2
   151          8
   152          2
   153          4
   154          0
   155          1
   156          0
   157          5
   158          1
   159          1
   160          0
   161          5
   162          0
   163          2
   164          0
   165          8
   166          6
   167          7
   168          0
   169        552
   170         11
   171         10
   172          1
   173          0
   174          0
   175          1
   176          0
   177          2
   178          0
   179          6
   180          0
   181          0
   182          0
   183          0
   184          0
   185          2
   186          1
   187         24
   188          2
   189          2
   190          0
   191          3
   192          0
   193          0
   194          0
   195          1
   196          0
   197          0
   199          0
   200          0
   201          1
   202          0
   203          2
   204          1
   205          5
   206          0
   207          3
   208          0
   209          0
   210          0
   211         23
   212          2
   213          0
   214          0
   215          1
   216          0
   217          0
   219          3
   220          0
   221          0
   227          0
   228          0
   229         36
   230          3
   231          2
   232          0
   233          3
   234          0
   235          0
   237          0
   239          0
   243          0
   245          0
   246          1
   247         10
   248          1
   249          1
   250          0
   251          0
   252          0
   256          0
   259          0
   261          0
   262          0
   263          0
   264          0
   267          0
   271          6
   272          0
   273          0
   274          0
   275          1
   276          0
   279          0
   287          0
   288          0
   289         11
   290          1
   291          0
   293          0
   309          0
   328          0
   331        410
   332         81
   333         19
   334          2
   335          0
   351          0
   353          0
   370          0
   395          0
   454          0