##TITLE=Library Entry 47122
##JCAMP-DX=Revision 4.10 
##DATA TYPE=MASS SPECTRUM
##SAMPLE DESCRIPTION=Div. of Experiment Therapeutics WRAIR, WRAMC, Washingto
n DC 20307
##NAMES=HP
##CAS NAME=N,N'-[6-Methylpyrido[3,2-d]pyrimidine-2,4-diyl]bisbenzamide
##MOLFORM=C22H17N5O2
##CAS REGISTRY NO=100768-45-4
##MP= -300
##BP= -300
##MW= 383
##$RETENTION INDEX=0
##$CONDENSED SPECTRUM=NO
##NPOINTS= 158
##XYDATA=(XY..XY) 1 
    41          5
    42          9
    43          9
    44          2
    45          1
    47          6
    49         37
    51        192
    52         19
    53         14
    55          5
    56          0
    57          4
    60          1
    62          1
    63          5
    64          4
    65          8
    66          2
    67          2
    68         18
    69          2
    70          0
    71          0
    73          1
    74          2
    75          8
    77        999
    78         53
    79          3
    80          1
    81          0
    83          0
    84         22
    86         13
    88          3
    90          6
    91          4
    92          5
    93          3
    94          0
    95          0
    97          0
    98          0
    99          0
   101          0
   102          0
   103          1
   105        947
   106         48
   107          4
   111          1
   113          0
   115          0
   117          4
   118          3
   119          2
   120          3
   121          0
   124          0
   127          0
   128          0
   129          0
   130          4
   132          5
   133          2
   134          1
   135          0
   139          1
   140          0
   141          0
   143          0
   144          0
   145          2
   147          1
   149          0
   152          1
   153          0
   154          0
   157          1
   158          2
   159          9
   160          3
   161          0
   166          0
   167          0
   173          1
   174          0
   175          0
   179          0
   180          0
   181          2
   182          0
   185          2
   193          0
   194          1
   200          0
   201          0
   202          1
   203          4
   206          0
   207          0
   208          3
   209          4
   210          1
   219          0
   220          0
   221          0
   223          1
   233          0
   234          2
   235         15
   236          5
   237          1
   238          0
   240          0
   248          1
   249          4
   250         45
   251         62
   252          9
   253          1
   261          1
   262          2
   263         10
   264          1
   276          3
   278         47
   279         13
   280          2
   288          3
   289          2
   292          0
   306         44
   307          7
   308          1
   311          1
   312          0
   326         34
   327          7
   328          1
   337          2
   338          1
   339          3
   340          1
   341          0
   354        328
   355         85
   356         12
   357          1
   366          3
   367          1
   368          0
   382          7
   383         99
   384         34
   385          6
   386          0