##TITLE=Library Entry 26057
##JCAMP-DX=Revision 4.10 
##DATA TYPE=MASS SPECTRUM
##SAMPLE DESCRIPTION=Japan AIST/NIMC Database- Spectrum MS-NW-5674
##NAMES=HP
##CAS NAME=1-Phenyl-2-butanone
##MOLFORM=C10H12O
##CAS REGISTRY NO=1007-32-5
##MP= -300
##BP= -300
##MW= 148
##$RETENTION INDEX=1192
##$CONDENSED SPECTRUM=NO
##NPOINTS= 66
##XYDATA=(XY..XY) 1 
    14          1
    15          2
    18          1
    26          5
    27         34
    28          8
    29        332
    30          8
    32          2
    37          2
    38          7
    39         54
    40          4
    41         15
    42          2
    43          4
    44          2
    45          9
    46          2
    49          1
    50         11
    51         29
    52          8
    53          3
    55          5
    56          9
    57        999
    58         34
    59          3
    61          3
    62          9
    63         29
    64          9
    65        101
    66          7
    70          1
    73          1
    74          4
    75          3
    76          2
    77          9
    78          4
    79          2
    85          1
    86          2
    87          2
    89         24
    90         15
    91        371
    92         85
    93          7
   102          1
   103          3
   104          2
   105          6
   106          1
   115          4
   116          1
   117          2
   118          3
   119          3
   131          1
   133          1
   148        116
   149         15
   150          1