##TITLE=Library Entry 31864
##JCAMP-DX=Revision 4.10 
##DATA TYPE=MASS SPECTRUM
##SAMPLE DESCRIPTION=CARL DJERASSI DEPT OF CHEM STANFORD UNIV STANFORD CALIF
 94305
##NAMES=HP
##CAS NAME=Carbonic acid, thio-, O-methyl O-phenyl ester
##MOLFORM=C8H8O2S
##CAS REGISTRY NO=1007-37-0
##MP= -300
##BP= -300
##MW= 168
##$RETENTION INDEX=0
##$CONDENSED SPECTRUM=NO
##NPOINTS= 50
##XYDATA=(XY..XY) 1 
    41         10
    42         10
    43         10
    44         20
    45         40
    46         10
    47        240
    49         20
    50        120
    51        200
    52         30
    53         10
    59        110
    60         90
    61         10
    62         30
    63        100
    64         40
    65        999
    66         60
    69         10
    74         20
    75        890
    76         40
    77        480
    78        730
    79        160
    80         10
    91        140
    92         30
    93        240
    94         70
    95         10
    96         10
    97         10
   105         20
   107         20
   108        290
   109        210
   110         10
   111         10
   123         20
   124        640
   125         50
   126         20
   137         10
   140         10
   168        640
   169         50
   170         30