##TITLE=Library Entry 64991
##JCAMP-DX=Revision 4.10 
##DATA TYPE=MASS SPECTRUM
##SAMPLE DESCRIPTION=Japan AIST/NIMC Database- Spectrum MS-NW-8587
##NAMES=HP
##CAS NAME=Benzene, (2,2-dimethylpropyl)-
##MOLFORM=C11H16
##CAS REGISTRY NO=1007-26-7
##MP= -300
##BP= -300
##MW= 148
##$RETENTION INDEX=1065
##$CONDENSED SPECTRUM=NO
##NPOINTS= 67
##XYDATA=(XY..XY) 1 
    15          2
    26          1
    27         27
    28          6
    29        133
    30          3
    38          4
    39         71
    40          7
    41        254
    42         10
    43          6
    50         10
    51         37
    52          9
    53         11
    54          1
    55         49
    56         28
    57        990
    58         47
    59          1
    62          5
    63         24
    64         11
    65        109
    66          7
    67          5
    69          2
    71          5
    74          3
    75          4
    76          4
    77         26
    78         13
    79         10
    86          1
    87          2
    89         21
    90          9
    91        564
    92        999
    93         75
    94          2
    97          1
    99          1
   102          4
   103          9
   104          5
   105         31
   106          2
   107          1
   108          1
   115         34
   116          9
   117         24
   118          4
   127          2
   128          5
   129          3
   130          1
   131          4
   132          4
   133        101
   134         10
   148        118
   149         14