##TITLE=Library Entry 70204
##JCAMP-DX=Revision 4.10 
##DATA TYPE=MASS SPECTRUM
##SAMPLE DESCRIPTION=Japan AIST/NIMC Database- Spectrum MS-IW-5756
##NAMES=HP
##CAS NAME=3-(Phenylcarbamoyl)perhydro-2-furyl ether
##MOLFORM=C22H24N2O5
##CAS REGISTRY NO=100736-77-4
##MP= -300
##BP= -300
##MW= 396
##$RETENTION INDEX=0
##$CONDENSED SPECTRUM=NO
##NPOINTS= 161
##XYDATA=(XY..XY) 1 
    14          1
    15          3
    25          1
    26          7
    27         31
    28         36
    29         26
    30          2
    31         13
    37          7
    38         18
    39        122
    40         30
    41        236
    42         64
    43         58
    44         10
    45          7
    46         14
    47          2
    49          1
    50         15
    51         46
    52         17
    53         15
    54         10
    55         43
    56         10
    57         13
    58          7
    59          2
    60          1
    61          3
    62          7
    63         22
    64         28
    65        101
    66        120
    67         14
    68         16
    69        366
    70        484
    71        340
    72         15
    73          2
    74          4
    75          4
    76          9
    77        122
    78         15
    79          4
    80          1
    81          1
    83          5
    84          4
    85         14
    86         32
    87          6
    88          4
    89          2
    90          4
    91         32
    92         85
    93        728
    94         84
    95         18
    96         17
    97        999
    98         59
    99          6
   102          1
   103          7
   104         34
   105          5
   106         13
   107          3
   109          1
   110          1
   111          4
   112          1
   113          5
   114         15
   115          8
   116          3
   117          7
   118          4
   119         63
   120        100
   121         12
   122          3
   123          1
   125          1
   128          2
   129          1
   130         13
   131          6
   132         11
   133          5
   134          1
   135          5
   136          1
   137          1
   139          1
   140          1
   141          1
   142          3
   143          6
   144          4
   145          2
   146          5
   147          1
   148        107
   149         11
   150          1
   151          1
   153          5
   154          5
   155          3
   156          1
   158          2
   159          4
   160         21
   161         48
   162          8
   163         16
   164          7
   165          1
   170          4
   171          5
   172         65
   173          8
   174          1
   176          5
   177          1
   179         27
   180          3
   181         33
   182          4
   183          1
   186          1
   187          2
   188         17
   189        514
   190        210
   191         28
   192          3
   198          1
   205          3
   206          8
   207        122
   208         15
   209          2
   247          1
   274          7
   275          2
   277          1
   281          1
   303         12
   304          2
   396         21
   397          5