##TITLE=Library Entry 65924
##JCAMP-DX=Revision 4.10 
##DATA TYPE=MASS SPECTRUM
##SAMPLE DESCRIPTION=James Little,Eastman Chem.Co.,Kingsport,TN
##NAMES=HP
##CAS NAME=Urea, N-methyl-N'-phenyl-
##MOLFORM=C8H10N2O
##CAS REGISTRY NO=1007-36-9
##MP= -300
##BP= -300
##MW= 150
##$RETENTION INDEX=0
##$CONDENSED SPECTRUM=NO
##NPOINTS= 32
##XYDATA=(XY..XY) 1 
    27         47
    28        193
    30         64
    38         78
    39        166
    40         37
    41         37
    50         60
    51         80
    52         46
    58        205
    62         38
    63         76
    64         68
    65        228
    66        120
    74         16
    76         10
    77         61
    78         12
    91         55
    92        107
    93        999
    94         67
   106          7
   119         31
   120          9
   134          2
   149          3
   150         94
   151         13
   152          1