##TITLE=Library Entry 59056
##JCAMP-DX=Revision 4.10 
##DATA TYPE=MASS SPECTRUM
##SAMPLE DESCRIPTION=A.A.Kutin, Moscow, Russia
##NAMES=HP
##CAS NAME=Piperidine, 1-benzyl-4-bromo-4-(2-bromoethyl)-
##MOLFORM=C14H19Br2N
##CAS REGISTRY NO=100792-36-7
##MP= -300
##BP= -300
##MW= 359
##$RETENTION INDEX=0
##$CONDENSED SPECTRUM=NO
##NPOINTS= 187
##XYDATA=(XY..XY) 1 
    33          0
    34          0
    36          0
    37          1
    38          5
    39         73
    40         28
    41        118
    42        225
    43         14
    44         24
    45          2
    46          0
    47          0
    48          0
    49          0
    50          9
    51         28
    52         14
    53         56
    54         20
    55         35
    56         13
    57          2
    58          1
    59          1
    60          1
    61          1
    62          4
    63         18
    64          9
    65        119
    66         13
    67         23
    68          6
    69          4
    70          2
    71          1
    72          1
    73          1
    74          1
    75          1
    76          3
    77         20
    78         12
    79         95
    80        156
    81        111
    82        150
    83          3
    84          2
    86          6
    87          1
    89         28
    91        999
    92        107
    93         13
    94          6
    95          6
    96         10
    97          1
    98          0
   100          0
   101          0
   102          0
   103          2
   104          5
   105          6
   106          5
   107          4
   108         10
   109          6
   110         26
   111          2
   112          0
   115          2
   116          1
   117          5
   118          9
   119          3
   120         18
   121          3
   122         10
   123          1
   124          8
   125          0
   126          0
   127          0
   128          1
   129          2
   130          2
   131          1
   132          3
   133          1
   134          1
   135          1
   136          0
   140          0
   141          0
   142          0
   143          1
   144          1
   145          0
   146          2
   147          0
   148          0
   149          0
   150          0
   153          0
   154          0
   155          0
   156          0
   157          0
   158          1
   159          0
   160          0
   161          1
   162          0
   163          1
   164          0
   167          0
   168          0
   169          1
   170          1
   171          2
   172         37
   173          5
   174          4
   175          0
   176          0
   178          0
   180          0
   182          0
   183          0
   184          0
   185          0
   186          7
   187          1
   188          6
   189          1
   190          5
   191          0
   192          0
   194          0
   196          0
   197          0
   198          3
   199          4
   200         21
   201          4
   202          9
   203          1
   204          6
   205          0
   206          0
   216          0
   217          0
   218          5
   219          1
   252          0
   253          1
   254          0
   255          0
   256          0
   267          0
   268          3
   270          7
   271          0
   272          3
   273          0
   276          0
   278          4
   280        193
   281         34
   282        177
   283         29
   284          4
   285          0
   286          1
   287          0
   358          2
   359          6
   360          5
   361         10
   362          3
   363          5
   364          0