##TITLE=Library Entry 31128
##JCAMP-DX=Revision 4.10 
##DATA TYPE=MASS SPECTRUM
##SAMPLE DESCRIPTION=K.Kawamura Anal.Chem.,65,3505(1993)
##NAMES=HP
##CAS NAME=2,2-Bis(butoxy) propionic acid, butyl ester
##MOLFORM=C15H30O4
##CAS REGISTRY NO=10076-52-5
##MP= -300
##BP= -300
##MW= 274
##$RETENTION INDEX=0
##$CONDENSED SPECTRUM=NO
##NPOINTS= 36
##XYDATA=(XY..XY) 1 
    38         11
    39        112
    40          6
    41        458
    42         28
    43        332
    44         14
    53          8
    54         35
    55         35
    56        133
    57        303
    61        999
    62         22
    84          4
    85          6
    87          6
    88         43
    89         43
    99         16
   101          4
   111          4
   112          4
   113          6
   114         11
   115         12
   116         20
   117        159
   118          9
   127         45
   143         11
   144         12
   145         24
   172         12
   173        260
   174         27