##TITLE=Library Entry 58313
##JCAMP-DX=Revision 4.10 
##DATA TYPE=MASS SPECTRUM
##SAMPLE DESCRIPTION=Japan AIST/NIMC Database- Spectrum MS-IW-7680
##NAMES=HP
##CAS NAME=Methyl pyruvate dimethyl acetal
##MOLFORM=C6H12O4
##CAS REGISTRY NO=10076-48-9
##MP= -300
##BP= -300
##MW= 148
##$RETENTION INDEX=0
##$CONDENSED SPECTRUM=NO
##NPOINTS= 61
##XYDATA=(XY..XY) 1 
    13          1
    14          9
    15        122
    16          2
    25          1
    26         10
    27         30
    28         22
    29         12
    30          9
    31         62
    32         29
    33          3
    39          1
    40          1
    41          6
    42         54
    43        769
    44         23
    45         32
    46          2
    47        154
    48          3
    53          8
    54          7
    55         20
    56         13
    57        308
    58         31
    59         51
    60          3
    61          6
    68          3
    69          2
    71          1
    72          1
    73          2
    74          1
    75        113
    76          4
    83          2
    84         18
    85        210
    86         19
    87         32
    88          4
    89        999
    90         48
    91          5
    99          1
   101          1
   102          3
   103          1
   105          2
   115          1
   116         43
   117        451
   118         26
   119          3
   133         30
   134          1