##TITLE=Library Entry 62955
##JCAMP-DX=Revision 4.10 
##DATA TYPE=MASS SPECTRUM
##SAMPLE DESCRIPTION=A.A.Kutin, Moscow, Russia
##NAMES=HP
##CAS NAME=Urea, 1-(4-bromophenyl)-3-(4-methylphenylsulfonyl)-
##MOLFORM=C14H13BrN2O3S
##CAS REGISTRY NO=100716-09-4
##MP= -300
##BP= -300
##MW= 368
##$RETENTION INDEX=0
##$CONDENSED SPECTRUM=NO
##NPOINTS= 196
##XYDATA=(XY..XY) 1 
    33          0
    34          1
    35          1
    36          9
    37         16
    38         50
    39        163
    40         41
    41         59
    42         13
    43         19
    44         21
    45         18
    46         13
    47          1
    48          7
    49          4
    50         44
    51         56
    52         36
    53         14
    54          5
    55          9
    56          3
    57          7
    58          2
    59          1
    60          5
    61         14
    62         44
    63        176
    64        116
    65        381
    66         28
    67          9
    68          2
    69          8
    70          5
    71          5
    73          7
    74         12
    75         16
    76         17
    77         45
    78         23
    79         28
    80         10
    81          5
    82          6
    83          3
    84          2
    85          7
    86          9
    87          8
    88          6
    89         72
    90        127
    91        999
    92        179
    93         25
    94          2
    95          4
    96          1
    97          2
    98          1
    99          1
   100          0
   101          1
   102          9
   103          2
   104          5
   105          6
   106         34
   107         35
   108         52
   109          4
   110          1
   111          4
   112          1
   113          0
   115          2
   116          5
   117         15
   118          4
   119         14
   120          1
   121          4
   122          2
   123          3
   124          1
   125          0
   126          0
   127          1
   128          1
   129          2
   130          0
   131          1
   132          2
   133          6
   134         28
   135          2
   136          0
   137          0
   138          1
   139         20
   140          3
   141          2
   142          2
   143         38
   145         39
   146          2
   147          0
   149          1
   150          0
   151          1
   152          2
   153          3
   155        216
   156         18
   157         13
   158          1
   159          0
   160          0
   161          0
   162          0
   163          0
   164          0
   165          2
   166          2
   167          7
   168          3
   169         19
   170        123
   171        644
   172        150
   173        580
   174         39
   175          1
   177          0
   178          0
   179          0
   180          6
   181          4
   182          4
   183          1
   184          0
   185          1
   186          0
   187          0
   189          0
   191          0
   192          0
   195          0
   197        111
   199         70
   200          4
   201          0
   208          0
   209          0
   210          0
   212          0
   214          1
   215          0
   216          0
   223          0
   224          3
   225          0
   226          0
   256          0
   259          0
   260          1
   261          0
   262          1
   263          0
   264          0
   275          0
   284          0
   288          0
   289          0
   290          1
   291          0
   303          0
   304          1
   305          0
   306          1
   325          0
   326          0
   327          0
   363          0
   364          0
   365          1
   368        108
   370        118
   371         15
   372          5
   373          0