##TITLE=Library Entry 27869
##JCAMP-DX=Revision 4.10 
##DATA TYPE=MASS SPECTRUM
##SAMPLE DESCRIPTION=V.V.Takhistov
##NAMES=HP
##CAS NAME=(CH3)3CCH2N(CH3)2
##MOLFORM=C7H17N
##CAS REGISTRY NO=10076-31-0
##MP= -300
##BP= -300
##MW= 115
##$RETENTION INDEX=0
##$CONDENSED SPECTRUM=NO
##NPOINTS= 19
##XYDATA=(XY..XY) 1 
    29         32
    30         53
    39         25
    42         85
    43         27
    44         75
    55         14
    56         13
    57         21
    58        999
    59         42
    70         14
    82          3
    84         13
    85         30
   100         80
   101          6
   115         62
   116          6