##TITLE=Library Entry 13012
##JCAMP-DX=Revision 4.10 
##DATA TYPE=MASS SPECTRUM
##SAMPLE DESCRIPTION=A. Brossi, LC, NIDDK, NIH, Bethesda, MD 20892
##NAMES=HP
##CAS NAME=4'-Methylphenyl-1thiogalactoside S,S-doxide, tetraacetate(ester)
##MOLFORM=C21H26O11S
##CAS REGISTRY NO=100762-19-4
##MP= -300
##BP= -300
##MW= 486
##$RETENTION INDEX=0
##$CONDENSED SPECTRUM=NO
##NPOINTS= 220
##XYDATA=(XY..XY) 1 
    43        999
    44          4
    45         15
    46          0
    47          1
    48          1
    49          1
    50          2
    51          7
    52          3
    53          9
    54          3
    55         23
    56          8
    57         19
    58          3
    59          2
    60         18
    61         19
    62          2
    63          8
    64          5
    65         52
    66          3
    67          6
    68          6
    69         35
    70         10
    71         22
    72          2
    73         32
    74          2
    75          1
    76          0
    77         10
    78          4
    79          3
    80          2
    81        113
    82          9
    83         10
    84          5
    85         68
    86         11
    87          5
    88          1
    89         14
    90          7
    91        131
    92         30
    93          7
    94          1
    95          4
    96          6
    97         89
    98         16
    99         43
   100          3
   101          6
   102         10
   103         75
   104          3
   105          3
   106          1
   107          8
   108          0
   109        477
   110         58
   111         16
   112          4
   113         11
   114          4
   115         71
   116         13
   117          2
   118          0
   119         16
   120          1
   121          3
   122          2
   123          5
   124          2
   125         12
   126         11
   127        401
   128         31
   129          7
   130          0
   131          4
   132          0
   133          2
   134          0
   135          1
   136          0
   137          1
   138          5
   139        263
   140         26
   141         31
   142          3
   143          8
   144          7
   145         88
   146          5
   147          2
   148          0
   149          1
   150          3
   151         12
   152          2
   153          3
   154          0
   155         22
   156          3
   157         25
   158          4
   159          2
   160          0
   161          1
   162          0
   163          3
   164          0
   165          0
   167          6
   168          6
   169        989
   170         19
   171         20
   172          1
   173          2
   174          0
   175          0
   176          0
   177          0
   178          0
   179          0
   180          0
   181          0
   182          0
   183          0
   184          0
   185          4
   186          3
   187         50
   188          4
   189          1
   190          0
   191          0
   193          0
   195          0
   197          3
   198          0
   199          4
   200          0
   201          1
   203          1
   204          0
   205          6
   206          0
   207          0
   211         46
   212          5
   213          1
   214          0
   215          0
   217          0
   219          0
   223          0
   225          0
   227          0
   228          0
   229         72
   230          7
   231          1
   232          0
   233          0
   235          0
   239          0
   241          0
   243          0
   245          0
   246          2
   247          6
   248          0
   249          0
   251         26
   252          3
   253          1
   254          0
   256          0
   257          0
   262          0
   264         16
   265          4
   266          1
   267          0
   271         13
   272          1
   273          0
   279          0
   283          0
   287          1
   288          0
   289         23
   290          3
   291          0
   293          3
   294          0
   295          0
   306          3
   307          1
   308          0
   323          0
   325          0
   331        728
   332        144
   333         32
   334          3
   335          0
   486          0