##TITLE=Library Entry 91168
##JCAMP-DX=Revision 4.10 
##DATA TYPE=MASS SPECTRUM
##SAMPLE DESCRIPTION=A.A.Kutin, Moscow, Russia
##NAMES=HP
##CAS NAME=3-Dipropylaminomethyl-3H-benzooxazole-2-thione
##MOLFORM=C14H20N2OS
##CAS REGISTRY NO=100875-51-2
##MP= -300
##BP= -300
##MW= 264
##$RETENTION INDEX=0
##$CONDENSED SPECTRUM=NO
##NPOINTS= 122
##XYDATA=(XY..XY) 1 
    33          0
    34          0
    37          2
    38         10
    39         22
    40         20
    41         59
    42         71
    43         86
    44         27
    45          9
    46          0
    47          0
    48          0
    49          1
    50          7
    51         18
    52         14
    53          4
    54          3
    55          3
    56          6
    57          8
    58          7
    59          2
    60          1
    61          4
    62          9
    63         29
    64         34
    65         13
    66          1
    67          0
    68          2
    69          4
    70         24
    71          5
    72         92
    73          5
    74          1
    76         13
    77         39
    78         14
    79          9
    80          0
    81          0
    82          1
    83          2
    84         32
    85          4
    86         61
    87          4
    89          0
    90          5
    91         53
    92          8
    93          2
    94          0
    95          5
    96         15
    97          1
    98          4
    99          0
   100          4
   101          5
   102          1
   103          1
   104          5
   105          1
   106          7
   107          4
   108          1
   109          0
   112         11
   114        999
   115         84
   116          3
   117          1
   118          1
   119          2
   120          2
   122         22
   123          5
   124          1
   125          0
   129          0
   131          0
   132          1
   133          0
   134          1
   135          0
   136          2
   138          0
   144          0
   145          1
   146          0
   147          0
   150         16
   151        197
   152         27
   153         10
   154          0
   160          0
   161          0
   163          0
   164         22
   165          3
   166          0
   171          0
   172          0
   176          2
   183          0
   189          0
   190          1
   192          1
   221          0
   235          7
   236          0
   249          0
   263          0
   264          0
   265          0