##TITLE=Library Entry 83080
##JCAMP-DX=Revision 4.10 
##DATA TYPE=MASS SPECTRUM
##SAMPLE DESCRIPTION=J.Sanz-Asensio ET AL.J.Chrom.,840,235(1999)
##NAMES=HP
##CAS NAME=3-Methylbenzo[e][1,3]-oxazine-2-one
##MOLFORM=C9H9NO2
##CAS REGISTRY NO=1008-83-9
##MP= -300
##BP= -300
##MW= 163
##$RETENTION INDEX=0
##$CONDENSED SPECTRUM=NO
##NPOINTS= 39
##XYDATA=(XY..XY) 1 
    50         29
    51         67
    52         61
    53         13
    55          8
    57         16
    58         19
    62         13
    63         45
    64         19
    65         32
    66          8
    74         13
    75          8
    76         21
    77        136
    78        941
    79         72
    80          8
    82          8
    89         24
    91         56
    92         37
   105         37
   106        999
   107        139
   108         11
   118         32
   119         27
   120         45
   121         53
   134          8
   137         67
   138         51
   143         19
   144          8
   162         93
   163        971
   164        104