##TITLE=Library Entry 68762
##JCAMP-DX=Revision 4.10 
##DATA TYPE=MASS SPECTRUM
##SAMPLE DESCRIPTION=G.A.M.S., PARIS, FRANCE.
##NAMES=HP
##CAS NAME=Naphthalene, decahydro-2,3-dimethyl-
##MOLFORM=C12H22
##CAS REGISTRY NO=1008-80-6
##MP= -300
##BP= -300
##MW= 166
##$RETENTION INDEX=0
##$CONDENSED SPECTRUM=NO
##NPOINTS= 87
##XYDATA=(XY..XY) 1 
    26          5
    27          5
    28         42
    29        124
    30          2
    38          2
    39        125
    40         23
    41        407
    42         42
    43         84
    44          6
    46          1
    50          3
    51         16
    52         10
    53         94
    54         73
    55        466
    56         61
    57         30
    58          2
    63          3
    64          1
    65         29
    66         26
    67        367
    68        214
    69        295
    70        120
    71         27
    72          1
    75          1
    77         42
    78         10
    79         72
    80         28
    81        565
    82        278
    83        120
    84         23
    85         13
    86          1
    91         27
    92          4
    93         29
    94         32
    95        999
    96        235
    97        171
    98         15
   103          1
   104          1
   105          5
   106          1
   107         12
   108         16
   109        421
   110         71
   111         15
   112          2
   115          1
   117          1
   119          1
   121          6
   122         11
   123        117
   124        121
   125         25
   126          2
   135          4
   136          3
   137         34
   138          9
   139          1
   140          3
   149          3
   150          3
   151        648
   152         99
   153          6
   154          1
   164          1
   165          8
   166        648
   167         91
   168          5