##TITLE=Library Entry 63619
##JCAMP-DX=Revision 4.10 
##DATA TYPE=MASS SPECTRUM
##SAMPLE DESCRIPTION=A.A.Kutin, Moscow, Russia
##NAMES=HP
##CAS NAME=Benzimidazole, 2-benzylsulfonyl-
##MOLFORM=C14H12N2O2S
##CAS REGISTRY NO=100872-42-2
##MP= -300
##BP= -300
##MW= 272
##$RETENTION INDEX=0
##$CONDENSED SPECTRUM=NO
##NPOINTS= 133
##XYDATA=(XY..XY) 1 
    33          0
    34          1
    36          0
    37          3
    39         54
    41         20
    42          0
    43          0
    44          2
    45          1
    46          0
    48          1
    50          3
    51         17
    52          6
    53          1
    54          0
    55          0
    56          0
    57          1
    58          0
    60          0
    63         42
    65        147
    66          4
    67          0
    69          0
    70          1
    71          0
    73          0
    74          0
    75          2
    77         10
    78          6
    79          0
    81          0
    83          0
    84          0
    85          0
    87          0
    88          0
    91        999
    92         55
    93          1
    95          0
    96          0
    97          0
   101          0
   102          2
   103          2
   104          2
   105          2
   106          3
   107          0
   108          0
   109          0
   110          1
   111          0
   114          0
   115          1
   117         30
   118         11
   119          1
   120          0
   121          0
   122          1
   124          0
   125          0
   127          0
   129          3
   130          5
   131          5
   133          3
   134          1
   135          0
   137          3
   138          0
   139          0
   140          0
   142          0
   143          0
   146          0
   147          0
   148          0
   149          0
   150          0
   151          1
   152          1
   153          0
   154          0
   156          0
   157          0
   161          0
   164          0
   165          1
   166          3
   167          1
   168          0
   169          1
   170          0
   171          0
   172          0
   177          0
   178          1
   179          1
   180          7
   181          1
   182          0
   183          0
   190          0
   191          0
   192          1
   193          0
   194          0
   202          0
   205          9
   206         28
   207        575
   208        170
   209         20
   210          1
   216          0
   224          0
   225          0
   238          0
   239          0
   240          1
   241          0
   256          0
   257          0
   272        197
   273         32
   274         11