##TITLE=Library Entry 31434
##JCAMP-DX=Revision 4.10 
##DATA TYPE=MASS SPECTRUM
##SAMPLE DESCRIPTION=W. CZUBA,INST. ORG. PHYS. CHEM.,POLYTECH. UNIV.,WROCLAW
,POL.
##NAMES=HP
##CAS NAME=5-Ethyl-1,3-bis(methylthiomethyl)-5-phenyl-2,4,6-pyrimidinetrione
##MOLFORM=C16H20N2O3S2
##CAS REGISTRY NO=100849-50-1
##MP= -300
##BP= -300
##MW= 352
##$RETENTION INDEX=0
##$CONDENSED SPECTRUM=NO
##NPOINTS= 36
##XYDATA=(XY..XY) 1 
    56         98
    57         44
    61        999
    62         38
    63         57
    69         33
    70         56
    77        103
    89         63
    91        283
   102        176
   103        142
   115        142
   116         64
   117        414
   118        141
   131         65
   132         83
   145        103
   147        529
   148         59
   160         88
   165         44
   174        215
   175         35
   188        200
   189         35
   192         49
   257         91
   267         54
   291         25
   304        927
   305        263
   306         89
   352        632
   353        141