##TITLE=Library Entry 70481
##JCAMP-DX=Revision 4.10 
##DATA TYPE=MASS SPECTRUM
##SAMPLE DESCRIPTION=Chemical Concepts
##NAMES=HP
##CAS NAME=Butanedioic acid, 3-hydroxy-2-methyl-2-(2-propenyl)-, dimethyl es
ter, [S-(R*,S*)]-
##MOLFORM=C10H16O5
##CAS REGISTRY NO=100806-30-2
##MP= -300
##BP= -300
##MW= 216
##$RETENTION INDEX=0
##$CONDENSED SPECTRUM=NO
##NPOINTS= 119
##XYDATA=(XY..XY) 1 
    26          8
    27         82
    28         15
    29        108
    30         11
    31         40
    33         86
    38          8
    39        136
    40         36
    41        457
    42         34
    43        159
    44         13
    45         40
    47          4
    50          5
    51         16
    52          9
    53         72
    54         14
    55        112
    56         72
    57         55
    58         22
    59        263
    60         12
    61         77
    62          6
    63          6
    65         35
    66         17
    67        230
    68        105
    69        465
    70         36
    71        176
    72         19
    73         23
    74         11
    75         19
    77         30
    78         12
    79        152
    80         28
    81         56
    82         18
    83        292
    84         50
    85        109
    86         14
    87         32
    88         35
    89         19
    90        271
    91         18
    92          4
    93          6
    94          6
    95        345
    96        184
    97        999
    98         86
    99         57
   100          8
   101         24
   102          8
   103          8
   105          5
   106         11
   107         65
   108         10
   109         15
   110          9
   111         39
   112         10
   113         60
   114         30
   115        154
   116         33
   117         33
   123         12
   124         42
   125        234
   126         28
   127        828
   129         53
   130          6
   131         20
   134         15
   137          5
   138         45
   139        108
   140         12
   141          9
   142         39
   143         49
   144          6
   147          4
   149          4
   152          4
   153          5
   155          5
   156        136
   157        656
   158         63
   159         16
   166         15
   167          5
   174         28
   175         33
   176          4
   184         15
   185         26
   186          5
   198          6
   201          4
   216          9
   217          7