##TITLE=Library Entry 69964
##JCAMP-DX=Revision 4.10 
##DATA TYPE=MASS SPECTRUM
##SAMPLE DESCRIPTION=Chemical Concepts
##NAMES=HP
##CAS NAME=Hex-2-enoic acid, 6-(4-cyano-phenyl)-naphthalen-2-yl ester
##MOLFORM=C23H19NO2
##CAS REGISTRY NO=100808-15-9
##MP= -300
##BP= -300
##MW= 341
##$RETENTION INDEX=0
##$CONDENSED SPECTRUM=NO
##NPOINTS= 124
##XYDATA=(XY..XY) 1 
    26          6
    27         56
    28         12
    29         41
    36          3
    38          4
    39         59
    40         18
    41        215
    42         22
    43         44
    44          5
    45          4
    47          2
    50          7
    51         12
    52          4
    53         33
    54         10
    55        899
    56         32
    57         35
    58          2
    60          2
    62          6
    63         20
    64          3
    65         13
    66          4
    67         24
    68         27
    69         87
    70         13
    71         19
    73          4
    74          6
    75          7
    76          7
    77          9
    78          2
    79          4
    81         30
    82          5
    83         10
    84          4
    85          8
    86          4
    87         13
    88          8
    89          6
    91          7
    92          2
    93          3
    94          4
    95         11
    96         21
    97        999
    98         64
    99          6
   100          4
   101          2
   102          2
   103          3
   104          6
   105          5
   109          2
   111          4
   113          7
   114          6
   115         18
   116          3
   117          5
   119          2
   121          2
   122          3
   126          2
   127          5
   128          3
   129          4
   130          3
   131          2
   137          3
   138          2
   139          5
   140          6
   141          7
   142          2
   143          2
   144          8
   145          4
   151          4
   152          4
   157          2
   162          2
   163         11
   164          9
   165          6
   175          2
   176          3
   177          4
   187         11
   188         15
   189         30
   190         45
   191          9
   199          2
   200          4
   211          4
   213          4
   214         52
   215         17
   216         93
   217         30
   226          5
   227          9
   228          4
   229          2
   243          4
   244         14
   245        276
   246         53
   247          5
   341         30
   342          7