##TITLE=Library Entry 14976
##JCAMP-DX=Revision 4.10 
##DATA TYPE=MASS SPECTRUM
##SAMPLE DESCRIPTION=H. Fales, LC, NHLBI, NIH, Bethesda, MD 20892
##NAMES=HP
##CAS NAME=Diacetyl-dihydrocrinamidine
##MOLFORM=C21H25NO7
##CAS REGISTRY NO=100816-27-1
##MP= -300
##BP= -300
##MW= 403
##$RETENTION INDEX=0
##$CONDENSED SPECTRUM=NO
##NPOINTS= 232
##XYDATA=(XY..XY) 1 
    41         46
    42         92
    43        999
    44         38
    45         15
    47         19
    48          8
    49          1
    51          0
    52          4
    53         27
    54         22
    55         84
    56         89
    57         33
    58          5
    59          3
    60          6
    61         11
    63         14
    64          6
    65         20
    66          6
    67         23
    68         26
    69         25
    70         10
    71         17
    73          4
    75          6
    76         10
    77         46
    78         17
    79         19
    80         18
    81         16
    82         27
    83         15
    84         43
    85          6
    86         27
    88         10
    89         25
    90         11
    91         43
    92          9
    93          8
    94         58
    95         10
    96         14
    97         10
    98         13
    99          7
   101          9
   102         22
   103         31
   104         13
   105         19
   106          8
   107          7
   108          3
   109          4
   110          5
   111          5
   112          6
   113          7
   114          7
   115         66
   116         23
   117         21
   118         18
   119          9
   120          6
   121          5
   123          3
   126          4
   127         36
   128         44
   129         24
   130         17
   131         24
   132         20
   133         35
   134          8
   135          5
   136          3
   139          6
   140          5
   141         25
   142         27
   143         15
   144         22
   145         20
   146         11
   147         11
   148          3
   149          4
   150          3
   151          4
   152         10
   153         14
   154         13
   155         12
   156         10
   157         18
   158         10
   159         23
   160          8
   161         15
   162          3
   163          4
   165         34
   166          9
   167         11
   168          8
   169          9
   170          9
   171         18
   172         17
   173         16
   174          7
   175         12
   176          5
   177          7
   178          6
   179         15
   180          5
   181         11
   182         12
   183         12
   184          7
   185         12
   186          8
   187         21
   188          9
   189         25
   190         17
   191         33
   192          9
   193          8
   194          5
   195          7
   196          7
   197         13
   198          8
   199          8
   200          8
   201         10
   202         39
   203         39
   204         51
   205         17
   206          8
   207          4
   209          9
   210          8
   211         15
   212          7
   213          7
   214          6
   215         25
   216         16
   217         43
   218         29
   219         17
   220         13
   221          3
   222          4
   223         28
   224         17
   225         17
   226         11
   227         10
   228         21
   229         28
   230         34
   231         64
   232         39
   233          9
   238          4
   239         18
   240         18
   241         23
   242         21
   243         15
   244         33
   245         16
   246         13
   247          3
   252         10
   253         44
   254        242
   255        167
   256         89
   257         27
   258         17
   259          7
   260          5
   267          9
   268         13
   269          7
   270         10
   271         13
   272         40
   273         12
   274         18
   275          4
   282         37
   283         26
   284        101
   285         18
   286          5
   300         27
   301          7
   302          9
   314         16
   315          8
   316          8
   317          6
   318          3
   330          4
   342          8
   344        402
   345         76
   346         12
   360         21
   361          9
   388          4
   403        525
   404        110
   405         21
   406          3