##TITLE=Library Entry 853
##JCAMP-DX=Revision 4.10 
##DATA TYPE=MASS SPECTRUM
##SAMPLE DESCRIPTION=Chemical Concepts
##NAMES=HP
##CAS NAME=Carbamic acid, (methylenedi-4,1-phenylene)bis-, diethyl ester
##MOLFORM=C19H22N2O4
##CAS REGISTRY NO=10097-16-2
##MP= -300
##BP= -300
##MW= 342
##$RETENTION INDEX=0
##$CONDENSED SPECTRUM=NO
##NPOINTS= 301
##XYDATA=(XY..XY) 1 
    25          7
    26         44
    27        284
    28         35
    29        999
    30         44
    31        494
    33          2
    36          2
    37          8
    38         18
    39        100
    40         15
    41        179
    42         41
    43        202
    44         42
    45        331
    46        106
    47         13
    48          1
    49          3
    50         41
    51        108
    52         50
    53         34
    54         40
    55        167
    56         78
    57        264
    58         18
    59         32
    60         47
    61         15
    62         22
    63         87
    64         47
    65         64
    66         19
    67         51
    68         28
    69        139
    70         57
    71        144
    72         20
    73         43
    74         16
    75         31
    76        108
    77        250
    78        122
    79         49
    80         24
    81         67
    82         41
    83         95
    84         54
    85         82
    86         11
    87         18
    88         17
    89         52
    90         65
    91         57
    92         23
    93         61
    94         25
    95         55
    96         30
    97         81
    98         32
    99         31
   100          8
   101         22
   102         32
   103         51
   104        151
   105         79
   106        343
   107         44
   108         10
   109         34
   110         18
   111         50
   112         22
   113         28
   114         23
   115         66
   116         31
   117         19
   118        151
   119         60
   120         28
   121         26
   122         11
   123         26
   124         13
   125         34
   126         20
   127         50
   128         37
   129         28
   130         31
   131         16
   132        453
   133         55
   134         70
   135         23
   136         10
   137         20
   138         13
   139         39
   140         54
   141         58
   142         23
   143         26
   144         18
   145         10
   146          7
   147         10
   148         26
   149        246
   150         67
   151         69
   152         96
   153         99
   154         49
   155         25
   156         38
   157         26
   158          8
   159          4
   160          6
   161          7
   162          6
   163         11
   164         24
   165        127
   166         76
   167         69
   168         71
   169         46
   170         32
   171         13
   172          3
   173          4
   174          3
   175          4
   176         12
   177         29
   178        181
   179         52
   180        215
   181         98
   182        142
   183         36
   184          7
   185          8
   186          4
   187          4
   188          3
   189          4
   190         20
   191         13
   192         17
   193         37
   194         47
   195        158
   196        102
   197        144
   198         32
   199          7
   200          2
   201          2
   202          2
   203          7
   204          4
   205         20
   206         82
   207         47
   208        320
   209         66
   210         19
   211         28
   212          7
   213          5
   214          7
   215          4
   216          3
   217          3
   218          4
   219          5
   220          8
   221        167
   222         64
   223        376
   224        189
   225         52
   226         38
   227          8
   228          3
   229          3
   230          3
   231          9
   232          5
   233          4
   234          3
   235          4
   236          6
   237        273
   238         51
   239         40
   240         31
   241        142
   242         37
   243          8
   244          3
   245          3
   246          2
   247          7
   248          4
   249         82
   250        468
   251        128
   252         24
   253          9
   254         37
   255         21
   256          9
   257          4
   258          3
   259          3
   260          5
   261          3
   262          2
   263          2
   264          4
   265          4
   266          4
   267        318
   268        118
   269        144
   270         66
   271         12
   272          2
   273          2
   274          2
   275          2
   276          2
   277          2
   278          3
   279          3
   280          5
   281          2
   282          2
   283         19
   284          6
   285         46
   286         13
   287          6
   288          3
   289          2
   290          2
   291          2
   292          2
   293          2
   294          3
   295         18
   296        757
   297        174
   298         27
   299          5
   300          3
   301          2
   303          2
   305          2
   306          2
   307          2
   308          2
   309          2
   310          2
   311          2
   313        359
   314         76
   315         12
   316          2
   317          1
   318          1
   319          1
   321          1
   328          1
   336          2
   337          2
   340          5
   341         23
   342        773
   343        176
   344         26
   345          4
   346          1
   347          1