##TITLE=Library Entry 39371
##JCAMP-DX=Revision 4.10 
##DATA TYPE=MASS SPECTRUM
##SAMPLE DESCRIPTION=RADIAN CORP
##NAMES=HP
##CAS NAME=Butanoic acid, 1,1-dimethyl-2-phenylethyl ester
##MOLFORM=C14H20O2
##CAS REGISTRY NO=10094-34-5
##MP= -300
##BP= -300
##MW= 220
##$RETENTION INDEX=1488
##$CONDENSED SPECTRUM=NO
##NPOINTS= 63
##XYDATA=(XY..XY) 1 
    27          9
    31          3
    38          2
    39         26
    40          3
    41         44
    42         22
    43        227
    45          5
    50          6
    51         14
    52          5
    53          4
    54          3
    55         21
    56          4
    57          1
    58          5
    59         24
    60         18
    61          2
    62          4
    63         14
    64          6
    65         53
    66          3
    71        999
    72         54
    73          9
    74          3
    75          3
    76          3
    77         12
    78         11
    79          5
    87          2
    88          1
    89         19
    90          7
    91        301
    92         31
    93          2
   102          4
   103          9
   104          6
   105         17
   115         52
   116         21
   117        154
   118         12
   127          2
   128          5
   129         56
   130          7
   131         16
   132        348
   133        103
   134         10
   135          4
   162         24
   163          3
   182          1
   205          2