##TITLE=Library Entry 74625
##JCAMP-DX=Revision 4.10 
##DATA TYPE=MASS SPECTRUM
##SAMPLE DESCRIPTION=Japan AIST/NIMC Database- Spectrum MS-NW-7611
##NAMES=HP
##CAS NAME=Ethyl cyclohexanepropionate
##MOLFORM=C11H20O2
##CAS REGISTRY NO=10094-36-7
##MP= -300
##BP= -300
##MW= 184
##$RETENTION INDEX=0
##$CONDENSED SPECTRUM=NO
##NPOINTS= 125
##XYDATA=(XY..XY) 1 
    14          2
    15         10
    17          4
    18         20
    19          3
    24          1
    25          1
    26         20
    27        157
    28         56
    29        233
    30         10
    31         35
    32          2
    34          1
    36          1
    37          1
    38          3
    39        124
    40         23
    41        387
    42         50
    43         56
    44          5
    45        133
    46          8
    47          5
    48          2
    50          5
    51         14
    52          9
    53         65
    54         95
    55        632
    56         49
    57         49
    58          7
    59          7
    60        257
    61        249
    62          9
    63          5
    64          1
    65         16
    66         13
    67        189
    68         64
    69        136
    70        178
    71         29
    72          3
    73        364
    74        145
    75         44
    76          3
    77         19
    78          9
    79         62
    80         19
    81        143
    82         45
    83        158
    84         19
    85          6
    86          2
    87          6
    88        817
    89        193
    90         11
    91         23
    92          9
    93         45
    94        101
    95        162
    96        179
    97        467
    98         40
    99          8
   100          3
   101        999
   102        106
   103         11
   104          5
   105          5
   106          1
   107          4
   108          2
   109         38
   110         28
   111          9
   112          2
   113          3
   114          2
   115          5
   116          5
   117          3
   118          2
   119         12
   120         22
   121        206
   122         23
   123          4
   124          1
   125          1
   127         29
   128          7
   129          2
   130          1
   131          1
   132          1
   133          1
   136          2
   137         14
   138         67
   139        156
   140         16
   141          3
   142          1
   155        117
   156         15
   157          3
   169          1
   183          1
   184         16
   185          4