##TITLE=Library Entry 37345
##JCAMP-DX=Revision 4.10 
##DATA TYPE=MASS SPECTRUM
##SAMPLE DESCRIPTION=Japan AIST/NIMC Database- Spectrum MS-IW-6944
##NAMES=HP
##CAS NAME=12-Dimethylamino-10-oxododecanoic acid
##MOLFORM=C14H27NO3
##CAS REGISTRY NO=100913-51-7
##MP= -300
##BP= -300
##MW= 257
##$RETENTION INDEX=0
##$CONDENSED SPECTRUM=NO
##NPOINTS= 166
##XYDATA=(XY..XY) 1 
    14          5
    15         19
    16          1
    17         19
    18          2
    25          2
    26         17
    27        117
    28        149
    29         52
    30         10
    31          6
    32          1
    34          1
    39         57
    40         25
    41        135
    42        102
    43        132
    44        454
    45        311
    46         11
    47          1
    49          1
    50          7
    51         14
    52         10
    53         26
    54         20
    55        723
    56         46
    57         50
    58        313
    59         23
    60         22
    61          2
    62          2
    63          6
    64          4
    65         15
    66         13
    67         46
    68         26
    69         88
    70        999
    71        164
    72         37
    73         23
    74          4
    75          2
    76          5
    77         30
    78         28
    79         61
    80         44
    81         59
    82         24
    83        171
    84         58
    85         13
    86          2
    87          6
    88          1
    89          3
    90          2
    91         57
    92         23
    93         31
    94         42
    95         50
    96         68
    97        138
    98         87
    99         11
   100          8
   101          6
   102          4
   103          7
   104         10
   105         25
   106         10
   107         47
   108         21
   109         54
   110         41
   111         81
   112         26
   113          5
   114          3
   115         27
   116          9
   117         18
   118         10
   119         24
   120         16
   121         25
   122         20
   123         27
   124         53
   125         61
   126         13
   127          6
   128         18
   129         16
   130         16
   131          9
   132          7
   133         13
   134         11
   135          9
   136          6
   137         36
   138         22
   139         39
   140         19
   141         16
   142          7
   143         12
   144          4
   145          3
   146          4
   147         19
   148         14
   149         24
   150          8
   151         21
   152         15
   153         17
   154         10
   155          7
   156         12
   157          5
   158         12
   159          3
   160          2
   161          8
   162          1
   163          1
   165         58
   166         88
   167         11
   168          3
   169          2
   170          1
   171          1
   172          2
   174          7
   175          4
   176         40
   177          9
   178          1
   179          5
   183          2
   184          1
   185         19
   186          3
   193          1
   194         39
   195         15
   196          3
   198          1
   212         15
   213          4
   256          3
   257         18
   258          4