##TITLE=Library Entry 92556
##JCAMP-DX=Revision 4.10 
##DATA TYPE=MASS SPECTRUM
##SAMPLE DESCRIPTION=V.G.Zaikin, Petrochem. Synth. Inst., Moscow
##NAMES=HP
##CAS NAME=Cyclopentanecarboxylic acid, octyl ester
##MOLFORM=C14H26O2
##CAS REGISTRY NO=100912-19-4
##MP= -300
##BP= -300
##MW= 226
##$RETENTION INDEX=0
##$CONDENSED SPECTRUM=NO
##NPOINTS= 58
##XYDATA=(XY..XY) 1 
    26         15
    27        128
    28        131
    29        181
    31         11
    39        144
    40         39
    41        636
    42        189
    43        386
    44         15
    45          9
    47          6
    51          9
    53         39
    54         29
    55        287
    56        215
    57        312
    58         17
    65         13
    66         13
    67        128
    68        109
    69        915
    70        339
    71        201
    72         13
    73        351
    74         13
    79         15
    81          9
    82         39
    83         72
    84         72
    85         19
    86         53
    87          8
    95         13
    96         27
    97        561
    98         41
    99          6
   110          7
   111          8
   112        203
   113         39
   114        265
   115        999
   116         75
   117          8
   127         13
   155          7
   157         18
   170          8
   185         48
   186          5
   226          3