##TITLE=Library Entry 14210
##JCAMP-DX=Revision 4.10 
##DATA TYPE=MASS SPECTRUM
##SAMPLE DESCRIPTION=H. Fales, LC, NHLBI, NIH, Bethesda, MD 20892
##NAMES=HP
##CAS NAME=Ambros-2-en-12-oic acid, 6.beta.,8.alpha.-dihydroxy-4-oxo-, 12,8-
lactone, acetate, (11R)-
##MOLFORM=C17H22O5
##CAS REGISTRY NO=10092-04-3
##MP= -300
##BP= -300
##MW= 306
##$RETENTION INDEX=0
##$CONDENSED SPECTRUM=NO
##NPOINTS= 130
##XYDATA=(XY..XY) 1 
    41        170
    43        999
    44         23
    45          1
    47         22
    48         11
    49          5
    50          6
    51         16
    52          2
    53         56
    55        108
    57         19
    61          3
    63          5
    65         40
    66          8
    67         84
    69        100
    71         35
    77         53
    78         10
    79         56
    80         15
    81         36
    83         58
    85         32
    87          7
    91         50
    92          9
    93         30
    94         22
    95        105
    96         84
    97         26
    98          8
    99          5
   103          9
   105         35
   106          7
   107         48
   108         24
   109         30
   110          1
   111         20
   113         10
   115         10
   117         11
   118          2
   119         34
   120         14
   121         33
   122         62
   123        100
   124        243
   125         26
   127          9
   129          6
   131         13
   132          3
   133         28
   134          8
   135         28
   136         13
   137         29
   138         12
   139         10
   141          4
   143          6
   144          1
   145         16
   146         18
   147         29
   148         23
   149         21
   150         10
   151         25
   152          9
   153          1
   157          2
   158          1
   159         16
   160          7
   161         17
   162          8
   163         15
   164          6
   165          9
   166          2
   167          7
   171          7
   172          4
   173         14
   174          6
   175         20
   176         13
   177         10
   178          7
   181          1
   185          1
   187         20
   188          8
   189         12
   190         15
   191         18
   192          4
   193          2
   199          1
   200          3
   201          2
   202          6
   203          9
   204          2
   205          1
   207          1
   217          7
   218         13
   219          2
   228          1
   231         15
   235         18
   236          8
   246         28
   247          8
   249          9
   263        248
   264        117
   265         24
   306         17
   307         11