##TITLE=Library Entry 62865
##JCAMP-DX=Revision 4.10 
##DATA TYPE=MASS SPECTRUM
##SAMPLE DESCRIPTION=Chemical Concepts
##NAMES=HP
##CAS NAME=Benzenepropanoic acid, .alpha.-methyl-
##MOLFORM=C10H12O2
##CAS REGISTRY NO=1009-67-2
##MP= -300
##BP= -300
##MW= 164
##$RETENTION INDEX=0
##$CONDENSED SPECTRUM=NO
##NPOINTS= 85
##XYDATA=(XY..XY) 1 
    26          2
    27         11
    28          4
    29          5
    30          1
    37          1
    38          4
    39         43
    40          4
    41         30
    42          2
    43          7
    44          3
    45         10
    46          1
    50         13
    51         39
    52         10
    53          5
    54          1
    55          5
    56          2
    57          6
    58          4
    59          1
    60          2
    61          2
    62          7
    63         21
    64          6
    65         73
    66          6
    67          2
    69          3
    70          2
    71          3
    72          2
    73          4
    74          5
    75          5
    76          6
    77         35
    78         40
    79         12
    80          1
    85          2
    86          2
    87          3
    88          2
    89         17
    90          8
    91        999
    92         99
    93          5
    94          2
   101          2
   102          6
   103         21
   104         13
   105          6
   106          2
   107          6
   108          1
   115         24
   116          8
   117         36
   118         69
   119         20
   120          3
   121          1
   122          2
   123          1
   131         18
   132          3
   135          2
   145          2
   146          2
   147          3
   148          1
   149          8
   150          1
   164        237
   165         30
   166          3
   167          1