##TITLE=Library Entry 8362
##JCAMP-DX=Revision 4.10 
##DATA TYPE=MASS SPECTRUM
##SAMPLE DESCRIPTION=Chemical Concepts
##NAMES=HP
##CAS NAME=2-Hexen-1-ol, acetate
##MOLFORM=C8H14O2
##CAS REGISTRY NO=10094-40-3
##MP= -300
##BP= -300
##MW= 142
##$RETENTION INDEX=1025
##$CONDENSED SPECTRUM=NO
##NPOINTS= 54
##XYDATA=(XY..XY) 1 
    27        125
    29         62
    30          2
    31          7
    37          2
    38          9
    39        123
    40         12
    41        200
    42         33
    43        999
    44         29
    45          7
    50          7
    51         15
    52          8
    53         51
    54         71
    55        122
    56         45
    57        111
    58         16
    59          3
    60          1
    61         20
    63          2
    65         12
    66          5
    67        274
    68         16
    69          8
    70          4
    71         52
    72         21
    73          5
    77          3
    78          1
    79          8
    80          1
    81         30
    82        193
    83         33
    84          2
    85          6
    86          3
    87          3
    91          1
    98          3
    99         35
   100        101
   101          8
   113          8
   114          2
   142          6