##TITLE=Library Entry 560
##JCAMP-DX=Revision 4.10 
##DATA TYPE=MASS SPECTRUM
##SAMPLE DESCRIPTION=RADIAN CORP
##NAMES=HP
##CAS NAME=Oxirane, 2,2'-[1,3-phenylenebis(oxymethylene)]bis-
##MOLFORM=C12H14O4
##CAS REGISTRY NO=101-90-6
##MP= -300
##BP= -300
##MW= 222
##$RETENTION INDEX=0
##$CONDENSED SPECTRUM=NO
##NPOINTS= 80
##XYDATA=(XY..XY) 1 
    15         19
    18          1
    26         28
    27        352
    28         52
    29        999
    30         27
    31        633
    32         14
    38         40
    39        150
    40         19
    41        106
    42         27
    43         86
    50         42
    51         64
    52         59
    53         90
    54         17
    55         82
    56         13
    57        769
    58         33
    62         19
    63        138
    64        148
    65        140
    66         33
    67         38
    68         35
    69         83
    71          6
    75         15
    76         28
    77        172
    78         34
    79         79
    80         31
    81         86
    82        110
    83         16
    91        101
    92         84
    93         87
    94         33
    95         59
    96          8
    97          4
   103         50
   105         39
   106         16
   107        108
   108         35
   109         21
   110        358
   111         31
   118          6
   119         41
   120          2
   121         35
   122          3
   123        140
   124         23
   125         18
   133         19
   134         35
   135         87
   136         76
   137         35
   138         10
   147         19
   149         42
   161          3
   166        167
   167         18
   192         16
   222        506
   223         68
   224          1