##TITLE=Library Entry 35445
##JCAMP-DX=Revision 4.10 
##DATA TYPE=MASS SPECTRUM
##SAMPLE DESCRIPTION=Japan AIST/NIMC Database- Spectrum MS-NW-5103
##NAMES=HP
##CAS NAME=2-Propenoic acid, 2-methyl-, cyclohexyl ester
##MOLFORM=C10H16O2
##CAS REGISTRY NO=101-43-9
##MP= -300
##BP= -300
##MW= 168
##$RETENTION INDEX=0
##$CONDENSED SPECTRUM=NO
##NPOINTS= 95
##XYDATA=(XY..XY) 1 
    14          2
    15         12
    16          1
    17          2
    18          7
    25          1
    26         10
    27         95
    28         14
    29         70
    30          3
    31          8
    32          1
    36          1
    37          8
    38         18
    39        243
    40         58
    41        788
    42         54
    43         29
    44         15
    45          9
    46          1
    49          1
    50          8
    51         17
    52          9
    53         42
    54        250
    55        340
    56         24
    57         35
    58          6
    59         10
    60          2
    62          1
    63          2
    64          1
    65          9
    66         10
    67        622
    68         41
    69        999
    70         69
    71          8
    72          2
    73          1
    74          4
    75          1
    77         11
    78          8
    79         22
    80         10
    81        110
    82        809
    83        205
    84         48
    85          8
    86         36
    87        700
    88         38
    89          4
    91          2
    92          2
    93          4
    94          4
    95         15
    96          6
    97         11
    98         12
    99         49
   100          9
   101          1
   106          1
   107          3
   108          3
   109          5
   110          2
   111          7
   112         11
   113          1
   121          3
   122          7
   123          3
   124          3
   125          6
   126          1
   127          1
   135          2
   139          1
   149          2
   150          9
   151          1
   168          2