##TITLE=Library Entry 59847
##JCAMP-DX=Revision 4.10 
##DATA TYPE=MASS SPECTRUM
##SAMPLE DESCRIPTION=V.Zaikin,Topchiev Inst.Petrochem.Synth.,Moscow
##NAMES=HP
##CAS NAME=Benzeneacetic acid, ethyl ester
##MOLFORM=C10H12O2
##CAS REGISTRY NO=101-97-3
##MP= -300
##BP= -300
##MW= 164
##$RETENTION INDEX=1246
##$CONDENSED SPECTRUM=NO
##NPOINTS= 53
##XYDATA=(XY..XY) 1 
    27         48
    28         10
    29        114
    30          9
    36          4
    37          6
    38         17
    39         78
    40         11
    41         22
    42          6
    43          7
    44         10
    45          7
    46          2
    50         28
    51         41
    52         14
    53          6
    55          5
    57          3
    61          6
    62         23
    63         70
    64         26
    65        142
    66          7
    74          5
    75          4
    76          3
    77         17
    78          5
    79          5
    81          2
    83          4
    85          3
    86          9
    87          4
    88          5
    89         54
    90         50
    91        999
    92        124
    93          5
   105         13
   106          3
   107          2
   118          9
   119         17
   136          4
   163          3
   164        130
   165         19