##TITLE=Library Entry 98010
##JCAMP-DX=Revision 4.10 
##DATA TYPE=MASS SPECTRUM
##SAMPLE DESCRIPTION=RADIAN CORP
##NAMES=HP
##CAS NAME=Benzeneacetic acid, 4-methylphenyl ester
##MOLFORM=C15H14O2
##CAS REGISTRY NO=101-94-0
##MP= -300
##BP= -300
##MW= 226
##$RETENTION INDEX=1799
##$CONDENSED SPECTRUM=NO
##NPOINTS= 63
##XYDATA=(XY..XY) 1 
    26          1
    27         10
    28          8
    29          1
    38          3
    39         29
    40          7
    41          9
    42          1
    43          1
    44          0
    49          5
    50          8
    51         29
    52         16
    53         11
    54          1
    55          2
    62          5
    63         22
    64          7
    65        119
    66          7
    74          2
    75          2
    76          1
    77         50
    78         10
    79         15
    80          4
    84          6
    85          1
    86          5
    87          1
    88          1
    89         42
    90        107
    91        687
    92         60
    93          2
   105          1
   106          2
   107         86
   108        393
   109         31
   110          2
   115          1
   118        999
   119        122
   120          8
   121          1
   127          1
   152          1
   153          1
   154          1
   165          2
   167          1
   181          2
   195          1
   196          1
   226         46
   227          8
   228          0