##TITLE=Library Entry 11892
##JCAMP-DX=Revision 4.10 
##DATA TYPE=MASS SPECTRUM
##SAMPLE DESCRIPTION=ACCUSTANDARD Chemicals / NIST MS Data Center.
##NAMES=HP
##CAS NAME=Chlorpropham
##MOLFORM=C10H12ClNO2
##CAS REGISTRY NO=101-21-3
##MP= -300
##BP= -300
##MW= 213
##$RETENTION INDEX=1655
##$CONDENSED SPECTRUM=NO
##NPOINTS= 113
##XYDATA=(XY..XY) 1 
    12          1
    15         35
    16          0
    17          0
    18          3
    19          8
    20          0
    25          2
    26         17
    27        153
    28         26
    29         23
    30          2
    31         28
    34          0
    35          1
    36          4
    37         24
    38         48
    39        119
    40         24
    41        298
    42          0
    43        999
    44         55
    45        146
    47          3
    48          1
    49         10
    50         26
    51         20
    52         19
    53          2
    54          1
    57          1
    58          4
    59         41
    60          6
    61         17
    62         42
    63        115
    64         61
    65         52
    66          6
    67          1
    71          0
    72          6
    73         40
    74         19
    75         61
    76         14
    77          4
    78          3
    79          0
    80          3
    84          2
    85          6
    86          4
    87          5
    88          8
    89         17
    90         97
    91         47
    92         37
    93          5
    96          1
    97          3
    98         13
    99         98
   100         33
   101         33
   102          8
   104          0
   105          1
   106          1
   108          2
   111         41
   112          4
   113         13
   114          2
   117          1
   118          8
   119         13
   120          1
   125         75
   127        710
   128         73
   129        217
   130         16
   134          0
   135          2
   136          9
   137          1
   138          1
   140          4
   142          2
   153         58
   154        203
   155         64
   156         65
   157          5
   168          1
   171        217
   172         23
   173         69
   174          6
   178          1
   198          1
   213        309
   214         43
   215         99
   216         10
   217          1