##TITLE=Library Entry 27730
##JCAMP-DX=Revision 4.10 
##DATA TYPE=MASS SPECTRUM
##SAMPLE DESCRIPTION=R RYHAGE MS-LAB KAROLINSKA INSTITUTET STOCKHOLM SWEDEN
##NAMES=HP
##CAS NAME=Benzedrex
##MOLFORM=C10H21N
##CAS REGISTRY NO=101-40-6
##MP= -300
##BP= -300
##MW= 155
##$RETENTION INDEX=1179
##$CONDENSED SPECTRUM=NO
##NPOINTS= 82
##XYDATA=(XY..XY) 1 
    12          0
    15          2
    16          6
    17          0
    19          0
    25          0
    26          7
    27         26
    28          5
    29         27
    30         46
    31          3
    32          4
    38          0
    39         21
    41         63
    42         25
    43          7
    44         38
    45          1
    51          0
    52          0
    53          7
    54          5
    55         50
    56         27
    57         17
    58        999
    59         60
    60          1
    62          0
    65          1
    66          0
    67          9
    68          3
    69          4
    70          3
    71         11
    72          5
    73          3
    74          0
    75          0
    77          1
    78          0
    79          3
    80          0
    81          7
    82          4
    83         12
    84          0
    89          0
    91          0
    92          0
    94          0
    95          1
    96          5
    97          0
    98          0
   101          0
   106          0
   107          0
   109          0
   110          0
   111          0
   120          0
   122          0
   124          0
   125          0
   127          0
   129          0
   136          0
   138          3
   139          0
   140         20
   141          2
   142          0
   147          0
   149          0
   151          0
   154          0
   155          9
   156          1