##TITLE=Library Entry 40269
##JCAMP-DX=Revision 4.10 
##DATA TYPE=MASS SPECTRUM
##SAMPLE DESCRIPTION=Chemical Concepts
##NAMES=HP
##CAS NAME=Fenuron
##MOLFORM=C9H12N2O
##CAS REGISTRY NO=101-42-8
##MP= -300
##BP= -300
##MW= 164
##$RETENTION INDEX=1625
##$CONDENSED SPECTRUM=NO
##NPOINTS= 77
##XYDATA=(XY..XY) 1 
    26          2
    27         10
    28         13
    29          2
    30          9
    37          5
    38         11
    39         46
    40          6
    41          7
    42         31
    43         12
    44        157
    45         61
    46          2
    49          1
    50         11
    51         30
    52          9
    53          0
    54          0
    55          0
    56         19
    58          0
    61          2
    62          4
    63         13
    64         21
    65         46
    66          8
    70          1
    71          4
    72        999
    73         37
    74          4
    75          2
    76          2
    77         40
    78          4
    79          4
    80          0
    81          0
    87          0
    88          1
    89          0
    90          1
    91         26
    92         19
    93          5
    94          2
    95          0
   103          0
   104          0
   105          1
   106         14
   107          4
   108          0
   117          0
   118          1
   119         36
   120         13
   121          2
   122          0
   133          0
   134          0
   135          2
   136          0
   146          0
   148          2
   149          4
   150          0
   161          1
   162          1
   163         14
   164        248
   165         25
   166          1