##TITLE=Library Entry 62458
##JCAMP-DX=Revision 4.10 
##DATA TYPE=MASS SPECTRUM
##SAMPLE DESCRIPTION=NIST Mass Spectrometry Data Center
##NAMES=HP
##CAS NAME=Benzeneacetic acid, methyl ester
##MOLFORM=C9H10O2
##CAS REGISTRY NO=101-41-7
##MP= -300
##BP= -300
##MW= 150
##$RETENTION INDEX=1178
##$CONDENSED SPECTRUM=NO
##NPOINTS= 62
##XYDATA=(XY..XY) 1 
    14          1
    15         10
    26          1
    27          3
    28          1
    29          7
    30          3
    31          2
    37          3
    38         10
    39         56
    40          5
    41         12
    42          2
    43          2
    44          2
    45         10
    49          1
    50         20
    51         36
    52         11
    53          3
    59         63
    60          2
    61          6
    62         20
    63         58
    64         17
    65        151
    66          9
    73          1
    74          5
    75          4
    76          3
    77         15
    78         10
    79          7
    85          2
    86          4
    87          3
    88          1
    89         69
    90         39
    91        999
    92         98
    93          4
   103          1
   104          1
   105         17
   106          3
   107          2
   108          3
   118         16
   119         27
   120          2
   121          3
   122          1
   135          3
   149          8
   150        368
   151         38
   152          3