##TITLE=Library Entry 41723
##JCAMP-DX=Revision 4.10 
##DATA TYPE=MASS SPECTRUM
##SAMPLE DESCRIPTION=D.H.WILLIAMS CHEMISTRY DEPT., UNIVERSITY OF CAMBRIDGE
##NAMES=HP
##CAS NAME=1,3-Dioxolane, 2-(phenylmethyl)-
##MOLFORM=C10H12O2
##CAS REGISTRY NO=101-49-5
##MP= -300
##BP= -300
##MW= 164
##$RETENTION INDEX=1277
##$CONDENSED SPECTRUM=NO
##NPOINTS= 42
##XYDATA=(XY..XY) 1 
    27         20
    28         50
    29         20
    31         13
    32         15
    39         40
    41         10
    43         25
    44         10
    45         85
    46         20
    47         20
    50         20
    51         30
    52         10
    62         10
    63         20
    64         10
    65         50
    73        999
    74         45
    75         23
    76         10
    77         30
    78         20
    79         10
    87         10
    89         20
    90         10
    91        210
    92         30
   102         20
   103         35
   104         20
   105         30
   106         10
   117         10
   120         20
   121         10
   149         10
   163         10
   164         15