##TITLE=Library Entry 45508
##JCAMP-DX=Revision 4.10 
##DATA TYPE=MASS SPECTRUM
##SAMPLE DESCRIPTION=Japan AIST/NIMC Database- Spectrum MS-IW-4790
##NAMES=HP
##CAS NAME=Benzene, (2,2-dimethoxyethyl)-
##MOLFORM=C10H14O2
##CAS REGISTRY NO=101-48-4
##MP= -300
##BP= -300
##MW= 166
##$RETENTION INDEX=2247
##$CONDENSED SPECTRUM=NO
##NPOINTS= 76
##XYDATA=(XY..XY) 1 
    14          1
    15         15
    26          1
    27          7
    28          9
    29         26
    30          5
    31         65
    32         25
    33          1
    37          1
    38          6
    39         43
    40          4
    41         11
    42          1
    43          9
    44          2
    45          7
    47        135
    48          3
    49          1
    50         17
    51         44
    52          8
    53          3
    55          1
    58          3
    59          2
    61          3
    62          9
    63         33
    64          9
    65        100
    66          7
    67          8
    68          1
    73          1
    74          9
    75        999
    76         50
    77         55
    78         12
    79          9
    86          2
    87          2
    88          1
    89         33
    90         25
    91        440
    92         45
    93          8
   101          2
   102         12
   103        120
   104         17
   105         54
   106          7
   107          4
   108          1
   115         10
   116          3
   117         21
   118          9
   119         65
   120         15
   121          7
   122          1
   133          2
   134        289
   135        225
   136         22
   137          1
   138          1
   150          1
   165          2