##TITLE=Library Entry 62069
##JCAMP-DX=Revision 4.10 
##DATA TYPE=MASS SPECTRUM
##SAMPLE DESCRIPTION=NIST Mass Spectrometry Data Center, 1990.
##NAMES=HP
##CAS NAME=2-Benzylidene-1-heptanol
##MOLFORM=C14H20O
##CAS REGISTRY NO=101-85-9
##MP= -300
##BP= -300
##MW= 204
##$RETENTION INDEX=1675
##$CONDENSED SPECTRUM=NO
##NPOINTS= 115
##XYDATA=(XY..XY) 1 
    17         11
    18         21
    26         17
    27        184
    28         24
    29        222
    30         13
    31         94
    39        196
    40         34
    41        290
    42         27
    43        169
    44         13
    45          9
    50         33
    51        130
    52         39
    53         65
    54          9
    55        470
    56         32
    57         80
    58          9
    62         25
    63         91
    64         24
    65        152
    66         16
    67         38
    68         13
    69         38
    70         18
    71        118
    72          7
    74         15
    75         27
    76         44
    77        203
    78        158
    79         95
    80         39
    81         85
    82         64
    83         14
    85         10
    86         10
    87         12
    88         14
    89         81
    90         10
    91        999
    92        341
    93         43
    94          8
    95         54
    96         16
    97         25
    98         17
    99        151
   100         10
   101         12
   102         50
   103         97
   104        306
   105        391
   106         53
   107         21
   111         10
   112          6
   113         22
   114          6
   115        661
   116        206
   117        566
   118        117
   119         35
   120         42
   125          5
   126         13
   127        122
   128        286
   129        640
   130        316
   131        207
   132          5
   133        824
   134        144
   135         11
   141         42
   142         22
   143         67
   144         23
   145         77
   146         22
   147         53
   148        241
   149         33
   155          9
   157         16
   158         12
   159         13
   161         19
   162         10
   171          9
   173         20
   174          9
   186         12
   187          5
   188         32
   201         24
   202         33
   203         25
   204        148
   205         24