##TITLE=Library Entry 62386
##JCAMP-DX=Revision 4.10 
##DATA TYPE=MASS SPECTRUM
##SAMPLE DESCRIPTION=NIST Mass Spectrometry Data Center, 1990.
##NAMES=HP
##CAS NAME=Benzamphetamine
##MOLFORM=C17H21N
##CAS REGISTRY NO=101-47-3
##MP= -300
##BP= -300
##MW= 239
##$RETENTION INDEX=0
##$CONDENSED SPECTRUM=NO
##NPOINTS= 59
##XYDATA=(XY..XY) 1 
    14          1
    15          2
    27          4
    28         21
    29          4
    30          2
    32          2
    38          2
    39         32
    40          4
    41         20
    42         45
    43          2
    44         10
    50          6
    51         20
    52          5
    53          2
    54          3
    55          2
    56         42
    57          3
    58          2
    62          3
    63         18
    65        132
    66          8
    75          2
    76          3
    77         22
    78          8
    79          6
    89         21
    91        999
    92         75
    93          2
   102          2
   103          6
   104          4
   105          8
   115          8
   116          3
   117          9
   118          5
   119          3
   120          3
   130          4
   131          5
   132          8
   144          1
   145          1
   146          9
   147          1
   148        624
   149         71
   150          3
   224          2
   238          2
   239          2