##TITLE=Library Entry 40078
##JCAMP-DX=Revision 4.10 
##DATA TYPE=MASS SPECTRUM
##SAMPLE DESCRIPTION=R. Greene, CPB, DCT, NCI, Bethesda, MD 20892
##NAMES=HP
##CAS NAME=Pyridostigmine bromide
##MOLFORM=C9H13BrN2O2
##CAS REGISTRY NO=101-26-8
##MP= -300
##BP= -300
##MW= 260
##$RETENTION INDEX=0
##$CONDENSED SPECTRUM=NO
##NPOINTS= 100
##XYDATA=(XY..XY) 1 
    41          7
    42         32
    43          9
    44          8
    45          1
    49          2
    50         17
    51         28
    52          7
    53          8
    54          5
    55         14
    56         41
    57          4
    58          6
    59          1
    60          1
    61          0
    62          0
    63          2
    64          5
    65          8
    66         52
    67         10
    68          4
    69          5
    70          3
    72        999
    73          4
    74          4
    75          4
    76          5
    77          6
    78         29
    79         45
    80         55
    81         87
    82         20
    83          5
    84          3
    85          4
    86          1
    87          1
    88          2
    89          3
    90          3
    91         36
    93         40
    94        145
    95         33
    96        126
    97          6
    98         64
    99          5
   101          0
   102          0
   103          2
   104          1
   105          5
   106          2
   107          3
   109         50
   110          6
   111          1
   112          1
   113          1
   114          0
   115          1
   116          1
   117          0
   119          3
   120          0
   121          1
   122          1
   123          0
   124          1
   125          0
   126          2
   128          0
   129          0
   130          1
   131          1
   132          0
   133          0
   135          0
   137          3
   138          0
   145          0
   149          0
   151          1
   153          1
   165          0
   166        108
   167         12
   168          1
   181          1
   187          1
   216          5
   217          0
   260          3