##TITLE=Library Entry 3680
##JCAMP-DX=Revision 4.10 
##DATA TYPE=MASS SPECTRUM
##SAMPLE DESCRIPTION=Japan AIST/NIMC Database- Spectrum MS-NW-1460
##NAMES=HP
##CAS NAME=Triallyl cyanurate
##MOLFORM=C12H15N3O3
##CAS REGISTRY NO=101-37-1
##MP= -300
##BP= -300
##MW= 249
##$RETENTION INDEX=0
##$CONDENSED SPECTRUM=NO
##NPOINTS= 120
##XYDATA=(XY..XY) 1 
    14          1
    15         15
    26          6
    27         29
    28          9
    29         12
    30          5
    31          4
    37          3
    38         10
    39        245
    40         33
    41        999
    42         48
    43         10
    44         10
    51          1
    52          1
    53          6
    54         53
    55         49
    56         67
    57         44
    58          5
    65          2
    66          5
    67         32
    68         17
    69         62
    70        136
    71          7
    77          3
    78          1
    79         42
    80         92
    81         48
    82        348
    83        208
    84         81
    85          8
    87         16
    91          5
    92          5
    93          1
    94         12
    95         11
    96         18
    97         11
    98          4
    99         12
   100          1
   107          2
   108          5
   109         33
   110         13
   111         21
   112         23
   113          9
   114          1
   120          2
   121          2
   122          6
   123         10
   124         17
   125        107
   126         15
   127         21
   128          2
   130          4
   135          1
   136          1
   137         10
   138         10
   139         11
   140          5
   141          1
   142          2
   149          2
   150          4
   151         15
   152         13
   153          9
   154          6
   155          1
   164          2
   165         11
   166         10
   167         12
   168          8
   169          4
   170         10
   171          1
   178          1
   179          6
   180          6
   181          1
   182          4
   183          1
   191          1
   192         14
   193         30
   194          9
   195         16
   196          2
   206          3
   207          9
   208         68
   209         11
   210          5
   219          2
   220          7
   221          3
   222          1
   232          1
   234          9
   235          1
   248          3
   249         12
   250          2
   251          1