##TITLE=Library Entry 71531
##JCAMP-DX=Revision 4.10 
##DATA TYPE=MASS SPECTRUM
##SAMPLE DESCRIPTION=AAFS Toxicology Section MS DB Committee, U. Alberta, Ca
nada
##NAMES=HP
##CAS NAME=1,2-Propanediol, 3-(1-piperidinyl)-, bis(phenylcarbamate)
##MOLFORM=C22H27N3O4
##CAS REGISTRY NO=101-08-6
##MP= -300
##BP= -300
##MW= 397
##$RETENTION INDEX=0
##$CONDENSED SPECTRUM=NO
##NPOINTS= 81
##XYDATA=(XY..XY) 1 
    40          1
    41         20
    42         21
    43          6
    44         11
    50          4
    51          9
    52          3
    53          3
    54          6
    55         37
    56         12
    57         13
    58          1
    60          5
    61          6
    62          4
    63         13
    64         26
    65         25
    66          9
    67          8
    68         10
    69         22
    70         27
    71          6
    72          2
    73          9
    74          5
    75          3
    76          3
    77         36
    78          5
    80          2
    81          5
    82          7
    83         12
    84         19
    85          7
    86          4
    87          2
    90          3
    91         62
    92         33
    93         39
    94          6
    95          4
    96         18
    98        999
    99         72
   100          3
   103          2
   104          1
   105          1
   106          2
   107          1
   109          2
   110          7
   111          2
   112          2
   115          2
   119        121
   120         30
   121          4
   122          7
   123          2
   124        180
   125         18
   126          2
   128         14
   129          3
   137          2
   138          3
   140          6
   141         13
   142          3
   145          2
   239          2
   260          7
   261          2
   268          3