##TITLE=Library Entry 65734
##JCAMP-DX=Revision 4.10 
##DATA TYPE=MASS SPECTRUM
##SAMPLE DESCRIPTION=NIST Mass Spectrometry Data Center, 1994
##NAMES=HP
##CAS NAME=Carbamic acid, phenyl-, ethyl ester
##MOLFORM=C9H11NO2
##CAS REGISTRY NO=101-99-5
##MP= -300
##BP= -300
##MW= 165
##$RETENTION INDEX=1394
##$CONDENSED SPECTRUM=NO
##NPOINTS= 64
##XYDATA=(XY..XY) 1 
    14          7
    15         29
    16          3
    18          4
    19          4
    26         39
    27        238
    28         78
    29        645
    30         27
    31         23
    37         24
    38         73
    39        253
    40         45
    41         32
    42         10
    43         17
    44         12
    45         39
    46          5
    50         50
    51        119
    52         51
    53         13
    54         12
    60          3
    61         10
    62         24
    63         89
    64        123
    65        374
    66        267
    67         24
    73          3
    74         11
    75          9
    76          3
    77        197
    78         31
    79         95
    80         13
    81          2
    87          1
    88          2
    91         99
    92        240
    93        999
    94         77
    95          3
   103          4
   104         10
   106        602
   107         48
   108          2
   119         89
   120         99
   121         11
   136         12
   137         55
   138          4
   165        445
   166         43
   167          3