##TITLE=Library Entry 39986
##JCAMP-DX=Revision 4.10 
##DATA TYPE=MASS SPECTRUM
##SAMPLE DESCRIPTION=Darrick Lee, Cayman Chemical, Ann Arbor, MI
##NAMES=HP
##CAS NAME=1-Propanone, 2-(dimethylamino)-1-phenyl-, hydrochloride
##MOLFORM=C11H15NO
##CAS REGISTRY NO=10105-90-5
##MP= -300
##BP= -300
##MW= 177
##$RETENTION INDEX=0
##$CONDENSED SPECTRUM=NO
##NPOINTS= 71
##XYDATA=(XY..XY) 1 
    40          2
    41          6
    42         55
    43          7
    44         44
    45          2
    49          1
    50         15
    51         48
    52          4
    53          2
    54          8
    55         22
    56         53
    57         20
    58          2
    61          1
    62          2
    63          3
    64          1
    65          2
    66          1
    68          2
    70         86
    72        999
    73         51
    74          8
    75          6
    77        111
    78         12
    79          3
    86          1
    87          1
    89          4
    90          1
    91         12
    92          1
   102          2
   103          7
   105         41
   106          4
   107          1
   114          1
   115          4
   116          2
   117          2
   118          3
   119          1
   128          1
   130          2
   131          6
   132          6
   133          6
   134          7
   135          1
   144          3
   146         26
   147          4
   148          2
   158          1
   159          1
   160          6
   161          1
   162          4
   163          1
   173          2
   174          6
   175         12
   176          2
   177          2
   178          1