##TITLE=Library Entry 7233
##JCAMP-DX=Revision 4.10 
##DATA TYPE=MASS SPECTRUM
##SAMPLE DESCRIPTION=M.S. Ahmad, Dep. Chem., Aligarh Muslim Univ., Aligarh,
 India
##NAMES=HP
##CAS NAME=3.beta.-Chloro-6-aza-B-homo-5.alpha.-stigmastano[6,7-d]tetrazole
##MOLFORM=C29H49ClN4
##CAS REGISTRY NO=101046-99-5
##MP= -300
##BP= -300
##MW= 488
##$RETENTION INDEX=0
##$CONDENSED SPECTRUM=NO
##NPOINTS= 68
##XYDATA=(XY..XY) 1 
    43        999
    55        700
    57        400
    67        330
    69        334
    71        134
    79        302
    81        334
    91        140
    93        400
    94        272
    95        400
   105        146
   107        200
   109        113
   119        100
   121        100
   136         69
   137         68
   149         62
   150         86
   161         40
   163         62
   177        134
   179        142
   191         66
   224         53
   226         18
   251         53
   253         18
   306         66
   307        193
   308         22
   309         65
   320         60
   321        100
   323         33
   334         26
   336          8
   345         82
   347        130
   349         43
   358         26
   359         66
   360         26
   361         16
   375         50
   377         17
   389         80
   391         26
   403         33
   405         11
   411         30
   425         30
   431         51
   433         17
   445        120
   447         41
   452          9
   453         13
   460         34
   462         11
   473         88
   475         29
   488        266
   489         89
   490         89
   491         30