##TITLE=Library Entry 89201
##JCAMP-DX=Revision 4.10 
##DATA TYPE=MASS SPECTRUM
##SAMPLE DESCRIPTION=Exported from NIST MS Search
##NAMES=HP
##CAS NAME=Cyclohexanamine, N-butyl-
##MOLFORM=C10H21N
##CAS REGISTRY NO=10108-56-2
##MP= -300
##BP= -300
##MW= 155
##$RETENTION INDEX=1185
##$CONDENSED SPECTRUM=NO
##NPOINTS= 104
##XYDATA=(XY..XY) 1 
    14         15
    15         69
    16          4
    17          5
    18         28
    24          1
    25          2
    26         29
    27        277
    28        333
    29        304
    30        489
    31         10
    32          5
    33          1
    36          1
    37          4
    38          9
    39        149
    40         24
    41        329
    42         96
    43         76
    44         87
    45          1
    46          2
    47          1
    48          1
    49          1
    50          5
    51         13
    52          9
    53         43
    54         56
    55        177
    56        310
    57        118
    58         26
    59          2
    61          1
    62          1
    63          2
    64          1
    65          6
    66          5
    67         26
    68         35
    69         20
    70         79
    71         52
    72         18
    73          2
    74          3
    75          1
    76          1
    77         10
    78          4
    79         12
    80          8
    81         24
    82         38
    83         61
    84        363
    85         23
    86         12
    87          1
    91          3
    92          3
    93          2
    94          3
    95          2
    96          9
    97          5
    98         41
    99         11
   100         24
   101          4
   102          1
   104          1
   105          1
   106          3
   108          2
   109          2
   110         19
   111          6
   112        999
   113         55
   114          2
   123          2
   124          5
   125          5
   126         29
   127         39
   128          7
   129          1
   136          2
   138          3
   140         65
   141         11
   152          1
   153          1
   154         11
   155         71
   156          7