##TITLE=Library Entry 53072
##JCAMP-DX=Revision 4.10 
##DATA TYPE=MASS SPECTRUM
##SAMPLE DESCRIPTION=V.Zaikin,Inst.Petrochem.Synth.,RAS,Moscow
##NAMES=HP
##CAS NAME=Cyclohexanecarboxylic acid, 2-chlorophenyl ester
##MOLFORM=C13H15ClO2
##CAS REGISTRY NO=101068-39-7
##MP= -300
##BP= -300
##MW= 238
##$RETENTION INDEX=0
##$CONDENSED SPECTRUM=NO
##NPOINTS= 79
##XYDATA=(XY..XY) 1 
    25          2
    26         21
    27        127
    28         13
    29         88
    30          3
    39        191
    40         36
    41        400
    42         30
    43         34
    44          2
    50         28
    51         31
    52         24
    53         66
    54         82
    55        566
    56         34
    57          8
    60          8
    61          6
    62         26
    63         61
    64         55
    65         33
    66         11
    67        174
    68         27
    69         15
    70          3
    72          4
    73         55
    74         12
    75         38
    76          3
    77         20
    80          5
    81         73
    82         43
    83        999
    84        104
    85          5
    86          3
    87          3
    89          3
    91          6
    92         14
    93          4
    94         14
    95          6
    96          3
    97          3
    98          2
    99         65
   100          7
   101         22
   102          4
   103          2
   105          3
   108          6
   109          5
   110         66
   111        594
   112         47
   113         11
   115          2
   119          3
   121          3
   127         19
   128        513
   129         42
   130        173
   131         14
   133          4
   238         24
   239          3
   240          9
   241          1