##TITLE=Library Entry 21825
##JCAMP-DX=Revision 4.10 
##DATA TYPE=MASS SPECTRUM
##SAMPLE DESCRIPTION=R.B. MITRA, NATL. CHEM. LAB., PUNE, INDIA
##NAMES=HP
##CAS NAME=24S--Ethyl-5.alpha.-cholesta-2,22E-dien-6-one
##MOLFORM=C29H46O
##CAS REGISTRY NO=101046-86-0
##MP= -300
##BP= -300
##MW= 410
##$RETENTION INDEX=0
##$CONDENSED SPECTRUM=NO
##NPOINTS= 23
##XYDATA=(XY..XY) 1 
    55        999
    69        500
    83        466
    95        330
    97        364
   123        386
   149        114
   175         57
   215         45
   229        129
   245        159
   269        227
   271        557
   283        102
   297        227
   298        170
   312         80
   349         20
   367        375
   381         45
   395         36
   410        466
   411        227