##TITLE=Library Entry 32211
##JCAMP-DX=Revision 4.10 
##DATA TYPE=MASS SPECTRUM
##SAMPLE DESCRIPTION=Institute of Organic Chemistry, Novosibirsk, USSR 1988
##NAMES=HP
##CAS NAME=[.eta.4-2-(methoxymethyl)norbornadiene](.eta.5-cyclopentadienyl)r
hodium
##MOLFORM=C14H17ORh
##CAS REGISTRY NO=101006-49-9
##MP= -300
##BP= -300
##MW= 304
##$RETENTION INDEX=0
##$CONDENSED SPECTRUM=NO
##NPOINTS= 83
##XYDATA=(XY..XY) 1 
    65        339
    66        999
    67        339
    77        749
    78        529
    79        729
    80        229
    81         39
    85        799
    89         99
    90         19
    91        919
    92        199
    93        259
   100        369
   103        329
   104        539
   105        999
   106        189
   107         89
   115        229
   116         19
   135         79
   136        199
   137         49
   138         69
   140        159
   141         89
   142        289
   143         59
   165         19
   166         89
   167         39
   168        949
   169        409
   170         19
   179         29
   180        199
   181        159
   182        199
   183         29
   192         99
   193         99
   194         69
   195         99
   196         19
   197          9
   231         19
   232          9
   233        339
   234         49
   236         19
   238         49
   239         19
   245         29
   246        219
   247         49
   254         19
   255         59
   257         69
   258         14
   259        679
   260        129
   261        109
   262         19
   269          9
   270          9
   271        159
   272         89
   273        429
   274        129
   275          9
   277         69
   287         59
   288         19
   289        489
   290        109
   291          9
   302          9
   303        169
   304        999
   305        169
   306         39