##TITLE=Library Entry 1053
##JCAMP-DX=Revision 4.10 
##DATA TYPE=MASS SPECTRUM
##SAMPLE DESCRIPTION=Exported from NIST MS Search
##NAMES=HP
##CAS NAME=Nitrogen dioxide
##MOLFORM=NO2
##CAS REGISTRY NO=10102-44-0
##MP= -300
##BP= -300
##MW= 46
##$RETENTION INDEX=0
##$CONDENSED SPECTRUM=NO
##NPOINTS= 5
##XYDATA=(XY..XY) 1 
    14         96
    16        223
    30        999
    46        370
    47          1