##TITLE=Library Entry 28133
##JCAMP-DX=Revision 4.10 
##DATA TYPE=MASS SPECTRUM
##SAMPLE DESCRIPTION=Japan AIST/NIMC Database- Spectrum MS-NW-3950
##NAMES=HP
##CAS NAME=1-Decanaminium, N,N,N-trimethyl-, chloride
##MOLFORM=C13H30ClN
##CAS REGISTRY NO=10108-87-9
##MP= -300
##BP= -300
##MW= 235
##$RETENTION INDEX=0
##$CONDENSED SPECTRUM=NO
##NPOINTS= 53
##XYDATA=(XY..XY) 1 
    14          1
    15         25
    27         12
    28          4
    29         20
    30          9
    39          7
    40          1
    41         31
    42         24
    43         31
    44         15
    45         14
    46          5
    47          2
    48          1
    49          4
    50         53
    51          2
    52         16
    53          2
    54          1
    55         19
    56          9
    57         17
    58        999
    59         41
    67          1
    68          1
    69          9
    70          5
    71          7
    72          3
    82          1
    83          3
    84          9
    85          3
    91         13
    93          5
    97          2
    98          1
   100          2
   105          3
   107          1
   110          1
   114          3
   128          2
   142          1
   156          1
   170          2
   184          5
   185         30
   186          4