##TITLE=Library Entry 864
##JCAMP-DX=Revision 4.10 
##DATA TYPE=MASS SPECTRUM
##SAMPLE DESCRIPTION=Exported from NIST MS Search
##NAMES=HP
##CAS NAME=Nitric oxide
##MOLFORM=NO
##CAS REGISTRY NO=10102-43-9
##MP= -300
##BP= -300
##MW= 30
##$RETENTION INDEX=0
##$CONDENSED SPECTRUM=NO
##NPOINTS= 6
##XYDATA=(XY..XY) 1 
    14         75
    15         24
    16         15
    30        999
    31          4
    32          2