##TITLE=Library Entry 69217
##JCAMP-DX=Revision 4.10 
##DATA TYPE=MASS SPECTRUM
##SAMPLE DESCRIPTION=Exported from NIST MS Search
##NAMES=HP
##CAS NAME=1H-Imidazole-2-carboxaldehyde
##MOLFORM=C4H4N2O
##CAS REGISTRY NO=10111-08-7
##MP= -300
##BP= -300
##MW= 96
##$RETENTION INDEX=1108
##$CONDENSED SPECTRUM=NO
##NPOINTS= 10
##XYDATA=(XY..XY) 1 
    39         60
    40        270
    41        450
    42        100
    67        150
    68        580
    69         50
    95         60
    96        999
    97         70