##TITLE=Library Entry 6956
##JCAMP-DX=Revision 4.10 
##DATA TYPE=MASS SPECTRUM
##SAMPLE DESCRIPTION=A.A.Kutin, Moscow, Russia
##NAMES=HP
##CAS NAME=Acetamide, 2-chloro-N-(4-amino-3-furazanyl)-
##MOLFORM=C4H5ClN4O2
##CAS REGISTRY NO=101140-12-9
##MP= -300
##BP= -300
##MW= 176
##$RETENTION INDEX=0
##$CONDENSED SPECTRUM=NO
##NPOINTS= 81
##XYDATA=(XY..XY) 1 
    33          1
    34          3
    35         13
    36         26
    37          5
    38         23
    39         21
    40         62
    41        125
    42        416
    43        999
    44        114
    45          5
    46          0
    47         17
    48         48
    49        598
    50         28
    51        188
    52         16
    53        183
    54         88
    55         40
    56         28
    57         21
    58         65
    59         14
    60          4
    61          2
    62          5
    63          2
    64          4
    65          2
    66          2
    67          8
    68         32
    69         43
    70        259
    71         66
    72          7
    73          4
    74          2
    76        252
    77        406
    78         83
    79        127
    82          2
    83         11
    84         16
    85          7
    96          3
    97          9
    98          2
   100        135
   101          7
   104          2
   105          1
   110          3
   111          6
   112          3
   113          7
   119        443
   120         23
   121        136
   122          5
   123          1
   126          1
   127          6
   128          0
   129          1
   141          5
   142          0
   144          1
   146         96
   147          6
   148         28
   149          7
   176        100
   177          8
   178         30
   179          2