##TITLE=Library Entry 52505
##JCAMP-DX=Revision 4.10 
##DATA TYPE=MASS SPECTRUM
##SAMPLE DESCRIPTION=NIST Mass Spectrometry Data Center
##NAMES=HP
##CAS NAME=Thymyl tiglate
##MOLFORM=C15H20O2
##CAS REGISTRY NO=101162-18-9
##MP= -300
##BP= -300
##MW= 232
##$RETENTION INDEX=1664
##$CONDENSED SPECTRUM=NO
##NPOINTS= 64
##XYDATA=(XY..XY) 1 
    27          7
    28          1
    29         14
    39         26
    40          3
    41         10
    50          3
    51         10
    52          5
    53         27
    54         13
    55        351
    56         15
    62          1
    63          6
    64          2
    65         18
    66          3
    75          1
    76          1
    77         38
    78         12
    79         21
    82         16
    83        999
    84         56
    85          3
    89          5
    90          2
    91         77
    92          7
   102          4
   103         14
   104          3
   105         40
   106          6
   109          7
   115         40
   116         14
   117         15
   118          3
   121         23
   127          1
   128          4
   129          3
   130          1
   131          2
   132          3
   133         38
   134         20
   135        111
   136         10
   145          1
   148         10
   149        144
   150         78
   151          7
   153          2
   173          1
   189          3
   217          1
   232        135
   233         22
   234          2