##TITLE=Library Entry 61806
##JCAMP-DX=Revision 4.10 
##DATA TYPE=MASS SPECTRUM
##SAMPLE DESCRIPTION=V.A.Korolev, Moscow, Russia
##NAMES=HP
##CAS NAME=5-Benzyl-3-(4-methoxyphenyl)-4,5-dihydro-1,2-oxazole
##MOLFORM=C17H17NO2
##CAS REGISTRY NO=1011407-02-5
##MP= -300
##BP= -300
##MW= 267
##$RETENTION INDEX=0
##$CONDENSED SPECTRUM=NO
##NPOINTS= 51
##XYDATA=(XY..XY) 1 
    37          9
    38         39
    39        206
    41         45
    42         10
    43         11
    50        100
    51        193
    52         34
    62         40
    63        209
    64        144
    65        314
    66         12
    74         22
    75         24
    76         64
    77        400
    78        108
    79         16
    87         11
    89         70
    90         93
    91        999
    92        274
   102         16
   103         57
   104         39
   105         11
   107         33
   108         17
   115         34
   117         24
   118         13
   121        518
   122          9
   132         62
   133         73
   147         33
   148        189
   149         13
   175        104
   176        368
   177         20
   190          6
   236          6
   250          5
   252          8
   267        180
   268         35
   269          4