##TITLE=Library Entry 46752
##JCAMP-DX=Revision 4.10 
##DATA TYPE=MASS SPECTRUM
##SAMPLE DESCRIPTION=V.Zaikin,Inst.Petrochem.Synth.,RAS,Moscow
##NAMES=HP
##CAS NAME=Trichloroacetic acid, phenyl ester
##MOLFORM=C8H5Cl3O2
##CAS REGISTRY NO=10112-13-7
##MP= -300
##BP= -300
##MW= 238
##$RETENTION INDEX=0
##$CONDENSED SPECTRUM=NO
##NPOINTS= 117
##XYDATA=(XY..XY) 1 
    25          6
    26         32
    27         37
    28          2
    29         11
    39        426
    40         34
    41         22
    42          4
    43          4
    50         99
    51        247
    52         71
    53         20
    54          3
    55         13
    56          3
    60          4
    61         19
    62         42
    63        155
    64         54
    65        552
    66         55
    67          2
    68          2
    69          2
    70          2
    71          2
    72          3
    73          9
    74         20
    75         21
    76         21
    77        999
    78        133
    79         94
    80          5
    81          4
    82         97
    83         26
    84         62
    85         15
    86          9
    87          2
    89         10
    91          3
    92          9
    97          2
    99          3
   101          9
   102          4
   103          2
   105         10
   110         72
   111         38
   112        108
   113         27
   114         27
   115          3
   116          6
   117        491
   118         13
   119        478
   120          9
   121        292
   122         12
   123         21
   125          8
   126          3
   127          3
   128          2
   129          5
   130          8
   133          3
   134          2
   135          2
   139         11
   140          2
   141         14
   143          3
   145          3
   147         14
   148          2
   149          9
   151          4
   152          4
   153          3
   154         17
   155          3
   157          3
   159         72
   160          9
   161         45
   162          6
   163         10
   167          3
   174          3
   175        161
   176         16
   177        113
   178         11
   179         20
   180          2
   203         12
   204         13
   205         12
   206          8
   207          6
   236          5
   238        185
   239         17
   240        176
   241         15
   242         58
   243          7
   244          6