##TITLE=Library Entry 27282
##JCAMP-DX=Revision 4.10 
##DATA TYPE=MASS SPECTRUM
##SAMPLE DESCRIPTION=Chemical Concepts
##NAMES=HP
##CAS NAME=2-Oxa-4-azabicyclo[4.2.0]octa-3,7-diene-6-carboxylic acid, 1,7,8-
tris(1,1-dimethylethyl)-3-(2,2-dimethylpropyl)-5-phenyl-, 1,1-dimethylethyl
 ester
##MOLFORM=C34H53NO3
##CAS REGISTRY NO=101160-38-7
##MP= -300
##BP= -300
##MW= 523
##$RETENTION INDEX=0
##$CONDENSED SPECTRUM=NO
##NPOINTS= 323
##XYDATA=(XY..XY) 1 
    24          0
    26          2
    27         18
    28         16
    29        158
    30          4
    31          0
    37          0
    38          1
    39         25
    41        257
    42         14
    43         74
    44          4
    45          0
    49          0
    50          2
    51          6
    52          1
    53         12
    54          2
    55         57
    56         17
    57        999
    58         44
    59         15
    60          0
    62          0
    63          1
    64          0
    65          7
    66          1
    67         16
    68          2
    69         34
    70          3
    71         27
    72          2
    73          0
    74          0
    75          1
    76          1
    77         26
    78          4
    79         24
    80          2
    81         24
    82          4
    83         27
    84          4
    85          5
    86          0
    87          0
    88          0
    89          4
    90          6
    91         57
    92          6
    93         21
    94          4
    95         13
    96          2
    97         11
    98          2
    99         52
   100          3
   101          1
   102          2
   103         34
   104         18
   105         40
   106         37
   107         40
   108         17
   109         13
   110          3
   111          2
   112          0
   113          1
   114          0
   115         11
   116          4
   117         15
   118          4
   119         35
   120          7
   121         42
   122         12
   123         18
   124          4
   125          4
   126         10
   127          7
   128         10
   129         13
   130         24
   131         21
   132         20
   133         24
   134          8
   135         44
   136          7
   137         11
   138         29
   139          6
   140          2
   141          9
   142          5
   143          9
   144          4
   145          8
   146          6
   147         29
   148         11
   149         61
   150         11
   151         21
   152        218
   153         30
   154          8
   155          8
   156         10
   157          7
   158          3
   159          7
   160          3
   161         26
   162          7
   163         60
   164         24
   165         34
   166         22
   167         16
   168         10
   169          6
   170          4
   171          6
   172          7
   173          7
   174         21
   175         26
   176          5
   177          7
   178          5
   179         21
   180          8
   181          9
   182          3
   183         13
   184          3
   185          6
   186         10
   187         24
   188          9
   189         20
   190         12
   191         12
   192          4
   193        140
   194         24
   195         11
   196          6
   197          6
   198          2
   199          3
   200          1
   201          3
   202          2
   203         10
   204          4
   205         16
   206         10
   207        154
   208        503
   209         76
   210         13
   211         19
   212          7
   213          5
   214          2
   215          4
   216          2
   217          2
   218          2
   219         63
   220         15
   221         25
   222          7
   223          6
   224          2
   225          3
   226          4
   227          2
   228          8
   229         17
   230         16
   231         23
   232          5
   233          2
   234          4
   235          4
   236          9
   237          3
   238          6
   239          6
   240         10
   241          5
   242          1
   243          1
   244          0
   245          0
   246          1
   247         14
   248          3
   249        101
   250         20
   251          5
   252          4
   253          3
   254          2
   255          3
   256          3
   257          2
   258          0
   260          0
   261          0
   262          1
   263          2
   264        149
   265         30
   266          7
   267          5
   268          7
   269          4
   270          1
   271          1
   272          1
   273          8
   274          1
   276          0
   277          0
   278          3
   279          1
   280          2
   281          2
   282          1
   284         43
   285         16
   286          4
   287          1
   288          0
   292          2
   293          0
   294         11
   295          4
   296          8
   297          6
   298          1
   299          1
   305          3
   306          1
   307          0
   308          4
   309          2
   310          3
   311          2
   312         44
   313         23
   314          5
   315          0
   320        146
   321         35
   322          4
   323          9
   324          4
   325         12
   326          3
   327          1
   328          0
   336          1
   337          0
   338          0
   339          0
   340          2
   341          0
   350          1
   351          2
   352          4
   353          1
   354          6
   355          2
   356          0
   364          1
   365          0
   366          2
   367          0
   368          6
   369          3
   370          1
   378          0
   379          0
   385          0
   394          0
   396          1
   397          0
   410          1
   411          0
   412          0
   422          0
   423          0
   424          0
   425          0
   426          0
   452          1
   453          0
   466          0
   467          1
   468          0
   508          2
   509          0
   523          7
   524          3
   525          0