##TITLE=Library Entry 27056
##JCAMP-DX=Revision 4.10 
##DATA TYPE=MASS SPECTRUM
##SAMPLE DESCRIPTION=Chemical Concepts
##NAMES=HP
##CAS NAME=2-Oxa-4-azabicyclo[4.2.0]octa-3,7-diene-6-carboxylic acid, 1,7,8-
tris(1,1-dimethylethyl)-3-(2,2-dimethylpropyl)-5-phenyl-, methyl ester
##MOLFORM=C31H47NO3
##CAS REGISTRY NO=101160-35-4
##MP= -300
##BP= -300
##MW= 481
##$RETENTION INDEX=0
##$CONDENSED SPECTRUM=NO
##NPOINTS= 277
##XYDATA=(XY..XY) 1 
    26          2
    27         17
    29        189
    30          4
    31          0
    37          0
    38          1
    39         23
    41        324
    42         18
    43         89
    44          2
    45          5
    50          2
    51          6
    52          1
    53         18
    54          3
    55         78
    56         14
    57        999
    58         43
    59         30
    60          1
    63          2
    64          1
    65         13
    66          2
    67         24
    68          2
    69         47
    70          4
    71         37
    72          1
    73        131
    74          5
    75          1
    76          2
    77         50
    78          7
    79         32
    80          3
    81         32
    82          6
    83         42
    84          4
    85          6
    87          1
    89          7
    90          9
    91         80
    92         11
    93         27
    94          4
    95         13
    96          1
    97         12
    98          2
    99        123
   100          9
   101          2
   102          5
   103         62
   104         27
   105         63
   106         89
   107         58
   108         10
   109          9
   110          1
   111          1
   113          1
   114          1
   115         18
   116          7
   117         16
   118          6
   119         71
   120         16
   121         64
   122         10
   123         25
   124          4
   125          4
   126          2
   127          7
   128         15
   129         17
   130         37
   131         30
   132         37
   133         45
   134         21
   135         34
   136          6
   137          6
   138         14
   139          3
   140         29
   141         16
   142          8
   143         12
   144          4
   145         15
   146         10
   147        104
   148         31
   149         26
   150          5
   151         10
   152         16
   153         15
   154          7
   155         12
   156         12
   157         10
   158          5
   159         11
   160          6
   161         82
   162         23
   163        110
   164         16
   165         42
   166        592
   167         82
   168         20
   169         10
   170          4
   171          7
   172          4
   173         12
   174         10
   175        108
   176         15
   177          9
   178          8
   179         36
   180         23
   181         17
   182          9
   183         32
   184          8
   185          5
   186         12
   187         24
   188         41
   189         67
   190         29
   191         11
   192          3
   193         20
   194          9
   195         12
   196          6
   197          8
   198          2
   199          3
   200          1
   201          5
   202          4
   203         52
   204         12
   205         16
   206          4
   207        239
   208         38
   209         11
   210          6
   211         31
   212          7
   213          3
   214          1
   215          3
   216          1
   217          2
   218          2
   219         86
   220         17
   221        206
   222        371
   223         55
   224          8
   225          6
   226          2
   227          3
   228          3
   229          2
   230          3
   231         97
   232         17
   233          2
   234          2
   235         16
   236          8
   237          4
   238          6
   239         10
   240          5
   241          2
   242          1
   243         18
   244         20
   245         10
   246          5
   247         14
   248          4
   249          2
   250          7
   251          6
   252          3
   253          2
   254          1
   255          7
   256          2
   257          1
   261          0
   262          0
   263        103
   264         19
   265          3
   266          3
   267          3
   268          2
   269          2
   270          2
   271          1
   272          0
   277          0
   278        255
   279         55
   280          7
   281          1
   282          0
   283          0
   284         16
   285          5
   286          2
   287          6
   288          1
   292          1
   294          8
   295          4
   296          3
   297          0
   299          8
   300          2
   306          0
   308          1
   309          1
   310          4
   311          4
   312          3
   313          1
   320          0
   322          0
   324          1
   325          4
   326         23
   327         19
   328          6
   329          0
   336          1
   352          1
   354          1
   368          6
   369          2
   378          1
   382          3
   383          1
   384          1
   410          1
   466          4
   467          1
   481         18
   482          7
   483          1