##TITLE=Library Entry 62139
##JCAMP-DX=Revision 4.10 
##DATA TYPE=MASS SPECTRUM
##SAMPLE DESCRIPTION=NIST Mass Spectrometry Data Center
##NAMES=HP
##CAS NAME=DL-Homophenylalanine
##MOLFORM=C10H13NO2
##CAS REGISTRY NO=1012-05-1
##MP= -300
##BP= -300
##MW= 179
##$RETENTION INDEX=0
##$CONDENSED SPECTRUM=NO
##NPOINTS= 92
##XYDATA=(XY..XY) 1 
    15          3
    17          1
    18          7
    19          2
    26          2
    27         23
    28         59
    29         24
    30         49
    31          1
    37          1
    38          7
    39         67
    40          6
    41         26
    42         65
    43         74
    44         38
    45         18
    46         29
    47          1
    49          1
    50         25
    51         70
    52         19
    53         10
    54         10
    55          8
    56         33
    57         60
    58          2
    61          2
    62          9
    63         38
    64         10
    65        144
    66         10
    67          5
    70          7
    73          1
    74        112
    75        108
    76         11
    77         83
    78         36
    79         44
    80          4
    83          2
    84          2
    86          1
    87         21
    88         84
    89         34
    90         14
    91        999
    92        104
    93          5
   101          2
   102          9
   103         43
   104         25
   105         86
   106         13
   107         25
   108          2
   114          1
   115         52
   116         30
   117        288
   118         34
   119          3
   120          5
   121          1
   128          1
   129          1
   130          9
   131          5
   132         32
   133         13
   134        395
   135         41
   136          2
   144         32
   145          4
   146          4
   147          1
   161         10
   162        145
   163         15
   164          1
   179         43
   180          5