##TITLE=Library Entry 50753
##JCAMP-DX=Revision 4.10 
##DATA TYPE=MASS SPECTRUM
##SAMPLE DESCRIPTION=Japan AIST/NIMC Database- Spectrum MS-IW-2860
##NAMES=HP
##CAS NAME=N,N'-Dimethyl-N,N'-bis(furfuryl)methylenediamine
##MOLFORM=C13H18N2O2
##CAS REGISTRY NO=101264-94-2
##MP= -300
##BP= -300
##MW= 234
##$RETENTION INDEX=0
##$CONDENSED SPECTRUM=NO
##NPOINTS= 70
##XYDATA=(XY..XY) 1 
    15          6
    26          3
    27         34
    28         31
    29          9
    30         27
    31          1
    37          4
    38          9
    39         29
    40          8
    41         21
    42        126
    43         20
    44         65
    45          8
    49          1
    50         11
    51         23
    52         18
    53        148
    54         13
    55         11
    56          7
    57         38
    58         53
    59          2
    63          1
    64          1
    65          4
    66          3
    67         12
    68         43
    69          9
    70          2
    71          2
    77          1
    78          3
    79          3
    80         11
    81        999
    82        153
    83         20
    84          2
    91          1
    93          2
    94         28
    95          9
    96          9
    97          1
   108         20
   109          9
   110        110
   111        153
   112         10
   122          1
   123        109
   124        377
   125         45
   126          3
   137          1
   139          6
   147          2
   160          2
   174          8
   175          1
   189          7
   190          2
   191          1
   234          1