##TITLE=Library Entry 14843
##JCAMP-DX=Revision 4.10 
##DATA TYPE=MASS SPECTRUM
##SAMPLE DESCRIPTION=LAC, NIDDK, NIH, Bethesda, MD 20892
##NAMES=HP
##CAS NAME=1,2-Dihydro-11-oxo-prednisolone, 9-thiocyanato-, 21-acetate
##MOLFORM=C24H29NO6S
##CAS REGISTRY NO=101297-81-8
##MP= -300
##BP= -300
##MW= 459
##$RETENTION INDEX=0
##$CONDENSED SPECTRUM=NO
##NPOINTS= 176
##XYDATA=(XY..XY) 1 
    41        117
    42        137
    43        999
    45         19
    53         39
    55        154
    59         53
    67         87
    69         88
    73        105
    74         48
    77        118
    79        130
    81         38
    91        210
    93         84
    95         77
    96         19
    97        120
   101         59
   103         16
   105        167
   107         83
   109         36
   110         39
   111         36
   115         89
   116         35
   117         88
   119        106
   121        183
   122        173
   123         58
   128         60
   129         59
   131         88
   133        125
   134         48
   135        117
   136         84
   137         40
   139         16
   141         33
   143         69
   145         84
   146         17
   147        125
   148         21
   149         19
   153         20
   157         22
   159         96
   160         72
   161        282
   162        108
   163         66
   165         24
   167         21
   169         33
   171         57
   172         18
   173        114
   174        236
   175        144
   176         44
   177         27
   178         22
   179         31
   181         20
   183         26
   185         58
   186         31
   187        133
   188         55
   189        249
   190         26
   191         16
   195         25
   197         51
   198         21
   199         65
   200         42
   201         51
   202         24
   203         21
   204         17
   205         20
   207         17
   209         18
   211         64
   212         24
   213         86
   214         20
   215         29
   219         47
   220         18
   221         17
   223         85
   225         96
   226         50
   227         90
   228         25
   229         43
   230         22
   234        194
   235         44
   236         21
   237         63
   238         41
   239        115
   240         22
   241        120
   242         47
   243         78
   244         68
   253         84
   254         53
   255        250
   256        140
   257        151
   258         44
   263         33
   265         34
   267         16
   269         17
   270         45
   271         75
   272        161
   273         20
   281         97
   282         35
   283         68
   285         60
   286         15
   297         59
   298         56
   299        731
   300        307
   301        389
   302         81
   309         17
   313         38
   314         80
   315         44
   323         16
   324         63
   325         66
   327         16
   338         15
   340         48
   341         88
   342        415
   343        158
   344         42
   356         56
   357        176
   358        870
   359        264
   360         81
   371         60
   372         69
   386         18
   399        126
   400        115
   401        206
   402        317
   403         88
   414         46
   415         17
   416        276
   417         68
   443         64
   444        180
   445         22
   459        164
   460         36