##TITLE=Library Entry 31590
##JCAMP-DX=Revision 4.10 
##DATA TYPE=MASS SPECTRUM
##SAMPLE DESCRIPTION=NIST Mass Spectrometry Data Center
##NAMES=HP
##CAS NAME=2,4-Dibromophenoxyacetic acid
##MOLFORM=C8H6Br2O3
##CAS REGISTRY NO=10129-78-9
##MP= -300
##BP= -300
##MW= 308
##$RETENTION INDEX=0
##$CONDENSED SPECTRUM=NO
##NPOINTS= 200
##XYDATA=(XY..XY) 1 
    12          1
    13          3
    14         12
    15          7
    16          1
    17          1
    25          5
    26         13
    27          9
    29        106
    30         25
    31        203
    32          1
    36         11
    37        111
    38         99
    39         32
    41         16
    42        108
    43         27
    44         19
    45        203
    46          5
    47          1
    48          3
    49         46
    50        200
    51         98
    52         20
    53         82
    54          5
    55         10
    56          2
    57          2
    58          2
    59         46
    60         26
    61        190
    62        407
    63        999
    64         86
    65         40
    66         22
    67          3
    68          2
    69          3
    70          2
    71          7
    72          9
    73         96
    74        564
    75        756
    76        149
    77        119
    78         59
    79         58
    80         21
    81         26
    82         18
    83          1
    84          1
    85          5
    86          5
    87          1
    88          1
    89          4
    90          9
    91         38
    92         49
    93         27
    94         86
    95         11
    96          1
    97          1
    98          1
    99          1
   101          1
   103          2
   104         12
   105         37
   106         15
   107         14
   108          4
   109          5
   110          3
   111          1
   112          1
   114         22
   116         47
   117         90
   118         45
   119         79
   120          6
   121         17
   122          5
   123          1
   125          2
   126          1
   127          3
   128         33
   129         14
   130         32
   131         23
   133         30
   135          3
   136          1
   137          1
   138          2
   139          2
   140          7
   141         68
   142        127
   143        131
   144        120
   145         65
   146          5
   147          1
   149          1
   150          4
   151          3
   152          7
   153        103
   154        210
   155        175
   156        363
   157         90
   158        155
   159         55
   160          3
   161         38
   162          2
   163          1
   170        135
   171         36
   172        143
   173         45
   174         10
   175          9
   181          1
   182          1
   183         14
   184         80
   185         22
   186         80
   187         44
   188          3
   189         33
   190          2
   195          7
   196          1
   197         14
   198          6
   199         16
   200          1
   201          9
   202          1
   209          1
   211          1
   212          1
   213          1
   214          1
   221        127
   222         11
   223        247
   224         16
   225        119
   226          7
   227          1
   229        526
   230         53
   231        512
   232         48
   233         76
   234          7
   235        145
   236         12
   237         78
   238          6
   239          6
   249        113
   250        255
   251        229
   252        492
   253        132
   254        236
   255         15
   261          1
   263         55
   264          6
   265        104
   266          9
   267         50
   268          4
   308        211
   309         22
   310        418
   311         37
   312        203
   313         18
   314          2