##TITLE=Library Entry 46821
##JCAMP-DX=Revision 4.10 
##DATA TYPE=MASS SPECTRUM
##SAMPLE DESCRIPTION=Leung Pu, NIH, Bethesda, Maryland, U.S.
##NAMES=HP
##CAS NAME=2,6,2',6'-Tetramethylazobenzene
##MOLFORM=C16H18N2O2
##CAS REGISTRY NO=101225-69-8
##MP= -300
##BP= -300
##MW= 270
##$RETENTION INDEX=0
##$CONDENSED SPECTRUM=NO
##NPOINTS= 81
##XYDATA=(XY..XY) 1 
    41         80
    42         22
    43         24
    44          6
    45          3
    47          8
    48          4
    49         52
    50        183
    51        456
    52        168
    53        227
    54         19
    55         14
    56          1
    57          2
    58          4
    59          1
    60          2
    61         28
    62         85
    63        239
    64         69
    65        200
    66         45
    67          9
    68          4
    69          2
    71          0
    73          7
    74         46
    75         45
    76         57
    77        999
    78        248
    79        930
    80         90
    81         23
    82          2
    83          1
    84         18
    85          6
    86         23
    87         13
    88          7
    89         75
    90         59
    91         73
    92         22
    93         17
    94         10
    95          1
    97          1
    98          5
    99          2
   100          0
   101          6
   102         56
   103        452
   104        117
   105        696
   106        680
   107        440
   108         34
   109          2
   115          1
   116         17
   117         13
   118         28
   119          6
   120          6
   121          3
   132          2
   134        155
   135        714
   136         71
   137          5
   141          0
   165          0
   239          2
   270          2