##TITLE=Library Entry 13156
##JCAMP-DX=Revision 4.10 
##DATA TYPE=MASS SPECTRUM
##SAMPLE DESCRIPTION=NIST Mass Spectrometry Data Center
##NAMES=HP
##CAS NAME=4-Acetamido-3-bromoacetophenone
##MOLFORM=C10H10BrNO2
##CAS REGISTRY NO=101209-08-9
##MP= -300
##BP= -300
##MW= 255
##$RETENTION INDEX=0
##$CONDENSED SPECTRUM=NO
##NPOINTS= 128
##XYDATA=(XY..XY) 1 
    14          2
    15         53
    26          3
    27          7
    29          2
    37         16
    38         30
    39         44
    40          8
    41         21
    42         51
    43        999
    44         24
    45          3
    49          4
    50         36
    51         49
    52         80
    53         14
    54          3
    55          1
    59          1
    60          1
    61         30
    62         91
    63        220
    64         84
    65         46
    66          7
    67          2
    73          7
    74         35
    75         41
    76         24
    77         73
    78         69
    79         24
    80          3
    81          1
    85          2
    86          5
    87         10
    88         20
    89         53
    90        310
    91        176
    92         35
    93          6
    95          1
    98          1
    99          2
   100          2
   101          1
   102          6
   103         11
   104         79
   105         71
   106         31
   107          4
   114          2
   115          3
   116          6
   117         17
   118         29
   119         43
   120         18
   121          2
   128          1
   129          1
   130          2
   131          3
   132         11
   133         59
   134         24
   135          4
   141          7
   142          7
   143         34
   144          9
   145         25
   146          5
   148          1
   154          1
   155          2
   156          2
   157          6
   158          1
   159          5
   160          9
   161          1
   168         13
   169         27
   170         78
   171         39
   172         65
   173         13
   174          1
   176        835
   177         95
   178          7
   182          1
   183          2
   184         26
   185          4
   186         25
   187          2
   196          2
   198        790
   199         75
   200        761
   201         58
   202          3
   212          7
   213        158
   214         20
   215        153
   216         13
   224          3
   226          5
   228          1
   240          9
   241          1
   242          9
   243          1
   255         76
   256          9
   257         72
   258          8