##TITLE=Library Entry 45201
##JCAMP-DX=Revision 4.10 
##DATA TYPE=MASS SPECTRUM
##SAMPLE DESCRIPTION=Chuck Anderson, Aldrich Chemical Co.
##NAMES=HP
##CAS NAME=Butane, 1,1,3-trimethoxy-
##MOLFORM=C7H16O3
##CAS REGISTRY NO=10138-89-3
##MP= -300
##BP= -300
##MW= 148
##$RETENTION INDEX=883
##$CONDENSED SPECTRUM=NO
##NPOINTS= 70
##XYDATA=(XY..XY) 1 
    14          1
    15         33
    16          0
    17          0
    26          2
    27         23
    28         14
    29         81
    30          4
    31         99
    32          3
    33         22
    34          0
    37          0
    38          2
    39         32
    40          6
    41         56
    42         23
    43        101
    44          4
    45         43
    46          0
    47        132
    48          3
    49          0
    50          1
    51          3
    52          0
    53         13
    54          3
    55         30
    56          4
    57          8
    58         77
    59        941
    60         31
    61          3
    66          0
    68          1
    69          8
    70          1
    71         29
    72          3
    73          8
    75        999
    76         31
    77          4
    78          0
    83          2
    84          5
    85         37
    86          7
    87          3
    88          7
    89          8
    90          0
    99          0
   101        123
   102          6
   103          0
   115          6
   116         21
   117         77
   118          5
   119          0
   131          0
   133         13
   134          0
   147          1