##TITLE=Library Entry 72373
##JCAMP-DX=Revision 4.10 
##DATA TYPE=MASS SPECTRUM
##SAMPLE DESCRIPTION=H-J. GAIS, INST. ORG. CHEM. BIOCHEM., DARMSTADT, W. GER
.
##NAMES=HP
##CAS NAME=Methyl (3a.alpha.,4.beta.,5.beta.,6a.alpha.)-(+-)-hexahydro-5-met
hoxy-1-oxo(1H)cyclopenta[c]furan-4-carboxylate
##MOLFORM=C10H14O5
##CAS REGISTRY NO=101375-88-6
##MP= -300
##BP= -300
##MW= 214
##$RETENTION INDEX=0
##$CONDENSED SPECTRUM=NO
##NPOINTS= 45
##XYDATA=(XY..XY) 1 
    66        370
    67        340
    68        180
    69        120
    71        370
    77        100
    78        130
    79        760
    80        100
    81        130
    83        820
    85        650
    87        130
    93        130
    94        160
    95        300
    96        170
    97        330
    98        990
    99        999
   100        490
   107        360
   109        190
   110        150
   111        210
   115        700
   117        220
   122        460
   123        150
   124        170
   125        220
   126        170
   128        230
   130        110
   139        160
   150        440
   154        240
   155        110
   157        100
   167        190
   182        170
   183        650
   184        290
   199        440
   214         60