##TITLE=Library Entry 114369
##JCAMP-DX=Revision 4.10 
##DATA TYPE=MASS SPECTRUM
##SAMPLE DESCRIPTION=NIST Mass Spectrometry Data Center
##NAMES=HP
##CAS NAME=2-Chloro-4-fluoroiodobenzene
##MOLFORM=C6H3ClFI
##CAS REGISTRY NO=101335-11-9
##MP= -300
##BP= -300
##MW= 256
##$RETENTION INDEX=0
##$CONDENSED SPECTRUM=NO
##NPOINTS= 82
##XYDATA=(XY..XY) 1 
    25          1
    26          3
    27          1
    31         24
    35          7
    36          9
    37         50
    38         21
    39          4
    44          4
    45          3
    47          3
    48          6
    49         40
    50        197
    51         12
    55          3
    56         12
    57         17
    60         12
    61         69
    62         58
    63         74
    64          3
    67          4
    68        151
    69         30
    70          1
    71          3
    72         16
    73         67
    74        241
    75         80
    76          4
    79          2
    80          2
    81          3
    83          1
    84         34
    85         15
    86         11
    87          4
    90          1
    91          8
    92         71
    93        326
    94        371
    95         25
    96          3
    97          5
    98          1
    99          1
   102         10
   103         25
   104          4
   105          8
   108          8
   109        303
   110         27
   111         98
   112          8
   127        169
   128        125
   129        999
   130         78
   131        325
   132         21
   139          2
   151          1
   152          3
   162          6
   163          1
   164          5
   165          1
   176          5
   194          2
   200          1
   221          3
   256        965
   257         67
   258        314
   259         21