##TITLE=Library Entry 50856
##JCAMP-DX=Revision 4.10 
##DATA TYPE=MASS SPECTRUM
##SAMPLE DESCRIPTION=Japan AIST/NIMC Database- Spectrum MS-NW-3822
##NAMES=HP
##CAS NAME=1,2-Cyclohexanedicarboxylic acid, diethyl ester
##MOLFORM=C12H20O4
##CAS REGISTRY NO=10138-59-7
##MP= -300
##BP= -300
##MW= 228
##$RETENTION INDEX=0
##$CONDENSED SPECTRUM=NO
##NPOINTS= 129
##XYDATA=(XY..XY) 1 
    14          1
    15         18
    16          1
    18          1
    26         13
    27        144
    28         29
    29        418
    30          9
    31         16
    32          5
    36          1
    38          3
    39         73
    40         12
    41        147
    42         12
    43         73
    44          7
    45         22
    46          1
    47          7
    50          4
    51         11
    52          9
    53         67
    54         92
    55         99
    56         15
    57         18
    58          3
    59          7
    60          8
    61          8
    63          2
    65         10
    66         42
    67        176
    68         37
    69         30
    70          8
    71          7
    72          1
    73         39
    74          7
    75          2
    76          1
    77         21
    78          6
    79         87
    80        288
    81        999
    82        167
    83         50
    84          5
    85         11
    86         15
    87         12
    88         39
    89          4
    90          1
    91          6
    92          2
    93          2
    94          9
    95          9
    96          8
    97         24
    98          6
    99         37
   100         15
   101         31
   102          3
   103          1
   104          1
   105          6
   106          1
   107          8
   108        286
   109        340
   110         39
   111         12
   112          7
   113         11
   114         10
   115         21
   116          1
   117          2
   118          4
   119          6
   120          1
   123          1
   124          8
   125         68
   126         56
   127         78
   128         39
   129          7
   130          1
   131          2
   135          3
   136         30
   137          3
   138          3
   139          6
   140         63
   141         16
   142          4
   143          2
   145          2
   153          8
   154        535
   155        218
   156         58
   157          6
   164          3
   168          9
   169         19
   170          3
   173          2
   174          3
   181          1
   182        219
   183        465
   184         51
   185          6
   186          1
   228         11
   229          1