##TITLE=Library Entry 80009
##JCAMP-DX=Revision 4.10 
##DATA TYPE=MASS SPECTRUM
##SAMPLE DESCRIPTION=A.Mazepa, Phys.-Chem.Institute, Odessa, Ukraine
##NAMES=HP
##CAS NAME=Diethanolamine, O,O',N-tribenzoyl-
##MOLFORM=C25H23NO5
##CAS REGISTRY NO=10135-43-0
##MP= -300
##BP= -300
##MW= 417
##$RETENTION INDEX=0
##$CONDENSED SPECTRUM=NO
##NPOINTS= 46
##XYDATA=(XY..XY) 1 
    50          3
    51         23
    52          1
    54          1
    55         24
    56          4
    57          7
    64         24
    66         12
    68          7
    69          3
    70          1
    71          1
    76          7
    77        221
    78         13
    83          1
    91          2
    92          3
   104          6
   105        999
   106         75
   107          2
   145         42
   146          5
   147         19
   148          2
   149         19
   164          1
   166          1
   167          2
   172          2
   173         44
   174          2
   176          3
   190          5
   195         28
   196          2
   208         10
   209          5
   282         58
   283          8
   294          4
   295         94
   296         15
   312          4