##TITLE=Library Entry 70732
##JCAMP-DX=Revision 4.10 
##DATA TYPE=MASS SPECTRUM
##SAMPLE DESCRIPTION=A.A.Kutin, Moscow, Russia
##NAMES=HP
##CAS NAME=Acetamide, 2-(1-piperidyl)-N-(4-iodophenyl)-
##MOLFORM=C13H17IN2O
##CAS REGISTRY NO=101329-58-2
##MP= -300
##BP= -300
##MW= 344
##$RETENTION INDEX=0
##$CONDENSED SPECTRUM=NO
##NPOINTS= 50
##XYDATA=(XY..XY) 1 
    33          8
    36         13
    38         13
    39         46
    40         70
    41        131
    42        130
    43         43
    44         58
    50         12
    51         16
    53         11
    54         12
    55         83
    56         21
    57         19
    62          4
    63         34
    64         36
    65         20
    68          3
    69         32
    70         50
    71          2
    74          1
    76         24
    77         35
    78          7
    82          6
    84         50
    90         16
    91         55
    92          9
    93          5
    96         21
    98        999
    99         63
   103          5
   104         13
   105          4
   106          2
   112          7
   127          2
   149          2
   171          6
   191          6
   203         10
   218         37
   219          5
   344         33