##TITLE=Library Entry 59048
##JCAMP-DX=Revision 4.10 
##DATA TYPE=MASS SPECTRUM
##SAMPLE DESCRIPTION=Japan AIST/NIMC Database- Spectrum MS-IW-4098
##NAMES=HP
##CAS NAME=(S)-1-Benzyl-3-pyrrolidinol
##MOLFORM=C11H15NO
##CAS REGISTRY NO=101385-90-4
##MP= -300
##BP= -300
##MW= 177
##$RETENTION INDEX=0
##$CONDENSED SPECTRUM=NO
##NPOINTS= 96
##XYDATA=(XY..XY) 1 
    15          9
    17          1
    18          3
    26          1
    27         11
    28         20
    29         13
    30         17
    31          8
    38          2
    39         34
    40          5
    41         43
    42        897
    43         55
    44         34
    45          2
    50          6
    51         20
    52          6
    53          5
    54          4
    55         20
    56         10
    57         18
    58         13
    59          3
    60          1
    62          3
    63         17
    64          6
    65        152
    66          9
    67          3
    68         11
    69          2
    70         12
    71          5
    72          1
    74          1
    75          1
    76          3
    77         20
    78          8
    79          6
    80          2
    81          1
    82          9
    84          2
    86        340
    87         16
    88          1
    89         28
    90         15
    91        999
    92        128
    93          7
    98          1
    99          3
   100        224
   101         12
   102          1
   103          6
   104         38
   105         22
   106          9
   107          1
   115          2
   116          2
   117          7
   118         22
   119          4
   120         20
   121          4
   128          1
   129          1
   130          8
   131         10
   132        241
   133        348
   134         40
   135          2
   146          7
   147          2
   148          1
   156          2
   157         12
   158          9
   159          6
   160          2
   174          1
   175          1
   176        156
   177        360
   178         49
   179          4