##TITLE=Library Entry 83122
##JCAMP-DX=Revision 4.10 
##DATA TYPE=MASS SPECTRUM
##SAMPLE DESCRIPTION=Japan AIST/NIMC Database- Spectrum MS-IW- 382
##NAMES=HP
##CAS NAME=3-Anilinolactamide
##MOLFORM=C9H12N2O2
##CAS REGISTRY NO=10133-54-7
##MP= -300
##BP= -300
##MW= 180
##$RETENTION INDEX=0
##$CONDENSED SPECTRUM=NO
##NPOINTS= 61
##XYDATA=(XY..XY) 1 
    16          1
    27          4
    28         10
    29          2
    30          7
    31          1
    38          2
    39          9
    40          1
    41          2
    42          1
    43          5
    44         10
    45          1
    46          1
    50          6
    51         27
    52          6
    53          3
    54          1
    55          1
    57          1
    58          2
    59          1
    62          1
    63          3
    64          3
    65         17
    66         10
    67          1
    74          2
    75         15
    76          3
    77         90
    78         19
    79         64
    80          4
    89          1
    90          1
    91         12
    92          7
    93         49
    94          4
   104         21
   105         16
   106        999
   107         80
   108          3
   117          8
   118         14
   119          2
   134          1
   135          4
   136         19
   137          2
   145          6
   146          4
   162          3
   180        143
   181         19
   182          2