##TITLE=Library Entry 42913
##JCAMP-DX=Revision 4.10 
##DATA TYPE=MASS SPECTRUM
##SAMPLE DESCRIPTION=F. TURECEK,HEYROVSKY INST PHYS CHEM & ELECTROCHEM,PRAGU
E,CZECH
##NAMES=HP
##CAS NAME=1,2-Bis(trimethylsilyl)-4,5-dimethylcyclohexa-1,4-diene
##MOLFORM=C14H28Si2
##CAS REGISTRY NO=101300-62-3
##MP= -300
##BP= -300
##MW= 252
##$RETENTION INDEX=0
##$CONDENSED SPECTRUM=NO
##NPOINTS= 71
##XYDATA=(XY..XY) 1 
    27          6
    29         10
    31         12
    39         10
    41         15
    43         75
    44         19
    45        178
    46         12
    53         14
    54         10
    55         19
    57         12
    58         60
    59        135
    60         10
    67         91
    68          8
    69         20
    70          8
    71         10
    72         39
    73        999
    74        108
    75         44
    77         12
    79         10
    81         15
    82        156
    83         41
    91         15
    93          8
    95         14
    97         46
   105         23
   107         10
   109         14
   115         10
   119         17
   121         17
   123         14
   125         12
   129         10
   131         23
   133         15
   135         27
   139          6
   141          8
   145         17
   147         23
   149        311
   150         48
   151         15
   155        178
   156         33
   157         17
   159         14
   161         10
   163        667
   164        256
   165         56
   166         10
   178        132
   179         60
   180         12
   205          8
   237         62
   238         17
   252         77
   253         19
   254          8