##TITLE=Library Entry 4653
##JCAMP-DX=Revision 4.10 
##DATA TYPE=MASS SPECTRUM
##SAMPLE DESCRIPTION=A.E.FONTAINE DYESTUFFS DIV., I.C.I., MANCHESTER
##NAMES=HP
##CAS NAME=1,4-Dioxane, 2,6-dimethyl-
##MOLFORM=C6H12O2
##CAS REGISTRY NO=10138-17-7
##MP= -300
##BP= -300
##MW= 116
##$RETENTION INDEX=672
##$CONDENSED SPECTRUM=NO
##NPOINTS= 94
##XYDATA=(XY..XY) 1 
    12          0
    13          0
    14          6
    15         53
    16          3
    17          7
    18         36
    19         10
    25          1
    26         24
    27         90
    28        108
    29        208
    30        165
    31         38
    32          5
    33          1
    35          0
    36          6
    37          7
    38         26
    39        158
    40         51
    41        565
    42        999
    43        270
    44         30
    45        760
    46         16
    47          8
    48          1
    49          7
    53          8
    54          2
    55         24
    56         13
    57        315
    58        107
    59        476
    60         16
    61         11
    62          3
    63          8
    64          1
    65          3
    66          1
    67          6
    68          1
    69         15
    70          4
    71        111
    72        287
    73         57
    74         17
    75         27
    76         17
    80         12
    81         13
    82          2
    83          6
    84          2
    85          6
    86         12
    87         70
    88         34
    89          6
    90          0
    91         13
    92          4
    93          8
    94          1
    95          3
    96          0
    97          3
    98         10
   100          1
   101         15
   102          8
   103          2
   104          0
   105          6
   106          2
   107          1
   108          0
   109          1
   110          2
   111          0
   112          0
   113          0
   114          1
   115         32
   116        188
   117         17
   118          2