##TITLE=Library Entry 46739
##JCAMP-DX=Revision 4.10 
##DATA TYPE=MASS SPECTRUM
##SAMPLE DESCRIPTION=Exported from NIST MS Search
##NAMES=HP
##CAS NAME=Silane, ethylfluorodimethyl-
##MOLFORM=C4H11FSi
##CAS REGISTRY NO=10132-71-5
##MP= -300
##BP= -300
##MW= 106
##$RETENTION INDEX=0
##$CONDENSED SPECTRUM=NO
##NPOINTS= 6
##XYDATA=(XY..XY) 1 
    47        280
    49        150
    63        509
    77        999
    91        280
   106         80