##TITLE=Library Entry 61508
##JCAMP-DX=Revision 4.10 
##DATA TYPE=MASS SPECTRUM
##SAMPLE DESCRIPTION=Chemical Concepts
##NAMES=HP
##CAS NAME=2,6-Dimethyl-4-nitro-3-phenyl-cyclohexanone
##MOLFORM=C14H17NO3
##CAS REGISTRY NO=101328-12-5
##MP= -300
##BP= -300
##MW= 247
##$RETENTION INDEX=0
##$CONDENSED SPECTRUM=NO
##NPOINTS= 144
##XYDATA=(XY..XY) 1 
    26          8
    27         98
    28         46
    29         70
    30         30
    31          2
    37          1
    39        140
    40         19
    41        174
    42         26
    43        198
    44          5
    45         11
    50         24
    51         86
    52         25
    53         70
    54         13
    55        177
    56        149
    57         41
    58         11
    59          2
    60          2
    62          8
    63         45
    64         23
    65        102
    66         17
    67         56
    68         17
    69        138
    70         13
    71         30
    72          2
    74         12
    75         14
    76         22
    77        149
    78         61
    79         43
    80          6
    81         13
    82         10
    83         17
    84          4
    85         11
    86         11
    87          4
    88          3
    89         36
    90         23
    91        999
    92         63
    93         13
    94          3
    95         71
    96          8
    97          7
    98          3
    99         14
   100          1
   101          6
   102         62
   103         97
   104         39
   105        467
   106         36
   107         14
   108          2
   109          5
   110          2
   111          8
   112          2
   113          7
   114         33
   115        322
   116        125
   117        724
   118        912
   119        103
   120          7
   121          2
   123          3
   126          4
   127         44
   128        149
   129        253
   130         77
   131        488
   132         57
   133         16
   134          9
   135          3
   139          5
   140          1
   141         33
   142         21
   143        125
   144         91
   145        124
   146         22
   147          9
   152          4
   153          5
   154          2
   155          7
   156          7
   157         19
   158         13
   159         12
   160          6
   161        477
   162         49
   163          4
   165          2
   167          2
   168          2
   169          2
   170          2
   171         42
   172         13
   173         37
   174          6
   175         14
   176          2
   181          2
   183         15
   184          3
   185          3
   186          2
   188          2
   189         10
   190          2
   191          1
   199          4
   200         24
   201         40
   202          8
   217          3
   230          4
   247         26
   248          3