##TITLE=Library Entry 56202
##JCAMP-DX=Revision 4.10 
##DATA TYPE=MASS SPECTRUM
##SAMPLE DESCRIPTION=J.RONTANI, CENT. OCEANOL., FAC. SCI. DE LUMINY, MARSEIL
LE, FR.
##NAMES=HP
##CAS NAME=2,6,10,14-Tetramethylpentadecan-3-one
##MOLFORM=C19H38O
##CAS REGISTRY NO=101395-45-3
##MP= -300
##BP= -300
##MW= 282
##$RETENTION INDEX=0
##$CONDENSED SPECTRUM=NO
##NPOINTS= 31
##XYDATA=(XY..XY) 1 
    27        119
    29        267
    41        672
    42        145
    43        822
    55        809
    56        381
    57        809
    58        136
    59        413
    67        157
    68        109
    69        890
    70        411
    71        877
    81        297
    83        543
    85        450
    86        999
    87        590
    95        402
    97        202
    99        445
   109        260
   111        225
   123        123
   126        178
   165         51
   196        156
   239         73
   282        103