##TITLE=Library Entry 42389
##JCAMP-DX=Revision 4.10 
##DATA TYPE=MASS SPECTRUM
##SAMPLE DESCRIPTION=F. TURECEK,HEYROVSKY INST PHYS CHEM & ELECTROCHEM,PRAGU
E,CZECH
##NAMES=HP
##CAS NAME=1,2-Bis(trimethylsilyl)-3,6-dimethylcyclohexa-1,4-diene
##MOLFORM=C14H28Si2
##CAS REGISTRY NO=101300-63-4
##MP= -300
##BP= -300
##MW= 252
##$RETENTION INDEX=0
##$CONDENSED SPECTRUM=NO
##NPOINTS= 66
##XYDATA=(XY..XY) 1 
    27         26
    29         26
    39         35
    41         52
    43         65
    44         22
    45        157
    46         11
    50         17
    51         22
    53         22
    55         48
    56         17
    57         26
    58         35
    59         83
    63         13
    65         17
    67        117
    69         48
    71         22
    72         13
    73        999
    74         96
    75         39
    77         35
    78         13
    79         17
    81         39
    82        191
    83         52
    85         13
    91         28
    93         13
    95         22
    96         13
    97         35
   104         22
   106         35
   107         22
   109         26
   115         26
   117         17
   119         26
   121         22
   129         26
   131         26
   135        550
   136         87
   137         30
   141         30
   145         22
   147         17
   149         48
   155        183
   156         35
   163        187
   164         57
   165         17
   169         13
   178         39
   179         43
   191         26
   237         43
   238         13
   252         30