##TITLE=Library Entry 46210
##JCAMP-DX=Revision 4.10 
##DATA TYPE=MASS SPECTRUM
##SAMPLE DESCRIPTION=Exported from NIST MS Search
##NAMES=HP
##CAS NAME=Propanal, 2,3-dichloro-2-methyl-
##MOLFORM=C4H6Cl2O
##CAS REGISTRY NO=10141-22-7
##MP= -300
##BP= -300
##MW= 140
##$RETENTION INDEX=0
##$CONDENSED SPECTRUM=NO
##NPOINTS= 90
##XYDATA=(XY..XY) 1 
    14          1
    15          7
    25          8
    26         35
    27        138
    28         56
    29        114
    30          2
    31          3
    32          9
    35          7
    36         19
    37         35
    38         54
    39        364
    40         78
    41        673
    42         37
    43         68
    44          8
    45          2
    47         10
    48          9
    49        139
    50         14
    51         51
    52          3
    53         10
    54          2
    55          5
    57          3
    59          1
    60          9
    61         52
    62         63
    63        140
    64         23
    65         45
    67          2
    68          1
    69         20
    70          4
    71          2
    72          3
    73         12
    74          3
    75        234
    76        999
    77        170
    78        343
    79         39
    80          3
    81          3
    82          2
    83         34
    84          1
    85         23
    86          1
    87          5
    89          4
    90         15
    91          8
    92          9
    93          6
    94          2
    95          4
    96          5
    97         13
    98          4
    99          8
   101          2
   103          6
   104          2
   105         13
   106          1
   107          5
   108          1
   109          3
   110         15
   111        217
   112         17
   113        129
   114          7
   115         23
   123          2
   125          1
   126          1
   140          2
   141          2
   142          1