##TITLE=Library Entry 63907
##JCAMP-DX=Revision 4.10 
##DATA TYPE=MASS SPECTRUM
##SAMPLE DESCRIPTION=Chemical Concepts
##NAMES=HP
##CAS NAME=2-Isopropyl-3-methyl-4-oxoimidazolidine-1-carboxylic acid, benzyl
 ester
##MOLFORM=C15H20N2O3
##CAS REGISTRY NO=101496-62-2
##MP= -300
##BP= -300
##MW= 276
##$RETENTION INDEX=0
##$CONDENSED SPECTRUM=NO
##NPOINTS= 60
##XYDATA=(XY..XY) 1 
    27         12
    28          5
    29          3
    30          7
    38          1
    39         25
    40          2
    41         49
    42         71
    43         17
    44          2
    50          3
    51         12
    52          4
    53          1
    54          0
    55          7
    56          9
    57          1
    62          1
    63         10
    64          4
    65         65
    66          3
    67          0
    68          2
    69          0
    70          7
    71          2
    72          0
    74          0
    75          0
    76          0
    77         10
    78          2
    79          4
    82          0
    84          4
    85          0
    86          6
    87          0
    88          0
    89         12
    90         13
    91        999
    92         83
    93          2
    98          8
    99          2
   105          1
   107          1
   117          1
   120          0
   144          1
   170          1
   189         47
   190          5
   233        120
   234         14
   235          1