##TITLE=Library Entry 93697
##JCAMP-DX=Revision 4.10 
##DATA TYPE=MASS SPECTRUM
##SAMPLE DESCRIPTION=NIST Mass Spectrometry Data Center
##NAMES=HP
##CAS NAME=1-Propyne, 3-phenyl-
##MOLFORM=C9H8
##CAS REGISTRY NO=10147-11-2
##MP= -300
##BP= -300
##MW= 116
##$RETENTION INDEX=0
##$CONDENSED SPECTRUM=NO
##NPOINTS= 47
##XYDATA=(XY..XY) 1 
    26          2
    27          4
    37          6
    38         14
    39         47
    40          2
    41          2
    43          1
    49          4
    50         50
    51         72
    52          9
    53          1
    55          2
    57         30
    60          1
    61         17
    62         49
    63        111
    64         16
    65         41
    66          3
    73          5
    74         31
    75         21
    76          8
    77         16
    78          4
    84          2
    85          9
    86         20
    87         27
    88         18
    89        131
    90         18
    91          7
    98          2
    99          1
   109          2
   110          3
   111          1
   113         25
   114         29
   115        999
   116        633
   117         58
   118          2