##TITLE=Library Entry 57701
##JCAMP-DX=Revision 4.10 
##DATA TYPE=MASS SPECTRUM
##SAMPLE DESCRIPTION=Chemical Concepts
##NAMES=HP
##CAS NAME=Tridecanoic acid, 13-formyl-, ethyl ester
##MOLFORM=C16H30O3
##CAS REGISTRY NO=101434-22-4
##MP= -300
##BP= -300
##MW= 270
##$RETENTION INDEX=0
##$CONDENSED SPECTRUM=NO
##NPOINTS= 206
##XYDATA=(XY..XY) 1 
    25          6
    27        111
    28         14
    29        342
    30         12
    31         19
    37          2
    38          1
    39         75
    40         19
    41        444
    42        113
    43        310
    44         95
    45        114
    46          3
    47          2
    48          1
    49          1
    50          2
    51          6
    52          3
    53         41
    54         70
    55        559
    56         93
    57        184
    58         25
    59         37
    60        190
    61        203
    62          7
    63          2
    64          1
    65          8
    66         12
    67        166
    68         94
    69        312
    70        201
    71         89
    72         11
    73        202
    74         37
    75         14
    76          2
    77         11
    78          4
    79         40
    80         33
    81        185
    82        134
    83        237
    84        241
    85         75
    86         10
    87         44
    88        999
    89        251
    90         17
    91         10
    92          3
    93         39
    94         31
    95        178
    96        125
    97        232
    98        454
   100         10
   101        446
   102         52
   103          6
   104          4
   105          7
   106          3
   107         38
   108         24
   109         96
   110         40
   111        120
   112        141
   113         21
   114          8
   115         69
   116          8
   117          4
   118          3
   119          9
   120          5
   121         52
   122         20
   123         52
   124         21
   125         67
   126         49
   127         12
   128          6
   129         39
   130         12
   131          5
   132          7
   133          9
   134          5
   135         24
   136         16
   137         25
   138         23
   139         48
   140         27
   141         10
   142          5
   143         54
   144          8
   145          3
   146          1
   147          4
   148          2
   149         28
   150         11
   151         11
   152         12
   153         17
   154         11
   155          7
   156          3
   157         86
   158         13
   159          4
   160          2
   161          3
   162          6
   163         90
   164         28
   165         12
   166          6
   167          9
   168         10
   169          5
   170          4
   171         58
   172          9
   173          3
   174          1
   175          3
   176          1
   177          8
   178         14
   179          7
   180         14
   181        117
   182         23
   183          5
   184          2
   185         26
   186          6
   187          5
   188          6
   189         12
   190          3
   193          1
   194          8
   195         10
   196         22
   197         25
   198          6
   199         44
   200          9
   201          2
   202          1
   203          2
   204          1
   205          4
   206         34
   207         14
   208          4
   209          2
   210          1
   211          3
   212          2
   213         19
   214         32
   215          6
   222         10
   223         11
   224         38
   225        148
   226         31
   227        324
   228         58
   229          6
   239          2
   240          3
   241         25
   242        120
   243         23
   244          2
   252          4
   253          1
   254          1
   255          6
   256          2
   257          1
   268          3
   269         17
   270          4
   271          4