##TITLE=Library Entry 29863
##JCAMP-DX=Revision 4.10 
##DATA TYPE=MASS SPECTRUM
##SAMPLE DESCRIPTION=Exported from NIST MS Search
##NAMES=HP
##CAS NAME=2-Propanol, 1-(2-ethoxypropoxy)-
##MOLFORM=C8H18O3
##CAS REGISTRY NO=10143-32-5
##MP= -300
##BP= -300
##MW= 162
##$RETENTION INDEX=1436
##$CONDENSED SPECTRUM=NO
##NPOINTS= 64
##XYDATA=(XY..XY) 1 
    14          2
    15         19
    16          1
    17          2
    18          8
    19         17
    26          4
    27         50
    28         37
    29        109
    30          7
    31        279
    32          5
    33          3
    36          1
    38          1
    39         14
    40          4
    41         96
    42         46
    43         74
    44         24
    45        507
    46         12
    47         30
    48          1
    51          1
    55          4
    56          1
    57         29
    58         44
    59        999
    60        122
    61         23
    62          1
    71          4
    72         62
    73        199
    74         13
    75          9
    76          2
    77          3
    85          3
    86          9
    87         57
    88          5
    89         28
    90          2
   101          7
   102          3
   103        189
   104         55
   105          6
   115          2
   116          1
   117         15
   118         31
   119          3
   130          2
   131          6
   132          1
   133          1
   144          2
   147          1