##TITLE=Library Entry 2906
##JCAMP-DX=Revision 4.10 
##DATA TYPE=MASS SPECTRUM
##SAMPLE DESCRIPTION=NIST Mass Spectrometry Data Center
##NAMES=HP
##CAS NAME=1-Dodecanesulfonyl chloride
##MOLFORM=C12H25ClO2S
##CAS REGISTRY NO=10147-40-7
##MP= -300
##BP= -300
##MW= 268
##$RETENTION INDEX=0
##$CONDENSED SPECTRUM=NO
##NPOINTS= 98
##XYDATA=(XY..XY) 1 
    12          3
    13          3
    15         65
    16          2
    17          2
    18         12
    27        239
    28         92
    29        529
    30         16
    31         37
    32         27
    33         39
    36          3
    37          1
    39        190
    41        999
    42        263
    43        689
    44         24
    45         45
    46          3
    47          2
    48          6
    50          7
    51          9
    53         67
    54        110
    55        916
    56        468
    57        454
    58         20
    59          7
    60          7
    61          1
    63          6
    64          7
    65         29
    66         23
    67        126
    68        218
    69        680
    70        399
    71        164
    72          8
    73          1
    77          9
    79         74
    80         41
    81         62
    82        217
    83        492
    84        248
    85         92
    86          6
    87          2
    91         19
    92          2
    93          7
    94          7
    95         33
    96        168
    97        791
    98        164
    99         42
   100          3
   107         11
   108          2
   109         12
   110         57
   111        212
   112         88
   113          9
   121          2
   123        129
   124         46
   125        103
   126         42
   127          7
   137          5
   138         17
   139         33
   140         91
   141         10
   142          2
   147          1
   151         12
   152          6
   153          4
   165         13
   166          6
   168        127
   169         17
   179          8
   193          4
   215          2
   223         10
   233          6