##TITLE=Library Entry 79322
##JCAMP-DX=Revision 4.10 
##DATA TYPE=MASS SPECTRUM
##SAMPLE DESCRIPTION=A.S.Moskovkin,I.M.Karnaukh, Russian Center on Disaster
 Medicine
##NAMES=HP
##CAS NAME=Hexahydro-5-methyl-1,3-diphenyl-1,3,5-triazine-2-thione
##MOLFORM=C16H17N3S
##CAS REGISTRY NO=101435-69-2
##MP= -300
##BP= -300
##MW= 283
##$RETENTION INDEX=0
##$CONDENSED SPECTRUM=NO
##NPOINTS= 70
##XYDATA=(XY..XY) 1 
    29         53
    30         20
    32         11
    36         47
    37         16
    38         60
    39         84
    40         72
    41        129
    42        446
    43        349
    44        177
    45         56
    46          6
    50        117
    51        341
    52         86
    53         36
    55         54
    56         17
    57        113
    58         17
    60         16
    62         10
    63         24
    64         14
    65         24
    66         12
    67         50
    69         92
    70         25
    71         31
    72          9
    73         51
    74         60
    75         43
    76        107
    77        934
    78         84
    81         19
    83         28
    84         11
    85          7
    88          1
    89         64
    91         45
    93         46
    95         13
    97         26
    98         13
   103         77
   104        445
   105        999
   106         88
   108         25
   109         11
   115          3
   119         12
   131         12
   135        771
   136         64
   137         39
   149         15
   194         76
   195         27
   282         12
   283        103
   284         20
   285          6
   286          1