##TITLE=Library Entry 5712
##JCAMP-DX=Revision 4.10 
##DATA TYPE=MASS SPECTRUM
##SAMPLE DESCRIPTION=NIST Mass Spectrometry Data Center, 1994
##NAMES=HP
##CAS NAME=1-Propanesulfonyl chloride
##MOLFORM=C3H7ClO2S
##CAS REGISTRY NO=10147-36-1
##MP= -300
##BP= -300
##MW= 142
##$RETENTION INDEX=1166
##$CONDENSED SPECTRUM=NO
##NPOINTS= 61
##XYDATA=(XY..XY) 1 
     4          3
    12          1
    13          2
    14         12
    15         65
    16         10
    17          1
    18          1
    25          4
    26         68
    27        462
    28         87
    29         37
    30          1
    31          4
    32         16
    33          4
    34          2
    35         16
    36          8
    37         26
    38         52
    39        269
    40          1
    41        657
    42        177
    43        999
    44         39
    45         25
    46          8
    47          1
    48         87
    49         10
    50          5
    51          2
    56          1
    57          3
    58          4
    59          2
    61          1
    64         79
    65         16
    66          6
    67          2
    68          1
    69          3
    71          1
    73          1
    75          1
    76          2
    77          1
    78          2
    79          4
    83         11
    84          0
    85          4
    99         16
   101          7
   107         21
   108          2
   114          2