##TITLE=Library Entry 25874
##JCAMP-DX=Revision 4.10 
##DATA TYPE=MASS SPECTRUM
##SAMPLE DESCRIPTION=K.Kawamura Anal.Chem.,65,3505(1993)
##NAMES=HP
##CAS NAME=4,4-Dibutoxybutyric acid, butyl ester
##MOLFORM=C16H32O4
##CAS REGISTRY NO=101443-57-6
##MP= -300
##BP= -300
##MW= 288
##$RETENTION INDEX=0
##$CONDENSED SPECTRUM=NO
##NPOINTS= 63
##XYDATA=(XY..XY) 1 
    36          4
    37          6
    38         12
    39        186
    40         27
    41        725
    42         43
    43         55
    44         11
    47         12
    50          6
    51          4
    52         11
    53         12
    54          7
    55         87
    56        124
    57        999
    58         76
    59          6
    60         23
    61         27
    71          7
    73         19
    74         31
    75          7
    83         36
    84         46
    85        742
    86         14
    91          4
    95          4
    97          7
    98          7
    99         15
   100         25
   101        207
   102         47
   103        514
   104         20
   105          4
   111          6
   112         12
   113         27
   114          7
   117          7
   129          7
   152         11
   154          4
   155          4
   156          7
   157         36
   158         27
   159        437
   160         31
   161          4
   178         15
   214          7
   215        493
   216         55
   217          6
   231          9
   253          3