##TITLE=Library Entry 56497
##JCAMP-DX=Revision 4.10 
##DATA TYPE=MASS SPECTRUM
##SAMPLE DESCRIPTION=Patti Price, Georgia Bureau of Investigation, Decatur,
 Georgia
##NAMES=HP
##CAS NAME=Procainamide-n-propionyl
##MOLFORM=C16H25N3O2
##CAS REGISTRY NO=101427-17-2
##MP= -300
##BP= -300
##MW= 291
##$RETENTION INDEX=0
##$CONDENSED SPECTRUM=NO
##NPOINTS= 82
##XYDATA=(XY..XY) 1 
    42         26
    44         11
    50          2
    51          1
    52          4
    54          2
    55          5
    56         32
    57         56
    58         78
    59          1
    62          1
    63          9
    64         13
    65         23
    67          1
    68          2
    69          1
    70         13
    71         25
    72         13
    73          1
    75          1
    76          3
    77          4
    81          1
    84         19
    85          5
    86        999
    87         71
    88          1
    90          7
    91         27
    92         41
    93          4
    95          1
    96          1
    97          1
    99        118
   100          8
   101          1
   104          1
   106          1
   113          3
   114          1
   115          1
   117          2
   118          4
   119         24
   120         97
   121         14
   127          1
   132          1
   134          1
   135          2
   136          1
   146         10
   148          1
   149          1
   161          1
   162          7
   163          3
   164          2
   174          1
   176         32
   184          1
   187          1
   188          1
   189          1
   202          1
   203          1
   205          2
   217          1
   219         21
   220          2
   245          1
   261          1
   262          2
   274          3
   289          5
   290          2
   291          1