##TITLE=Library Entry 97272
##JCAMP-DX=Revision 4.10 
##DATA TYPE=MASS SPECTRUM
##SAMPLE DESCRIPTION=Zaikin V.G., TIPS RAS, Moscow, Russia
##NAMES=HP
##CAS NAME=Hexanoic acid, nonyl ester
##MOLFORM=C15H30O2
##CAS REGISTRY NO=101452-99-7
##MP= -300
##BP= -300
##MW= 242
##$RETENTION INDEX=0
##$CONDENSED SPECTRUM=NO
##NPOINTS= 113
##XYDATA=(XY..XY) 1 
    22          1
    26          3
    27         10
    29         19
    35          1
    36         13
    38          5
    39         14
    40          7
    41         68
    42         30
    43        138
    44         13
    45          2
    50          2
    51          3
    52          4
    53          7
    54         13
    55        109
    56        123
    57         82
    58          5
    59          2
    60         32
    61         44
    62          1
    65          2
    66          2
    67         18
    68         37
    69        118
    70        151
    71        165
    72         11
    73         47
    74          5
    75          6
    77          2
    78          2
    79         11
    80          4
    81         13
    82         58
    83        135
    84        149
    85         67
    86          5
    87         41
    88          3
    89         17
    91          2
    92          2
    93         13
    94          1
    95          6
    96         30
    97        198
    98        178
    99        422
   100         33
   101         12
   102          2
   105          2
   106          2
   109          1
   111         11
   112          2
   113          1
   114          6
   115         13
   116         80
   117        999
   118         71
   119          7
   120          1
   124          5
   125          2
   126        304
   127         39
   128          2
   129          8
   130          4
   131          1
   133          1
   134          1
   135          1
   141          7
   142          1
   143         11
   144          1
   148          1
   149          4
   153          1
   154          2
   155          1
   156          3
   157         12
   158          1
   167          1
   169          1
   170          2
   171         29
   172         13
   173          1
   183          1
   185          1
   186          6
   187          1
   191          1
   199          4
   242          2
   243          1