##TITLE=Library Entry 86624
##JCAMP-DX=Revision 4.10 
##DATA TYPE=MASS SPECTRUM
##SAMPLE DESCRIPTION=A.A.Kutin, Moscow, Russia
##NAMES=HP
##CAS NAME=Acetamide, 2-chloro-N-(3-hydroxyphenyl)-
##MOLFORM=C8H8ClNO2
##CAS REGISTRY NO=10147-69-0
##MP= -300
##BP= -300
##MW= 185
##$RETENTION INDEX=0
##$CONDENSED SPECTRUM=NO
##NPOINTS= 97
##XYDATA=(XY..XY) 1 
    35          7
    36          2
    37         11
    38         60
    39        171
    40         65
    41         57
    42        109
    43         24
    44          8
    45          1
    46          0
    47          3
    48         13
    49        298
    50         67
    51        186
    52        138
    53        167
    54         19
    55         29
    56          5
    57          1
    58          1
    60          2
    61         10
    62         14
    63         59
    64         45
    65        109
    66         14
    67          6
    68         58
    69          5
    70          3
    71          1
    73          0
    74          0
    75          7
    76         21
    77        169
    78         25
    79         88
    80        167
    81        185
    82         16
    83          2
    85          1
    86          6
    88          0
    89          0
    90          2
    91         10
    92         14
    93        124
    94         20
    95          6
    96          0
    99          0
   104          0
   105          0
   106          2
   107          3
   108        133
   109        999
   110        127
   111          6
   113          0
   115          0
   120         19
   121         13
   122         46
   123          2
   126          0
   128          0
   130          0
   131          0
   133          0
   135         37
   136        369
   137         18
   141          1
   148         10
   149         61
   150         93
   151          6
   156         20
   158          3
   159          0
   168          0
   170          0
   171          0
   184         13
   185        752
   186         82
   187        219
   188         18