##TITLE=Library Entry 77725
##JCAMP-DX=Revision 4.10 
##DATA TYPE=MASS SPECTRUM
##SAMPLE DESCRIPTION=NIST Mass Spectrometry Data Center
##NAMES=HP
##CAS NAME=p-Xylylene dithiocyanate
##MOLFORM=C10H8N2S2
##CAS REGISTRY NO=1014-99-9
##MP= -300
##BP= -300
##MW= 220
##$RETENTION INDEX=0
##$CONDENSED SPECTRUM=NO
##NPOINTS= 86
##XYDATA=(XY..XY) 1 
    26          4
    27         14
    32         12
    37          2
    38         10
    39         51
    40          3
    41          3
    44          2
    45         19
    46          3
    47          1
    49          2
    50         42
    51         84
    52         39
    53          9
    54          1
    57          1
    58         44
    59         15
    60          2
    61          4
    62         15
    63         46
    64         10
    65         26
    66          2
    67          5
    68          2
    69          7
    70          2
    71          2
    72          5
    73          2
    74         14
    75         12
    76         19
    77         96
    78        138
    79         10
    80          6
    82          3
    83          1
    84          1
    85          1
    86          2
    87          3
    88          1
    89         35
    90         16
    91         84
    92          7
    93          2
    95          1
    97          1
    98          2
   101          3
   102         32
   103        167
   104        999
   105         99
   106          4
   108          2
   109          1
   116          4
   117          2
   118          1
   120          1
   121          8
   122          2
   128          4
   129          1
   130          1
   133          1
   134         14
   135         36
   136         11
   137          3
   160          1
   162        651
   163         72
   164         33
   165          3
   220          7
   221          1