##TITLE=Library Entry 16104
##JCAMP-DX=Revision 4.10 
##DATA TYPE=MASS SPECTRUM
##SAMPLE DESCRIPTION=Chemical Concepts
##NAMES=HP
##CAS NAME=Phosphoric triamide, pentamethyl-
##MOLFORM=C5H16N3OP
##CAS REGISTRY NO=10159-46-3
##MP= -300
##BP= -300
##MW= 165
##$RETENTION INDEX=0
##$CONDENSED SPECTRUM=NO
##NPOINTS= 75
##XYDATA=(XY..XY) 1 
    26          0
    27         10
    28         10
    29          6
    30        131
    31          8
    33          2
    38          1
    39          1
    40          6
    41         16
    42        259
    43         95
    44        999
    45        715
    46         42
    47         58
    48          5
    49         21
    50          0
    56          0
    57          4
    58         18
    59         15
    60         66
    61          6
    62          3
    63          6
    64          3
    65          0
    67          0
    70          0
    71          0
    72          0
    73         36
    74          5
    75          6
    76         42
    77          3
    78        100
    79         14
    80          0
    82          0
    86          0
    87          0
    88         22
    89          1
    90         39
    91         27
    92        140
    93         33
    94          1
   102          0
   105         13
   106          1
   107          7
   109          0
   116          0
   117          0
   118          1
   119         10
   120          6
   121        778
   122        307
   123         12
   124          0
   132          0
   133          0
   134          7
   150          3
   163          0
   164          1
   165        328
   166         23
   167          0