##TITLE=Library Entry 62909
##JCAMP-DX=Revision 4.10 
##DATA TYPE=MASS SPECTRUM
##SAMPLE DESCRIPTION=Div. of Experiment Therapeutics WRAIR, WRAMC, Washingto
n DC 20307
##NAMES=HP
##CAS NAME=2-Benzylsulfinylethyl phenyl disulfide
##MOLFORM=C15H16OS3
##CAS REGISTRY NO=101544-11-0
##MP= -300
##BP= -300
##MW= 308
##$RETENTION INDEX=0
##$CONDENSED SPECTRUM=NO
##NPOINTS= 122
##XYDATA=(XY..XY) 1 
    41         15
    42          3
    43          4
    44          0
    45         32
    46          5
    47         15
    48          9
    50         16
    51         33
    52          7
    53          2
    54          0
    55          4
    56          1
    57          6
    58         10
    59         15
    60          8
    61          3
    62          7
    63         31
    64         16
    65        173
    66         16
    67          0
    68          0
    69         26
    70          5
    71          4
    73          0
    74          3
    75          3
    76          5
    77         91
    78         16
    79          7
    80          1
    81          5
    82          8
    83          8
    87          0
    88          7
    89         25
    90         21
    91        999
    92        100
    93          6
    94          0
    95          2
    96          2
    97         14
    98          0
    99          0
   103          1
   104         10
   105          6
   106          1
   107         14
   108         20
   109        110
   110         31
   111          7
   112          1
   115          0
   117          0
   121          8
   122          3
   123         13
   124          2
   125          4
   134          2
   135         23
   136          3
   137          6
   138          0
   139          4
   140          5
   141        212
   142         21
   143         20
   144          2
   145          0
   149          1
   150          0
   151         10
   152          1
   153          3
   154          0
   155         10
   156          0
   157          2
   160          1
   165          2
   166          2
   167         11
   168        387
   169         95
   170         44
   171          9
   172          1
   173          2
   178          0
   182          0
   183          0
   184          0
   189          0
   197          2
   198          1
   199          9
   200        177
   201         28
   202         11
   203          1
   207          0
   217         10
   218          3
   219          2
   232          0
   308          6
   309          1
   310          1