##TITLE=Library Entry 19631
##JCAMP-DX=Revision 4.10 
##DATA TYPE=MASS SPECTRUM
##SAMPLE DESCRIPTION=R.T.HOLMAN,UNIVERSITY OF MINNESOTA
##NAMES=HP
##CAS NAME=Cyclopropanedecanoic acid, 2-octyl-, methyl ester
##MOLFORM=C22H42O2
##CAS REGISTRY NO=10152-64-4
##MP= -300
##BP= -300
##MW= 338
##$RETENTION INDEX=0
##$CONDENSED SPECTRUM=NO
##NPOINTS= 160
##XYDATA=(XY..XY) 1 
    39        110
    40        190
    41        680
    42        150
    43        810
    44        200
    45        380
    46         38
    53         71
    54        160
    55        999
    56        330
    57        410
    58         48
    59        133
    60         24
    61         52
    65         19
    66         19
    67        270
    68        180
    69        640
    70        260
    71        180
    72         33
    73        340
    74        470
    75         81
    77         29
    79         62
    80         38
    81        250
    82        180
    83        510
    84        310
    85        110
    86         14
    87        300
    88         62
    91         29
    92         10
    93         52
    94         57
    95        210
    96        300
    97        420
    98        270
    99         52
   100         14
   101         86
   102         10
   105         29
   106         10
   107         38
   108         33
   109        120
   110        150
   111        200
   112         81
   113         33
   114         33
   115         67
   116         14
   119         33
   120         14
   121         48
   122         29
   123        110
   124        100
   125        120
   126         38
   127         33
   128         48
   129         57
   130         19
   133         24
   134         24
   135         38
   136         24
   137         71
   138         90
   139        110
   140         33
   141         62
   142         19
   143         57
   144         10
   147         19
   148         19
   149         48
   150         19
   151         48
   152         76
   153         71
   154         48
   155         19
   156         10
   157         29
   161         14
   162         10
   163         38
   164         14
   165         38
   166         52
   167         62
   168         48
   169         14
   171         48
   175         14
   176         10
   177         14
   179         29
   180         38
   181         48
   182         10
   183         10
   185         43
   186         10
   189         10
   193         29
   194         43
   195         19
   196         10
   197         10
   199         38
   200         10
   206         10
   207         19
   208         48
   209         19
   210         10
   211         24
   212         10
   213         33
   221         19
   222         76
   223         19
   224         10
   225         19
   226         10
   227         10
   235         19
   236         19
   240         10
   241         14
   249         19
   250         17
   262         24
   263         24
   264         81
   265         24
   277         19
   278         19
   288         19
   289         10
   306        390
   307        180
   308         29
   338         57
   339         14