##TITLE=Library Entry 19350
##JCAMP-DX=Revision 4.10 
##DATA TYPE=MASS SPECTRUM
##SAMPLE DESCRIPTION=R.T.HOLMAN,UNIVERSITY OF MINNESOTA
##NAMES=HP
##CAS NAME=Cyclopropanenonanoic acid, methyl ester
##MOLFORM=C13H24O2
##CAS REGISTRY NO=10152-60-0
##MP= -300
##BP= -300
##MW= 212
##$RETENTION INDEX=0
##$CONDENSED SPECTRUM=NO
##NPOINTS= 95
##XYDATA=(XY..XY) 1 
    38         12
    39        370
    40         68
    41        960
    42        210
    43        220
    44         16
    45         48
    50          8
    51         24
    52         16
    53        140
    54        160
    55        999
    56        130
    57         64
    58          8
    59        260
    60         16
    61         10
    65         24
    66         16
    67        180
    68        150
    69        330
    70         56
    71         28
    72          8
    73         52
    74        600
    75         64
    77         20
    78          8
    79         44
    80         24
    81        130
    82        100
    83        190
    84        200
    85         44
    87        390
    88         64
    91         12
    93         20
    94         28
    95         96
    96        230
    97        150
    98        120
    99         24
   100          8
   101         64
   102          8
   107         12
   108         20
   109         44
   110        120
   111         52
   112         18
   113         24
   114         28
   115         38
   116          8
   119         12
   121         16
   122          8
   123         64
   124         40
   125         20
   127         12
   128         32
   129         28
   130          8
   133         10
   134          8
   136         28
   137         40
   138        110
   139         28
   141         20
   142          8
   143         40
   144          8
   151         20
   152         56
   153          8
   155          8
   157          8
   162         18
   163         14
   169         14
   180         76
   181         60
   212         20
   213          8