##TITLE=Library Entry 63222
##JCAMP-DX=Revision 4.10 
##DATA TYPE=MASS SPECTRUM
##SAMPLE DESCRIPTION=Div. of Experiment Therapeutics WRAIR, WRAMC, Washingto
n DC 20307
##NAMES=HP
##CAS NAME=2-Benzylsulfinylethyl p-tolyl disulfide
##MOLFORM=C16H18OS3
##CAS REGISTRY NO=101544-12-1
##MP= -300
##BP= -300
##MW= 322
##$RETENTION INDEX=0
##$CONDENSED SPECTRUM=NO
##NPOINTS= 135
##XYDATA=(XY..XY) 1 
    41         16
    42          4
    43          9
    44          1
    45         90
    46          7
    47         10
    48          9
    49         13
    50         19
    51         41
    52         12
    53         10
    55          6
    56          3
    57         11
    58         22
    59         24
    60         15
    61         12
    62         15
    63         44
    64         31
    65        128
    66         10
    67          1
    68          1
    69         24
    70          8
    71         10
    73          4
    74          5
    75          5
    76          6
    77         71
    78         24
    79         41
    80          5
    81          4
    82          7
    83          6
    84         11
    85          6
    86          7
    87          2
    89         38
    90         37
    91        999
    92         87
    93          8
    94          1
    95          7
    96          4
    97         11
    98          1
    99          1
   103          1
   104          1
   105         20
   106          6
   107         12
   108         20
   109         10
   110          4
   111          5
   112          1
   115          4
   116          1
   117          7
   118         15
   119          3
   121         46
   122         26
   123        127
   124         59
   125         10
   126          4
   133          4
   134          3
   135          3
   136          1
   137         11
   138          4
   139          8
   140         17
   141          2
   142          1
   143          6
   144          5
   145          1
   146          1
   147          3
   148          3
   149         25
   150          7
   151         28
   152          4
   153          9
   154          5
   155         60
   156         10
   157          7
   165          2
   166          1
   167          5
   169          4
   175          6
   177          2
   178          1
   179          2
   180          3
   181         13
   182        199
   183         35
   184         22
   185          3
   198          1
   199          6
   200          3
   202          8
   203          1
   204          3
   207          3
   211          1
   213          6
   214         32
   215          8
   216          2
   217          1
   231          7
   232          1
   246         33
   247          5
   248          3
   322          2