##TITLE=Library Entry 46722
##JCAMP-DX=Revision 4.10 
##DATA TYPE=MASS SPECTRUM
##SAMPLE DESCRIPTION=Div. of Experiment Therapeutics WRAIR, WRAMC, Washingto
n DC 20307
##NAMES=HP
##CAS NAME=3-(Phenylsulfonyl)propionic acid
##MOLFORM=C9H10O4S
##CAS REGISTRY NO=10154-71-9
##MP= -300
##BP= -300
##MW= 214
##$RETENTION INDEX=0
##$CONDENSED SPECTRUM=NO
##NPOINTS= 39
##XYDATA=(XY..XY) 1 
    43         29
    44         28
    45        157
    50        111
    51        401
    52         30
    53         14
    55         98
    56        484
    57         21
    63         13
    65         47
    66         24
    69         13
    73         95
    74         29
    75         24
    76         29
    77        999
    78        213
    79         20
    91         26
    93          8
    94        144
    95         16
    97         28
   103          4
   104         26
   105         13
   125         62
   132          4
   141        148
   142        189
   143         23
   144          8
   158         83
   159         47
   214         76
   215         11