##TITLE=Library Entry 9836
##JCAMP-DX=Revision 4.10 
##DATA TYPE=MASS SPECTRUM
##SAMPLE DESCRIPTION=Chemical Concepts
##NAMES=HP
##CAS NAME=7-Octene-2,4-dione
##MOLFORM=C8H12O2
##CAS REGISTRY NO=10151-22-1
##MP= -300
##BP= -300
##MW= 140
##$RETENTION INDEX=0
##$CONDENSED SPECTRUM=NO
##NPOINTS= 87
##XYDATA=(XY..XY) 1 
    26         14
    27        111
    28         90
    29          5
    30          3
    31         26
    36          0
    37          4
    38         10
    39        131
    40         19
    41        127
    42         43
    43        999
    44         28
    45          6
    47          0
    49          0
    50          9
    51         16
    52          6
    53         40
    54         80
    55        280
    56         21
    57          9
    58         56
    59          5
    60          0
    61          1
    62          0
    63          1
    64          0
    65          4
    66          4
    67         17
    68          5
    69        203
    70         17
    71         23
    72          2
    73          0
    74          0
    75          0
    77         15
    78          4
    79         39
    80         13
    81         17
    82        192
    83         78
    84         17
    85        923
    86         42
    87          3
    91          2
    93          2
    94         16
    95         15
    96         11
    97         47
    98        148
    99         11
   100          5
   103          0
   105          1
   106          0
   107         17
   108          1
   109          2
   110          1
   111         28
   112         68
   113          8
   120          0
   121          3
   122         33
   123          5
   124          1
   125         35
   126          2
   127          0
   138          0
   139          0
   140         51
   141          7
   142          0