##TITLE=Library Entry 10060
##JCAMP-DX=Revision 4.10 
##DATA TYPE=MASS SPECTRUM
##SAMPLE DESCRIPTION=Chemical Concepts
##NAMES=HP
##CAS NAME=2-Butanone, 4-(acetyloxy)-
##MOLFORM=C6H10O3
##CAS REGISTRY NO=10150-87-5
##MP= -300
##BP= -300
##MW= 130
##$RETENTION INDEX=985
##$CONDENSED SPECTRUM=NO
##NPOINTS= 40
##XYDATA=(XY..XY) 1 
    26          9
    27         47
    28         34
    29         15
    30          1
    31          6
    37          1
    38          2
    39          7
    40          2
    41         10
    42         65
    43        999
    44         24
    45         27
    50          1
    51          1
    53          1
    54          1
    55        154
    56          5
    57          2
    58         12
    59          1
    60         16
    61         77
    62          1
    69          2
    70         89
    71         71
    72          4
    73         10
    86          1
    87        279
    88         69
    89         81
   115          8
   116          0
   130          4
   131          0