##TITLE=Library Entry 21569
##JCAMP-DX=Revision 4.10 
##DATA TYPE=MASS SPECTRUM
##SAMPLE DESCRIPTION=R.T.HOLMAN,UNIVERSITY OF MINNESOTA
##NAMES=HP
##CAS NAME=Cyclopropanenonanoic acid, 2-[(2-butylcyclopropyl)methyl]-, methy
l ester
##MOLFORM=C21H38O2
##CAS REGISTRY NO=10152-69-9
##MP= -300
##BP= -300
##MW= 322
##$RETENTION INDEX=0
##$CONDENSED SPECTRUM=NO
##NPOINTS= 144
##XYDATA=(XY..XY) 1 
    39        180
    40         36
    41        800
    42        130
    43        390
    44         40
    45         31
    50         24
    51         27
    52         13
    53        120
    54        600
    55        999
    56        200
    57        290
    58         18
    59        150
    60         11
    65         71
    66         62
    67        740
    68        500
    69        600
    70        100
    71         93
    72         11
    73         36
    74        230
    75         36
    76         53
    77         71
    78         20
    79        150
    80        140
    81        690
    82        570
    83        310
    84         89
    85         71
    87        120
    88         27
    91         58
    92         18
    93        110
    94        100
    95        530
    96        430
    97        220
    98         62
    99         36
   100         13
   101         31
   104         49
   105         62
   106         13
   107         49
   108         49
   109        240
   110        210
   111         93
   112         27
   113         18
   114         13
   115         36
   117          9
   119         36
   120         18
   121         67
   122         58
   123        169
   124        250
   125         78
   126         16
   127         18
   128         13
   129         27
   131          9
   132          9
   133         24
   134         13
   135         53
   136         49
   137        140
   138         67
   139         31
   140         18
   141         20
   142          9
   143         27
   145         13
   147         13
   148          9
   149        999
   150        120
   151        100
   152         40
   153         20
   154         27
   155          9
   157         22
   161         11
   163         20
   164         44
   165         31
   166         18
   167         31
   168         13
   169          9
   171         16
   175         13
   177         16
   178         27
   179         18
   180         13
   181         13
   182          9
   185          9
   191          9
   192         13
   193         13
   194         16
   195         13
   199         22
   205         58
   206         58
   207         13
   208          9
   209         13
   210         16
   224         71
   225         18
   236         11
   237         18
   238        120
   239         22
   251         22
   252          9
   265         27
   266         11
   278         40
   279         22
   291         49
   292         11
   322         22