##TITLE=Library Entry 61145
##JCAMP-DX=Revision 4.10 
##DATA TYPE=MASS SPECTRUM
##SAMPLE DESCRIPTION=Chemical Concepts
##NAMES=HP
##CAS NAME=2-(1-Benzyloxy-2-bromoethyl)oxirane
##MOLFORM=C11H13BrO2
##CAS REGISTRY NO=101514-16-3
##MP= -300
##BP= -300
##MW= 256
##$RETENTION INDEX=0
##$CONDENSED SPECTRUM=NO
##NPOINTS= 80
##XYDATA=(XY..XY) 1 
    26         13
    27         76
    28         24
    29         58
    30          3
    31         20
    36          2
    37          4
    38         22
    39        199
    40         25
    41        113
    42         25
    43        114
    44          7
    45          1
    49          1
    50         35
    51         94
    52         26
    53         18
    54          3
    55         10
    56          2
    57         24
    62          8
    63         34
    64         11
    65        144
    66          8
    69          7
    70         57
    71         60
    72          1
    73          1
    74          4
    75          4
    76          5
    77         72
    78         22
    79         93
    80         10
    81          3
    82          9
    89         26
    90         18
    91        999
    92        109
    93          8
    94          0
    95          9
   103          1
   104          9
   105        105
   106         28
   107        479
   108         40
   109          2
   114          0
   115          1
   116          1
   117          5
   119          1
   121          2
   126          0
   128          1
   130          1
   131          3
   132          5
   133          7
   134          2
   141          1
   142          1
   147          2
   163          2
   255          2
   256          8
   257          2
   258          7
   259          1