##TITLE=Library Entry 63523
##JCAMP-DX=Revision 4.10 
##DATA TYPE=MASS SPECTRUM
##SAMPLE DESCRIPTION=Div. of Experiment Therapeutics WRAIR, WRAMC, Washingto
n DC 20307
##NAMES=HP
##CAS NAME=2-Benzylsulfinylethyl p-chlorophenyl disulfide
##MOLFORM=C15H15ClOS3
##CAS REGISTRY NO=101544-10-9
##MP= -300
##BP= -300
##MW= 342
##$RETENTION INDEX=0
##$CONDENSED SPECTRUM=NO
##NPOINTS= 111
##XYDATA=(XY..XY) 1 
    41         13
    43          5
    45         22
    46          3
    47         35
    48         19
    52          3
    55          5
    57          8
    58          8
    59         11
    60          9
    61          3
    62          7
    63         34
    64         14
    65         93
    66          4
    69         19
    70          2
    71          5
    72          1
    73         10
    74          4
    75         22
    76          4
    77         18
    78          4
    79          6
    81          5
    82          9
    83          9
    88         21
    89         23
    90         15
    91        999
    92         88
    93          6
    95          2
    96          2
    97          2
    99         20
   100          3
   101          6
   105          3
   106          2
   107         22
   108         70
   109         21
   110          6
   111         20
   112          6
   113          5
   117          2
   121          7
   122          2
   123          8
   124          4
   125         10
   127          3
   131          3
   137          3
   138          7
   139          9
   140         36
   141          3
   142         12
   143         81
   144         39
   145         32
   146         14
   149          2
   151         10
   154          2
   155          2
   157          2
   159          2
   167          3
   169          6
   171          2
   175        136
   176         11
   177         59
   179          6
   182          2
   183          1
   189          7
   191          3
   199         18
   200          2
   201          2
   202        247
   203         72
   204        104
   205         31
   206         10
   207          5
   224          1
   234        206
   235         31
   236         73
   237          9
   238         13
   251          4
   286         11
   288          8
   298          4
   300          2
   342          8
   343          1
   344          3