##TITLE=Library Entry 42973
##JCAMP-DX=Revision 4.10 
##DATA TYPE=MASS SPECTRUM
##SAMPLE DESCRIPTION=F. TURECEK,HEYROVSKY INST PHYS CHEM & ELECTROCHEM,PRAGU
E,CZECH
##NAMES=HP
##CAS NAME=cis-2,3-Bis(trimethylsilyl)bicyclo[4.3.0]nona-2,4,8-triene
##MOLFORM=C15H26Si2
##CAS REGISTRY NO=101652-97-5
##MP= -300
##BP= -300
##MW= 262
##$RETENTION INDEX=0
##$CONDENSED SPECTRUM=NO
##NPOINTS= 66
##XYDATA=(XY..XY) 1 
    43         62
    44         17
    45        179
    46         10
    47          6
    53         17
    55         10
    57          8
    58         19
    59        238
    60         19
    61          8
    65          7
    66          6
    67         12
    69         10
    72          8
    73        999
    74        118
    75         50
    77          8
    79         14
    81          8
    83         27
    91          8
    92         14
    93         12
    95          8
    97         14
   105         23
   107          8
   109         19
   115         21
   116          6
   117          8
   119         10
   121          8
   128         11
   129         12
   131         50
   132          6
   133         14
   135          8
   143         22
   145         64
   146         10
   147          6
   149          8
   155         12
   157         16
   158          6
   159        190
   160         33
   161         12
   173        310
   174        155
   175         37
   176          4
   181          6
   188         77
   189         68
   190         12
   191          6
   247         19
   248          3
   262          5