##TITLE=Library Entry 21841
##JCAMP-DX=Revision 4.10 
##DATA TYPE=MASS SPECTRUM
##SAMPLE DESCRIPTION=Organic Synthesis Lab, MSU, Moscow.TRC 949
##NAMES=HP
##CAS NAME=3.beta.,5.alpha.,6.beta.-Trihydroxyandrostan-17-one
##MOLFORM=C19H30O4
##CAS REGISTRY NO=10161-36-1
##MP= -300
##BP= -300
##MW= 322
##$RETENTION INDEX=0
##$CONDENSED SPECTRUM=NO
##NPOINTS= 258
##XYDATA=(XY..XY) 1 
    26         11
    27        129
    29        330
    30          6
    31         49
    38          1
    39        142
    40         45
    41        783
    42         48
    43        819
    44         51
    45         78
    47          7
    50          3
    51         24
    52         14
    53        240
    54         67
    55        999
    56         51
    57        173
    58         24
    59         24
    60          7
    61          1
    63          4
    64          2
    65        101
    66         53
    67        571
    68        104
    69        188
    70         33
    71         87
    72         30
    73         38
    74         15
    75          3
    76          0
    77        261
    78         58
    79        556
    80        110
    81        548
    82        123
    83        251
    84         97
    85         70
    86         17
    87         19
    88          8
    89          4
    90          1
    91        458
    92        113
    93        590
    94        234
    95        373
    96        112
    97        481
    98         65
    99         39
   100         15
   101         48
   102         18
   103         27
   104         28
   105        437
   106        146
   107        423
   108        426
   109        240
   110        423
   111        199
   112         30
   113         22
   114          6
   115         51
   116         21
   117        102
   118         75
   119        280
   120        216
   121        211
   122        271
   123        525
   124        123
   125         56
   126         21
   127         30
   128        160
   129         73
   130         34
   131        211
   132         92
   133        326
   134        237
   135        166
   136        201
   137         90
   138         64
   139         53
   140        100
   141        130
   142         34
   143        102
   144         56
   145        182
   146        130
   147        207
   148         98
   149        271
   150         98
   151        130
   152        188
   153         58
   154         24
   155         61
   156         34
   157        119
   158         57
   159        180
   160         85
   161        143
   162         75
   163        104
   164        120
   165         40
   166         19
   167         33
   168         14
   169         74
   170         50
   171        121
   172         77
   173        129
   174         70
   175        130
   176         92
   177        215
   178         53
   179         29
   180         16
   181         31
   182         16
   183         63
   184         40
   185         95
   186         60
   187        125
   188         80
   189         98
   190         75
   191         59
   192         27
   193         58
   194         18
   195         31
   196         15
   197        173
   198         52
   199         98
   200         45
   201        103
   202         76
   203        107
   204         93
   205         81
   206         48
   207         24
   208         10
   209         44
   210         26
   211        101
   212         81
   213         74
   214         53
   215        213
   216        125
   217        154
   218         41
   219         76
   220         58
   221         29
   222         12
   223         11
   224         30
   225         74
   226         40
   227        102
   228        129
   229        191
   230        201
   231        133
   232        120
   233        376
   234         91
   235         67
   236         14
   237          6
   239         18
   240         44
   241         19
   242        103
   243        126
   244         81
   245         52
   246         53
   247         68
   248         81
   249         99
   250        458
   251         82
   252          8
   253        181
   254         33
   255         13
   256          5
   257         38
   258        159
   259         38
   260         95
   261         38
   262         14
   263          5
   264          1
   265          4
   266         42
   267         10
   268        143
   269         52
   270          7
   271        272
   272         53
   273         13
   274         10
   275         60
   276         17
   277          2
   278          6
   284         16
   285          9
   286        930
   287        222
   288         28
   289         82
   290         14
   291         10
   302         97
   303         22
   304        272
   305         62
   306          6
   320         52
   321         10
   322        298
   323         70