##TITLE=Library Entry 81792
##JCAMP-DX=Revision 4.10 
##DATA TYPE=MASS SPECTRUM
##SAMPLE DESCRIPTION=Exported from NIST MS Search
##NAMES=HP
##CAS NAME=Methanone, (3-chlorophenyl)phenyl-
##MOLFORM=C13H9ClO
##CAS REGISTRY NO=1016-78-0
##MP= -300
##BP= -300
##MW= 216
##$RETENTION INDEX=0
##$CONDENSED SPECTRUM=NO
##NPOINTS= 70
##XYDATA=(XY..XY) 1 
    35          5
    36         10
    37         10
    38         10
    39         20
    49         10
    50        130
    51        230
    52         20
    53         10
    61         10
    62         10
    63         20
    73         10
    74         60
    75        170
    76        130
    77        600
    78         50
    84         10
    85         30
    86         20
    87         20
    88          5
    89          5
    90         20
    93          5
    94         30
    95         10
    97          5
    98         10
    99         10
   101          5
   102          5
   104         10
   105        999
   106        150
   107         20
   108         10
   109         10
   110         10
   111        270
   112         30
   113         90
   114         10
   125          5
   126         10
   127          5
   128          5
   139        430
   140         40
   141        140
   142         20
   149         10
   150         20
   151         20
   152         50
   153         20
   180          5
   181        100
   182         20
   186          5
   188         10
   190          5
   215         10
   216        660
   217        110
   218        210
   219         40
   220         10