##TITLE=Library Entry 268
##JCAMP-DX=Revision 4.10 
##DATA TYPE=MASS SPECTRUM
##SAMPLE DESCRIPTION=Chemical Concepts
##NAMES=HP
##CAS NAME=Naphthalene-2-carboxylic acid, 1,4-dihydro-1-oxo-4-diazo-
##MOLFORM=C11H6N2O3
##CAS REGISTRY NO=101666-81-3
##MP= -300
##BP= -300
##MW= 214
##$RETENTION INDEX=0
##$CONDENSED SPECTRUM=NO
##NPOINTS= 138
##XYDATA=(XY..XY) 1 
    20          3
    22          3
    26          7
    27         28
    28        999
    29         20
    30          7
    31          4
    32         14
    36         10
    37          9
    38         24
    39        106
    40         11
    41         54
    42          8
    43         25
    44        393
    45         27
    46          3
    49          5
    50         57
    51         62
    52         16
    53         40
    54          4
    55         25
    56         14
    57         90
    58         10
    59          6
    60          4
    61         30
    62        102
    63        181
    64         38
    65         20
    66         10
    67         10
    68          7
    69         28
    70         10
    71         86
    72          7
    73         13
    74         67
    75         62
    76         49
    77         42
    78          8
    79         10
    80          9
    81         13
    82         11
    83         10
    84          5
    85         60
    86         74
    87         97
    88        133
    89         39
    90          7
    91         13
    92          5
    93          5
    94          7
    95          9
    96          3
    97        139
    98         20
    99         10
   100          5
   101         26
   102        113
   103         19
   104         15
   105         12
   106          3
   107          5
   108          3
   109         10
   110         15
   111         15
   112         17
   113        206
   114        632
   115        131
   116         28
   117          5
   118          3
   119          5
   121          3
   122          3
   123          4
   125          4
   126          4
   127          4
   128          6
   129         26
   130         29
   131         10
   133          4
   134         14
   135          7
   139          5
   140          8
   141         11
   142        106
   143         21
   144         49
   145          7
   149          4
   151         15
   152          6
   153          4
   154          5
   155          3
   156          5
   157         10
   158        197
   159         24
   160          5
   164          3
   165          6
   166          3
   167          8
   168          6
   169          7
   170        387
   171         53
   172          6
   185          4
   186        183
   187         25
   188        115
   189         15
   214         65
   215          8