##TITLE=Library Entry 20097
##JCAMP-DX=Revision 4.10 
##DATA TYPE=MASS SPECTRUM
##SAMPLE DESCRIPTION=NIST Mass Spectrometry Data Center
##NAMES=HP
##CAS NAME=1-Heptanol, 7-bromo-
##MOLFORM=C7H15BrO
##CAS REGISTRY NO=10160-24-4
##MP= -300
##BP= -300
##MW= 194
##$RETENTION INDEX=0
##$CONDENSED SPECTRUM=NO
##NPOINTS= 88
##XYDATA=(XY..XY) 1 
    14          1
    15          5
    19          3
    26         13
    27        142
    28         47
    29        148
    31        232
    32          3
    33          1
    37          2
    38          8
    39        168
    40         35
    41        531
    42        153
    43        199
    44         33
    45         26
    46          1
    47          1
    49          1
    50          6
    51         13
    52          7
    53         68
    54         88
    55        999
    56        171
    57         66
    58          5
    59          3
    62          1
    63          2
    65          9
    66         10
    67        167
    68        158
    69        705
    70         77
    71          7
    72          1
    73          5
    74          1
    77          4
    78          1
    79         12
    80          5
    81         91
    82         10
    83         32
    84          3
    85          2
    86          1
    91          1
    93         15
    95         33
    96         41
    97        308
    98         24
    99          1
   105          2
   106          6
   107         41
   108          6
   109         38
   110          1
   119          4
   120         11
   121         12
   122         10
   123          8
   133          3
   134         41
   135         37
   136         41
   137         32
   138          1
   148        418
   149         28
   150        403
   151         24
   152          1
   161          1
   163          1
   164          1
   176          2
   178          2