##TITLE=Library Entry 61026
##JCAMP-DX=Revision 4.10 
##DATA TYPE=MASS SPECTRUM
##SAMPLE DESCRIPTION=NIST Mass Spectrometry Data Center
##NAMES=HP
##CAS NAME=Valerenol
##MOLFORM=C15H24O
##CAS REGISTRY NO=101628-22-2
##MP= -300
##BP= -300
##MW= 220
##$RETENTION INDEX=1736
##$CONDENSED SPECTRUM=NO
##NPOINTS= 133
##XYDATA=(XY..XY) 1 
    27        102
    28         32
    29        177
    30         13
    31         99
    32          4
    38          8
    39        264
    40         53
    41        507
    42         15
    43        207
    44         11
    45         14
    50         17
    51        116
    52         46
    53        251
    54         30
    55        446
    56         35
    57         53
    58         21
    61          6
    62          5
    63         64
    64         19
    65        231
    66         75
    67        188
    68         26
    69        162
    70         15
    71         57
    74         10
    75         14
    76         20
    77        617
    78        133
    79        608
    80        104
    81        342
    82         49
    83         45
    84         36
    89         40
    90          7
    91        999
    92        151
    93        452
    94        137
    95        421
    96         44
    97         39
    98         13
    99          5
   102         28
   103        142
   104         65
   105        988
   106        182
   107        838
   108        182
   109        176
   110         67
   111         17
   112          4
   115        345
   116        123
   117        328
   118         97
   119        751
   120        231
   121        439
   122        264
   123         60
   124         45
   125         33
   126         10
   127         71
   128        168
   129        157
   130        104
   131        477
   132        165
   133        404
   134         99
   135        154
   136         76
   137         16
   138         12
   141         22
   142         20
   143         52
   144         49
   145        597
   146        153
   147        629
   148        123
   149        155
   150         38
   151         12
   157         15
   158         18
   159        218
   160        256
   161        254
   162        217
   163         94
   164         21
   165         35
   171          6
   172          7
   173         68
   174         48
   176          9
   177         52
   178         35
   187        556
   188        101
   189        810
   190        130
   191         33
   192         20
   201          7
   202        187
   203         27
   205         77
   206         14
   219          7
   220        859
   221        165
   223          5