##TITLE=Library Entry 14108
##JCAMP-DX=Revision 4.10 
##DATA TYPE=MASS SPECTRUM
##SAMPLE DESCRIPTION=Patti Price, Georgia Bureau of Investigation, Decatur,
 Georgia
##NAMES=HP
##CAS NAME=Trenbolone Acetate
##MOLFORM=C20H24O3
##CAS REGISTRY NO=10161-34-9
##MP= -300
##BP= -300
##MW= 312
##$RETENTION INDEX=0
##$CONDENSED SPECTRUM=NO
##NPOINTS= 93
##XYDATA=(XY..XY) 1 
    41        102
    43        999
    44         51
    53         66
    54          6
    55        110
    65         48
    66          8
    67         66
    68         24
    69        162
    71          5
    76          8
    77        119
    78         13
    79         69
    81        112
    82          9
    83         66
    89         26
    91        156
    92         11
    94         11
    95         18
   105         58
   109          7
   115        156
   116         31
   117         57
   118         17
   123         10
   127         12
   128        158
   129        136
   130         10
   131         59
   141        195
   142         88
   143         89
   145         18
   147         15
   148          8
   149         11
   152         78
   153         86
   154         76
   155        140
   156         72
   157         25
   160         17
   165        113
   166         52
   167        114
   168         67
   169         85
   170         28
   171         19
   178         39
   179         42
   181        107
   182         53
   183         69
   184         38
   185         52
   186          3
   192          5
   195        129
   196         53
   197         96
   198        191
   199         60
   200         23
   207         20
   209        110
   210        129
   211         74
   212         35
   213         83
   214        134
   223         35
   224         71
   225        115
   226         43
   237        165
   242         55
   252        920
   253        169
   255         16
   270        122
   271          9
   312        284
   313         32
   314          4