##TITLE=Library Entry 27989
##JCAMP-DX=Revision 4.10 
##DATA TYPE=MASS SPECTRUM
##SAMPLE DESCRIPTION=Div. of Experiment Therapeutics WRAIR, WRAMC, Washingto
n DC 20307
##NAMES=HP
##CAS NAME=5-[[7-Chloro-4-quinolinyl]amino]-3-[[diethylamino]methyl]-4'-[met
hylthio]-[1,1'-biphenyl]-2-ol
##MOLFORM=C27H28ClN3OS
##CAS REGISTRY NO=101712-94-1
##MP= -300
##BP= -300
##MW= 477
##$RETENTION INDEX=0
##$CONDENSED SPECTRUM=NO
##NPOINTS= 228
##XYDATA=(XY..XY) 1 
    41        195
    42         14
    43        289
    45         10
    46          5
    48          0
    49          1
    50          1
    51          4
    52          6
    53          6
    54          8
    56         81
    58        999
    59         34
    60          1
    63          2
    64          0
    65          1
    66          2
    67          1
    68          7
    69          3
    70          6
    72        147
    73        266
    74         37
    75          3
    76          0
    77          3
    78          2
    81          1
    82          1
    83          2
    84          2
    86          9
    87          1
    89          4
    91          2
    95          0
    97          1
    99          5
   100          1
   101          1
   102          2
   106          1
   107          0
   108          0
   109          1
   111          2
   113          2
   114          1
   115          4
   116          0
   117          0
   119          1
   120          0
   121          2
   122          0
   123          2
   124          2
   126          4
   127          4
   128          3
   129          1
   133          5
   134          0
   135          7
   136          0
   137          5
   139          7
   140          4
   141          4
   142          1
   143          0
   144          0
   145          1
   146         10
   147          2
   149          7
   150          6
   151          1
   152         14
   153          2
   154          4
   155          2
   156          0
   157          0
   158          2
   159          0
   160          4
   161          7
   162          7
   163          5
   164          6
   165          4
   166          3
   167          3
   168          3
   169          2
   170          0
   171          5
   172          1
   173          1
   174          0
   176          2
   177          2
   178          8
   179          9
   180          2
   181          4
   182          3
   183          0
   184          4
   185          2
   186          2
   187          3
   188          0
   189          3
   190          1
   191          2
   192          2
   193          1
   194          1
   195          2
   196          2
   197          2
   198          1
   199          1
   200          1
   201          1
   202          4
   203          3
   204          0
   205          0
   207          2
   208          2
   209          0
   213          1
   214          0
   215         13
   216          5
   217          2
   218          3
   224          0
   227          3
   228          2
   229          0
   230          0
   236          0
   239         10
   240          1
   241          1
   243          1
   245          0
   251          0
   252          2
   253          3
   254          1
   255          2
   257          0
   264          1
   265          0
   266          1
   267          1
   279          2
   280          1
   281          1
   289          1
   290          0
   291          2
   292          6
   293         10
   294          7
   295          2
   302          0
   305          0
   308          2
   313          1
   314          0
   315          1
   316          1
   321          4
   322         11
   323          3
   324          2
   325          2
   326          3
   327          5
   328          5
   329          5
   330          3
   331          1
   340          1
   341          0
   342         13
   343          4
   344          5
   345          2
   346          0
   347          0
   354          0
   355          1
   356          3
   357         16
   358         10
   359          9
   360          5
   361          3
   362          1
   369          1
   370          0
   375          4
   376          2
   377          2
   389          1
   392          1
   403          3
   404         61
   405         19
   406         31
   407          8
   408          4
   447          1
   477         17
   478          5
   479          7
   480          2