##TITLE=Library Entry 73206
##JCAMP-DX=Revision 4.10 
##DATA TYPE=MASS SPECTRUM
##SAMPLE DESCRIPTION=F.K. CARTLEDGE, DEP. CHEM., LA. STATE UNIV., BATON ROUG
E, USA
##NAMES=HP
##CAS NAME=cis-1,2-Dimethylsilacyclohexane
##MOLFORM=C7H16Si
##CAS REGISTRY NO=101772-57-0
##MP= -300
##BP= -300
##MW= 128
##$RETENTION INDEX=0
##$CONDENSED SPECTRUM=NO
##NPOINTS= 14
##XYDATA=(XY..XY) 1 
    58        210
    59        190
    71        230
    72        740
    73        360
    85        650
    86        230
    97        110
    99        270
   100        999
   101        100
   113        330
   127         60
   128        650