##TITLE=Library Entry 76131
##JCAMP-DX=Revision 4.10 
##DATA TYPE=MASS SPECTRUM
##SAMPLE DESCRIPTION=Div. of Experiment Therapeutics WRAIR, WRAMC, Washingto
n DC 20307
##NAMES=HP
##CAS NAME=1,4-Bis[p-cyanophenyl]piperazine
##MOLFORM=C18H16N4
##CAS REGISTRY NO=101722-12-7
##MP= -300
##BP= -300
##MW= 288
##$RETENTION INDEX=0
##$CONDENSED SPECTRUM=NO
##NPOINTS= 74
##XYDATA=(XY..XY) 1 
    42        267
    44         41
    45         54
    47          4
    50         31
    51        304
    53         39
    54         43
    55         23
    56        146
    57         15
    60          2
    61         13
    62         26
    63         81
    64        142
    65         11
    66         16
    68          4
    69          5
    72          2
    75        282
    76        438
    77         11
    78          6
    79         10
    80          2
    87          2
    88         13
    89         42
    90         46
    91          4
    92          2
    99          2
   100         10
   102        999
   103         18
   104         56
   106          2
   115          6
   116        320
   117          3
   118          2
   119          7
   127          9
   128          6
   129        467
   130        923
   132          9
   134          2
   141          2
   142         16
   143         36
   144         13
   145        103
   146         11
   148         14
   155         17
   157        326
   158          5
   163          3
   175          3
   185          2
   187         28
   188          2
   205          4
   206         13
   246         80
   247          3
   273         11
   287         19
   288        526
   289         74
   290          4