##TITLE=Library Entry 29494
##JCAMP-DX=Revision 4.10 
##DATA TYPE=MASS SPECTRUM
##SAMPLE DESCRIPTION=Div. of Experiment Therapeutics WRAIR, WRAMC, Washingto
n DC 20307
##NAMES=HP
##CAS NAME=5-[[7-Chloro-4-quinolinyl]amino]-3-[[diethylamino]methyl]-3'-fluo
ro-[1,1'-biphenyl]-2-ol
##MOLFORM=C26H25ClFN3O
##CAS REGISTRY NO=101712-87-2
##MP= -300
##BP= -300
##MW= 449
##$RETENTION INDEX=0
##$CONDENSED SPECTRUM=NO
##NPOINTS= 232
##XYDATA=(XY..XY) 1 
    41        220
    42         38
    43        275
    45         12
    46          3
    50          4
    51         20
    52         10
    53         11
    54         19
    55         61
    56         38
    58        999
    59         35
    60          9
    61          3
    63         12
    65          9
    66         15
    67         10
    68          8
    69         13
    70         15
    72        228
    73        163
    74        411
    75         28
    77         13
    80          6
    81          7
    83         10
    86         65
    87          6
    89         10
    93          5
    94          3
    95         16
    96         15
    97          5
    99         42
   100          8
   101         26
   102          5
   107          9
   109         30
   111         12
   113          9
   114          7
   115          7
   116          5
   120         36
   121         13
   122          5
   123         17
   124          3
   125         12
   126         27
   127         28
   128         15
   129         12
   131          3
   133         63
   135         49
   136         11
   137         34
   138         13
   139         16
   140         13
   141          6
   142         18
   143          9
   144          5
   145         13
   146         50
   147         24
   149         45
   150         56
   151         17
   152         21
   153         11
   154          5
   155         20
   156         29
   157          9
   158         13
   159         28
   160         14
   161         18
   162         66
   163         44
   164         42
   165         19
   166         13
   167         18
   168         11
   169         13
   170         65
   171         84
   173          6
   174         12
   175          7
   176          6
   177         11
   178         16
   179         33
   181         46
   183         20
   184          8
   185         12
   186         13
   187          7
   188         50
   189         48
   190         13
   191         17
   192         14
   193          6
   195          3
   196          6
   198          4
   199         66
   200         69
   201         22
   202         12
   203          9
   204          7
   205          8
   207         15
   208          7
   210          6
   213          6
   214         16
   215         25
   217        125
   218         96
   220          5
   225         98
   227          9
   228         10
   229          8
   230          5
   236          7
   239         13
   240          6
   241          7
   242          5
   245          6
   246          6
   251          5
   252         20
   253         42
   254         14
   255         16
   256          6
   257          7
   258          5
   259          4
   271          6
   273          7
   281          6
   282          7
   283          8
   284         11
   285         18
   286          9
   291          5
   292         10
   293         10
   294          5
   296          5
   297         17
   298         12
   299         13
   300          4
   307          5
   308          4
   309          9
   310         26
   311         64
   312        111
   313         53
   314         13
   319          5
   320         11
   321         17
   322          9
   323          8
   324          5
   325          5
   326         13
   327         12
   328          6
   331          5
   332          5
   333         30
   334          9
   335         12
   339         10
   340         19
   341         38
   342         22
   343          6
   344          5
   345         11
   346         19
   347        121
   348         49
   349         47
   350         15
   355          5
   357          7
   358          5
   359          7
   360         13
   361         13
   362         13
   363          7
   364          5
   375        123
   376        722
   377        271
   378        277
   379         83
   380         18
   390          5
   434          9
   436          3
   448          6
   449        201
   450         60
   451         71
   452         20