##TITLE=Library Entry 82708
##JCAMP-DX=Revision 4.10 
##DATA TYPE=MASS SPECTRUM
##SAMPLE DESCRIPTION=F.K. CARTLEDGE, DEP. CHEM., LA. STATE UNIV., BATON ROUG
E, USA
##NAMES=HP
##CAS NAME=cis-1-Chloro-1,2-dimethylsilacyclohexane
##MOLFORM=C7H15ClSi
##CAS REGISTRY NO=101772-60-5
##MP= -300
##BP= -300
##MW= 162
##$RETENTION INDEX=0
##$CONDENSED SPECTRUM=NO
##NPOINTS= 29
##XYDATA=(XY..XY) 1 
    63        280
    65        150
    67        100
    78        350
    79        780
    80        200
    81        320
    92        410
    93        530
    94        200
    95        220
    97        210
   105        490
   106        999
   107        520
   108        340
   109        170
   111        130
   119        490
   120        120
   121        180
   133        100
   134        560
   135         60
   136        200
   147        190
   149         63
   162        340
   164        110