##TITLE=Library Entry 62442
##JCAMP-DX=Revision 4.10 
##DATA TYPE=MASS SPECTRUM
##SAMPLE DESCRIPTION=NIST Mass Spectrometry Data Center
##NAMES=HP
##CAS NAME=N-Benzyloleamide
##MOLFORM=C25H41NO
##CAS REGISTRY NO=101762-87-2
##MP= -300
##BP= -300
##MW= 371
##$RETENTION INDEX=3077
##$CONDENSED SPECTRUM=NO
##NPOINTS= 202
##XYDATA=(XY..XY) 1 
    27          5
    28          5
    29         15
    30          4
    39         17
    40          3
    41        110
    42         23
    43         55
    44          7
    50          2
    51          8
    52          3
    53         19
    54         27
    55        166
    56         27
    57         16
    59          5
    62          1
    63          4
    64          1
    65         50
    67        102
    68         19
    69         88
    70         14
    72          5
    76          1
    77         50
    78         20
    79        128
    81         50
    82         11
    83         30
    84         22
    85          5
    86          3
    89          8
    90          5
    91        999
    92         99
    95         54
    96         10
    97         19
    98         11
    99          3
   100          3
   103          7
   104         27
   105         55
   106        555
   107        174
   108        190
   109         35
   110          6
   111          7
   112          3
   113          1
   114          3
   115          4
   116          3
   117         29
   118         23
   119         17
   120          6
   123          6
   125          3
   126          2
   127          1
   128          3
   129          6
   130          4
   131         13
   132         11
   133         14
   134         13
   136          8
   137          3
   140          1
   141          2
   142          2
   143          4
   144          3
   145          5
   146          9
   147         11
   148         96
   149        734
   150         63
   154          1
   155          1
   157          2
   159          2
   160         17
   161         14
   162        429
   163         90
   164          7
   166          1
   167          1
   168          1
   169          1
   170          1
   171          2
   172          1
   174          7
   175          5
   176         56
   177         21
   178          4
   181          1
   182          2
   184          1
   186          2
   187          2
   188          7
   190         29
   194          1
   196          1
   197          2
   200          2
   202         25
   203          6
   204         68
   205         12
   206          2
   210          1
   212          1
   214          1
   216         60
   217         13
   218         60
   219         12
   220          2
   228          2
   229          1
   230         19
   232         29
   233          7
   234          1
   240          2
   242          3
   243          1
   244         19
   245          5
   246         25
   247          6
   248          1
   254          2
   256          3
   258         15
   259          6
   260         24
   261          5
   263          3
   264          1
   265          2
   268          5
   270          3
   272         14
   273          3
   274         13
   275          3
   276          4
   280          5
   281          1
   282          7
   283          2
   284          2
   286         13
   287          3
   288          9
   289          2
   296          8
   297          2
   298          3
   299          2
   300         15
   301          4
   302          4
   303          1
   310          9
   311          4
   312          2
   314         15
   315          4
   316          5
   317          1
   324         13
   325          3
   328         20
   329          5
   330          2
   338         10
   342         11
   343          3
   356          3
   357          1
   371        240
   372         66
   373          9