##TITLE=Library Entry 72288
##JCAMP-DX=Revision 4.10 
##DATA TYPE=MASS SPECTRUM
##SAMPLE DESCRIPTION=F.K. CARTLEDGE, DEP. CHEM., LA. STATE UNIV., BATON ROUG
E, USA
##NAMES=HP
##CAS NAME=1,1,3-Trimethylsilacyclohexane
##MOLFORM=C8H18Si
##CAS REGISTRY NO=101772-53-6
##MP= -300
##BP= -300
##MW= 142
##$RETENTION INDEX=0
##$CONDENSED SPECTRUM=NO
##NPOINTS= 15
##XYDATA=(XY..XY) 1 
    41        120
    43        280
    45        100
    55        110
    59        580
    71        180
    72        530
    73        190
    85        690
    86        130
    97        100
    99        999
   100        180
   127        500
   142         30