##TITLE=Library Entry 60514
##JCAMP-DX=Revision 4.10 
##DATA TYPE=MASS SPECTRUM
##SAMPLE DESCRIPTION=Div. of Experiment Therapeutics WRAIR, WRAMC, Washingto
n DC 20307
##NAMES=HP
##CAS NAME=Dibenzyl tetrathiobisacetate
##MOLFORM=C18H18O4S4
##CAS REGISTRY NO=101790-48-1
##MP= -300
##BP= -300
##MW= 426
##$RETENTION INDEX=0
##$CONDENSED SPECTRUM=NO
##NPOINTS= 156
##XYDATA=(XY..XY) 1 
    41          0
    42         20
    43          7
    44          3
    45         26
    46         27
    47         20
    48          2
    49         56
    50         10
    51         33
    52          8
    53          2
    55          2
    56          0
    57          2
    59          0
    61          0
    62          3
    63         16
    64         53
    65        100
    66          7
    67          0
    69          2
    70          0
    71          0
    73          0
    74          2
    75          2
    77         58
    78         19
    79         25
    80          1
    81          0
    82          0
    83          1
    84          5
    86          3
    87          0
    89         21
    91        999
    92        102
    93          4
    96         10
    97          1
    98          1
    99          0
   103          1
   104          0
   105         37
   107         79
   108          9
   109          1
   110          1
   111          1
   112          0
   115          1
   117          0
   118          0
   119          4
   120          0
   121          2
   123         58
   124          4
   125          2
   126          2
   128         11
   130          2
   131          4
   133          2
   135          7
   137         25
   138          0
   139          4
   141          1
   142          0
   147          0
   148          1
   149         12
   150          1
   151          0
   152          1
   153          2
   154          3
   155          1
   156          0
   160         10
   161          1
   162          2
   165         32
   166          4
   167          6
   169         16
   171          2
   178          4
   179         14
   180         17
   181         72
   182         20
   183          5
   184          0
   192         21
   193          3
   194          6
   195          0
   196          0
   197         14
   199          1
   201          1
   209          0
   212          1
   213          8
   214          7
   215          1
   216          0
   221          0
   224          5
   225          2
   227          0
   229          1
   237          0
   239          0
   244          0
   246          0
   252          0
   253          0
   254          0
   256         11
   257          3
   258          2
   259          0
   269          0
   270          1
   271          8
   272          3
   273          0
   286          0
   288          1
   303          2
   304         10
   305          2
   318          0
   360          0
   362         89
   363         20
   364         10
   365          2
   394         66
   395         16
   396         10
   397          2
   398          0
   426         14
   427          2
   428          2