##TITLE=Library Entry 97872
##JCAMP-DX=Revision 4.10 
##DATA TYPE=MASS SPECTRUM
##SAMPLE DESCRIPTION=NIST Mass Spectrometry Data Center, 2010
##NAMES=HP
##CAS NAME=Ethanolamine, TBDMS derivative
##MOLFORM=C8H21NOSi
##CAS REGISTRY NO=101711-55-1
##MP= -300
##BP= -300
##MW= 175
##$RETENTION INDEX=0
##$CONDENSED SPECTRUM=NO
##NPOINTS= 70
##XYDATA=(XY..XY) 1 
    15          1
    18          3
    27          6
    28          7
    29         15
    30         60
    31          5
    39         10
    40          1
    41         23
    42         14
    43         33
    44         51
    45         42
    46          6
    47         24
    48          1
    49          1
    51          1
    53          2
    54          1
    55          6
    56          5
    57         16
    58         55
    59         67
    60         18
    61         23
    62          2
    63          1
    66          1
    67          1
    69          2
    70          1
    71          2
    72          6
    73        184
    74        440
    75        310
    76         40
    77         11
    78          1
    83          2
    84          2
    85         11
    86          6
    87          6
    88         36
    89         34
    90          4
    91          1
    97          1
    98          1
    99          7
   100         69
   101         15
   102         46
   103          5
   104          2
   115          6
   116         27
   118        999
   119        100
   120         39
   121          2
   144          1
   158          2
   160         47
   161          6
   174          1