##TITLE=Library Entry 72499
##JCAMP-DX=Revision 4.10 
##DATA TYPE=MASS SPECTRUM
##SAMPLE DESCRIPTION=F.K. CARTLEDGE, DEP. CHEM., LA. STATE UNIV., BATON ROUG
E, USA
##NAMES=HP
##CAS NAME=1,1,4-Trimethylsilacyclohexane
##MOLFORM=C8H18Si
##CAS REGISTRY NO=101772-54-7
##MP= -300
##BP= -300
##MW= 142
##$RETENTION INDEX=0
##$CONDENSED SPECTRUM=NO
##NPOINTS= 13
##XYDATA=(XY..XY) 1 
    59        250
    71        110
    72        360
    73        130
    85        410
    86        220
    97        120
    99        999
   100        100
   114        450
   127        960
   128        100
   142         30