##TITLE=Library Entry 28570
##JCAMP-DX=Revision 4.10 
##DATA TYPE=MASS SPECTRUM
##SAMPLE DESCRIPTION=Div. of Experiment Therapeutics WRAIR, WRAMC, Washingto
n DC 20307
##NAMES=HP
##CAS NAME=5-[[7-Chloro-4-quinolinyl]amino]-3-[[diethylamino]methyl]-2-(o-tr
ifluoromethylphenyl)phenol
##MOLFORM=C27H25ClF3N3O
##CAS REGISTRY NO=101712-72-5
##MP= -300
##BP= -300
##MW= 499
##$RETENTION INDEX=0
##$CONDENSED SPECTRUM=NO
##NPOINTS= 232
##XYDATA=(XY..XY) 1 
    41         16
    42        262
    43         44
    44        228
    45         22
    46          7
    47          3
    50         11
    51         29
    52         16
    53         13
    54         23
    55         19
    56        120
    58        999
    59         31
    60          8
    61          4
    62          6
    63         18
    64          6
    65         10
    66         25
    67          8
    68          8
    69         16
    70         21
    71         14
    72        268
    73         63
    74        409
    75         37
    76         10
    77         15
    78          7
    79          4
    80          5
    81          5
    82          5
    83          5
    84          8
    85          8
    86        122
    87          8
    88          8
    89         11
    90          4
    91          5
    94          3
    95          5
    96          4
    97          4
    98          5
    99         59
   100         21
   101         17
   102         10
   103          4
   107          4
   108          3
   109          7
   110          4
   111         14
   112          4
   113         10
   114         10
   115         14
   116          7
   117          4
   119          5
   120          7
   122          4
   123         10
   124          6
   125         13
   126         33
   127         37
   128         21
   129          5
   131          5
   133         26
   134          7
   135         63
   136         13
   137         26
   138         19
   139         26
   140         17
   141         13
   142          7
   143          5
   144          5
   145          9
   146         16
   147         10
   148         26
   149         10
   150         26
   151         56
   152         64
   153         29
   154          9
   155         10
   156          5
   157         14
   158         11
   159         10
   160          5
   162        114
   163         40
   164         39
   165         23
   166         17
   167         17
   168         12
   169         23
   170         38
   171         21
   172         16
   173          5
   174          4
   175         15
   176         39
   177         15
   178         18
   179         37
   180         17
   181         15
   182         12
   183         18
   184          7
   185          7
   186         17
   187          9
   188         20
   189         29
   190         16
   191         13
   192         11
   193         23
   194         26
   195         15
   196         14
   197          6
   198          5
   199          8
   200          7
   201         26
   202         12
   203         11
   204          8
   205          5
   206          5
   207          5
   208          6
   209          4
   213          8
   214          6
   215         10
   216          6
   217          9
   218         28
   219          9
   220          6
   221          6
   222          5
   224          5
   225          4
   226          4
   227          5
   228          6
   229          3
   232         13
   233          8
   239          6
   240          4
   241          3
   242         12
   243          5
   249          6
   250         43
   252          8
   253         15
   254          5
   255          5
   264          4
   265          4
   267          4
   279          3
   292          9
   293         15
   294         11
   295          4
   303          4
   309          4
   310          3
   321          7
   322          9
   323          8
   324          3
   327          5
   328          5
   329          7
   339          3
   342          6
   343          4
   344          4
   357         14
   358          6
   359          8
   360          3
   361          4
   362         11
   363          7
   371          4
   372          4
   391          4
   392          8
   397         11
   398          5
   399          4
   408          3
   425         16
   426         90
   427         35
   428         39
   429         11
   430          4
   498          3
   499         25
   500          8
   501          9