##TITLE=Library Entry 55919
##JCAMP-DX=Revision 4.10 
##DATA TYPE=MASS SPECTRUM
##SAMPLE DESCRIPTION=Finnigan MAT: Toxicological Library (LIBR-TX)
##NAMES=HP
##CAS NAME=Ethyleneglycol-n-butylboronate
##MOLFORM=C6H13BO2
##CAS REGISTRY NO=10173-39-4
##MP= -300
##BP= -300
##MW= 128
##$RETENTION INDEX=0
##$CONDENSED SPECTRUM=NO
##NPOINTS= 16
##XYDATA=(XY..XY) 1 
    55        615
    56        285
    69        158
    71         67
    72         82
    85        262
    86        999
    87         51
    97         63
    98        148
    99        550
   100         88
   112         39
   113        139
   127         40
   128         50