##TITLE=Library Entry 49485
##JCAMP-DX=Revision 4.10 
##DATA TYPE=MASS SPECTRUM
##SAMPLE DESCRIPTION=A.A.Kutin, Moscow, Russia
##NAMES=HP
##CAS NAME=Bicyclo[2.2.2]oct-5-ene-2,2,3,3-tetracarbonitrile
##MOLFORM=C12H8N4
##CAS REGISTRY NO=1017-93-2
##MP= -300
##BP= -300
##MW= 208
##$RETENTION INDEX=0
##$CONDENSED SPECTRUM=NO
##NPOINTS= 61
##XYDATA=(XY..XY) 1 
    38          7
    39         42
    40         20
    41          8
    44          1
    50         14
    51         33
    52         23
    53          9
    62          2
    63         15
    64         24
    65         19
    66          5
    74          1
    75         16
    76         52
    77        108
    78         34
    79        272
    80        999
    81         66
    87          2
    88         10
    89         16
    90          6
    91          7
    99          3
   100         19
   101         23
   102         34
   103         12
   104          7
   105          2
   113          3
   114         11
   115         15
   116         25
   117          4
   125          5
   126         18
   127         41
   128         71
   129         16
   130         11
   139          1
   140          2
   141          5
   142          5
   143         29
   144          1
   149          1
   152          3
   153         26
   154         23
   155         12
   167          2
   171          5
   180         17
   181          5
   208          4