##TITLE=Library Entry 82978
##JCAMP-DX=Revision 4.10 
##DATA TYPE=MASS SPECTRUM
##SAMPLE DESCRIPTION=F.K. CARTLEDGE, DEP. CHEM., LA. STATE UNIV., BATON ROUG
E, USA
##NAMES=HP
##CAS NAME=trans-1-Chloro-1,4-dimethylsilacyclohexane
##MOLFORM=C7H15ClSi
##CAS REGISTRY NO=101772-73-0
##MP= -300
##BP= -300
##MW= 162
##$RETENTION INDEX=0
##$CONDENSED SPECTRUM=NO
##NPOINTS= 20
##XYDATA=(XY..XY) 1 
    63        220
    78        220
    79        460
    81        170
    92        460
    93        630
    94        350
    95        260
   105        260
   106        999
   107        260
   108        330
   119        470
   121        160
   134        920
   136        320
   147        180
   149         60
   162        320
   164        100