##TITLE=Library Entry 29493
##JCAMP-DX=Revision 4.10 
##DATA TYPE=MASS SPECTRUM
##SAMPLE DESCRIPTION=Div. of Experiment Therapeutics WRAIR, WRAMC, Washingto
n DC 20307
##NAMES=HP
##CAS NAME=5-[[7-Chloro-4-quinolinyl]amino]-3-[[diethylamino]methyl]-2'-fluo
ro-[1,1'-biphenyl]-2-ol
##MOLFORM=C26H25ClFN3O
##CAS REGISTRY NO=101712-89-4
##MP= -300
##BP= -300
##MW= 449
##$RETENTION INDEX=0
##$CONDENSED SPECTRUM=NO
##NPOINTS= 233
##XYDATA=(XY..XY) 1 
    41        206
    42          6
    43        289
    45         11
    46          2
    49          3
    51         13
    52          7
    53          5
    54         14
    56         79
    58        999
    59         29
    60          4
    63          7
    64          5
    66          8
    67          4
    68          4
    69          6
    70         11
    72        184
    73        205
    74        190
    75          9
    76          7
    77          7
    78          3
    80          3
    81          3
    83          6
    84          3
    86         43
    87          4
    89          7
    91          3
    93          3
    94          3
    95          8
    96          8
    97          3
    99         30
   100          6
   101         21
   102          5
   107          6
   109         17
   111          9
   113          6
   114          4
   115          6
   117          3
   120         30
   121         10
   123         14
   125         13
   126         18
   127         20
   128         11
   129          5
   131          3
   132          3
   133         41
   135         37
   136          8
   137         13
   138          9
   139         18
   140         11
   141          8
   142          7
   143          3
   144          5
   145          4
   146         39
   147         32
   149         10
   150         24
   151         12
   152         20
   153         10
   155         12
   157         22
   159         28
   160         16
   161         20
   162         37
   163         27
   164         29
   165         16
   166          9
   167         12
   168          9
   170         48
   171         50
   173          4
   174          6
   175          3
   176          4
   177          7
   178         20
   179         18
   180         10
   181         15
   183         14
   185          9
   186          9
   187          2
   188         23
   189         28
   190          9
   191         12
   192         10
   193          5
   195          3
   196          3
   198          3
   199         34
   200         41
   201         12
   202         10
   203          5
   204          4
   205          4
   206          3
   207          5
   208          5
   210          4
   211          2
   213          7
   214         10
   215         17
   216          7
   217         88
   218         69
   220          3
   225         77
   227          8
   228          7
   229          8
   230          4
   239         13
   240          4
   241          5
   245          3
   246          3
   251          3
   252         14
   253         29
   254          9
   255         10
   256          3
   257          3
   264          3
   265          3
   266          3
   271          3
   273          5
   279          4
   281          4
   282          4
   283          5
   284          6
   285         12
   286          6
   289          3
   290          4
   291          7
   292         18
   293         15
   294          6
   297         10
   298          7
   299         10
   300          4
   302          2
   307          2
   308          4
   309          6
   310         16
   311         35
   312         80
   313         40
   314         11
   315          4
   319          4
   320          8
   321         14
   322          8
   323          7
   324          5
   326         11
   327         14
   328          7
   329          8
   331          4
   333         23
   334          7
   335          9
   339          6
   340         11
   341         23
   342         14
   343          4
   344          4
   345          7
   346         13
   347         83
   348         35
   349         32
   350         11
   355          7
   357          9
   358          8
   359          7
   360          9
   361          8
   362          9
   363          5
   364          5
   375         79
   376        501
   377        198
   378        197
   379         58
   380         13
   434          7
   436          2
   448          4
   449        140
   450         44
   451         50
   452         14