##TITLE=Library Entry 90226
##JCAMP-DX=Revision 4.10 
##DATA TYPE=MASS SPECTRUM
##SAMPLE DESCRIPTION=F.K. CARTLEDGE, DEP. CHEM., LA. STATE UNIV., BATON ROUG
E, USA
##NAMES=HP
##CAS NAME=trans-1,3-Dimethylsilacyclohexane
##MOLFORM=C7H16Si
##CAS REGISTRY NO=101772-69-4
##MP= -300
##BP= -300
##MW= 128
##$RETENTION INDEX=0
##$CONDENSED SPECTRUM=NO
##NPOINTS= 11
##XYDATA=(XY..XY) 1 
    58        220
    59        130
    71        120
    72        120
    85        630
    86        310
   100        160
   113        999
   114        100
   127         30
   128        180