##TITLE=Library Entry 63766
##JCAMP-DX=Revision 4.10 
##DATA TYPE=MASS SPECTRUM
##SAMPLE DESCRIPTION=Chemical Concepts
##NAMES=HP
##CAS NAME=3-Methyl-4-oxo-2-phenylimidazolidine-1-carboxylic acid, benzyl es
ter
##MOLFORM=C18H18N2O3
##CAS REGISTRY NO=101793-56-0
##MP= -300
##BP= -300
##MW= 310
##$RETENTION INDEX=0
##$CONDENSED SPECTRUM=NO
##NPOINTS= 122
##XYDATA=(XY..XY) 1 
    25          0
    26          4
    27         20
    28         10
    29         22
    30          4
    31          3
    35          0
    36          4
    37          1
    38          5
    39         42
    40          4
    41         34
    42         63
    43         39
    44          4
    45          6
    49          0
    50         15
    51         56
    52         12
    53          2
    54          0
    55          2
    56         26
    57         12
    58          2
    59          2
    60          1
    61          4
    62          6
    63         25
    64          9
    65         95
    66          6
    67          0
    69          1
    70          2
    71          1
    72          0
    73          3
    74          2
    75          3
    76          6
    77         63
    78         15
    79         10
    80          1
    86          0
    87          0
    88          4
    89         24
    90         22
    91        999
    92         81
    93          3
    97          3
    98          3
    99          3
   102          1
   103          3
   104          3
   105          6
   106         11
   107          6
   108          3
   115          0
   116          2
   117         15
   118         90
   119         13
   120         27
   121          2
   122          0
   131          0
   132          2
   133          1
   143          4
   145          0
   146          1
   147          0
   149          0
   150          1
   152          1
   153          0
   157          7
   158          0
   160          0
   162          1
   165          1
   166          0
   167          3
   168          0
   173          0
   174          1
   175         26
   176          3
   177          0
   188          0
   189         36
   190          4
   191          0
   203         11
   204          2
   219        205
   220         29
   221          3
   222          0
   232          1
   233         69
   234         10
   235          1
   265          1
   266          0
   267          0
   276          0
   277          0
   295          1
   309          0
   310          4
   311          1