##TITLE=Library Entry 86383
##JCAMP-DX=Revision 4.10 
##DATA TYPE=MASS SPECTRUM
##SAMPLE DESCRIPTION=E.W. THOMAS, THE UPJOHN CO., KALAMAZOO, MICH., USA
##NAMES=HP
##CAS NAME=6-(3-Bromopropyl)-2(1H)-pyridinone
##MOLFORM=C8H10BrNO
##CAS REGISTRY NO=101773-69-7
##MP= -300
##BP= -300
##MW= 215
##$RETENTION INDEX=0
##$CONDENSED SPECTRUM=NO
##NPOINTS= 8
##XYDATA=(XY..XY) 1 
   109        999
   134        117
   135        145
   136        116
   187          2
   189          2
   215        107
   217        104