##TITLE=Library Entry 92651
##JCAMP-DX=Revision 4.10 
##DATA TYPE=MASS SPECTRUM
##SAMPLE DESCRIPTION=V.G.Zaikin, Petrochem. Synth. Inst., Moscow
##NAMES=HP
##CAS NAME=Cyclopentanecarboxylic acid, dodecyl ester
##MOLFORM=C18H34O2
##CAS REGISTRY NO=101885-15-8
##MP= -300
##BP= -300
##MW= 282
##$RETENTION INDEX=0
##$CONDENSED SPECTRUM=NO
##NPOINTS= 74
##XYDATA=(XY..XY) 1 
    26         12
    27         88
    28         39
    29        157
    30          3
    31          6
    39         92
    40         26
    41        515
    42        119
    43        459
    44         17
    45          6
    47          6
    51          8
    53         31
    54         59
    55        345
    56        225
    57        368
    58         16
    60          3
    65          8
    66          8
    67        103
    68        101
    69        779
    70        219
    71        159
    72         12
    73        182
    74          7
    79          9
    80          3
    81         21
    82         58
    83        185
    84        128
    85         89
    86         36
    87          6
    95         17
    96         45
    97        532
    98        105
    99         19
   100          3
   101          6
   109          6
   110         16
   111         71
   112         53
   113         25
   114        245
   115        999
   116         79
   117          9
   125         35
   126         29
   127          9
   129          4
   138          4
   139          9
   140         39
   141          9
   168         89
   169         19
   170         12
   171          3
   182          3
   213         12
   241         21
   242          3
   282          9