##TITLE=Library Entry 18437
##JCAMP-DX=Revision 4.10 
##DATA TYPE=MASS SPECTRUM
##SAMPLE DESCRIPTION=LAC, NIDDK, NIH, Bethesda, MD 20892
##NAMES=HP
##CAS NAME=3-Phenylpropionic acid, 2,4-dibromo-3,6-dihydroxy-
##MOLFORM=C9H8Br2O4
##CAS REGISTRY NO=101870-45-5
##MP= -300
##BP= -300
##MW= 338
##$RETENTION INDEX=0
##$CONDENSED SPECTRUM=NO
##NPOINTS= 214
##XYDATA=(XY..XY) 1 
    42        237
    43        222
    44         60
    45        351
    46         18
    47         15
    48          1
    49         87
    50        261
    51        540
    52        170
    53        999
    54         70
    55        189
    56         13
    57         14
    58          6
    60         71
    61         54
    62        155
    63        396
    64        106
    65        102
    66        101
    67        181
    68          1
    69        117
    70          6
    71         11
    73         33
    74        103
    75        122
    76        100
    77        482
    78        294
    79        234
    80          7
    81        111
    82         45
    83         19
    84         25
    85         15
    86         35
    87         37
    88         39
    89         69
    90         30
    91         93
    92         95
    93         72
    94          1
    95         16
    96          3
    97         15
    99          2
   101          5
   102          2
   103         12
   104         26
   105        106
   106         76
   107         64
   109         14
   110         13
   111          3
   112          1
   116         12
   117         26
   118         12
   119         29
   120          7
   121         32
   122          2
   123          3
   124          2
   125          2
   126          1
   128          6
   129         37
   131         66
   132         18
   133         90
   134        165
   135         31
   136         16
   137         10
   138          6
   139          3
   140          2
   141          7
   142          7
   143         81
   145         88
   146         14
   147         38
   149          5
   150          7
   151          6
   152         16
   154          8
   155         14
   156          9
   157         35
   158         10
   159         27
   160          5
   161          9
   162         10
   163          3
   164          5
   165          1
   167          9
   168          3
   169          9
   170         11
   171         42
   172         26
   173         39
   174         20
   175          3
   177          2
   178          1
   179          3
   180          1
   181          1
   182          4
   183         14
   184         20
   185         48
   186         19
   187         38
   188          8
   189          6
   190          3
   191          3
   192          1
   195          4
   196         16
   198         16
   199         37
   200         12
   201         37
   202         12
   203          3
   207          1
   209          1
   210          1
   211          8
   212         33
   213         35
   214         71
   215         29
   216         39
   217         37
   219         39
   220          2
   221          2
   223          4
   225          3
   231          2
   233          1
   235          2
   237          3
   239          4
   240          4
   241         11
   242         21
   243          9
   244         15
   245          1
   248         34
   250         64
   251          4
   252         31
   255          1
   257          5
   259          5
   260          8
   261          1
   262          8
   263          1
   264          3
   265          3
   266          8
   267          1
   268          6
   270          1
   278         60
   279         10
   280        105
   281         22
   282         56
   283         11
   284          1
   291          5
   292        112
   293         19
   294        212
   295         22
   296        103
   297          9
   298          1
   320         78
   321          1
   322        155
   323         14
   324         71
   325          5
   326          1
   338         32
   340         64
   341          5
   342         30
   343          2