##TITLE=Library Entry 97669
##JCAMP-DX=Revision 4.10 
##DATA TYPE=MASS SPECTRUM
##SAMPLE DESCRIPTION=Chemical Concepts
##NAMES=HP
##CAS NAME=Chromium, carbonyl(.eta.5-2,4-cyclopentadien-1-yl)[(1,2,5,6-.eta.
)-1,5-hexadiene]-
##MOLFORM=C12H15CrO
##CAS REGISTRY NO=101860-24-6
##MP= -300
##BP= -300
##MW= 227
##$RETENTION INDEX=0
##$CONDENSED SPECTRUM=NO
##NPOINTS= 107
##XYDATA=(XY..XY) 1 
    26          2
    27         16
    28          5
    29          3
    37          1
    38          5
    39         41
    40          7
    41         36
    42          1
    49          0
    50          7
    51          3
    52        149
    53         20
    54          8
    55          1
    61          0
    62          1
    63          3
    64          1
    65          8
    66          3
    67         16
    68          1
    75          0
    76          0
    77         10
    78          3
    79          8
    80          2
    81          3
    82          1
    88          0
    89          2
    90         18
    91         11
    92          3
    93          8
    94          1
    95          0
   100          1
   101          0
   103          2
   104          0
   105          3
   106          0
   107          4
   108          0
   114          0
   115         47
   117        999
   118        170
   119         34
   120          2
   121          0
   128          0
   129          2
   130         13
   131         16
   132         14
   133          6
   134          4
   135          0
   142          1
   143          1
   144          3
   145          3
   146          0
   154          3
   155          0
   156         29
   157         12
   158        173
   159         35
   160          8
   161          0
   168          0
   169         26
   171        449
   172         98
   173         20
   174          1
   180          0
   183          0
   184          0
   186          0
   189          0
   193          2
   194          1
   195         56
   196         34
   197         27
   198          5
   199        240
   200         55
   201         12
   202          1
   207          0
   214          0
   224          0
   225          2
   226          0
   227         39
   228         10
   229          2
   230          0