##TITLE=Library Entry 70633
##JCAMP-DX=Revision 4.10 
##DATA TYPE=MASS SPECTRUM
##SAMPLE DESCRIPTION=B. Derendyaev, Novosibirsk Institute of Organic Chemist
ry
##NAMES=HP
##CAS NAME=Estafiatin
##MOLFORM=C15H18O3
##CAS REGISTRY NO=10180-89-9
##MP= -300
##BP= -300
##MW= 246
##$RETENTION INDEX=0
##$CONDENSED SPECTRUM=NO
##NPOINTS= 140
##XYDATA=(XY..XY) 1 
    40         46
    41        319
    42         18
    43        661
    44         50
    45         30
    46          6
    50         15
    51         83
    52         39
    53        351
    54         31
    55        151
    57         18
    63         22
    64          9
    65        121
    66         45
    67        221
    68         34
    69         74
    71         19
    77        253
    78         82
    79        259
    80        117
    81        190
    82        120
    83         22
    84         23
    85         53
    87          5
    89          6
    91        438
    92        105
    93        259
    94         59
    95        432
    96         78
    97        999
    98         66
   103         50
   104         34
   105        250
   106         69
   107         93
   108         66
   109         84
   110         54
   111         74
   112         10
   115         73
   116         40
   117        162
   118         45
   119        148
   120         47
   121        123
   122         45
   123        120
   124        100
   125         30
   126         10
   127          9
   128         49
   129        107
   130         48
   131        189
   132         56
   133        113
   134         66
   135         69
   136         47
   137         48
   138         10
   139          6
   141         30
   142         48
   143         71
   144         30
   145         92
   146         36
   147        121
   148         71
   149        107
   150         21
   151         18
   152         25
   153          6
   154         16
   155         18
   156          9
   157        100
   158         30
   159        134
   160         65
   161        105
   162        238
   163         87
   164         24
   165         37
   166         21
   167         26
   169         11
   171         25
   172         14
   173         63
   174         47
   175        128
   176         48
   177         13
   183         10
   184          5
   185         56
   186         21
   187         95
   188         90
   189         62
   190         31
   191         10
   199         16
   200         26
   201         41
   202         61
   203        124
   204        101
   205         20
   213         29
   214          6
   217         39
   218         33
   219          5
   228         93
   229         14
   231        803
   232        119
   233         12
   245         14
   246         80
   247         35