##TITLE=Library Entry 81886
##JCAMP-DX=Revision 4.10 
##DATA TYPE=MASS SPECTRUM
##SAMPLE DESCRIPTION=Chemical Concepts
##NAMES=HP
##CAS NAME=Benzenemethanamine, .alpha.-methyl-N-(3-phenyl-2-propenylidene)-
##MOLFORM=C17H17N
##CAS REGISTRY NO=101876-89-5
##MP= -300
##BP= -300
##MW= 235
##$RETENTION INDEX=0
##$CONDENSED SPECTRUM=NO
##NPOINTS= 107
##XYDATA=(XY..XY) 1 
    26          2
    27         36
    28          6
    29          2
    38          5
    39         35
    40          6
    41          3
    42          7
    44          3
    50         24
    51         79
    52         16
    53          7
    54          2
    55          2
    58          1
    62          7
    63         31
    64          6
    65         27
    66          2
    74          5
    75         12
    76         20
    77        162
    78         40
    79        105
    80          7
    87          3
    88          3
    89         32
    90          9
    91         81
    92          8
    93          1
    94          7
   101          5
   102         29
   103        107
   104         77
   105        999
   106        107
   107          6
   109          1
   110          1
   113          2
   114          3
   115        307
   116         70
   117         51
   118         10
   119          4
   120         29
   121          2
   127          2
   128          9
   129         25
   130        140
   131         61
   132         15
   133          1
   140          1
   141          1
   142         19
   143         11
   144         12
   145          1
   152          2
   156         13
   157         28
   158         37
   159          5
   165          4
   166          1
   167          1
   178          5
   179          2
   189          3
   190          1
   191          6
   192         12
   193         10
   194          2
   202          3
   203          5
   204          6
   205          4
   206          3
   207          1
   208          4
   216          2
   217          8
   218         12
   219          9
   220        446
   221         75
   222          9
   223          1
   230          1
   231          1
   232          2
   233          1
   234         73
   235        518
   236         96
   237         10