##TITLE=Library Entry 87192
##JCAMP-DX=Revision 4.10 
##DATA TYPE=MASS SPECTRUM
##SAMPLE DESCRIPTION=Chemical Concepts
##NAMES=HP
##CAS NAME=Dimethyl (1-hydroxy-1-methylpropyl)phosphonate
##MOLFORM=C6H15O4P
##CAS REGISTRY NO=10184-67-5
##MP= -300
##BP= -300
##MW= 182
##$RETENTION INDEX=0
##$CONDENSED SPECTRUM=NO
##NPOINTS= 86
##XYDATA=(XY..XY) 1 
    33         12
    34          1
    37          1
    38          3
    39         27
    40          7
    41         27
    42         24
    43        360
    44         15
    45         50
    47         94
    48         13
    49         16
    50          4
    51          5
    52          2
    53         13
    55        204
    56         16
    57         71
    58          5
    59          1
    61          2
    62          5
    63         18
    65         29
    66          2
    67          1
    68          1
    69          3
    70          2
    71         11
    72         40
    73        248
    74         14
    75        115
    76          5
    77         11
    79        388
    80        453
    81         10
    82          3
    83          6
    84          1
    85          3
    86          3
    87          3
    89         19
    90          1
    91          1
    93        174
    95        216
    96          7
    97          5
    99          1
   101          1
   103          1
   105          4
   106          1
   107          1
   110        999
   111        124
   112         11
   113          3
   117          2
   119          2
   120          1
   121          2
   124          2
   126         62
   127         60
   128          2
   129          1
   131          1
   133          2
   134          1
   135          4
   137          2
   149          5
   150          1
   151          5
   153         16
   154          7
   164          1
   165          4