##TITLE=Library Entry 5297
##JCAMP-DX=Revision 4.10 
##DATA TYPE=MASS SPECTRUM
##SAMPLE DESCRIPTION=Div. of Experiment Therapeutics WRAIR, WRAMC, Washingto
n DC 20307
##NAMES=HP
##CAS NAME=Adenine, 9-methyl-N(1)-oxide-
##MOLFORM=C6H7N5O
##CAS REGISTRY NO=10184-51-7
##MP= -300
##BP= -300
##MW= 165
##$RETENTION INDEX=0
##$CONDENSED SPECTRUM=NO
##NPOINTS= 68
##XYDATA=(XY..XY) 1 
    42        999
    43        248
    44        104
    45         60
    47         29
    48         10
    49        108
    51        124
    52        131
    53        186
    54        131
    55         62
    56          8
    57         82
    58          9
    60         31
    64         31
    65         75
    66        164
    67        118
    68        118
    69         57
    70         72
    71         24
    74          4
    75          4
    76         14
    77         65
    78          8
    79        164
    80        183
    81        101
    82         39
    83         28
    84         76
    86         51
    91         20
    92         23
    93         69
    94         49
    95        116
    96         43
    97         14
   106         66
   107        101
   108         18
   109         13
   110         32
   119          3
   120         32
   121        109
   122        207
   123         26
   124         18
   132          4
   133         61
   134         26
   135         16
   136         14
   137         19
   140          3
   147          4
   148         66
   149        381
   150         10
   164          5
   165        674
   166         61