##TITLE=Library Entry 1227
##JCAMP-DX=Revision 4.10 
##DATA TYPE=MASS SPECTRUM
##SAMPLE DESCRIPTION=Japan AIST/NIMC Database- Spectrum MS-NW-2906
##NAMES=HP
##CAS NAME=Benzofurazan, 4-chloro-7-nitro-
##MOLFORM=C6H2ClN3O3
##CAS REGISTRY NO=10199-89-0
##MP= -300
##BP= -300
##MW= 199
##$RETENTION INDEX=0
##$CONDENSED SPECTRUM=NO
##NPOINTS= 117
##XYDATA=(XY..XY) 1 
    12          2
    16          2
    18          1
    24          2
    25          4
    26          9
    27          3
    28         30
    29          4
    30        999
    31          4
    32          3
    35          2
    36         10
    37         69
    38         28
    39          9
    40          2
    43          1
    44          2
    46          8
    47         11
    48          6
    49         20
    50         18
    51         28
    52         12
    53          6
    54          5
    55          1
    60         19
    61         86
    62         39
    63         32
    64         20
    65          2
    66          2
    67          9
    68          1
    69          1
    70          4
    71          5
    72         34
    73         17
    74         94
    75         37
    76         56
    77          6
    78          5
    79          1
    80          1
    81          1
    84          4
    85          6
    86         20
    87         67
    88        337
    89         48
    90          8
    91          8
    92          2
    93          1
    95          1
    96          6
    97         18
    98         61
    99         10
   100         21
   101          6
   102          2
   104         74
   105          6
   106          2
   108          2
   109        127
   110         12
   111         75
   112          7
   113         17
   114          4
   115          2
   116          1
   117         41
   118          4
   119         10
   121          1
   122          9
   123         53
   124          8
   125         22
   126          4
   127          3
   134          3
   136          5
   137         12
   138          3
   139        168
   140         11
   141        101
   142          6
   143         14
   144          1
   148          1
   152          2
   153         29
   154          2
   155          9
   156          1
   169         35
   170          2
   171         10
   183          5
   185          1
   199        243
   200         20
   201         80
   202          6