##TITLE=Library Entry 49365
##JCAMP-DX=Revision 4.10 
##DATA TYPE=MASS SPECTRUM
##SAMPLE DESCRIPTION=D.HENNEBERG, MAX-PLANCK INSTITUTE, MULHEIM, WEST GERMAN
Y
##NAMES=HP
##CAS NAME=Acetaldehyde, (2,4-dinitrophenyl)hydrazone
##MOLFORM=C8H8N4O4
##CAS REGISTRY NO=1019-57-4
##MP= -300
##BP= -300
##MW= 224
##$RETENTION INDEX=2121
##$CONDENSED SPECTRUM=NO
##NPOINTS= 148
##XYDATA=(XY..XY) 1 
    26         33
    27        174
    28        269
    29         24
    30        394
    31          5
    32          6
    33          1
    34          1
    35          1
    37          2
    38         37
    39        189
    40         46
    41         79
    42        396
    43        186
    44         20
    45        160
    46          7
    47          1
    48          1
    50         44
    51        418
    52        206
    53         74
    54         39
    55         62
    56         21
    57          8
    58          8
    59          1
    60          1
    61          4
    62         57
    63        280
    64        218
    65        101
    66         73
    67         31
    68         36
    69          5
    70         66
    71          3
    73          2
    74         17
    75        201
    76        150
    77        611
    78        724
    79        999
    80        101
    81         13
    82         12
    83          1
    84          3
    87          3
    88         18
    89         57
    90        144
    91        158
    92        169
    93         51
    94         15
    95         10
    96          1
    98          3
   101         11
   102         74
   103        115
   104        154
   105         83
   106         77
   107         32
   108          7
   109          1
   111          2
   112          8
   114          1
   115          6
   116         29
   117         34
   118         17
   119         27
   120         16
   121          8
   122        228
   123         17
   124          1
   129          7
   130         13
   131         89
   132         27
   133         28
   134          9
   135         14
   136          5
   137         10
   138          3
   144          6
   145         10
   146          6
   147         10
   148          3
   149         10
   150          5
   151          3
   152        192
   153         21
   154          1
   160         10
   161          6
   162          9
   163          8
   164          5
   165          4
   166          5
   167          2
   168          1
   175          1
   176          4
   177          4
   178          6
   179          3
   180        179
   181         67
   182         10
   183          4
   190         13
   191          5
   192          1
   193          5
   194          6
   195          1
   196         12
   197          1
   206          2
   207          1
   208         17
   209          7
   222          2
   223          5
   224        851
   225         92
   226         12
   227          1
   228          3
   229          0