##TITLE=Library Entry 10295
##JCAMP-DX=Revision 4.10 
##DATA TYPE=MASS SPECTRUM
##SAMPLE DESCRIPTION=TNO Volatile Compounds in Food - Chemical Concepts
##NAMES=HP
##CAS NAME=Cyclohexanol, 1-methyl-4-(1-methylethenyl)-, acetate
##MOLFORM=C12H20O2
##CAS REGISTRY NO=10198-23-9
##MP= -300
##BP= -300
##MW= 196
##$RETENTION INDEX=1317
##$CONDENSED SPECTRUM=NO
##NPOINTS= 75
##XYDATA=(XY..XY) 1 
    26          6
    27         88
    29          8
    31          3
    38          3
    39        133
    41        242
    42         33
    43        999
    44          5
    45         14
    50          5
    51         20
    52         14
    53        112
    54         17
    55        164
    56         19
    57         18
    58         40
    59          8
    60          7
    61          4
    63          5
    65         28
    66         18
    67        227
    68        668
    69        141
    70         11
    71        165
    72         14
    73          4
    77         73
    78         23
    79        255
    80        148
    81        299
    82         48
    83         43
    84         28
    85          4
    91         73
    92        268
    93        883
    94        471
    95        214
    96         24
    97         14
    98          3
   103          2
   105         30
   106         15
   107        433
   108        141
   109         26
   110          4
   111         22
   112          3
   113          4
   115          3
   119          5
   120          5
   121        422
   122         47
   123         11
   125          6
   126          3
   135         11
   136        468
   137         77
   138          4
   139         28
   140          3
   154          3