##TITLE=Library Entry 33326
##JCAMP-DX=Revision 4.10 
##DATA TYPE=MASS SPECTRUM
##SAMPLE DESCRIPTION=Chemical Concepts
##NAMES=HP
##CAS NAME=1H-Pyrazole, 1-acetyl-
##MOLFORM=C5H6N2O
##CAS REGISTRY NO=10199-64-1
##MP= -300
##BP= -300
##MW= 110
##$RETENTION INDEX=0
##$CONDENSED SPECTRUM=NO
##NPOINTS= 84
##XYDATA=(XY..XY) 1 
    23          2
    26         45
    27         30
    28        178
    29         17
    30          3
    31         12
    34          0
    35          0
    36          3
    37         30
    38         72
    39        119
    40        105
    41        429
    42        184
    43        665
    44         18
    45         29
    46          0
    47          0
    48          0
    49          0
    50          3
    51         20
    52         33
    53          9
    54         20
    55         11
    56          1
    57          1
    58          0
    59          2
    60         19
    61          0
    62          1
    63          1
    64          1
    65          2
    66          3
    67        119
    68        999
    69        280
    70          8
    71          1
    72          0
    73          1
    74          1
    75          0
    76          0
    77          1
    78          0
    79          0
    81        187
    82        400
    83         20
    84          0
    85          0
    86          0
    87          1
    88          0
    89          0
    90          0
    91          4
    92          2
    93          0
    94          0
    95         10
    96          0
    97          0
    98          0
    99          0
   100          0
   101          0
   103          0
   105          0
   106          0
   107          0
   108          0
   109          0
   110        297
   111         19
   112          1
   113          0