##TITLE=Library Entry 20800
##JCAMP-DX=Revision 4.10 
##DATA TYPE=MASS SPECTRUM
##SAMPLE DESCRIPTION=NIST Mass Spectrometry Data Center
##NAMES=HP
##CAS NAME=1-Tetracosene
##MOLFORM=C24H48
##CAS REGISTRY NO=10192-32-2
##MP= -300
##BP= -300
##MW= 336
##$RETENTION INDEX=2394
##$CONDENSED SPECTRUM=NO
##NPOINTS= 64
##XYDATA=(XY..XY) 1 
    18          4
    26          3
    29         74
    30         10
    31         16
    37          5
    38         12
    41        525
    42        154
    43        624
    44         29
    52         13
    54         58
    55        999
    56        271
    57        779
    58         25
    63          7
    64          4
    66         10
    67        200
    68        276
    69        924
    70        469
    71        512
    72         43
    73         72
    75         19
    78         29
    80         20
    82        249
    83        984
    84        309
    85        388
    86         28
    88         34
    89         18
    96         88
    97        923
    98        252
    99         53
   100         14
   107         35
   110         70
   111        543
   112        156
   113         32
   118         15
   119         65
   123         22
   124         27
   125        250
   126         82
   127         17
   135         35
   137         50
   138         20
   139        134
   140         68
   142         14
   153         48
   154         60
   335          4
   336         77