##TITLE=Library Entry 81688
##JCAMP-DX=Revision 4.10 
##DATA TYPE=MASS SPECTRUM
##SAMPLE DESCRIPTION=O.Gyllenhaal ET AL.J.Chrom.,355,127(1986)
##NAMES=HP
##CAS NAME=2-Heptafluoropropyl-4-methylene-5-(2,6-dimethylphenylimino)-2-oxa
zoline
##MOLFORM=C15H11F7N2O
##CAS REGISTRY NO=101948-90-7
##MP= -300
##BP= -300
##MW= 368
##$RETENTION INDEX=0
##$CONDENSED SPECTRUM=NO
##NPOINTS= 111
##XYDATA=(XY..XY) 1 
    41         44
    42          3
    44        136
    45        135
    46          3
    47          3
    48          3
    49          7
    50         72
    51        166
    52        142
    53        110
    54         49
    55         33
    56         35
    57         33
    58          3
    59          3
    60          3
    61          3
    62          3
    63         70
    64         75
    65         98
    66          3
    67          3
    68         94
    69        703
    70         49
    72         23
    73          9
    75         24
    77        531
    78        469
    79        469
    80         51
    81         28
    85         28
    86         26
    88         40
    89        117
    90        112
    91        110
    92         31
   100         66
   101         68
   103        454
   104        162
   105        999
   106        114
   110         35
   115         61
   116        302
   117        117
   118        103
   119        101
   120         26
   121         28
   122         26
   125         24
   126         12
   128         44
   130        633
   131        281
   132        142
   133        138
   135         24
   139         31
   140         31
   141         37
   142         54
   143         54
   144        150
   145        163
   146        161
   151        579
   152         26
   153         26
   154         52
   155         73
   156        577
   157        236
   158        161
   159         45
   168         30
   169        234
   170        231
   171         38
   172         40
   173         51
   184         45
   197         37
   198         87
   199        862
   200        227
   201         33
   249         52
   250          3
   301        416
   302          7
   322         24
   352         66
   353        211
   354         58
   355         37
   365          3
   366         52
   367        169
   368        563
   369        126
   370         23