##TITLE=Library Entry 14340
##JCAMP-DX=Revision 4.10 
##DATA TYPE=MASS SPECTRUM
##SAMPLE DESCRIPTION=Div. of Experiment Therapeutics WRAIR, WRAMC, Washingto
n DC 20307
##NAMES=HP
##CAS NAME=1,3-Diacetyl-5-(Z)-[2,4,5-trimethoxybenzal]hydantoin
##MOLFORM=C17H18N2O7
##CAS REGISTRY NO=101970-75-6
##MP= -300
##BP= -300
##MW= 362
##$RETENTION INDEX=0
##$CONDENSED SPECTRUM=NO
##NPOINTS= 162
##XYDATA=(XY..XY) 1 
    42         27
    43        999
    44         33
    45         16
    47         10
    52          7
    53         21
    54          8
    55         25
    56         12
    57         20
    59         19
    60          7
    62         13
    63         33
    64         21
    65         19
    66         13
    67         11
    68          7
    69         71
    70         52
    71         11
    73          7
    75         10
    76         21
    77         40
    78         22
    79         31
    80          8
    81          9
    82          9
    83         14
    87          1
    88         12
    89         18
    90         20
    91         25
    92         27
    93         13
    94          8
    95         11
    96          1
    97          9
    98          1
   101          1
   102         15
   103         18
   104         20
   105         16
   106         17
   107         17
   108          7
   109          9
   111          6
   112          1
   114          9
   115         12
   116         13
   117         21
   118         16
   119         20
   120         36
   121         18
   122         16
   123          8
   124          7
   125          5
   130         17
   131         22
   132         35
   133         26
   134         24
   135         11
   136         12
   137         39
   138         11
   139          9
   141          2
   143          2
   144          8
   145          9
   146         19
   147         16
   148         32
   149         35
   150          9
   151         28
   152          4
   153          9
   154         39
   155          4
   158          4
   159          2
   160         39
   161         25
   162         37
   163         23
   164         39
   165         14
   166         26
   167          7
   168          7
   174         15
   175         13
   176         45
   177         26
   178         19
   179         12
   181         36
   187          1
   188         62
   189         14
   190         23
   192        286
   193         45
   195         19
   201          2
   203        129
   204         41
   205         10
   206         54
   207         68
   208          9
   216          5
   217         10
   218         10
   219         11
   220         16
   222          3
   226          8
   231         21
   232         15
   233         17
   234         28
   235         25
   236          3
   245          2
   246         39
   247        213
   248         97
   249         15
   260          4
   261         11
   263        155
   264         22
   276          8
   278        922
   279        124
   280         17
   289          4
   290         19
   293          1
   304          3
   309          4
   319          5
   320        526
   321         81
   322         14
   362        188
   363         33
   364          7