##TITLE=Library Entry 93
##JCAMP-DX=Revision 4.10 
##DATA TYPE=MASS SPECTRUM
##SAMPLE DESCRIPTION=Japan AIST/NIMC Database- Spectrum MS-NW-1891
##NAMES=HP
##CAS NAME=N,N-Bis(2-hydroxyethyl)-2-aminoethanesulfonic acid
##MOLFORM=C6H15NO5S
##CAS REGISTRY NO=10191-18-1
##MP= -300
##BP= -300
##MW= 213
##$RETENTION INDEX=0
##$CONDENSED SPECTRUM=NO
##NPOINTS= 175
##XYDATA=(XY..XY) 1 
    24         11
    25         53
    26        385
    27        999
    28        479
    29        319
    30        177
    31         35
    32         43
    33          8
    34         14
    36          4
    37          6
    38         11
    39         58
    40         32
    41        152
    42        622
    43        503
    44        508
    45         45
    46         18
    47          8
    48        388
    49         16
    50         20
    51         24
    52         30
    53         26
    54        210
    55        602
    56        437
    57        601
    58        111
    59         16
    60         16
    61          7
    62          5
    63         11
    64        890
    65        458
    66         55
    67         30
    68         36
    69         41
    70        104
    71         16
    72         26
    73         16
    74          4
    75          4
    76          8
    77         20
    78         27
    79         19
    80         30
    81         44
    82         81
    83         54
    84         88
    85         37
    86        107
    87        359
    88         16
    89          5
    90          4
    91         41
    92         11
    93         23
    94         22
    95          9
    96          9
    97         15
    98         46
    99          9
   100        558
   101         34
   102          6
   103          6
   104          8
   105         11
   106          9
   107          9
   108         17
   109         14
   110          9
   111         58
   112        192
   113        141
   114         22
   115         27
   116          5
   117         10
   118          7
   119          9
   120          9
   121          6
   122          5
   123          4
   124          4
   125          4
   126          2
   127          4
   128          6
   129          7
   130          9
   131          9
   132          8
   133          7
   134          6
   135          6
   136          5
   137          8
   138          5
   139          4
   140          2
   141          4
   142          4
   143          6
   144          5
   145          5
   146          6
   147          5
   148          4
   149          4
   150          4
   151          4
   152          4
   153          3
   154          3
   155          3
   156          4
   157          4
   158          5
   159          4
   160          4
   161          4
   162          4
   163          3
   164          6
   165          6
   166          3
   167          4
   168          3
   169          3
   170          4
   171          4
   172          3
   173          3
   174          3
   175          6
   176          3
   177          3
   178          3
   179          3
   180          3
   181          3
   182          4
   183          3
   184          3
   185          3
   186          3
   187          3
   188          2
   189          3
   190          2
   191          3
   192          2
   193          4
   194          7
   195         16
   196          4
   197          3
   198          3
   199          1