##TITLE=Library Entry 29305
##JCAMP-DX=Revision 4.10 
##DATA TYPE=MASS SPECTRUM
##SAMPLE DESCRIPTION=Patti Price, Georgia Bureau of Investigation, Decatur,
 Georgia
##NAMES=HP
##CAS NAME=1H-Indole-3-ethanamine, 5-methoxy-N,N-dimethyl-
##MOLFORM=C13H18N2O
##CAS REGISTRY NO=1019-45-0
##MP= -300
##BP= -300
##MW= 218
##$RETENTION INDEX=1960
##$CONDENSED SPECTRUM=NO
##NPOINTS= 104
##XYDATA=(XY..XY) 1 
    42         43
    43          8
    50          3
    51          9
    52          6
    53          2
    54          1
    55          1
    56          5
    57         10
    58        999
    59         38
    62          4
    63         17
    64          5
    65          5
    66          1
    67          1
    70          1
    72          1
    73          1
    74          3
    75          8
    76         10
    77         22
    78          6
    79          2
    80          2
    81          1
    82          1
    83          1
    84          1
    85          1
    86          1
    87          3
    88          3
    89         29
    90         23
    91          6
    92          1
    93          1
    94          1
    95          1
    99          1
   100          1
   101          5
   102         13
   103         14
   105          1
   106          1
   107          1
   108          1
   109          1
   113          1
   114          2
   115          8
   116         10
   117         50
   118          6
   119          1
   121          1
   126          1
   127          1
   128          7
   129          6
   130         29
   131         11
   132          3
   133          1
   140          1
   141          1
   142          4
   143          8
   144          9
   145         40
   146          8
   147          1
   154          1
   155          1
   156          1
   157          1
   158         13
   159         13
   160         60
   161          8
   162          1
   164          1
   170          1
   171          1
   172          3
   173         12
   174         18
   175          2
   184          1
   187          2
   199          1
   201          1
   202          1
   215          1
   216          4
   217          1
   218        146
   219         21
   220          2