##TITLE=Library Entry 56020
##JCAMP-DX=Revision 4.10 
##DATA TYPE=MASS SPECTRUM
##SAMPLE DESCRIPTION=Japan AIST/NIMC Database- Spectrum MS-IW-2891
##NAMES=HP
##CAS NAME=Methanediamine, N,N,N',N'-tetraethyl-
##MOLFORM=C9H22N2
##CAS REGISTRY NO=102-53-4
##MP= -300
##BP= -300
##MW= 158
##$RETENTION INDEX=0
##$CONDENSED SPECTRUM=NO
##NPOINTS= 48
##XYDATA=(XY..XY) 1 
    15          8
    26          6
    27         44
    28         63
    29         70
    30        246
    31          4
    38          1
    39          4
    40          6
    41         19
    42        106
    43         15
    44        103
    45          6
    46          1
    52          1
    53          1
    54          9
    55          6
    56         52
    57         30
    58        389
    59         14
    64          5
    68          4
    69          1
    70         45
    71          8
    72         87
    73         83
    74          6
    78          1
    82          2
    84          5
    85         55
    86        999
    87         64
    88          2
    96          1
    97          1
    98          5
    99          3
   101          1
   112          2
   127          1
   157          1
   158          1