##TITLE=Library Entry 65845
##JCAMP-DX=Revision 4.10 
##DATA TYPE=MASS SPECTRUM
##SAMPLE DESCRIPTION=Humboldt-Universitat zu Berlin, Department of Chemistry
, Analytical Group
##NAMES=HP
##CAS NAME=Butanamide, 3-oxo-N-phenyl-
##MOLFORM=C10H11NO2
##CAS REGISTRY NO=102-01-2
##MP= -300
##BP= -300
##MW= 177
##$RETENTION INDEX=0
##$CONDENSED SPECTRUM=NO
##NPOINTS= 117
##XYDATA=(XY..XY) 1 
    12          1
    13          2
    14         20
    15        115
    16          3
    17         15
    18         55
    19          0
    20          0
    24          0
    25          1
    26         15
    27         56
    28         38
    29         29
    30          5
    31         12
    32          0
    37         14
    38         45
    39        185
    40         30
    41         36
    42         57
    43        564
    44         16
    45          3
    46          1
    49          2
    50         27
    51         76
    52         28
    53          8
    54          8
    55          7
    56          1
    57          6
    58        106
    59          3
    60          1
    61          4
    62         12
    63         43
    64         46
    65        144
    66        106
    67         13
    68          1
    69         11
    70          1
    71          1
    73          1
    74          5
    75          4
    76          6
    77         70
    78         11
    79          8
    80          1
    81          1
    82          0
    83          1
    85         22
    86          1
    87          1
    88          1
    89          3
    90          5
    91         72
    92         79
    93        999
    94         77
    95          2
    96          0
    97          0
    98          0
    99          0
   102          0
   103          1
   104          4
   105          2
   106         19
   107          2
   108          0
   109          0
   110          0
   111          0
   112          0
   113          0
   115          0
   116          1
   117          2
   119         97
   120         15
   121          1
   128          0
   129          0
   130          1
   131          0
   132          0
   133          1
   134         14
   135          4
   136          0
   144          1
   145          0
   148          0
   149          0
   158          0
   159          0
   160          0
   162          0
   175          0
   177        187
   178         21
   179          2
   180          0