##TITLE=Library Entry 114792
##JCAMP-DX=Revision 4.10 
##DATA TYPE=MASS SPECTRUM
##SAMPLE DESCRIPTION=RADIAN CORP
##NAMES=HP
##CAS NAME=Ethanol, 2,2'-(butylimino)bis-
##MOLFORM=C8H19NO2
##CAS REGISTRY NO=102-79-4
##MP= -300
##BP= -300
##MW= 161
##$RETENTION INDEX=0
##$CONDENSED SPECTRUM=NO
##NPOINTS= 63
##XYDATA=(XY..XY) 1 
    15         17
    17          2
    18         12
    19          7
    26          2
    27         90
    29        188
    30        145
    31         35
    36         16
    38          4
    39         43
    41        185
    42        234
    43        102
    44        171
    45        173
    53          8
    54         19
    55         47
    56        527
    57        179
    58         52
    60          8
    68          4
    69          4
    70         45
    71          8
    72         50
    73         11
    74        450
    75         20
    77         14
    82          6
    86        211
    87         19
    88        760
    89         40
    91         15
    92          2
    94          2
    98         68
    99          4
   100         56
   103         14
   104          4
   105          5
   106          4
   107         17
   114         30
   116         75
   117          5
   118        298
   119         30
   128         56
   129         14
   130        999
   131         82
   132          3
   148          2
   160          5
   161         12
   162          1