##TITLE=Library Entry 3926
##JCAMP-DX=Revision 4.10 
##DATA TYPE=MASS SPECTRUM
##SAMPLE DESCRIPTION=NIST Mass Spectrometry Data Center, 1990.
##NAMES=HP
##CAS NAME=2-Propen-1-amine, N,N-di-2-propenyl-
##MOLFORM=C9H15N
##CAS REGISTRY NO=102-70-5
##MP= -300
##BP= -300
##MW= 137
##$RETENTION INDEX=0
##$CONDENSED SPECTRUM=NO
##NPOINTS= 54
##XYDATA=(XY..XY) 1 
    14          7
    15         25
    16          5
    18          6
    26         16
    27         75
    28        105
    29         22
    30         39
    32          0
    37         10
    38         39
    39        420
    40         88
    41        999
    42        235
    43         17
    44         12
    51          6
    52         12
    53         36
    54         98
    55         96
    56        156
    57         14
    65         15
    66         12
    67         87
    68        191
    69         47
    70         26
    77         13
    78          7
    79         74
    80         63
    81        119
    82         44
    83         14
    91          9
    93         14
    94         97
    95         44
    96        108
    97          9
   108        113
   110        632
   111         61
   120         15
   122        100
   123         10
   134          7
   136         57
   137        133
   138         16