##TITLE=Library Entry 61582
##JCAMP-DX=Revision 4.10 
##DATA TYPE=MASS SPECTRUM
##SAMPLE DESCRIPTION=Japan AIST/NIMC Database- Spectrum MS-NW-4989
##NAMES=HP
##CAS NAME=2-Propanone, 1,3-diphenyl-
##MOLFORM=C15H14O
##CAS REGISTRY NO=102-04-5
##MP= -300
##BP= -300
##MW= 210
##$RETENTION INDEX=0
##$CONDENSED SPECTRUM=NO
##NPOINTS= 70
##XYDATA=(XY..XY) 1 
    26          1
    27          4
    28          1
    37          1
    38          4
    39         42
    40          3
    41         14
    43          2
    44          1
    50          7
    51         19
    52          4
    53          1
    55          2
    57          1
    61          1
    62          5
    63         22
    64          8
    65        107
    66          6
    67          1
    69          1
    71          1
    74          2
    75          2
    76          2
    77          9
    78          2
    79          1
    82          1
    83          1
    86          1
    87          1
    88          1
    89         23
    90         21
    91        999
    92         80
    93          3
    97          1
   102          1
   103          2
   104          1
   105          8
   106          3
   107          1
   115          2
   116          1
   118         93
   119        206
   120         18
   121          2
   122          2
   131          3
   136          2
   141          1
   152          1
   159          4
   165          2
   166          1
   178          2
   179          2
   180          1
   181          1
   191          1
   210         56
   211          9
   212          1