##TITLE=Library Entry 66463
##JCAMP-DX=Revision 4.10 
##DATA TYPE=MASS SPECTRUM
##SAMPLE DESCRIPTION=Japan AIST/NIMC Database- Spectrum MS-NW- 416
##NAMES=HP
##CAS NAME=Urea, N,N'-diphenyl-
##MOLFORM=C13H12N2O
##CAS REGISTRY NO=102-07-8
##MP= -300
##BP= -300
##MW= 212
##$RETENTION INDEX=2204
##$CONDENSED SPECTRUM=NO
##NPOINTS= 59
##XYDATA=(XY..XY) 1 
    17          1
    18          2
    26          4
    27          8
    28         29
    32          7
    37         13
    38         29
    39         70
    40         16
    41         20
    42          4
    43          3
    44          5
    45          9
    46         10
    49          2
    50         19
    51         46
    52         18
    53          5
    54         10
    55          2
    56          1
    57          3
    59          8
    60          2
    61          6
    62         10
    63         33
    64         66
    65        107
    66        124
    67         12
    69          2
    71          1
    74          5
    75          4
    76          7
    77         65
    78          9
    90          6
    91        105
    92         79
    93        999
    94         70
    95          3
   105          1
   106          8
   119        241
   120         25
   121          2
   149          1
   167          2
   194          4
   211          4
   212        167
   213         24
   214          2