##TITLE=Library Entry 77042
##JCAMP-DX=Revision 4.10 
##DATA TYPE=MASS SPECTRUM
##SAMPLE DESCRIPTION=V.Zaikin,Topchiev Inst.Petrochem.Synth.,Moscow
##NAMES=HP
##CAS NAME=Benzeneacetic acid, 2-phenylethyl ester
##MOLFORM=C16H16O2
##CAS REGISTRY NO=102-20-5
##MP= -300
##BP= -300
##MW= 240
##$RETENTION INDEX=1909
##$CONDENSED SPECTRUM=NO
##NPOINTS= 40
##XYDATA=(XY..XY) 1 
    26          1
    27          2
    36          3
    39          9
    41          3
    44          3
    50          4
    51         12
    52          4
    53          2
    62          2
    63         10
    64          4
    65         40
    66          3
    74          2
    75          2
    76          2
    77         35
    78         17
    79         27
    80          2
    89         17
    90         15
    91        365
    92         35
    93          2
   102          4
   103         34
   104        999
   105        166
   106         12
   118          8
   119          8
   120          2
   136          5
   165          2
   167          1
   178          3
   179          1