##TITLE=Library Entry 62144
##JCAMP-DX=Revision 4.10 
##DATA TYPE=MASS SPECTRUM
##SAMPLE DESCRIPTION=Tox21 Consortium/NIST Mass Spectrometry Data Center, 20
12
##NAMES=HP
##CAS NAME=Dibemethine
##MOLFORM=C15H17N
##CAS REGISTRY NO=102-05-6
##MP= -300
##BP= -300
##MW= 211
##$RETENTION INDEX=1657
##$CONDENSED SPECTRUM=NO
##NPOINTS= 71
##XYDATA=(XY..XY) 1 
    15          2
    26          1
    27          3
    28          1
    37          1
    38          3
    39         33
    40          3
    41         15
    42         80
    43          4
    44          4
    50         11
    51         35
    52          8
    53          2
    61          1
    62          5
    63         24
    64          7
    65        139
    66          9
    74          2
    75          3
    76          6
    77         32
    78         16
    79          3
    86          1
    87          1
    89         30
    91        999
    92        136
    93          8
   102          1
   103          4
   104          8
   105          6
   106          1
   115          2
   116          3
   117          5
   118         35
   119          5
   120        189
   121         17
   122          1
   128          1
   130          1
   131          2
   132         38
   134        340
   135         36
   136          2
   139          1
   152          2
   153          1
   164          1
   165          6
   166          2
   167          1
   178          1
   179          1
   180          1
   181          1
   194          1
   208          2
   210         48
   211        140
   212         23
   213          2