##TITLE=Library Entry 456
##JCAMP-DX=Revision 4.10 
##DATA TYPE=MASS SPECTRUM
##SAMPLE DESCRIPTION=D.HENNEBERG, MAX-PLANCK INSTITUTE, MULHEIM, WEST GERMAN
Y
##NAMES=HP
##CAS NAME=Aluminum, tripropyl-
##MOLFORM=C9H21Al
##CAS REGISTRY NO=102-67-0
##MP= -300
##BP= -300
##MW= 156
##$RETENTION INDEX=0
##$CONDENSED SPECTRUM=NO
##NPOINTS= 114
##XYDATA=(XY..XY) 1 
    26        189
    27        630
    28        575
    29        999
    30         20
    31          8
    34          0
    36         16
    37         92
    38        138
    39        547
    40        175
    41        800
    42        437
    43        489
    44        295
    45         12
    46          0
    47          0
    49          1
    50          3
    51          5
    52          2
    53         16
    54         10
    55         42
    56         40
    57         13
    58          1
    59          2
    60          0
    61          2
    62          0
    63          1
    64          6
    65          1
    66          1
    67          5
    68          4
    69         27
    70         19
    71        549
    72         20
    73          5
    75          1
    79          1
    80          0
    81          3
    82          5
    83         10
    84         13
    85         45
    86          5
    87          4
    89         13
    91          3
    92          0
    93          2
    94          0
    95          0
    96         12
    97         57
    98          3
    99          0
   101          1
   102          1
   103          7
   104          0
   105          1
   106          0
   107         13
   108          1
   109          8
   110          2
   111          6
   112          1
   113        337
   114         20
   115          4
   116          1
   117          2
   119          0
   121          0
   122          0
   123          0
   124          0
   125          1
   126          1
   127          3
   128          1
   129          4
   131         10
   132          1
   133          2
   135          1
   137          1
   138          0
   139          1
   140          3
   141          2
   142          0
   143          0
   144          0
   145          2
   147          0
   149          1
   150          7
   151          0
   152          3
   153          2
   154          3
   155         32
   156         40
   157          5