##TITLE=Library Entry 16038
##JCAMP-DX=Revision 4.10 
##DATA TYPE=MASS SPECTRUM
##SAMPLE DESCRIPTION=JANCA2, 60(3)642(1977); K. BAILEY ET AL
##NAMES=HP
##CAS NAME=Benzeneethanamine, .alpha.,3,4-trimethyl-
##MOLFORM=C11H17N
##CAS REGISTRY NO=102-31-8
##MP= -300
##BP= -300
##MW= 163
##$RETENTION INDEX=0
##$CONDENSED SPECTRUM=NO
##NPOINTS= 18
##XYDATA=(XY..XY) 1 
    41        350
    42        300
    44        999
    45        310
    51        260
    65        260
    77        480
    78        280
    79        250
    91        640
   103        310
   104        290
   105        880
   115        340
   117        270
   119        610
   120        520
   163         10