##TITLE=Library Entry 87001
##JCAMP-DX=Revision 4.10 
##DATA TYPE=MASS SPECTRUM
##SAMPLE DESCRIPTION=NIST Mass Spectrometry Data Center
##NAMES=HP
##CAS NAME=Resorcinol monoacetate
##MOLFORM=C8H8O3
##CAS REGISTRY NO=102-29-4
##MP= -300
##BP= -300
##MW= 152
##$RETENTION INDEX=1383
##$CONDENSED SPECTRUM=NO
##NPOINTS= 61
##XYDATA=(XY..XY) 1 
    14          3
    15         14
    25          1
    26          6
    27         28
    28          5
    29          7
    31          1
    37          5
    38         15
    39         45
    40          7
    41         10
    42         21
    43        199
    44          5
    45          3
    46          1
    49          2
    50         15
    51         24
    52         18
    53         57
    54         20
    55         18
    56          1
    60          1
    61          5
    62         10
    63         24
    64         15
    65         16
    66          6
    67          2
    68         14
    69         40
    70          2
    71          4
    73          1
    74          2
    75          1
    77          2
    79          3
    80          2
    81         80
    82         88
    83          5
    84          1
    92          4
    93          7
    94          1
    95          7
   108          1
   109         11
   110        999
   111         67
   112          7
   123          1
   152        142
   153         13
   154          2