##TITLE=Library Entry 62195
##JCAMP-DX=Revision 4.10 
##DATA TYPE=MASS SPECTRUM
##SAMPLE DESCRIPTION=V.Zaikin,Topchiev Inst.Petrochem.Synth.,Moscow
##NAMES=HP
##CAS NAME=Benzeneacetic acid, 2-methylpropyl ester
##MOLFORM=C12H16O2
##CAS REGISTRY NO=102-13-6
##MP= -300
##BP= -300
##MW= 192
##$RETENTION INDEX=1392
##$CONDENSED SPECTRUM=NO
##NPOINTS= 62
##XYDATA=(XY..XY) 1 
    26          4
    27         14
    28          1
    29         73
    30          2
    31          1
    36          5
    37          1
    38          4
    39         38
    40          5
    41        112
    42          7
    43         13
    44          1
    45          3
    50          8
    51         17
    52          7
    53          3
    55          9
    56         26
    57        273
    58         13
    61          1
    62          6
    63         26
    64          9
    65         82
    66          6
    71          9
    74          2
    75          2
    76          1
    77          8
    78          4
    79          8
    86          1
    87          2
    89         47
    90         39
    91        999
    92        246
    93         18
    99          2
   104          1
   105          4
   107          3
   118         18
   119         86
   120          8
   131          1
   135          1
   136        456
   137        148
   138         14
   139          1
   149          6
   164          2
   177          2
   192         32
   193          5