##TITLE=Library Entry 62101
##JCAMP-DX=Revision 4.10 
##DATA TYPE=MASS SPECTRUM
##SAMPLE DESCRIPTION=Japan AIST/NIMC Database- Spectrum MS-NW-8890
##NAMES=HP
##CAS NAME=Benzenemethanamine, N-(1-methylethyl)-
##MOLFORM=C10H15N
##CAS REGISTRY NO=102-97-6
##MP= -300
##BP= -300
##MW= 149
##$RETENTION INDEX=1150
##$CONDENSED SPECTRUM=NO
##NPOINTS= 63
##XYDATA=(XY..XY) 1 
    15          3
    27         17
    28         36
    29          3
    30         64
    31          1
    38          1
    39         28
    40          3
    41         29
    42         14
    43         22
    44          3
    50          5
    51         20
    52          6
    53          2
    54          2
    55          1
    56          7
    57          1
    58         16
    59          1
    62          2
    63         11
    64          4
    65         83
    66          6
    67         21
    70          1
    71          1
    72         20
    73          1
    74          1
    75          1
    76          2
    77         30
    78         10
    79         30
    80          2
    89         16
    90          9
    91        999
    92         83
    93          3
   103          2
   104         13
   105          9
   106         41
   107          3
   117          2
   118          2
   130          1
   132         15
   133          3
   134        416
   135         43
   136          2
   146          2
   147          4
   148         15
   149         22
   150          6