##TITLE=Library Entry 46908
##JCAMP-DX=Revision 4.10 
##DATA TYPE=MASS SPECTRUM
##SAMPLE DESCRIPTION=NIST Mass Spectrometry Data Center, 1998.
##NAMES=HP
##CAS NAME=Benzene, (2-nitroethenyl)-
##MOLFORM=C8H7NO2
##CAS REGISTRY NO=102-96-5
##MP= -300
##BP= -300
##MW= 149
##$RETENTION INDEX=0
##$CONDENSED SPECTRUM=NO
##NPOINTS= 91
##XYDATA=(XY..XY) 1 
    25          1
    26          8
    27         22
    29          2
    30         50
    36          1
    37         15
    38         32
    39         86
    40         13
    41         14
    42          2
    43          4
    44          1
    46         25
    48          1
    49         17
    50        231
    51        513
    52         87
    53         38
    54          9
    55         31
    56          2
    58          1
    60          3
    61         28
    62         70
    63        160
    64         27
    65        220
    66        234
    67         59
    68         18
    69          3
    70          1
    72          1
    73         17
    74        127
    75        119
    76        177
    77        999
    78        142
    79         31
    80          8
    81         10
    82          2
    83          3
    84          2
    85          6
    86         11
    87         18
    88          5
    89         68
    90         49
    91        607
    92        102
    93         54
    94         55
    95          8
    96         20
    97          4
    98         17
    99          5
   100          2
   101         41
   102        720
   103        301
   104        109
   105         75
   106         19
   107          4
   108          1
   114          1
   115          1
   116          7
   117         12
   118         29
   119         41
   120         34
   121         17
   122          4
   130          2
   131          3
   132        153
   133         16
   134          1
   148         22
   149        462
   150         43
   151          4