##TITLE=Library Entry 53224
##JCAMP-DX=Revision 4.10 
##DATA TYPE=MASS SPECTRUM
##SAMPLE DESCRIPTION=Japan AIST/NIMC Database- Spectrum MS-IW-5633
##NAMES=HP
##CAS NAME=Phosphorous acid, tributyl ester
##MOLFORM=C12H27O3P
##CAS REGISTRY NO=102-85-2
##MP= -300
##BP= -300
##MW= 250
##$RETENTION INDEX=0
##$CONDENSED SPECTRUM=NO
##NPOINTS= 85
##XYDATA=(XY..XY) 1 
    15          1
    18          1
    26          2
    27         24
    28          9
    29        117
    30          2
    31          7
    39         19
    40          3
    41        140
    42          8
    43         11
    44          2
    45          2
    47          6
    50          1
    51          1
    53          4
    54          3
    55         35
    56         88
    57        307
    58         13
    65         41
    66          2
    67          2
    70          1
    71          1
    72          1
    73          2
    77          2
    78          5
    79          7
    80          1
    81          2
    82         44
    83        999
    84          2
    85          7
    91          2
    92          2
    93          1
    94          1
    95          1
    96         11
    97         37
    99          9
   101          1
   103          1
   104          1
   105          1
   107          1
   109         17
   110          7
   111         14
   113          1
   115          2
   119          1
   120          3
   121         52
   122          3
   123         35
   124          1
   125          1
   135          2
   136          1
   137         11
   138         24
   139        312
   140         13
   141          2
   153          5
   155          2
   165          4
   167          2
   177         67
   178          6
   179          3
   194          1
   195        116
   196          9
   197          1
   250          7
   251          5