##TITLE=Library Entry 35628
##JCAMP-DX=Revision 4.10 
##DATA TYPE=MASS SPECTRUM
##SAMPLE DESCRIPTION=Philip Morris R&D
##NAMES=HP
##CAS NAME=Geranyl phenylacetate
##MOLFORM=C18H24O2
##CAS REGISTRY NO=102-22-7
##MP= -300
##BP= -300
##MW= 272
##$RETENTION INDEX=0
##$CONDENSED SPECTRUM=NO
##NPOINTS= 83
##XYDATA=(XY..XY) 1 
    38          1
    39         58
    40         27
    41        434
    42         23
    44         62
    45         16
    49          2
    50          5
    51          9
    52          3
    53         55
    54         16
    55         45
    56         13
    57         11
    58         21
    59         37
    60          3
    61          2
    63         11
    65         90
    67         88
    68        458
    69        999
    70         65
    72         20
    73         45
    75          0
    76         16
    77         20
    78          5
    79         59
    80        337
    81         57
    82          9
    83          9
    84         14
    85         43
    86          6
    87         24
    88         36
    89         11
    90          6
    91        555
    92        167
    93        364
    94        105
    95         42
    97          8
    98          0
   103         17
   104          7
   105         15
   107         48
   108         28
   109         12
   111         11
   115         11
   116          3
   118         18
   119         16
   120          5
   121        232
   122         19
   123         37
   124         16
   127          2
   131          9
   133          8
   135          9
   136        300
   137         78
   138          1
   139          9
   145          2
   149          5
   153          5
   154         17
   163          3
   182          1
   204          3
   236          4