##TITLE=Library Entry 45138
##JCAMP-DX=Revision 4.10 
##DATA TYPE=MASS SPECTRUM
##SAMPLE DESCRIPTION=Japan AIST/NIMC Database- Spectrum MS-NW-4985
##NAMES=HP
##CAS NAME=Propane, 1,1,3,3-tetramethoxy-
##MOLFORM=C7H16O4
##CAS REGISTRY NO=102-52-3
##MP= -300
##BP= -300
##MW= 164
##$RETENTION INDEX=883
##$CONDENSED SPECTRUM=NO
##NPOINTS= 50
##XYDATA=(XY..XY) 1 
    14          2
    15         48
    16          1
    18          2
    26          3
    27         13
    28          8
    29         29
    30          5
    31         56
    32          4
    33         11
    39          3
    40          1
    41          8
    42          4
    43         17
    44          2
    45         17
    46          1
    47        126
    48          3
    53          1
    54          1
    55          3
    56          1
    57         11
    58         10
    59         13
    60          1
    61          1
    69          1
    71         11
    72          3
    74          2
    75        999
    76         34
    77          5
    85          6
    86          1
    87          1
    89          1
   101         22
   102          5
   105          1
   117         39
   118          2
   131          2
   132          6
   133          3