##TITLE=Library Entry 10850
##JCAMP-DX=Revision 4.10 
##DATA TYPE=MASS SPECTRUM
##SAMPLE DESCRIPTION=NIST Mass Spectrometry Data Center, 1994
##NAMES=HP
##CAS NAME=Glycerol 1,2-diacetate
##MOLFORM=C7H12O5
##CAS REGISTRY NO=102-62-5
##MP= -300
##BP= -300
##MW= 176
##$RETENTION INDEX=0
##$CONDENSED SPECTRUM=NO
##NPOINTS= 41
##XYDATA=(XY..XY) 1 
     4          0
    14          6
    15         39
    16          1
    26          1
    27          6
    28          7
    29         10
    30          1
    31          4
    39          4
    40          1
    43        999
    44         23
    45          3
    55          2
    56          5
    57          7
    60          1
    61         13
    70          1
    71          0
    73         22
    74         21
    75          2
    86         31
    88          1
    98          5
    99          3
   101          1
   103        171
   104          8
   105          1
   115         55
   116         73
   117          6
   145        145
   146         10
   147          1
   158          2
   159          1