##TITLE=Library Entry 66067
##JCAMP-DX=Revision 4.10 
##DATA TYPE=MASS SPECTRUM
##SAMPLE DESCRIPTION=Japan AIST/NIMC Database- Spectrum MS-NW-8144
##NAMES=HP
##CAS NAME=Thiourea, N,N'-diphenyl-
##MOLFORM=C13H12N2S
##CAS REGISTRY NO=102-08-9
##MP= -300
##BP= -300
##MW= 228
##$RETENTION INDEX=0
##$CONDENSED SPECTRUM=NO
##NPOINTS= 114
##XYDATA=(XY..XY) 1 
    26          4
    27         16
    28         32
    32         12
    33          8
    34         23
    36          1
    37         11
    38         25
    39         82
    40         20
    41         18
    42          5
    43          3
    44          6
    45          7
    46         17
    47          1
    49          4
    50         62
    51        224
    52         32
    53          7
    54         15
    55          1
    57          1
    58          3
    59          2
    60          2
    61          6
    62         11
    63         38
    64         42
    65        129
    66        184
    67         22
    68          3
    69          6
    70          5
    71          1
    73          3
    74         17
    75         17
    76         32
    77        513
    78         48
    79          2
    80          4
    81          1
    82          3
    83          4
    84          4
    87          1
    88          2
    89          1
    90         10
    91         75
    92         97
    93        999
    94         69
    95          3
    96          4
    97          9
   102          1
   103         16
   104         14
   105          2
   107          2
   108         16
   109         54
   110         40
   111          5
   112          2
   114         16
   115          2
   117          3
   118         25
   119         50
   120          4
   122          1
   123          2
   124          9
   125          1
   129          1
   134          4
   135        368
   136         93
   137         22
   138          4
   139          1
   140          1
   141          1
   149          3
   150          2
   151          3
   152          2
   153          1
   154          1
   166          4
   167          6
   168          5
   169          3
   192          2
   193         11
   194        190
   195         57
   196          7
   225          3
   226          2
   227         40
   228        215
   229         34
   230         11
   231          1