##TITLE=Library Entry 73509
##JCAMP-DX=Revision 4.10 
##DATA TYPE=MASS SPECTRUM
##SAMPLE DESCRIPTION=Japan AIST/NIMC Database- Spectrum MS-NW-3930
##NAMES=HP
##CAS NAME=1,3-Propanediamine, N,N-dibutyl-
##MOLFORM=C11H26N2
##CAS REGISTRY NO=102-83-0
##MP= -300
##BP= -300
##MW= 186
##$RETENTION INDEX=0
##$CONDENSED SPECTRUM=NO
##NPOINTS= 80
##XYDATA=(XY..XY) 1 
    15          7
    26          3
    27         31
    28         19
    29        100
    30        162
    31          3
    38          1
    39         18
    40          3
    41         94
    42         84
    43         44
    44        168
    45          6
    50          5
    51          1
    52          1
    53          4
    54          7
    55         24
    56         48
    57         87
    58        197
    59          8
    67          1
    68          6
    69          3
    70         46
    71          9
    72         16
    73          2
    74          2
    80          1
    81          1
    82          5
    83          2
    84         54
    85         12
    86        139
    87         11
    96          3
    97          2
    98         37
    99          7
   100        999
   101         73
   102          3
   110          2
   111          1
   112         19
   113         10
   114         11
   115          2
   124          1
   125          1
   126         17
   127          3
   128         57
   129         22
   130         20
   131          2
   139          1
   140         12
   141          8
   142        305
   143        137
   144         11
   153          1
   154          5
   155          3
   156         22
   157          5
   168          1
   169          4
   181          1
   183          1
   185          1
   186         49
   187          7