##TITLE=Library Entry 100510
##JCAMP-DX=Revision 4.10 
##DATA TYPE=MASS SPECTRUM
##SAMPLE DESCRIPTION=RADIAN CORP
##NAMES=HP
##CAS NAME=Benzene, 4-(chloromethyl)-1,2-dimethyl-
##MOLFORM=C9H11Cl
##CAS REGISTRY NO=102-46-5
##MP= -300
##BP= -300
##MW= 154
##$RETENTION INDEX=1217
##$CONDENSED SPECTRUM=NO
##NPOINTS= 45
##XYDATA=(XY..XY) 1 
    38          3
    39         43
    41         35
    50         19
    51         51
    52         18
    53         17
    58          4
    62         10
    63         40
    64          7
    65         45
    66          4
    73          2
    74          8
    75         15
    76         30
    77         98
    78         41
    79         30
    87          3
    89         20
    90          3
    91        189
    92         16
    93         13
   101          2
   102         19
   103         83
   104         54
   105         32
   115         82
   116         16
   117         87
   118         34
   119        999
   120        102
   121          4
   125          2
   139         24
   141          7
   154        241
   155         26
   156         79
   157          7