##TITLE=Library Entry 66753
##JCAMP-DX=Revision 4.10 
##DATA TYPE=MASS SPECTRUM
##SAMPLE DESCRIPTION=NIST Mass Spectrometry Data Center, 1994
##NAMES=HP
##CAS NAME=Guanidine, N,N'-diphenyl-
##MOLFORM=C13H13N3
##CAS REGISTRY NO=102-06-7
##MP= -300
##BP= -300
##MW= 211
##$RETENTION INDEX=0
##$CONDENSED SPECTRUM=NO
##NPOINTS= 49
##XYDATA=(XY..XY) 1 
    16          5
    27          8
    28          3
    38         14
    39         56
    40         11
    43         17
    50         22
    51        133
    52         22
    54          7
    62          8
    63         31
    64         42
    65         89
    66         87
    67          9
    74          6
    75          8
    77        308
    78         34
    80          8
    90          7
    91         58
    93        999
    94         80
   103          5
   104         10
   105          5
   106          5
   107          7
   117          4
   118         57
   119        166
   120         16
   133          9
   134         17
   166          8
   167         18
   168         19
   169         35
   192          5
   193          8
   194         26
   195          8
   210        174
   211        435
   212         67
   213          5