##TITLE=Library Entry 62100
##JCAMP-DX=Revision 4.10 
##DATA TYPE=MASS SPECTRUM
##SAMPLE DESCRIPTION=RADIAN CORP
##NAMES=HP
##CAS NAME=1,2-Ethanediamine, N,N'-dimethyl-N,N'-bis(phenylmethyl)-
##MOLFORM=C18H24N2
##CAS REGISTRY NO=102-18-1
##MP= -300
##BP= -300
##MW= 268
##$RETENTION INDEX=0
##$CONDENSED SPECTRUM=NO
##NPOINTS= 61
##XYDATA=(XY..XY) 1 
    15          1
    27          2
    29          2
    30          3
    39         18
    40          1
    41         11
    42         47
    43         16
    44          9
    50          4
    51         12
    52          3
    54          1
    55          1
    56          5
    57          5
    58          8
    62          2
    63         12
    64          4
    65        100
    66          6
    70          1
    72          1
    76          2
    77         14
    78          4
    79          2
    89         18
    90         10
    91        999
    92         77
    93          3
    99          1
   103          3
   104          5
   105         12
   106          4
   117          6
   118          9
   120          8
   121          3
   130          1
   131          2
   132         20
   133          5
   134        760
   135         89
   136          5
   144          1
   146          9
   147          2
   148          7
   149          4
   175          3
   210          3
   211          1
   224          1
   268         13
   269          2