##TITLE=Library Entry 30228
##JCAMP-DX=Revision 4.10 
##DATA TYPE=MASS SPECTRUM
##SAMPLE DESCRIPTION=D.HENNEBERG, MAX-PLANCK INSTITUTE, MULHEIM, WEST GERMAN
Y
##NAMES=HP
##CAS NAME=3-Dodecanol
##MOLFORM=C12H26O
##CAS REGISTRY NO=10203-30-2
##MP= -300
##BP= -300
##MW= 186
##$RETENTION INDEX=1407
##$CONDENSED SPECTRUM=NO
##NPOINTS= 80
##XYDATA=(XY..XY) 1 
    25          0
    26          5
    27         91
    28         38
    29        184
    30          5
    31        164
    32          0
    37          1
    39         59
    40          9
    41        352
    42         75
    43        292
    44         14
    45         15
    48          0
    50          2
    51          2
    52          2
    53         19
    54         22
    55        432
    56        122
    57        281
    58        115
    59        999
    60         33
    61          3
    62          0
    65          3
    66          3
    67         29
    68         20
    69        342
    70         97
    71         73
    72         24
    73          6
    77          2
    78          9
    79          4
    80          0
    81         23
    82         21
    83        459
    84         66
    85         27
    86          1
    87          1
    91          0
    93          0
    95          8
    96          9
    97        189
    98         27
    99          3
   109          1
   110          3
   111         27
   112          8
   113          1
   114          0
   124          1
   125          6
   126          5
   127          1
   128          1
   137          0
   138          1
   139          6
   140          5
   141          0
   155          4
   156          1
   157         81
   158          7
   168         13
   169          1
   181          0