##TITLE=Library Entry 56390
##JCAMP-DX=Revision 4.10 
##DATA TYPE=MASS SPECTRUM
##SAMPLE DESCRIPTION=Chuck Anderson, Aldrich Chemical Co.
##NAMES=HP
##CAS NAME=(R)-(+)-4-Benzyl-2-oxazolidinone
##MOLFORM=C10H11NO2
##CAS REGISTRY NO=102029-44-7
##MP= -300
##BP= -300
##MW= 177
##$RETENTION INDEX=0
##$CONDENSED SPECTRUM=NO
##NPOINTS= 62
##XYDATA=(XY..XY) 1 
    15         71
    26          4
    27         27
    28         55
    29         14
    30         30
    31          3
    35          3
    36         13
    37          7
    38         31
    39        167
    40         23
    41         68
    42        637
    43         30
    44         22
    50         44
    51         97
    52         27
    53          9
    54          4
    55          2
    56          2
    57          4
    58        179
    59          8
    61          5
    62         21
    63         74
    64         19
    65        228
    66         14
    74         12
    75         10
    76         11
    77         74
    78         34
    79         14
    85         49
    86        999
    87         39
    88          6
    89         62
    90         20
    91        814
    92        995
    93         79
    94          1
   102          8
   103         22
   104         11
   105          7
   115         10
   116          5
   117         17
   118          8
   128          6
   130          6
   132          1
   177         22
   178          5