##TITLE=Library Entry 34413
##JCAMP-DX=Revision 4.10 
##DATA TYPE=MASS SPECTRUM
##SAMPLE DESCRIPTION=NIST Mass Spectrometry Data Center, 1990.
##NAMES=HP
##CAS NAME=5-Dodecanol
##MOLFORM=C12H26O
##CAS REGISTRY NO=10203-33-5
##MP= -300
##BP= -300
##MW= 186
##$RETENTION INDEX=1474
##$CONDENSED SPECTRUM=NO
##NPOINTS= 63
##XYDATA=(XY..XY) 1 
    14          5
    16          3
    18          3
    27         78
    28         14
    29        132
    30          5
    31         18
    39         80
    41        356
    42         74
    43        184
    44         51
    45         30
    51          7
    52          4
    53         37
    54         52
    55        302
    56         97
    57        207
    58         38
    59          6
    65          9
    66          8
    67         63
    68          4
    69        999
    70        122
    71         35
    72          5
    77          7
    78          2
    79         10
    80          3
    81         22
    82         26
    83         90
    84         43
    85         29
    86         47
    87        310
    88         17
    91          2
    95          7
    96          8
    97         36
    98         16
    99          2
   100          4
   101          2
   111        126
   112         14
   113          4
   125          6
   126          3
   127          7
   128          3
   129         92
   130          7
   140          4
   168         29
   169          5