##TITLE=Library Entry 20205
##JCAMP-DX=Revision 4.10 
##DATA TYPE=MASS SPECTRUM
##SAMPLE DESCRIPTION=NIST Mass Spectrometry Data Center, 1990.
##NAMES=HP
##CAS NAME=4-Dodecanol
##MOLFORM=C12H26O
##CAS REGISTRY NO=10203-32-4
##MP= -300
##BP= -300
##MW= 186
##$RETENTION INDEX=1482
##$CONDENSED SPECTRUM=NO
##NPOINTS= 53
##XYDATA=(XY..XY) 1 
    27        201
    28         27
    29        282
    30          9
    31         80
    39        128
    41        543
    42        119
    43        425
    44         74
    45         32
    51          7
    52          6
    53         47
    54          6
    55        999
    56        177
    57        318
    58         34
    59          9
    65         11
    67         69
    69        728
    70        141
    71         69
    72         93
    73        671
    74         28
    77          7
    79         11
    81         29
    82         37
    83        362
    84         64
    85         19
    86         12
    95         10
    96         16
    97         76
    98         24
    99          8
   110          6
   111         26
   112         12
   124          7
   125         27
   126          6
   140          6
   141         10
   143        145
   144         14
   168         52
   169          7