##TITLE=Library Entry 62697
##JCAMP-DX=Revision 4.10 
##DATA TYPE=MASS SPECTRUM
##SAMPLE DESCRIPTION=LAC, NIDDK, NIH, Bethesda, MD 20892
##NAMES=HP
##CAS NAME=N-carbobenzyloxy-O-toluenesulfonyl-allo-hydroxy-d-proline
##MOLFORM=C20H21NO7S
##CAS REGISTRY NO=102013-10-5
##MP= -300
##BP= -300
##MW= 419
##$RETENTION INDEX=0
##$CONDENSED SPECTRUM=NO
##NPOINTS= 79
##XYDATA=(XY..XY) 1 
    41         18
    42          9
    43          4
    44         11
    45          6
    47          5
    48          5
    50          6
    51         20
    52          4
    54          2
    55          6
    56         19
    57          3
    62          5
    63         19
    64          6
    65         97
    66          7
    67          8
    68        148
    69         13
    73          2
    76          1
    77         26
    78          6
    79         16
    80          3
    82          1
    83          1
    89         38
    90         20
    91        999
    92         89
    93          4
    94          1
   100          0
   105          9
   107         31
   108         21
   111          2
   112         82
   113         11
   114          2
   126         13
   130         12
   139          8
   146          0
   155         41
   156         13
   157         10
   158        337
   159         57
   160          4
   165          3
   172          7
   173          9
   176          8
   201          9
   202         20
   203         37
   204          5
   219          5
   220          5
   222         26
   223          2
   240         19
   247         50
   248          7
   283          2
   284         10
   330         13
   331          1
   374         47
   375         10
   376          6
   394         10
   395          1
   419          5