##TITLE=Library Entry 79606
##JCAMP-DX=Revision 4.10 
##DATA TYPE=MASS SPECTRUM
##SAMPLE DESCRIPTION=J Am Soc Mass Spectrom 2008, 19, 1114-1118
##NAMES=HP
##CAS NAME=Benzamide, N-(2-chlorophenyl)-
##MOLFORM=C13H10ClNO
##CAS REGISTRY NO=1020-39-9
##MP= -300
##BP= -300
##MW= 231
##$RETENTION INDEX=0
##$CONDENSED SPECTRUM=NO
##NPOINTS= 42
##XYDATA=(XY..XY) 1 
    37         22
    38         43
    39         73
    40         12
    41         12
    49         12
    50        111
    51        311
    52         43
    53         12
    61         12
    62         32
    63         91
    64         43
    65         20
    73         53
    74         43
    75         53
    76         43
    77        720
    78         53
    89         12
    90         32
    91         22
    99        101
   100         12
   101         32
   105        999
   106         93
   107         12
   126         22
   127         12
   128         12
   139         12
   166         12
   167         12
   196        402
   197         63
   198         12
   231         83
   232         12
   233         32