##TITLE=Library Entry 76082
##JCAMP-DX=Revision 4.10 
##DATA TYPE=MASS SPECTRUM
##SAMPLE DESCRIPTION=Div. of Experiment Therapeutics WRAIR, WRAMC, Washingto
n DC 20307
##NAMES=HP
##CAS NAME=4-Acetamidophenyl-2-[1,4-dihydroxynaphthyl]sulfone
##MOLFORM=C18H15NO5S
##CAS REGISTRY NO=102028-78-4
##MP= -300
##BP= -300
##MW= 357
##$RETENTION INDEX=0
##$CONDENSED SPECTRUM=NO
##NPOINTS= 30
##XYDATA=(XY..XY) 1 
    43        303
    50        474
    51        114
    53        136
    54         69
    63        129
    65         83
    73         41
    74        381
    75        299
    76        696
    77        160
    93        119
   101        117
   102        999
   103         92
   104        801
   105         98
   108         63
   124         64
   125         65
   129         62
   130        617
   131         42
   136        248
   140        122
   157         34
   158        673
   159         61
   357         44