##TITLE=Library Entry 38922
##JCAMP-DX=Revision 4.10 
##DATA TYPE=MASS SPECTRUM
##SAMPLE DESCRIPTION=W.Jennings, T.Shibamoto
##NAMES=HP
##CAS NAME=10-Undecenoic acid, 3-methylbutyl ester
##MOLFORM=C16H30O2
##CAS REGISTRY NO=10214-27-4
##MP= -300
##BP= -300
##MW= 254
##$RETENTION INDEX=1717
##$CONDENSED SPECTRUM=NO
##NPOINTS= 64
##XYDATA=(XY..XY) 1 
    26         42
    28          9
    29          9
    41         52
    42         42
    43        614
    44         21
    54         21
    55        214
    56         42
    57         42
    60         29
    61          8
    67         61
    68         41
    69        171
    70        965
    71        999
    72         75
    73         32
    80          9
    81         65
    82         86
    83        127
    84        113
    85         43
    87         21
    93          8
    94          8
    95         33
    96        128
    97         96
    98        107
    99         19
   100          8
   101         34
   107          8
   108          8
   109         21
   110         35
   111         35
   112          8
   113          8
   114         31
   115         31
   122         32
   123         54
   124         94
   125         54
   127          9
   133         43
   137         21
   138         21
   141          9
   143         21
   147          8
   148         33
   149         96
   150          9
   165         21
   166        116
   167         74
   184          8
   185          9