##TITLE=Library Entry 75873
##JCAMP-DX=Revision 4.10 
##DATA TYPE=MASS SPECTRUM
##SAMPLE DESCRIPTION=Div. of Experiment Therapeutics WRAIR, WRAMC, Washingto
n DC 20307
##NAMES=HP
##CAS NAME=7-Chloro-3,4-dihydro-10-hydroxy-3-[4-[trifluoromethyl]phenyl]-1,9
(2H,10H)-acridinedione-1-(5-phenyl-1,2,4-triazin-3-yl)hydrazone
##MOLFORM=C29H20ClF3N6O2
##CAS REGISTRY NO=102192-47-2
##MP= -300
##BP= -300
##MW= 576
##$RETENTION INDEX=0
##$CONDENSED SPECTRUM=NO
##NPOINTS= 171
##XYDATA=(XY..XY) 1 
    41        255
    42        181
    43        460
    44        306
    45        333
    47        350
    48        132
    49         16
    50        123
    51          7
    52        121
    53         68
    54         22
    55        237
    56        101
    57        245
    58         54
    59         70
    60        100
    61         46
    62         31
    63        192
    64         31
    65         71
    66         31
    67         66
    68         48
    69        164
    70         92
    71        139
    72         34
    73        125
    74         92
    75        117
    76        215
    77        291
    78        202
    79         54
    81         83
    82         30
    84         10
    86          6
    87         24
    88        156
    89        109
    90         30
    91         71
    93         38
    94         11
    95         55
    96         32
    97         59
    98         39
    99         48
   100         27
   101         27
   102        999
   103        189
   104        117
   105        199
   106        104
   107         60
   108         19
   109         48
   110         35
   111         54
   112         32
   113         64
   114         22
   115         57
   116        161
   117         31
   119         60
   120         10
   121         65
   122         49
   123         40
   124         75
   125         37
   126         26
   127         52
   128         16
   129         75
   130         12
   131         11
   132          9
   133         33
   135         26
   136         41
   137         11
   138         16
   139         15
   140         12
   141         10
   142          9
   143         19
   144         27
   145         61
   146         24
   148         65
   149        319
   150         94
   151         52
   152         14
   153         16
   154          9
   155         12
   157         18
   158         19
   159         50
   160         14
   162         29
   163        124
   164         57
   165         13
   166          9
   167         77
   169         15
   171         12
   172        271
   173        169
   174         20
   176          9
   178          9
   179         10
   183         10
   185         13
   187         13
   188         12
   190         10
   192          9
   194         13
   197         15
   199         11
   203         18
   216          9
   217          9
   218         13
   219         36
   221          8
   230          9
   231         10
   243         13
   245         13
   253         56
   255         43
   279         19
   372          8
   373         27
   374         10
   375         10
   387         46
   388         94
   389         47
   390         46
   391         30
   402          8
   403         11
   404         21
   405         11
   406          9
   407          9
   425         45
   427         21
   558         52
   559         31
   560         45
   561         10
   576         64
   577         15
   578         26