##TITLE=Library Entry 62594
##JCAMP-DX=Revision 4.10 
##DATA TYPE=MASS SPECTRUM
##SAMPLE DESCRIPTION=K.Midha ET.AL.Biomed.Mass Spectrom.,3,100(1976)
##NAMES=HP
##CAS NAME=p-Toluenesulfonamide, N-methoxy(butylamino)methylidene
##MOLFORM=C13H20N2O3S
##CAS REGISTRY NO=10219-48-4
##MP= -300
##BP= -300
##MW= 284
##$RETENTION INDEX=0
##$CONDENSED SPECTRUM=NO
##NPOINTS= 48
##XYDATA=(XY..XY) 1 
    27        161
    28         25
    29        177
    30        153
    39        134
    41        408
    43        215
    55        203
    56        158
    57        117
    58        177
    65        203
    72        300
    77         66
    87        280
    91        999
    92        219
   104         44
   105         85
   106         33
   107         77
   111         26
   112         38
   113         22
   114         46
   120         47
   121         77
   124         98
   129        582
   155        601
   163         79
   176         40
   184         60
   185         30
   186         26
   187         53
   195         22
   198         30
   212         48
   219         39
   223         49
   229         80
   241         52
   242         30
   253         60
   255         48
   269         80
   284        169