##TITLE=Library Entry 70184
##JCAMP-DX=Revision 4.10 
##DATA TYPE=MASS SPECTRUM
##SAMPLE DESCRIPTION=Institute of Organic Chemistry, Novosibirsk, USSR 1988
##NAMES=HP
##CAS NAME=1-Chloro-1,1,4-trimethyl-4,4-divinyldisilethylene
##MOLFORM=C9H19ClSi2
##CAS REGISTRY NO=102105-41-9
##MP= -300
##BP= -300
##MW= 218
##$RETENTION INDEX=0
##$CONDENSED SPECTRUM=NO
##NPOINTS= 50
##XYDATA=(XY..XY) 1 
    43         20
    44         17
    45         29
    58        217
    59         88
    60         10
    71        318
    72         36
    73         37
    85        117
    86        881
    87         88
    88         36
    93         60
    95         47
    96         80
    97        999
    98        118
    99         51
   105         61
   107         18
   109         50
   110         17
   111         29
   113          8
   117         82
   118         10
   119         31
   124          7
   125         20
   136         80
   137         19
   138         31
   149         20
   151         19
   155         18
   164        156
   165         29
   166         60
   167         20
   175        127
   176         21
   177         50
   190         30
   191         98
   192         26
   193         40
   203         57
   205         19
   218         21