##TITLE=Library Entry 95172
##JCAMP-DX=Revision 4.10 
##DATA TYPE=MASS SPECTRUM
##SAMPLE DESCRIPTION=K.Midha ET.AL.Biomed.Mass Spectrom.,3,100(1976)
##NAMES=HP
##CAS NAME=4-Chlorobenzenesulfonamide, N-methoxy(propylamino)methylidene-
##MOLFORM=C11H15ClN2O3S
##CAS REGISTRY NO=10219-49-5
##MP= -300
##BP= -300
##MW= 290
##$RETENTION INDEX=0
##$CONDENSED SPECTRUM=NO
##NPOINTS= 67
##XYDATA=(XY..XY) 1 
    27        117
    28         20
    29        147
    30        101
    31        106
    41        236
    42         85
    43        194
    44        118
    50         82
    51         64
    55        170
    56        181
    57         83
    58        696
    59         75
    75        256
    76         89
    77         86
    83         43
    84         72
    85         59
    86         77
    87        117
   108         79
   109         96
   110         25
   111        822
   112        194
   113        273
   114         62
   115        999
   116         84
   125         95
   127        181
   128         33
   129         69
   140         41
   141        146
   142         35
   143         32
   144        154
   146         53
   175        971
   176         80
   177        366
   178         52
   183         82
   184         37
   185         29
   204         95
   206         43
   230         85
   232         32
   243         43
   245         24
   258         68
   259         23
   260         24
   261         82
   263         30
   275         27
   277         13
   290        238
   291         38
   292         94
   293         20