##TITLE=Library Entry 41632
##JCAMP-DX=Revision 4.10 
##DATA TYPE=MASS SPECTRUM
##SAMPLE DESCRIPTION=Institute of Organic Chemistry, Novosibirsk, USSR 1988
##NAMES=HP
##CAS NAME=1,1,1-Trimethyl-4-chloro-4,4-divinyldisilethylene
##MOLFORM=C9H19ClSi2
##CAS REGISTRY NO=102105-60-2
##MP= -300
##BP= -300
##MW= 218
##$RETENTION INDEX=0
##$CONDENSED SPECTRUM=NO
##NPOINTS= 30
##XYDATA=(XY..XY) 1 
    59         87
    73        999
    74         78
    75         37
    82        278
    83         46
    84         24
    85         31
    98         46
    99         18
   109         26
   110        152
   111         24
   112         55
   113         56
   141         23
   156         17
   157         16
   175         23
   176          5
   177          9
   178          1
   179          1
   203        237
   204         35
   205         78
   206         17
   207          7
   218         31
   220         10