##TITLE=Library Entry 305
##JCAMP-DX=Revision 4.10 
##DATA TYPE=MASS SPECTRUM
##SAMPLE DESCRIPTION=Chemical Concepts
##NAMES=HP
##CAS NAME=Dicobalt octacarbonyl
##MOLFORM=C8Co2O8
##CAS REGISTRY NO=10210-68-1
##MP= -300
##BP= -300
##MW= 342
##$RETENTION INDEX=0
##$CONDENSED SPECTRUM=NO
##NPOINTS= 79
##XYDATA=(XY..XY) 1 
    26          0
    27          0
    28        999
    29         13
    30          3
    36          0
    39          0
    40          8
    41          0
    43          0
    44          1
    51          0
    54          0
    56          0
    57          0
    59         62
    67          0
    70          0
    71          2
    73          0
    75          0
    77          0
    78          0
    87         65
    88          1
    89          0
    99          0
   115         72
   116          1
   118        106
   130          5
   131          0
   134          0
   136          0
   139          0
   143         13
   144          1
   145          0
   146         54
   147          0
   148          0
   158          0
   163          0
   164          0
   165          4
   166          1
   171          4
   172          0
   174         83
   175          2
   176          0
   178          0
   179          0
   186          0
   189          0
   191          0
   192          0
   194          1
   195          0
   202        117
   203          4
   204          1
   230         56
   231          2
   232          0
   258         13
   259          0
   260          0
   286         52
   287          2
   288          1
   314         71
   315          6
   316          1
   317          0
   342         21
   343          2
   344          0
   345          0