##TITLE=Library Entry 42951
##JCAMP-DX=Revision 4.10 
##DATA TYPE=MASS SPECTRUM
##SAMPLE DESCRIPTION=Institute of Organic Chemistry, Novosibirsk, USSR 1988
##NAMES=HP
##CAS NAME=1,1,1,4,7,7,7-Heptamethyl-4-vinyltrisilethylene
##MOLFORM=C13H32Si3
##CAS REGISTRY NO=102105-40-8
##MP= -300
##BP= -300
##MW= 272
##$RETENTION INDEX=0
##$CONDENSED SPECTRUM=NO
##NPOINTS= 39
##XYDATA=(XY..XY) 1 
    59        267
    60         21
    61          8
    71         38
    72          8
    73        999
    74         78
    75         37
    85        427
    86        136
    87         41
    97        481
    98         70
    99         28
   111         35
   113         19
   115         30
   116          8
   117         37
   127         30
   128         22
   129         87
   130          8
   131         77
   141         38
   142          7
   143         88
   144         17
   145         37
   155         50
   156         18
   157        146
   158         19
   159         20
   171        708
   172        137
   173         57
   244         16
   272         61