##TITLE=Library Entry 42230
##JCAMP-DX=Revision 4.10 
##DATA TYPE=MASS SPECTRUM
##SAMPLE DESCRIPTION=Institute of Organic Chemistry, Novosibirsk, USSR 1988
##NAMES=HP
##CAS NAME=1,1,1-Trimethyl-4,4-dichloro-4-vinyldisilethylene
##MOLFORM=C7H16Cl2Si2
##CAS REGISTRY NO=102105-55-5
##MP= -300
##BP= -300
##MW= 226
##$RETENTION INDEX=0
##$CONDENSED SPECTRUM=NO
##NPOINTS= 21
##XYDATA=(XY..XY) 1 
    59         58
    73        999
    74         81
    75         38
    90         27
    92          8
    93         30
    95          9
   105         48
   107         17
   117         67
   118        178
   119         28
   120         61
   175         28
   177          9
   211        121
   212         17
   213         78
   214          9
   215         19