##TITLE=Library Entry 41806
##JCAMP-DX=Revision 4.10 
##DATA TYPE=MASS SPECTRUM
##SAMPLE DESCRIPTION=Institute of Organic Chemistry, Novosibirsk, USSR 1988
##NAMES=HP
##CAS NAME=1,1,1,4-Tetramethyl-4-chloro-4-vinyl-1,4-disilabutane
##MOLFORM=C8H19ClSi2
##CAS REGISTRY NO=102105-49-7
##MP= -300
##BP= -300
##MW= 206
##$RETENTION INDEX=0
##$CONDENSED SPECTRUM=NO
##NPOINTS= 38
##XYDATA=(XY..XY) 1 
    58         37
    59        176
    60         21
    70        237
    71        110
    72         38
    73        999
    74         98
    75         41
    79         60
    81         28
    82          6
    83        157
    84         17
    85        222
    86         29
    93         63
    95         28
    96         66
    97        555
    98        782
    99        111
   100         50
   105         55
   107         20
   151         20
   153         29
   155         14
   163         30
   165         14
   171          6
   178         10
   179          8
   191        138
   192         21
   193         47
   206         20
   208          6