##TITLE=Library Entry 32587
##JCAMP-DX=Revision 4.10 
##DATA TYPE=MASS SPECTRUM
##SAMPLE DESCRIPTION=James Little,Eastman Chem.Co.,Kingsport,TN
##NAMES=HP
##CAS NAME=Norbornadieone
##MOLFORM=C7H10O
##CAS REGISTRY NO=10218-02-7
##MP= -300
##BP= -300
##MW= 110
##$RETENTION INDEX=0
##$CONDENSED SPECTRUM=NO
##NPOINTS= 29
##XYDATA=(XY..XY) 1 
    26         24
    27        203
    28        268
    29         26
    32         28
    39        288
    40         44
    41        338
    50         24
    51         49
    52         29
    53         95
    54        589
    55        110
    65         30
    66         38
    67        999
    68         87
    77         40
    78         29
    79        109
    80         15
    81        210
    82         59
    91         12
    92         40
    95         30
   110        442
   111         34