##TITLE=Library Entry 15242
##JCAMP-DX=Revision 4.10 
##DATA TYPE=MASS SPECTRUM
##SAMPLE DESCRIPTION=Div. of Experiment Therapeutics WRAIR, WRAMC, Washingto
n DC 20307
##NAMES=HP
##CAS NAME=7-Chloro-3-[2,4-dichlorophenyl]-3,4-dihydro-10-hydroxy-1,9(2H,10H
)-acridinedione, 1-(N,N-dimethyl)hydrazone
##MOLFORM=C21H18Cl3N3O2
##CAS REGISTRY NO=102192-55-2
##MP= -300
##BP= -300
##MW= 449
##$RETENTION INDEX=0
##$CONDENSED SPECTRUM=NO
##NPOINTS= 231
##XYDATA=(XY..XY) 1 
    42        375
    43        289
    44        999
    45        348
    46         97
    49         14
    50         21
    51         40
    52         20
    53         14
    55         30
    56          9
    57         20
    58        152
    59        135
    60         39
    62         16
    63         46
    64         14
    65         22
    66         10
    67         11
    68          9
    69         17
    71         33
    72         64
    73         22
    75        100
    76         15
    77         34
    78         32
    79          8
    81          7
    83         13
    84         18
    85         14
    86          7
    87         21
    88         13
    89         27
    90         10
    95          8
    97         15
    99         51
   100         15
   101         52
   102         32
   103          8
   106         29
   109          8
   110         32
   111         35
   113         53
   114         17
   115         37
   116          7
   119         21
   121         15
   123         35
   124         25
   125         27
   126         38
   127         38
   128         22
   130         12
   133         10
   135         29
   136         45
   137         44
   138         40
   139         32
   140         26
   141         14
   142         17
   145         17
   146          9
   148         35
   149         22
   150         24
   151         21
   152         23
   153         20
   154         17
   155         18
   159        184
   161        102
   162         23
   163         25
   164         52
   166         41
   168         12
   171         14
   172         16
   173         18
   174         22
   175         13
   176         15
   177         14
   178         12
   179         15
   180         10
   182         10
   183         12
   184          8
   185          7
   186         20
   188         27
   189         19
   190          9
   191          8
   195         10
   197          8
   200         22
   202         36
   203         13
   204         13
   205          7
   210          7
   211          7
   213         10
   214         10
   216         23
   217         15
   218         75
   219         16
   220         22
   221          8
   225         11
   226          7
   227         10
   230         18
   231         52
   232         13
   233         18
   234          7
   240         11
   241         11
   243         26
   244         21
   245         40
   246          9
   247         20
   248          7
   253          7
   256          7
   260          7
   261         14
   262          8
   263          7
   274         20
   275          9
   276         10
   284          7
   288          8
   289         11
   290         12
   291          7
   303          8
   304          8
   314          8
   316          9
   317         11
   318         28
   319         14
   320         11
   326         11
   328          7
   338         10
   339         12
   340         13
   341         11
   342          7
   351          8
   352         20
   353         63
   354         35
   355         57
   356         24
   357         22
   358          7
   362          9
   364          7
   366         10
   368          7
   369         13
   370          7
   371         24
   372          8
   373         14
   375          8
   386          8
   387         28
   388         51
   389         70
   390        103
   391         68
   392         71
   393         35
   394         22
   395          8
   399          7
   401         16
   402          8
   403         14
   404         10
   405         21
   406         14
   407         17
   408          9
   409          7
   415         11
   416          8
   417         13
   418          7
   419         12
   420          7
   421          9
   432          8
   433        120
   434         38
   435        118
   436         35
   437         48
   438         11
   439          8
   449        114
   450         30
   451        111
   452         29
   453         37
   454          9