##TITLE=Library Entry 83645
##JCAMP-DX=Revision 4.10 
##DATA TYPE=MASS SPECTRUM
##SAMPLE DESCRIPTION=Exported from NIST MS Search
##NAMES=HP
##CAS NAME=Naphthalene, 1,2,3,5,6,7,8,8a-octahydro-1,8a-dimethyl-7-(1-methyl
ethenyl)-, [1S-(1.alpha.,7.alpha.,8a.alpha.)]-
##MOLFORM=C15H24
##CAS REGISTRY NO=10219-75-7
##MP= -300
##BP= -300
##MW= 204
##$RETENTION INDEX=1499
##$CONDENSED SPECTRUM=NO
##NPOINTS= 119
##XYDATA=(XY..XY) 1 
    15          8
    26         12
    27        205
    28         16
    29        248
    30          6
    37          5
    38          8
    39        314
    40         78
    41        865
    42         73
    43        187
    50         14
    51         82
    52         45
    53        322
    54         38
    55        515
    56         32
    57         44
    58         11
    59          5
    62          5
    63         30
    64         23
    65        196
    66         91
    67        386
    68        114
    69        264
    70         25
    71         19
    72          9
    73         10
    74          8
    75         21
    76         11
    77        441
    78        123
    79        955
    80        168
    81        560
    82         82
    83         60
    84          9
    85          7
    87          9
    88         10
    89         22
    90         15
    91        910
    92        273
    93        955
    94        300
    95        505
    96         87
    97        114
    98         12
   102         13
   103         57
   104         40
   105        820
   106        268
   107        999
   108        578
   109        227
   110         28
   111          9
   115         73
   116         35
   117        100
   118         73
   119        865
   120        264
   121        436
   122        191
   123        114
   124         14
   127         19
   128         36
   129         33
   130         18
   131         69
   132         29
   133        565
   134        282
   135        445
   136        109
   137         12
   141         10
   142          7
   143         10
   144          7
   145         55
   146         28
   147        427
   148        173
   149         68
   150         11
   159         14
   160         28
   161        955
   162        254
   163         68
   164          9
   173          6
   174          5
   175        105
   176         58
   177         10
   187          6
   189        420
   190         73
   191          6
   203         11
   204        532
   205         96
   206          8