##TITLE=Library Entry 56297
##JCAMP-DX=Revision 4.10 
##DATA TYPE=MASS SPECTRUM
##SAMPLE DESCRIPTION=Institute of Organic Chemistry, Novosibirsk, USSR 1988
##NAMES=HP
##CAS NAME=1,1-Dimethyl-1,4-dichloro-4,4-divinyldisilethylene
##MOLFORM=C8H16Cl2Si2
##CAS REGISTRY NO=102105-64-6
##MP= -300
##BP= -300
##MW= 238
##$RETENTION INDEX=0
##$CONDENSED SPECTRUM=NO
##NPOINTS= 58
##XYDATA=(XY..XY) 1 
    58        267
    59        118
    60         19
    71        100
    82        418
    83        137
    84         46
    85        200
    86        999
    87        108
    88         40
    89        127
    90         10
    91         81
    92          8
    93        256
    94         20
    95         91
    96         27
    97        290
    98         39
    99         28
   102         77
   105         68
   110        150
   113        231
   114         29
   115         70
   116         17
   117        377
   118         51
   119        200
   120         18
   121         31
   128        166
   129        141
   141        228
   143        117
   156        367
   157        188
   158         86
   163         70
   169         58
   171         28
   184        188
   185         37
   186        126
   187         68
   188         27
   211        345
   212         60
   213        236
   214         37
   215         68
   223         50
   225         31
   238         21
   240          9