##TITLE=Library Entry 53756
##JCAMP-DX=Revision 4.10 
##DATA TYPE=MASS SPECTRUM
##SAMPLE DESCRIPTION=Div. of Experiment Therapeutics WRAIR, WRAMC, Washingto
n DC 20307
##NAMES=HP
##CAS NAME=7-Chloro-3-[2,4-dichlorophenyl]-1,3,4,10-tetrahydro-10-hydroxy-2-
methyl-1-[1-piperidinylimino]-9(2H)-acridinone
##MOLFORM=C25H24Cl3N3O2
##CAS REGISTRY NO=102192-61-0
##MP= -300
##BP= -300
##MW= 503
##$RETENTION INDEX=0
##$CONDENSED SPECTRUM=NO
##NPOINTS= 167
##XYDATA=(XY..XY) 1 
    41        135
    42        193
    43         72
    44         66
    45          8
    47         16
    48          3
    49          8
    50         15
    51          4
    52         17
    53         27
    54         43
    55        243
    56        162
    57         88
    63         13
    65         13
    67         24
    68         21
    69         24
    70         39
    71         11
    75         23
    76          8
    77         26
    78         41
    79         19
    80         17
    81          8
    82         66
    83        118
    84        999
    85        190
    86        147
    87          8
    88         17
    89         14
    91          3
    95          6
    97         17
    98         29
    99         75
   100         26
   101         19
   102         18
   106         23
   109          8
   110         18
   111         29
   112         33
   113         23
   114         23
   115         59
   116         25
   120         13
   121          4
   122          9
   123         19
   124         30
   125         24
   126         29
   127         30
   128         17
   129         11
   130          3
   133          3
   135         17
   136         25
   137         27
   138         24
   139         24
   140         19
   141         17
   142          3
   146          9
   147          3
   148         20
   149         39
   150         34
   151         34
   152         26
   153         23
   154         17
   155         14
   159        116
   160         16
   161         69
   162         19
   163         28
   164         40
   165         19
   166         32
   167         19
   168          6
   172          3
   173         33
   174         16
   175         26
   176         14
   177         16
   178         12
   179         14
   180          7
   183         16
   184         10
   185         24
   186         13
   187          9
   188         19
   189         13
   190          7
   193          3
   195          9
   199          3
   202          7
   203         11
   204         11
   205          8
   209         11
   210         11
   211          3
   214         11
   216         13
   217         19
   218         41
   219         32
   220         16
   221         15
   226          3
   227          3
   228          5
   230         14
   231         22
   232         17
   233         12
   234          3
   240         10
   241          4
   242         16
   243         14
   244         41
   245         44
   246         20
   247         16
   251          3
   252          7
   254          4
   257         22
   258          7
   259         32
   260         11
   261         13
   365          3
   367         17
   368         12
   369         21
   370         11
   371         11
   389          7
   402         35
   403         66
   404         38
   405         54
   406         30
   407         25
   408          4