##TITLE=Library Entry 77939
##JCAMP-DX=Revision 4.10 
##DATA TYPE=MASS SPECTRUM
##SAMPLE DESCRIPTION=Humboldt-Universitat zu Berlin, Department of Chemistry
, Analytical Group
##NAMES=HP
##CAS NAME=Bis(ethylthiothiocarbonyl)disulfide
##MOLFORM=C6H10S6
##CAS REGISTRY NO=10219-97-3
##MP= -300
##BP= -300
##MW= 274
##$RETENTION INDEX=0
##$CONDENSED SPECTRUM=NO
##NPOINTS= 101
##XYDATA=(XY..XY) 1 
    12         10
    13          1
    14          5
    15         12
    16          1
    18          1
    26         66
    27        449
    29        809
    30         20
    32         55
    33          9
    35        188
    37          8
    38          3
    39          2
    41          2
    44         40
    45        117
    46         37
    47         21
    48          2
    49          1
    57         10
    58         31
    59         66
    60         24
    61        243
    62         18
    63         16
    64         68
    65         11
    66         30
    67          1
    68          2
    69          1
    71          2
    72          1
    73          2
    76        207
    77        402
    78         31
    79         36
    80          1
    81          1
    88          1
    89          3
    91          2
    93         10
    94         12
    95          3
    96          2
    97          2
   105        999
   106         54
   107         92
   108         15
   109         11
   110          4
   111          1
   122          5
   123          5
   124          1
   125          1
   135          2
   137         46
   138          8
   139          8
   140          1
   154          1
   165          1
   166          3
   167          1
   169          9
   170          1
   171          2
   181          1
   183          0
   195          0
   198          8
   199          4
   200          2
   201          1
   210         19
   211          2
   212          3
   213          9
   214          1
   215          2
   227          7
   228          0
   229          1
   230          1
   242          3
   243          0
   244          1
   274         27
   275          5
   276          7
   277          1
   278          1