##TITLE=Library Entry 15753
##JCAMP-DX=Revision 4.10 
##DATA TYPE=MASS SPECTRUM
##SAMPLE DESCRIPTION=J.Szymanowski ET AL.J.Chromatogr., 351,183(1986)
##NAMES=HP
##CAS NAME=3,6,9-Trioxa-12-azadocosan-1-ol, TMS  derivative
##MOLFORM=C21H47NO4Si
##CAS REGISTRY NO=102145-77-7
##MP= -300
##BP= -300
##MW= 405
##$RETENTION INDEX=0
##$CONDENSED SPECTRUM=NO
##NPOINTS= 76
##XYDATA=(XY..XY) 1 
    29        517
    30        459
    39        152
    41        568
    42        218
    43        725
    44        999
    45        555
    46         53
    47        144
    51         59
    52         37
    53         67
    54         77
    55        373
    56        240
    57        325
    58        272
    59        155
    60         61
    61         64
    65         59
    67         59
    68         48
    69        128
    70        112
    71        141
    72        115
    73        867
    74         83
    75        643
    76         59
    77        189
    78         66
    81         61
    82         80
    83        107
    84         85
    85         51
    86         88
    87         83
    88         37
    89         77
    91         80
    93         59
    98         75
   100        152
   101         91
   102         32
   103        184
   105         56
   112         53
   114         80
   115         72
   116        136
   117        211
   118         56
   119         64
   128         45
   133         64
   135        123
   147        149
   168        141
   170        394
   171         61
   184        237
   197         88
   198         61
   199         61
   212         51
   226         64
   228         29
   234         29
   278         21
   390         27
   405         16