##TITLE=Library Entry 70079
##JCAMP-DX=Revision 4.10 
##DATA TYPE=MASS SPECTRUM
##SAMPLE DESCRIPTION=Institute of Organic Chemistry, Novosibirsk, USSR 1988
##NAMES=HP
##CAS NAME=1,1-Dichloro-1,4-dimethyl-4,4-divinyldisilethylene
##MOLFORM=C8H16Cl2Si2
##CAS REGISTRY NO=102105-43-1
##MP= -300
##BP= -300
##MW= 238
##$RETENTION INDEX=0
##$CONDENSED SPECTRUM=NO
##NPOINTS= 16
##XYDATA=(XY..XY) 1 
    71        157
    85         18
    86          7
    97        999
    98        117
    99         46
   105         50
   106         31
   117         29
   119          8
   184         51
   186         30
   211         60
   213         39
   223         21
   225         11