##TITLE=Library Entry 46953
##JCAMP-DX=Revision 4.10 
##DATA TYPE=MASS SPECTRUM
##SAMPLE DESCRIPTION=Div. of Experiment Therapeutics WRAIR, WRAMC, Washingto
n DC 20307
##NAMES=HP
##CAS NAME=7-Chloro-10-hydroxy-3-[4-(trifluoromethyl)phenyl]-1-[(benzylidene
amino)imino]-1,3,4,10-tetrahydro-9(2H)-acridinone
##MOLFORM=C27H19ClF3N3O2
##CAS REGISTRY NO=102192-66-5
##MP= -300
##BP= -300
##MW= 509
##$RETENTION INDEX=0
##$CONDENSED SPECTRUM=NO
##NPOINTS= 202
##XYDATA=(XY..XY) 1 
    42         34
    43         78
    44         14
    45         16
    49         74
    50        255
    51        435
    52        126
    53         14
    55         32
    61         15
    62         26
    63        120
    64         63
    65         82
    66         21
    73         39
    74         72
    75        160
    76        225
    77        999
    78        262
    79         46
    88         16
    89        286
    90        288
    91        107
    92         23
    93         73
    95         34
    98         62
    99         78
   100         46
   101         21
   102         60
   103        453
   104        588
   105        394
   106        335
   107         14
   109         70
   110         26
   111         73
   112         19
   113         25
   114         66
   115         46
   118         17
   119         92
   120        125
   121         38
   122         17
   123         17
   124         19
   125         26
   126         79
   127        122
   128         28
   132         15
   133         55
   136         52
   137         19
   138         87
   139         66
   140         81
   141         18
   142         16
   144         15
   145         73
   146         24
   148         66
   149         57
   150         43
   151        142
   152         31
   153        104
   154         45
   155         27
   156         17
   159        208
   160         26
   162         39
   163         22
   164        152
   165         48
   166         77
   167         18
   168         16
   170         29
   171         19
   172         17
   173         20
   174         22
   175         19
   176         21
   177         17
   178         37
   180         46
   182         49
   183         27
   184         16
   186         16
   187         17
   188         29
   189         25
   190         21
   193         36
   195         34
   202         18
   203         20
   204         18
   205         18
   207         14
   210         16
   213         18
   214         14
   215         15
   216         46
   217         33
   218        123
   219         36
   220         14
   227         21
   228         18
   230         34
   231        108
   232         32
   233         19
   235         17
   240         41
   241         37
   243        148
   244         88
   245        120
   246         74
   247         34
   253         20
   255         24
   260         14
   261         34
   262         79
   270         14
   276         54
   284         31
   285         14
   296         16
   298         15
   304         18
   305         17
   308         20
   309         18
   310         14
   318         37
   319         42
   320         36
   321         38
   323         17
   334         58
   346         17
   348         66
   350         14
   352         34
   353         36
   354         32
   356         15
   360         41
   361         29
   362         49
   363         15
   369         55
   370         24
   372         17
   373         86
   374         59
   375         49
   386         14
   387        249
   388        474
   389        307
   390        244
   391        108
   392         14
   402         38
   403         18
   404         47
   405         41
   406         15
   416         15
   463         15
   490         65
   491        176
   492        132
   493        406
   494        133
   495        126
   496         15
   507         73
   508         15
   509        228
   510         42
   511         71
   512         17