##TITLE=Library Entry 30903
##JCAMP-DX=Revision 4.10 
##DATA TYPE=MASS SPECTRUM
##SAMPLE DESCRIPTION=G.GATTOW, INST. ANORG. CHEM. ANAL. CHEM., UNIV. MAINZ,
 W. GER.
##NAMES=HP
##CAS NAME=Carbamodithioic acid, formyl-, methyl ester
##MOLFORM=C3H5NOS2
##CAS REGISTRY NO=102118-25-2
##MP= -300
##BP= -300
##MW= 135
##$RETENTION INDEX=0
##$CONDENSED SPECTRUM=NO
##NPOINTS= 17
##XYDATA=(XY..XY) 1 
    44        249
    45        650
    47        667
    48        647
    58        175
    59        623
    60        999
    62        119
    64        192
    74        304
    76        243
    77         74
    79        170
    88        130
    91        125
   107        173
   135        409