##TITLE=Library Entry 82955
##JCAMP-DX=Revision 4.10 
##DATA TYPE=MASS SPECTRUM
##SAMPLE DESCRIPTION=Institute of Organic Chemistry, Novosibirsk, USSR 1988
##NAMES=HP
##CAS NAME=1-Methyl-1,1,4,4-tetrachloro-4-vinyldisilethylene
##MOLFORM=C5H10Cl4Si2
##CAS REGISTRY NO=102105-58-8
##MP= -300
##BP= -300
##MW= 266
##$RETENTION INDEX=0
##$CONDENSED SPECTRUM=NO
##NPOINTS= 49
##XYDATA=(XY..XY) 1 
    63        417
    64         19
    65        178
    78        460
    79        257
    80        186
    81         98
    82        112
    90        316
    91        187
    92        156
    93         81
    98         67
    99        318
   100         80
   101        212
   103         38
   105        260
   106        999
   107        118
   108        341
   109         28
   113        598
   114         67
   115        441
   116         90
   117        367
   118        246
   119        141
   120         90
   121         32
   125        716
   126        140
   127        502
   128         90
   129        117
   239        148
   240         19
   241        190
   242         29
   243        118
   244          8
   245         42
   251         41
   253         62
   255         29
   266         10
   268         20
   270         11