##TITLE=Library Entry 54902
##JCAMP-DX=Revision 4.10 
##DATA TYPE=MASS SPECTRUM
##SAMPLE DESCRIPTION=Chemical Concepts
##NAMES=HP
##CAS NAME=2-(4-Chloro-1-methylbutoxy)tetrahydropyran
##MOLFORM=C10H19ClO2
##CAS REGISTRY NO=102108-35-0
##MP= -300
##BP= -300
##MW= 206
##$RETENTION INDEX=0
##$CONDENSED SPECTRUM=NO
##NPOINTS= 113
##XYDATA=(XY..XY) 1 
    26          3
    27         58
    28         42
    29        123
    30          4
    31         25
    36          3
    37          0
    38          2
    39         46
    40         16
    41        383
    42         65
    43        171
    44         42
    45         40
    46          1
    47         12
    49          7
    50          1
    51          4
    52          1
    53         22
    54         14
    55        156
    56        514
    57        172
    58          9
    59          7
    60          1
    61          1
    62          2
    63         23
    64          1
    65          9
    66          2
    67        118
    68         41
    69        448
    70         29
    71         11
    72          3
    73          3
    74         24
    75          5
    76          4
    77          6
    78          1
    79          1
    80          1
    81          3
    82          2
    83         24
    84         29
    85        999
    86         82
    87          5
    89          1
    91          1
    93          1
    94          0
    95          2
    96          0
    97          1
    98          1
    99          1
   100          7
   101        214
   102         79
   103         22
   104         21
   105        415
   106         31
   107        160
   108          9
   109          1
   111          1
   112          1
   115          3
   116          0
   117          0
   118          1
   119          3
   120          0
   121          3
   122          0
   123          1
   124          0
   127          1
   128          2
   129        117
   130         10
   131          1
   132          0
   133          1
   134          0
   135          0
   139          0
   145          0
   146          0
   147          1
   148          8
   149          1
   150          3
   151          1
   191          1
   192          0
   193          0
   194          0
   205         10
   206          6
   207          3
   208          2