##TITLE=Library Entry 37040
##JCAMP-DX=Revision 4.10 
##DATA TYPE=MASS SPECTRUM
##SAMPLE DESCRIPTION=Div. of Experiment Therapeutics WRAIR, WRAMC, Washingto
n DC 20307
##NAMES=HP
##CAS NAME=7-Chloro-3-[2,4-dichlorophenyl]-1,3,4,10-tetrahydro-10-hydroxy-1-
[(pyrrolidin-1-yl)imino]-9(2H)-acridinone
##MOLFORM=C23H20Cl3N3O2
##CAS REGISTRY NO=102192-56-3
##MP= -300
##BP= -300
##MW= 475
##$RETENTION INDEX=0
##$CONDENSED SPECTRUM=NO
##NPOINTS= 235
##XYDATA=(XY..XY) 1 
    41        605
    42        450
    43        500
    44         57
    45         16
    49          6
    50         31
    51         55
    52         31
    53         30
    54         35
    55         70
    56         39
    57         19
    58         39
    62         11
    63         36
    64         12
    65         15
    66         11
    67         34
    68        131
    69        152
    70        999
    71        154
    72         46
    73         16
    74         18
    75         68
    76         18
    77         21
    78          7
    80         37
    81          8
    82          9
    83         25
    84         63
    85         63
    86         19
    87         16
    88         12
    89         21
    90          9
    97          9
    98         10
    99         32
   100         22
   101         43
   102         35
   103          7
   106          9
   107         11
   109         11
   110         26
   111         34
   112         16
   113         30
   114         31
   115         23
   116          6
   119         19
   121         29
   123         29
   124         16
   125         27
   126         34
   127         35
   128         26
   129          8
   130          8
   133          6
   135         36
   136         47
   137         49
   138         35
   139         35
   140         24
   141         12
   142         17
   145         15
   146         12
   147         11
   148         18
   149         19
   150         19
   151         19
   152         28
   153         25
   154         18
   155         18
   156          7
   159        134
   160         33
   161         79
   162         23
   163         31
   164         50
   165         14
   166         23
   167         10
   168          6
   170          9
   171         12
   172         19
   173         15
   174         24
   175         11
   176         13
   177         15
   178         14
   179         14
   180          7
   181          7
   182          9
   183         13
   184         13
   185          8
   187          9
   188         14
   189         14
   190          9
   191          7
   193         10
   194          7
   195         13
   196          9
   197          8
   198          6
   199          6
   200          9
   201          8
   202          8
   203         11
   204          6
   209          7
   210         11
   211         11
   212          9
   213          9
   214         11
   215          9
   216         16
   217         15
   218        114
   219         41
   220         38
   221         13
   226          9
   227         17
   228         17
   229         40
   231         98
   232         20
   233         27
   234          7
   238          9
   239          7
   240         14
   241         13
   242          7
   243         20
   244         21
   245         76
   246         18
   247         25
   248          7
   250          7
   251          6
   253          7
   262          6
   269          6
   274          6
   275          8
   276          7
   278          6
   279          6
   284          7
   285          6
   289          9
   290          8
   291          6
   300          7
   303         10
   304         12
   305          9
   314         16
   316         11
   317          9
   318         24
   319         15
   320         11
   321          8
   326          7
   338         13
   339         13
   340         13
   341          9
   352          9
   353         40
   354         20
   355         61
   356         24
   357         29
   358         11
   359          6
   373          6
   375          8
   377          7
   387          9
   388         38
   389         50
   390        166
   391         97
   392        153
   393         64
   394         53
   395         18
   396          7
   406          7
   425         10
   427          6
   457          9
   458          6
   459        136
   460         33
   461        144
   462         35
   463         47
   464         12
   465          6
   475          5
   476          1
   477          5
   478          1
   479          2