##TITLE=Library Entry 57079
##JCAMP-DX=Revision 4.10 
##DATA TYPE=MASS SPECTRUM
##SAMPLE DESCRIPTION=J. FONT, DEP. QUIM. ORG., UNIV. AUTONOMA BARCELONA, SPA
IN
##NAMES=HP
##CAS NAME=2-[(2RS)-2-(2-Hydroxyethoxy)propyl]-2-methyl-1,3-dioxolane
##MOLFORM=C9H18O4
##CAS REGISTRY NO=102275-52-5
##MP= -300
##BP= -300
##MW= 190
##$RETENTION INDEX=0
##$CONDENSED SPECTRUM=NO
##NPOINTS= 11
##XYDATA=(XY..XY) 1 
    31        100
    43        330
    45        140
    69         90
    87        999
    89        110
    99         90
   101         80
   113         50
   115         50
   175         40