##TITLE=Library Entry 65873
##JCAMP-DX=Revision 4.10 
##DATA TYPE=MASS SPECTRUM
##SAMPLE DESCRIPTION=Div. of Experiment Therapeutics WRAIR, WRAMC, Washingto
n DC 20307
##NAMES=HP
##CAS NAME=4-Methylquinolinic acid, monomethyl ester
##MOLFORM=C9H9NO4
##CAS REGISTRY NO=102268-17-7
##MP= -300
##BP= -300
##MW= 195
##$RETENTION INDEX=0
##$CONDENSED SPECTRUM=NO
##NPOINTS= 105
##XYDATA=(XY..XY) 1 
    41         85
    42         45
    43         51
    44         36
    45        210
    46          2
    47         10
    48          6
    49         72
    50        104
    51        190
    52        238
    53        615
    54         61
    55         38
    56         14
    57          9
    59         99
    60         12
    61         49
    62         98
    63        316
    64        371
    65        351
    66        146
    67         84
    68         23
    69         13
    70          5
    71          5
    72          0
    73          4
    74          5
    75         33
    76         86
    77         61
    78         80
    79         91
    80        250
    81         23
    82          6
    83          6
    84         23
    86         20
    87          7
    88         12
    89          7
    90         30
    91        371
    92        550
    93        999
    94         82
    95          7
    96          4
    97          3
    98          1
    99          1
   102          1
   103          1
   104         17
   105          9
   106         43
   107         23
   108         38
   109         14
   110          1
   111          2
   118         13
   119        285
   120        207
   121         58
   122          7
   123          3
   124          2
   125          1
   130          0
   133          1
   134         15
   135        145
   136         70
   137        559
   138         43
   139          4
   141          0
   147          0
   148          1
   149          6
   150         28
   151         70
   152          8
   153          0
   162          8
   163        146
   164        138
   165         40
   166          4
   167          0
   173          0
   177         17
   178         51
   180         53
   181          7
   195        185
   196         19
   197          0