##TITLE=Library Entry 80031
##JCAMP-DX=Revision 4.10 
##DATA TYPE=MASS SPECTRUM
##SAMPLE DESCRIPTION=F. TURECEK,HEYROVSKY INST PHYS CHEM & ELECTROCHEM,PRAGU
E,CZECH
##NAMES=HP
##CAS NAME=2,N-Dibenzoyl-12-dodecanelactam
##MOLFORM=C26H31NO3
##CAS REGISTRY NO=102222-12-8
##MP= -300
##BP= -300
##MW= 405
##$RETENTION INDEX=0
##$CONDENSED SPECTRUM=NO
##NPOINTS= 146
##XYDATA=(XY..XY) 1 
    26          9
    27         50
    29         47
    30         16
    37          5
    38         11
    39         46
    40          9
    41        111
    42         23
    43         45
    44        106
    45         12
    50         28
    51         98
    52         16
    53         19
    54         11
    55         79
    56         23
    57         34
    58          4
    60          5
    62          5
    63         10
    64          7
    65         15
    66          7
    67         26
    68          9
    69         39
    70         17
    71         17
    73          8
    74         10
    75          8
    76         22
    77        466
    78         48
    79         19
    80          9
    81         24
    82         11
    83         20
    84          9
    85          9
    89          5
    91         29
    92          5
    93          8
    94          8
    95         20
    96         12
    97         17
    98          9
   103          9
   104         23
   105        999
   106        100
   107         12
   108          5
   109         10
   110         10
   111          9
   112          4
   115         16
   116          5
   117         12
   118          8
   119          8
   120         16
   121          7
   122         73
   123         16
   124          6
   128          9
   129         12
   130          9
   131          9
   132          5
   133         15
   134         34
   135         25
   136         59
   137         12
   139          6
   141          9
   142          5
   143          5
   144          5
   145          9
   146         12
   147          9
   148         21
   149         17
   150         13
   151          6
   155          7
   157          8
   158         12
   159          9
   162         13
   163          9
   176         16
   177          5
   178         47
   179         11
   187          6
   190         10
   198          8
   200         12
   201          5
   202          5
   204          7
   232         20
   233          4
   240          5
   242          4
   246          5
   247          5
   254          8
   255          5
   258          9
   259          9
   260         14
   261          3
   262          3
   272          9
   273          3
   274          3
   282          7
   283         15
   284          7
   286          8
   300        153
   301         33
   302          4
   377          2
   378          2
   379          2
   387          3
   388          1
   404          3
   405         17
   406          6
   407          1