##TITLE=Library Entry 9013
##JCAMP-DX=Revision 4.10 
##DATA TYPE=MASS SPECTRUM
##SAMPLE DESCRIPTION=J.H.BOWIE UNIVERSITY OF CAMBRIDGE, CAMBRIDGE, UK.
##NAMES=HP
##CAS NAME=2,4-Pentanedione, 3-isopentyl-
##MOLFORM=C10H18O2
##CAS REGISTRY NO=10225-31-7
##MP= -300
##BP= -300
##MW= 170
##$RETENTION INDEX=0
##$CONDENSED SPECTRUM=NO
##NPOINTS= 31
##XYDATA=(XY..XY) 1 
    39         80
    41        140
    42         40
    43        999
    53         40
    55        100
    56         30
    57         30
    58        130
    59         30
    68         30
    69        150
    70        140
    71        600
    72         60
    81         30
    85        220
    86         40
    87         30
    88         30
    95        130
    98         30
    99         30
   100        310
   101        150
   110        260
   111         40
   113        160
   128        110
   155         30
   170         50