##TITLE=Library Entry 78585
##JCAMP-DX=Revision 4.10 
##DATA TYPE=MASS SPECTRUM
##SAMPLE DESCRIPTION=F. TURECEK,HEYROVSKY INST PHYS CHEM & ELECTROCHEM,PRAGU
E,CZECH
##NAMES=HP
##CAS NAME=2,N-Dibenzoyl-6-hexanelactam
##MOLFORM=C20H19NO3
##CAS REGISTRY NO=102222-10-6
##MP= -300
##BP= -300
##MW= 321
##$RETENTION INDEX=0
##$CONDENSED SPECTRUM=NO
##NPOINTS= 84
##XYDATA=(XY..XY) 1 
    26         20
    27         78
    29         51
    31         12
    39         80
    41        122
    42         41
    43         81
    50         37
    51        157
    52         17
    53         24
    54         37
    55         84
    56         32
    57         71
    58         15
    63         22
    64         18
    65         32
    67         34
    68         15
    69         45
    70         23
    71         37
    74         12
    75         13
    76         31
    77        606
    78         61
    79         24
    81         33
    82         18
    83         27
    84         11
    85         23
    91         32
    92         10
    93         13
    94         11
    95         42
    96         13
    97         22
   103         12
   104         12
   105        999
   106         83
   107         14
   108         15
   111         12
   115         31
   117         21
   119         18
   122         20
   128         19
   129         27
   130         15
   131         17
   132         11
   133         13
   143         13
   146         24
   148         17
   157         15
   158         17
   161         32
   170         11
   171         16
   172         16
   173         46
   174         12
   185         10
   187         10
   188         54
   189         17
   200         15
   216         81
   217         15
   276          2
   293          3
   303          2
   320         44
   321         39
   322         10