##TITLE=Library Entry 84633
##JCAMP-DX=Revision 4.10 
##DATA TYPE=MASS SPECTRUM
##SAMPLE DESCRIPTION=K. Jacobson, LBC, NIDDK, NIH, Bethesda, MD 20892
##NAMES=HP
##CAS NAME=Uracil, 1,3-diallyl-6-amino-5-nitroso-
##MOLFORM=C10H12N4O3
##CAS REGISTRY NO=102284-73-1
##MP= -300
##BP= -300
##MW= 236
##$RETENTION INDEX=0
##$CONDENSED SPECTRUM=NO
##NPOINTS= 145
##XYDATA=(XY..XY) 1 
    41        986
    42         67
    43         65
    44         56
    45          8
    50          1
    51          7
    52         27
    53        153
    54        218
    55        216
    56        430
    57         36
    58         14
    59          8
    60          5
    61          1
    63          0
    64          2
    65          7
    66         36
    67         83
    68        146
    69        151
    70        262
    71         28
    72          4
    73          5
    74          0
    75          0
    76          1
    77          5
    78         12
    79         73
    80         45
    81        333
    82        232
    83         55
    84         34
    85          9
    86          5
    87          2
    89          0
    91          3
    92          5
    93         35
    94         66
    95         35
    96         44
    97         29
    98          9
    99          5
   103          2
   104          1
   105          3
   106         41
   107        409
   108        999
   109        119
   110         31
   111         12
   112         35
   113          9
   114          9
   115          1
   118          3
   119          5
   120         10
   121         37
   122         16
   123         28
   124         76
   125         15
   126         12
   127          5
   129          1
   130          1
   131          1
   132          1
   133          4
   134         10
   135        390
   136        226
   137         22
   138         12
   139          6
   140          2
   141          2
   143          4
   146          2
   147          3
   148         12
   149          9
   150          6
   151          9
   152         33
   153         87
   154         10
   155          0
   156         15
   157          1
   159          1
   161          5
   162         23
   163         10
   164          8
   165          4
   166          6
   167          3
   168          1
   174          3
   175          1
   176         34
   177        373
   178         49
   179         11
   180          2
   181          4
   182          2
   189          6
   190         16
   191         10
   192          7
   193          4
   194          2
   195          5
   196          1
   197          3
   203          1
   204          3
   205          4
   206          1
   207          8
   208          1
   209          3
   217          3
   218          7
   219        488
   220         73
   221         15
   222          4
   235         43
   236        219
   237         44
   238          5