##TITLE=Library Entry 28329
##JCAMP-DX=Revision 4.10 
##DATA TYPE=MASS SPECTRUM
##SAMPLE DESCRIPTION=James Little,Eastman Chem.Co.,Kingsport,TN
##NAMES=HP
##CAS NAME=1-(N,N-Diethylamino)-3-methyl-2-pentene
##MOLFORM=C9H19N
##CAS REGISTRY NO=10229-36-4
##MP= -300
##BP= -300
##MW= 141
##$RETENTION INDEX=0
##$CONDENSED SPECTRUM=NO
##NPOINTS= 38
##XYDATA=(XY..XY) 1 
    27        109
    28        121
    29        108
    30         93
    39         76
    40         17
    41        338
    42        108
    43         29
    44         37
    53         42
    55         33
    56        111
    57         30
    58        999
    59         40
    67         31
    69        526
    70         44
    72        100
    73        146
    80         31
    82         27
    84         11
    86        373
    87         24
    94          8
    96         17
    98         41
   110         20
   112         14
   124         11
   126        198
   127         22
   140         68
   141        167
   142         24
   143          2