##TITLE=Library Entry 20467
##JCAMP-DX=Revision 4.10 
##DATA TYPE=MASS SPECTRUM
##SAMPLE DESCRIPTION=F. TURECEK,HEYROVSKY INST PHYS CHEM & ELECTROCHEM,PRAGU
E,CZECH
##NAMES=HP
##CAS NAME=3-Buten-1-yl phenyl sulfoxide
##MOLFORM=C10H12OS
##CAS REGISTRY NO=102201-76-3
##MP= -300
##BP= -300
##MW= 180
##$RETENTION INDEX=0
##$CONDENSED SPECTRUM=NO
##NPOINTS= 73
##XYDATA=(XY..XY) 1 
    26         26
    27        209
    29        287
    30          6
    35          5
    37         10
    38         17
    39        227
    40         13
    41         31
    44         12
    45        105
    46          6
    49         11
    50         68
    51        191
    52         32
    53        126
    54         70
    55        999
    56         49
    57         15
    58          8
    59          4
    62          8
    63         17
    64          5
    65         64
    66         34
    67          7
    69         86
    70          5
    71          9
    73          4
    74         18
    76         13
    77        147
    78        385
    79         39
    80          5
    81         11
    82          8
    83          4
    84         14
    91         26
    92          6
    97         50
   108         10
   109         52
   110         72
   112          4
   117         23
   118         32
   119         12
   123        130
   124         15
   125         45
   126        315
   127         29
   128         18
   129          6
   130         49
   131         50
   132         10
   133         22
   134          5
   135         13
   136          5
   163          5
   164         34
   165          6
   180         24
   181          7