##TITLE=Library Entry 78596
##JCAMP-DX=Revision 4.10 
##DATA TYPE=MASS SPECTRUM
##SAMPLE DESCRIPTION=F. TURECEK,HEYROVSKY INST PHYS CHEM & ELECTROCHEM,PRAGU
E,CZECH
##NAMES=HP
##CAS NAME=2,N-Dibenzoyl-8-octanelactam
##MOLFORM=C22H23NO3
##CAS REGISTRY NO=102222-11-7
##MP= -300
##BP= -300
##MW= 349
##$RETENTION INDEX=0
##$CONDENSED SPECTRUM=NO
##NPOINTS= 114
##XYDATA=(XY..XY) 1 
    26          5
    27         39
    29         22
    30         11
    38          5
    39         33
    40          6
    41         53
    42         10
    43         18
    44         21
    45          5
    50         25
    51        106
    52         11
    53         12
    54          6
    55         37
    56         14
    57         16
    60          2
    62          2
    63          8
    64          4
    65          9
    66          3
    67         16
    68          5
    69         13
    70          9
    71          9
    74          5
    75          5
    76         21
    77        559
    78         49
    79         13
    80          6
    81         13
    82          6
    83          9
    84          5
    85          5
    89          5
    91         19
    95         17
    96         11
    97          8
    98          9
    99         71
   100          3
   103          8
   104         13
   105        999
   106         96
   107          6
   115         12
   117          9
   120          6
   121          5
   122         55
   123         19
   124          6
   129          8
   130          8
   131          8
   133          9
   134         43
   135         24
   139          5
   145          8
   146         12
   147          5
   148         20
   149         11
   157          6
   158          9
   162         14
   174          6
   175          6
   176         37
   177          7
   184          5
   185          5
   187          5
   188          5
   189         12
   191          8
   198          9
   199         11
   200         13
   201          6
   202         26
   203         12
   204         14
   210          9
   215          6
   216         21
   217          4
   226         31
   227         20
   228         39
   229         14
   230          3
   244         96
   245         16
   321          4
   322          1
   330          3
   331         11
   332          4
   348          1
   349          8
   350          3