##TITLE=Library Entry 93713
##JCAMP-DX=Revision 4.10 
##DATA TYPE=MASS SPECTRUM
##SAMPLE DESCRIPTION=Japan AIST/NIMC Database- Spectrum MS-IW-4781
##NAMES=HP
##CAS NAME=4-Phenylbut-3-yn-1-ol
##MOLFORM=C10H10O
##CAS REGISTRY NO=10229-11-5
##MP= -300
##BP= -300
##MW= 146
##$RETENTION INDEX=0
##$CONDENSED SPECTRUM=NO
##NPOINTS= 84
##XYDATA=(XY..XY) 1 
    17          1
    18          3
    26          2
    27          5
    28         10
    29          6
    30          2
    31         30
    32          1
    37          2
    38          5
    39         37
    40          3
    41          5
    43          6
    44          1
    49          1
    50         23
    51         43
    52          8
    53          2
    55          3
    57          6
    58          2
    61          7
    62         25
    63         76
    64         15
    65         47
    66          3
    68          1
    69          2
    72          1
    73          3
    74         21
    75         26
    76         17
    77         35
    78         13
    79          1
    85          4
    86         10
    87         16
    88         17
    89         90
    90          9
    91         17
    92          2
    98          5
    99          2
   100          1
   101          6
   102         48
   103         12
   104          2
   105         29
   106          3
   109          1
   110          2
   111          1
   113         20
   114         29
   115        999
   116        463
   117         73
   118         17
   119          2
   122          2
   125          1
   126         12
   127         47
   128        175
   129         27
   130          4
   131         16
   132          1
   141          2
   142          1
   143          1
   144          9
   145         45
   146        453
   147         50
   148          3