##TITLE=Library Entry 12578
##JCAMP-DX=Revision 4.10 
##DATA TYPE=MASS SPECTRUM
##SAMPLE DESCRIPTION=H.O. HOUSE, SCH. CHEM., GA. INST. TECHNOL., ATLANTA, GA
., USA
##NAMES=HP
##CAS NAME=4-Acetoxy-1,2,3,5,6,7,8,8a-octahydroazulene
##MOLFORM=C12H18O2
##CAS REGISTRY NO=102261-82-5
##MP= -300
##BP= -300
##MW= 194
##$RETENTION INDEX=0
##$CONDENSED SPECTRUM=NO
##NPOINTS= 14
##XYDATA=(XY..XY) 1 
    39        340
    41        590
    43        999
    53        200
    55        260
    67        560
    79        290
    81        260
    95        510
   110        360
   111        590
   123        320
   152        710
   194         20