##TITLE=Library Entry 74429
##JCAMP-DX=Revision 4.10 
##DATA TYPE=MASS SPECTRUM
##SAMPLE DESCRIPTION=H-F. GRUTZMACHER UNIVERSITY OF HAMBURG, W. GERMANY
##NAMES=HP
##CAS NAME=.alpha.-D-Galactofuranoside, methyl 2,3,5,6-tetra-O-methyl-
##MOLFORM=C11H22O6
##CAS REGISTRY NO=10225-58-8
##MP= -300
##BP= -300
##MW= 250
##$RETENTION INDEX=0
##$CONDENSED SPECTRUM=NO
##NPOINTS= 83
##XYDATA=(XY..XY) 1 
    40         10
    41        118
    42         26
    43         72
    44         18
    45        378
    46         14
    47         28
    51          3
    52          2
    53         18
    54          8
    55         42
    56         18
    57         40
    58         29
    59        110
    60          5
    61          4
    65          3
    66          3
    67          4
    68          8
    69         21
    70         10
    71        104
    72         15
    73         80
    74         27
    75        385
    76         13
    77          4
    81         11
    82          4
    83          9
    84          6
    85         53
    86          6
    87         15
    88        100
    89         90
    90          7
    94          2
    95          8
    97          6
    98         19
    99         36
   100          4
   101        999
   102         67
   103         12
   105         15
   111          9
   113          8
   114         33
   115         16
   116          2
   117         46
   118          3
   119          4
   125          4
   127         22
   128          4
   129         29
   130          6
   131         19
   132          3
   133          4
   143          6
   144          5
   145         55
   146          5
   155         15
   156          2
   157          3
   158          5
   159          5
   160          4
   161        108
   173         11
   187          3
   205          3
   219          4