##TITLE=Library Entry 81409
##JCAMP-DX=Revision 4.10 
##DATA TYPE=MASS SPECTRUM
##SAMPLE DESCRIPTION=Exported from NIST MS Search
##NAMES=HP
##CAS NAME=1,3-Butanedione, 2-sec-butyl-1-phenyl-
##MOLFORM=C14H18O2
##CAS REGISTRY NO=10225-40-8
##MP= -300
##BP= -300
##MW= 218
##$RETENTION INDEX=0
##$CONDENSED SPECTRUM=NO
##NPOINTS= 38
##XYDATA=(XY..XY) 1 
    41         47
    42         15
    43        130
    44         13
    50         17
    51         57
    52         13
    53         11
    55         27
    57         27
    69         64
    76         13
    77        270
    78         30
    83         15
    85         28
    91         30
   105        999
   106         85
   107         13
   113         11
   115         13
   120         27
   127         17
   128         17
   129         22
   143         17
   145         13
   147        340
   148         51
   161        107
   162        421
   163         52
   175         22
   176         30
   189         17
   191         13
   218         15