##TITLE=Library Entry 10448
##JCAMP-DX=Revision 4.10 
##DATA TYPE=MASS SPECTRUM
##SAMPLE DESCRIPTION=LAC, NIDDK, NIH, Bethesda, MD 20892
##NAMES=HP
##CAS NAME=Pregnan-17,21-diol-20-one, 3,9-epoxy-3-O-methyl-11-thiocyano-,
##MOLFORM=C25H35NO6S
##CAS REGISTRY NO=102263-11-6
##MP= -300
##BP= -300
##MW= 477
##$RETENTION INDEX=0
##$CONDENSED SPECTRUM=NO
##NPOINTS= 232
##XYDATA=(XY..XY) 1 
    41        142
    42         65
    43        999
    45         61
    47          5
    49         10
    51          7
    53         43
    55        160
    57         30
    59         68
    60          7
    61          9
    65         21
    67         70
    69         56
    71         29
    73         85
    74         26
    75          3
    77         52
    79         98
    81         83
    83         25
    85        111
    87         12
    91         98
    93         72
    95         71
    97        166
    99         12
   101         44
   103         15
   105         90
   107         55
   109         57
   110        141
   111         74
   112          3
   113          8
   115         43
   117         45
   119         61
   121         60
   123        106
   125         66
   127          6
   128         16
   129         29
   131         52
   133         45
   135         45
   136         55
   137         45
   138         28
   140         88
   141         11
   142          6
   143         58
   145         58
   147         41
   149         44
   151         43
   153         29
   155         22
   157         48
   159         38
   161         34
   162         12
   163         23
   165         22
   166          4
   167          8
   169         24
   171         38
   173         42
   175         21
   177         30
   179         41
   181         18
   183         22
   185         27
   186         25
   187         22
   189         21
   190         10
   192          5
   193          6
   194         44
   195         30
   197         22
   199         24
   201         18
   203         13
   204          3
   205         12
   207         10
   209         14
   211         17
   213         18
   215         28
   216          5
   217          7
   219         12
   220          5
   221          7
   223         14
   225         15
   227         16
   229         15
   231         16
   233         21
   234          3
   235          4
   237         11
   239         16
   240         18
   241         14
   243         17
   245         14
   246          5
   247         13
   249         14
   251          9
   253         10
   254          9
   255          5
   256         16
   257         13
   258          4
   259          8
   260          3
   261          5
   262          4
   263          7
   265          7
   267         19
   269          8
   271         23
   272          6
   273         12
   274          9
   275          8
   279          5
   281         15
   282          6
   283          6
   285         20
   286          6
   287          5
   289         11
   290         10
   291         21
   292         12
   293          4
   295          3
   297          8
   298          4
   299         30
   300          5
   301         12
   303          8
   304          3
   305          2
   307          5
   308          4
   309          6
   310          4
   311          2
   313         11
   314         10
   315          3
   316         14
   317         74
   318         20
   319          3
   320          2
   322          2
   324          4
   326         10
   327         10
   328          4
   329          2
   330          2
   331         11
   332          9
   333          6
   334          7
   335          2
   340          4
   341         22
   342         17
   344         14
   345          5
   347         15
   348          3
   349          5
   352          2
   356          3
   358         39
   359         11
   360          5
   361          3
   366          2
   374          5
   375         10
   376         33
   377          5
   378          2
   384          7
   385          6
   387         21
   388          3
   389          3
   391          3
   392          4
   399          3
   401          6
   402          5
   404          6
   417         11
   418          7
   419         23
   420          5
   444          6
   445          7
   448          3
   449          3
   462         10
   477         49
   478         11
   479          3