##TITLE=Library Entry 78562
##JCAMP-DX=Revision 4.10 
##DATA TYPE=MASS SPECTRUM
##SAMPLE DESCRIPTION=F. TURECEK,HEYROVSKY INST PHYS CHEM & ELECTROCHEM,PRAGU
E,CZECH
##NAMES=HP
##CAS NAME=2,N-Dibenzoyl-4-butanelactam
##MOLFORM=C18H15NO3
##CAS REGISTRY NO=102222-08-2
##MP= -300
##BP= -300
##MW= 293
##$RETENTION INDEX=0
##$CONDENSED SPECTRUM=NO
##NPOINTS= 45
##XYDATA=(XY..XY) 1 
    27         44
    29         20
    39         42
    41         40
    43         30
    50         37
    51        179
    52         16
    55         30
    56         10
    57         30
    63         15
    65         16
    67         15
    69         19
    71         15
    74         10
    75         13
    76         25
    77        575
    78         54
    79         13
    81         15
    83         12
    91         12
    95         12
    97         10
   105        999
   106         80
   115         19
   119         14
   133         12
   141         11
   144         72
   145         15
   147         48
   161         20
   162         18
   188         79
   189         14
   265          3
   275          5
   276          4
   293         37
   294          8