##TITLE=Library Entry 85088
##JCAMP-DX=Revision 4.10 
##DATA TYPE=MASS SPECTRUM
##SAMPLE DESCRIPTION=K. Jacobson, LBC, NIDDK, NIH, Bethesda, MD 20892
##NAMES=HP
##CAS NAME=Xanthine, 1,3-dipropyl-8-[4-[.beta.-[(benzyloxycarbonylamino)acet
ylamino]
##MOLFORM=C31H37N7O7
##CAS REGISTRY NO=102255-67-4
##MP= -300
##BP= -300
##MW= 619
##$RETENTION INDEX=0
##$CONDENSED SPECTRUM=NO
##NPOINTS= 69
##XYDATA=(XY..XY) 1 
    41         26
    42         19
    43         57
    44        119
    45         43
    46         34
    49         10
    50         99
    51        203
    52         55
    53         74
    54          6
    55         19
    56         13
    57         15
    58          4
    60         23
    61         13
    62         23
    63         50
    64         13
    65         57
    66          8
    67          2
    68          2
    69         10
    70          5
    71          9
    73         22
    74         29
    75         14
    76         17
    77        487
    78        100
    79         85
    80         76
    81          9
    83          2
    84          5
    85         15
    86         20
    87          8
    89         62
    90         68
    91        133
    92         10
    95          2
    97          2
    98          2
    99          3
   105         32
   106          8
   107        564
   108        999
   109         71
   110          2
   114          4
   124          4
   126          3
   127          5
   129          2
   149          2
   214         19
   244          5
   328          6
   397          2
   427          1
   511         23
   512          5