##TITLE=Library Entry 47853
##JCAMP-DX=Revision 4.10 
##DATA TYPE=MASS SPECTRUM
##SAMPLE DESCRIPTION=A.Mazepa, Phys.-Chem.Institute, Odessa, Ukraine
##NAMES=HP
##CAS NAME=N-[4-Bromo-2-(hydroxyimino-phenyl-methyl)-phenyl]-2-chloro-acetam
ide
##MOLFORM=C15H12BrClN2O2
##CAS REGISTRY NO=102273-52-9
##MP= -300
##BP= -300
##MW= 366
##$RETENTION INDEX=0
##$CONDENSED SPECTRUM=NO
##NPOINTS= 183
##XYDATA=(XY..XY) 1 
    50         80
    51        316
    52         62
    53          9
    61         17
    62         64
    63        188
    64        106
    65         38
    66         59
    67          8
    73          4
    74         42
    75         88
    76        119
    77        999
    78         97
    79         47
    80         10
    81         10
    86         12
    87         22
    88         34
    89         58
    90        112
    91         77
    92         15
   100          9
   101         19
   102         35
   103         46
   104         80
   105         54
   106         40
   107         10
   108          4
   113          6
   114         14
   115         27
   116         15
   117         41
   118         14
   119          9
   120          6
   126         15
   127         27
   128         41
   129         14
   130          7
   131          3
   137          6
   138          8
   139         22
   140         36
   141         28
   142         11
   143          9
   144         11
   145         10
   150          9
   151         37
   152         68
   153        113
   154         29
   155         10
   156          7
   161          3
   162          2
   163          5
   164         21
   165         35
   166         55
   167        125
   168         51
   169         23
   170         23
   171         41
   172         25
   173         14
   174         22
   175          3
   176          7
   177         24
   178         37
   179         70
   180        121
   181         79
   182         26
   183         13
   184          5
   185          5
   191          7
   192         31
   193        146
   194        120
   195        133
   196         40
   197         17
   198         12
   199         14
   200          2
   201          1
   205         17
   206         22
   207         13
   208         13
   209         11
   210         11
   211         13
   212          7
   219          6
   220         18
   221         27
   222         41
   223         16
   224         15
   225          6
   226          4
   227          1
   244          2
   245         19
   246         13
   247         18
   248          6
   249          5
   250          1
   257          5
   258         60
   259         19
   260         51
   261         24
   262          9
   263          2
   269          2
   270          7
   271         21
   272        372
   273        687
   274        486
   275        674
   276        149
   277         13
   284          6
   285         29
   286         23
   287         24
   288         31
   289         13
   290          5
   297          6
   298          6
   299        203
   300        116
   301        220
   302        105
   303         22
   304          2
   314         14
   315         15
   316         18
   317        585
   318        105
   319        569
   320         92
   321         13
   331         13
   332         21
   333         10
   334         53
   335         14
   336        120
   337         24
   338         89
   339         11
   340         12
   341          2
   365         10
   366        160
   367         36
   368        214
   369         36
   370         46
   371          5