##TITLE=Library Entry 10597
##JCAMP-DX=Revision 4.10 
##DATA TYPE=MASS SPECTRUM
##SAMPLE DESCRIPTION=CARL DJERASSI DEPT OF CHEM STANFORD UNIV STANFORD CALIF
 94305
##NAMES=HP
##CAS NAME=2-Hexanone, 6-bromo-
##MOLFORM=C6H11BrO
##CAS REGISTRY NO=10226-29-6
##MP= -300
##BP= -300
##MW= 178
##$RETENTION INDEX=0
##$CONDENSED SPECTRUM=NO
##NPOINTS= 16
##XYDATA=(XY..XY) 1 
    41         50
    42         30
    43        999
    44         20
    51         10
    53         20
    55        130
    56         10
    58         10
    71         40
    83         10
    97         10
    98         20
    99        180
   135         10
   137         10