##TITLE=Library Entry 61753
##JCAMP-DX=Revision 4.10 
##DATA TYPE=MASS SPECTRUM
##SAMPLE DESCRIPTION=LAC, NIDDK, NIH, Bethesda, MD 20892
##NAMES=HP
##CAS NAME=Propane-1,3-diamine, N,N'-dibenzyl-
##MOLFORM=C17H22N2
##CAS REGISTRY NO=10239-34-6
##MP= -300
##BP= -300
##MW= 254
##$RETENTION INDEX=0
##$CONDENSED SPECTRUM=NO
##NPOINTS= 109
##XYDATA=(XY..XY) 1 
    41         34
    42         21
    43         24
    44         34
    45          7
    46          1
    48          0
    49          1
    50          8
    51         25
    52          7
    53          3
    54          3
    55          6
    56         31
    57         12
    58          9
    59          2
    60          3
    61          1
    62          4
    63         18
    65        127
    66          6
    67          2
    68          3
    69          4
    70         14
    71         19
    72          3
    73          5
    74          2
    75          2
    76          5
    77         31
    78          6
    79        121
    80        236
    81         89
    82        226
    83          2
    84          1
    85          6
    86          1
    87          1
    88          6
    89         27
    91        999
    92         96
    93          4
    95          0
    97          1
    99          0
   102          0
   103          3
   104         36
   105         21
   106        217
   107         43
   108          5
   109          0
   111          1
   115          2
   116          2
   117         18
   118         88
   119         28
   120        670
   121         56
   122          3
   124          1
   126         16
   128          0
   129          2
   130          6
   131          2
   132        161
   133         25
   134         51
   135          6
   144          2
   145          1
   146        144
   147         87
   148         13
   149         70
   150          8
   151          0
   158          0
   160          0
   161          2
   162          2
   163        138
   164         15
   165          2
   166          1
   167          1
   170          0
   172          0
   175          1
   181          1
   183          0
   194          0
   251          0
   252          1
   253          0
   254         45
   255         16
   256          2