##TITLE=Library Entry 22779
##JCAMP-DX=Revision 4.10 
##DATA TYPE=MASS SPECTRUM
##SAMPLE DESCRIPTION=Exported from NIST MS Search
##NAMES=HP
##CAS NAME=3-Pyridinecarboxylic acid, 1,4,5,6-tetrahydro-1,2-dimethyl-6-oxo-
, ethyl ester
##MOLFORM=C10H15NO3
##CAS REGISTRY NO=10230-58-7
##MP= -300
##BP= -300
##MW= 197
##$RETENTION INDEX=0
##$CONDENSED SPECTRUM=NO
##NPOINTS= 85
##XYDATA=(XY..XY) 1 
    40        130
    41        347
    42        434
    43        347
    44        869
    45        108
    46         86
    50         54
    51         54
    52         86
    53        108
    54        130
    55        565
    56        999
    57         86
    58        108
    60         54
    62         54
    63         54
    64         54
    65         86
    66        108
    67        130
    68        326
    69        108
    70         54
    71        130
    72        239
    73        130
    74         54
    76         54
    77         54
    78         86
    79         86
    80        163
    81        217
    82        760
    83        130
    84        217
    85         54
    86         86
    87         54
    94         86
    95        326
    97        380
    98        195
    99        326
   100         86
   107         54
   108        163
   109         54
   110        347
   111         54
   112        217
   113         54
   114         32
   122         86
   123        163
   124        978
   125        706
   126        195
   127        130
   128         54
   136         54
   137        108
   138         54
   139         86
   140        271
   141         54
   142         54
   150        130
   151         86
   152        869
   153         86
   154        108
   156         86
   168        652
   169        130
   170         54
   180         54
   182         54
   196         86
   197        565
   198         86
   199         54