##TITLE=Library Entry 10311
##JCAMP-DX=Revision 4.10 
##DATA TYPE=MASS SPECTRUM
##SAMPLE DESCRIPTION=NIST Mass Spectrometry Data Center
##NAMES=HP
##CAS NAME=Cyclohexanol, 1-methyl-4-(1-methylethylidene)-, acetate
##MOLFORM=C12H20O2
##CAS REGISTRY NO=10235-63-9
##MP= -300
##BP= -300
##MW= 196
##$RETENTION INDEX=1341
##$CONDENSED SPECTRUM=NO
##NPOINTS= 91
##XYDATA=(XY..XY) 1 
    15          1
    27         54
    29         40
    31          2
    38          3
    39        104
    40         21
    41        263
    42         26
    43        999
    44         24
    45         25
    46          1
    50          9
    51         36
    52         17
    53         95
    54         12
    55        136
    56         15
    57         25
    58         18
    59         10
    60         11
    61          7
    62          4
    63         13
    64          4
    65         65
    66         17
    67        140
    68         39
    69        213
    70         15
    71        225
    72         21
    77        192
    78         32
    79        205
    80         83
    81        331
    82         38
    83         69
    84        151
    85         14
    86          8
    89          3
    91        193
    92        187
    93        958
    94        122
    95        121
    96         33
    97         20
    98          6
   103          9
   104          3
   105         63
   106         15
   107        115
   108         51
   109         27
   110          9
   111        199
   112         24
   113         35
   114          3
   115          4
   117          6
   119         17
   120          8
   121        884
   122         87
   123        139
   124         12
   125         13
   126         23
   127          4
   135         17
   136        649
   137        126
   138         12
   139         69
   140          7
   153         14
   154         29
   155          4
   181          6
   182          1
   196          5
   197          1