##TITLE=Library Entry 35965
##JCAMP-DX=Revision 4.10 
##DATA TYPE=MASS SPECTRUM
##SAMPLE DESCRIPTION=Chemical Concepts
##NAMES=HP
##CAS NAME=Phenol, 2-(3,7-dimethylocta-2,6-dienyl)-
##MOLFORM=C16H22O
##CAS REGISTRY NO=10232-02-7
##MP= -300
##BP= -300
##MW= 230
##$RETENTION INDEX=0
##$CONDENSED SPECTRUM=NO
##NPOINTS= 129
##XYDATA=(XY..XY) 1 
    26         11
    27        135
    28         11
    29         96
    30          3
    31          7
    37          5
    38         12
    39        232
    40         41
    41        895
    42         42
    43        185
    44          8
    45         11
    50         20
    51         86
    52         40
    53        153
    54         20
    55        140
    56         15
    57         34
    58          4
    59          4
    61         10
    62          9
    63         43
    64         18
    65        117
    66         31
    67        204
    68         31
    69        999
    70         61
    71          8
    72          3
    73          6
    74          6
    75         17
    76         14
    77        302
    78        102
    79        161
    80         24
    81        200
    82         41
    83         21
    84          3
    85          3
    87          4
    88          6
    89         34
    90         21
    91        348
    92         42
    93         52
    94         43
    95         58
    96         25
    97          6
   101         11
   102         19
   103         55
   104         13
   105        113
   106         18
   107        899
   108         97
   109        187
   110         27
   111          5
   113          4
   114          4
   115        108
   116         34
   117         44
   118         32
   119        195
   120         68
   121         94
   122        235
   123        889
   124         94
   125          6
   126          6
   127         58
   128        104
   129         34
   130          8
   131         92
   132         62
   133        268
   134         55
   135          9
   136          6
   139          5
   141         32
   142         12
   143         40
   144         33
   145        287
   146        167
   147        229
   148         43
   149          6
   152          6
   153          4
   157         12
   158          8
   159        135
   160         73
   161        748
   162        114
   163         11
   165          5
   173         47
   174         56
   175         12
   185          4
   186          5
   187        147
   188         22
   201          3
   215         22
   216          5
   230        211
   231         37
   232          7