##TITLE=Library Entry 100593
##JCAMP-DX=Revision 4.10 
##DATA TYPE=MASS SPECTRUM
##SAMPLE DESCRIPTION=MASS SPECTROMETRY CENTER, UNIV. OF UTAH; ALDRICH 18407-
1
##NAMES=HP
##CAS NAME=1,2-Benzenedimethanethiol, 4,5-dimethyl-
##MOLFORM=C10H14S2
##CAS REGISTRY NO=10230-61-2
##MP= -300
##BP= -300
##MW= 198
##$RETENTION INDEX=0
##$CONDENSED SPECTRUM=NO
##NPOINTS= 87
##XYDATA=(XY..XY) 1 
    15         15
    26          2
    27         78
    29          2
    33         39
    34         37
    38         23
    39        179
    40         20
    41         57
    44         21
    45        180
    46         10
    47         34
    50         42
    51        117
    52         32
    53         57
    58          6
    59         22
    61          8
    62         27
    63         84
    64         32
    65         86
    66          7
    67         26
    69         30
    70          2
    71         11
    73         12
    74         40
    75         41
    76         24
    77        114
    78         37
    79         49
    80         19
    81         42
    82         23
    89         30
    90          5
    91        212
    92         22
    93          3
    95          5
    97         13
   102         24
   103         49
   104         17
   105         81
   106         13
   107         21
   111          2
   115        168
   116         65
   117        143
   118         29
   119        999
   120        167
   121         86
   127         14
   128         41
   129         26
   131         39
   132        143
   133         72
   134         80
   135         39
   136          8
   147        137
   148        156
   149        494
   150         65
   151        132
   152         14
   161         21
   162         20
   163        623
   164        810
   165        204
   166         62
   167          8
   196          7
   198        108
   199         12
   200          6