##TITLE=Library Entry 59154
##JCAMP-DX=Revision 4.10 
##DATA TYPE=MASS SPECTRUM
##SAMPLE DESCRIPTION=NIST Mass Spectrometry Data Center, 1994
##NAMES=HP
##CAS NAME=1-(Benzylthio)acetone
##MOLFORM=C10H12OS
##CAS REGISTRY NO=10230-69-0
##MP= -300
##BP= -300
##MW= 180
##$RETENTION INDEX=0
##$CONDENSED SPECTRUM=NO
##NPOINTS= 78
##XYDATA=(XY..XY) 1 
    13          2
    14         19
    15         82
    16          2
    25          2
    26         21
    27         59
    28          3
    29         16
    31          1
    32          3
    34          1
    37          8
    38         29
    39        152
    40         12
    41         34
    42         73
    43        408
    44          1
    45        184
    46         45
    47         12
    48          2
    49          1
    50         34
    51         81
    52         19
    53          5
    57          4
    58         15
    59          7
    60          1
    61          9
    62         30
    63         83
    64          1
    65        237
    66         14
    69         10
    70          2
    71          2
    73          3
    74          6
    75          6
    76          1
    77         52
    78         18
    79         12
    80          1
    82          2
    84          1
    85          1
    86          4
    87          3
    89         58
    91        999
    92         86
    93          6
    97          2
   103          3
   104         11
   105          2
   108          1
   121         66
   122        176
   123        345
   124         37
   125         15
   134          3
   135          5
   137         18
   138          3
   147          2
   162          1
   180         94
   181         12
   182          5