##TITLE=Library Entry 97300
##JCAMP-DX=Revision 4.10 
##DATA TYPE=MASS SPECTRUM
##SAMPLE DESCRIPTION=Exported from NIST MS Search
##NAMES=HP
##CAS NAME=Methanone, [1-(1,1-dimethylethyl)-2-phenyl-3-azetidinyl]phenyl-,
 trans-
##MOLFORM=C20H23NO
##CAS REGISTRY NO=10235-75-3
##MP= -300
##BP= -300
##MW= 293
##$RETENTION INDEX=0
##$CONDENSED SPECTRUM=NO
##NPOINTS= 24
##XYDATA=(XY..XY) 1 
    41         54
    55         60
    57        170
    70        252
    77        338
    91         83
   103         62
   104        164
   105        664
   106         79
   115         63
   117        999
   132         63
   133         84
   146         97
   160        123
   167         19
   236        399
   237         67
   238        239
   239         59
   276        100
   277         49
   293         79