##TITLE=Library Entry 99274
##JCAMP-DX=Revision 4.10 
##DATA TYPE=MASS SPECTRUM
##SAMPLE DESCRIPTION=V.A.Korolev, Moscow, Russia
##NAMES=HP
##CAS NAME=2-[(4-Methylphenyl)carbonyl]benzonitrile
##MOLFORM=C15H11NO
##CAS REGISTRY NO=1023896-54-9
##MP= -300
##BP= -300
##MW= 221
##$RETENTION INDEX=0
##$CONDENSED SPECTRUM=NO
##NPOINTS= 65
##XYDATA=(XY..XY) 1 
    37          9
    38         59
    39        459
    40         51
    41        114
    42          3
    43         19
    44         37
    49          4
    50        208
    51        336
    52         69
    53         21
    55          7
    61         12
    62         86
    63        265
    64         71
    65        671
    66         34
    69          7
    73          4
    74         66
    75        265
    76        182
    77         26
    86         13
    87         12
    88          6
    89        185
    90         81
    91        709
    92         49
    99          7
   100          5
   101         10
   102        382
   103         35
   104         16
   118          7
   119        999
   120         88
   121          5
   129          5
   130        185
   131         14
   132         24
   150          5
   164          3
   165         18
   166          5
   178         15
   179         28
   180          2
   192          8
   193         26
   194          2
   204          7
   206        174
   207         27
   208          2
   220          3
   221        165
   222         28
   223          2