##TITLE=Library Entry 57639
##JCAMP-DX=Revision 4.10 
##DATA TYPE=MASS SPECTRUM
##SAMPLE DESCRIPTION=Japan AIST/NIMC Database- Spectrum MS-IW-2842
##NAMES=HP
##CAS NAME=Ethyl 5-methylhexanoate
##MOLFORM=C9H18O2
##CAS REGISTRY NO=10236-10-9
##MP= -300
##BP= -300
##MW= 158
##$RETENTION INDEX=1072
##$CONDENSED SPECTRUM=NO
##NPOINTS= 82
##XYDATA=(XY..XY) 1 
    15          5
    26          5
    27         80
    28         25
    29        166
    30          5
    31          8
    34          1
    38          2
    39         48
    40          9
    41        171
    42         70
    43        347
    44         12
    45        105
    46          3
    47          2
    48          5
    49          1
    50          1
    51          3
    52          1
    53         10
    54          4
    55        109
    56         50
    57         61
    58          4
    59         10
    60        258
    61        188
    62          6
    63          1
    65          1
    67          8
    68          9
    69        262
    70        177
    71         55
    72          3
    73        164
    74         43
    75         10
    79          3
    80          1
    81          4
    82          2
    83         31
    84         24
    85         20
    86          2
    87        137
    88        999
    89         80
    90          7
    93          1
    94         22
    95        321
    96         26
    97         92
    98          6
    99          6
   101        245
   102         48
   103          3
   111         19
   112         11
   113        186
   114         14
   115        241
   116         19
   117          3
   129         12
   130          2
   131         12
   132          1
   143         15
   144          1
   157          2
   158          6
   159          1