##TITLE=Library Entry 24521
##JCAMP-DX=Revision 4.10 
##DATA TYPE=MASS SPECTRUM
##SAMPLE DESCRIPTION=Humboldt-Universitat zu Berlin, Department of Chemistry
, Analytical Group
##NAMES=HP
##CAS NAME=1-(.beta.-d-Arabinofuranosyl)-4-difluoromethyl-5-bromouracil
##MOLFORM=C10H11BrF2N2O6
##CAS REGISTRY NO=102302-68-1
##MP= -300
##BP= -300
##MW= 372
##$RETENTION INDEX=0
##$CONDENSED SPECTRUM=NO
##NPOINTS= 282
##XYDATA=(XY..XY) 1 
    12         14
    13         10
    14         26
    15        198
    16         25
    17         24
    18         71
    19        240
    20         47
    25         17
    26         81
    27        304
    28        581
    29        812
    30        110
    31        786
    32         32
    33          8
    36         15
    37         10
    38         41
    39        211
    40        183
    41        597
    42        265
    43        974
    44        211
    45        455
    46         42
    47         74
    48         13
    49         22
    50         14
    51        192
    52         74
    53        311
    54        148
    55        566
    56        217
    57        999
    58        120
    59        190
    60        151
    61        358
    62         13
    63          9
    64         13
    65         36
    66         31
    67         67
    68        110
    69        355
    70        369
    71        382
    72         47
    73        795
    74        178
    75         45
    76          9
    77         43
    78         16
    79         51
    80         70
    81         79
    82        143
    83        133
    84         61
    85        377
    86        151
    87         99
    88         12
    89         18
    90         10
    91         49
    92         62
    93         52
    94        283
    95         70
    96         50
    97        192
    98         65
    99         24
   100         28
   101         48
   102         14
   103         88
   104         59
   105         42
   106         56
   107         61
   108        313
   109         56
   110        162
   111         59
   112         36
   113         62
   114         45
   115        260
   116         26
   117         19
   118         56
   119         25
   120        207
   121         37
   122        275
   123         33
   124         32
   125         32
   126         20
   127         65
   128         39
   129         34
   130         11
   131         37
   132         95
   133        837
   134         70
   135         40
   136         14
   137         14
   138         26
   139         13
   140         16
   141         23
   142          9
   143         27
   144          8
   145          8
   146         10
   147        197
   148         48
   149        207
   150         52
   151          9
   152          6
   153         12
   154          4
   155          8
   156          7
   157         43
   158         11
   159          9
   160        104
   161         55
   162         31
   163         32
   164          9
   165          5
   166          3
   167         17
   168         12
   169          6
   171          4
   172          4
   173         19
   174         42
   175         58
   176         50
   177          8
   178         15
   179          4
   180          5
   181          4
   182          2
   183          4
   185         16
   186         12
   187          4
   188         18
   189          5
   190         19
   191         28
   192         12
   193         27
   194          4
   195          9
   196          3
   197          5
   198          3
   199          3
   200          6
   201          4
   202          6
   203         25
   204          9
   205         17
   206          3
   212         12
   213          3
   214         14
   215          5
   216          9
   217          5
   218          9
   219          2
   220          8
   221         14
   222          8
   223         15
   224          2
   225          2
   227          4
   230          2
   231          6
   232          4
   233         16
   234          3
   235          5
   240         76
   241         93
   242         86
   243         92
   244          9
   245          4
   246          1
   247          1
   248          2
   250          1
   253          5
   255          5
   256          1
   257          1
   259          2
   261          3
   263          5
   265          3
   266          2
   267          1
   268          1
   269          2
   271          3
   272          1
   273         21
   274          2
   275          1
   276          2
   279          3
   280          1
   281          2
   282          3
   283         16
   284          4
   285         16
   286          2
   287          2
   289          1
   292          9
   293         16
   294          2
   295          4
   296          1
   297         11
   298          1
   299          8
   301          3
   307          3
   309          4
   311          1
   312          3
   313          5
   314          3
   315          6
   323          8
   324          0
   325          8
   339          1
   341         34
   342          6
   343         34
   344          5
   345          0
   353          1
   354          3
   356          1
   364          0
   366          0
   367          0
   368          1
   372         31
   373          4
   374         31
   375          4