##TITLE=Library Entry 18215
##JCAMP-DX=Revision 4.10 
##DATA TYPE=MASS SPECTRUM
##SAMPLE DESCRIPTION=Humboldt-Universitat zu Berlin, Department of Chemistry
, Analytical Group
##NAMES=HP
##CAS NAME=Di-O-difluormethyluracil
##MOLFORM=C6H4F4N2O2
##CAS REGISTRY NO=102302-72-7
##MP= -300
##BP= -300
##MW= 212
##$RETENTION INDEX=0
##$CONDENSED SPECTRUM=NO
##NPOINTS= 127
##XYDATA=(XY..XY) 1 
    12          9
    13         18
    14         19
    15          4
    16          4
    17          6
    18         17
    19          3
    20          9
    24          3
    25         26
    26        235
    27         61
    28        268
    29         33
    30          3
    31        120
    32         52
    33          8
    36          1
    37          5
    38         32
    39         75
    40        377
    41        211
    42        227
    43         18
    44         33
    45        127
    46         81
    47        124
    48          2
    50         36
    51        999
    52        106
    53        139
    54         66
    55         13
    56         22
    57          2
    58          7
    59          9
    60          6
    62          1
    63         10
    64         97
    65          7
    66          5
    67         21
    68        141
    69         39
    70         95
    71        121
    72         50
    73        476
    74        152
    75          6
    76          5
    78        210
    79          7
    80          3
    81          1
    82          1
    83          4
    84          9
    85          4
    86          2
    87          2
    88          1
    89          5
    90         65
    91        474
    92         91
    93          6
    94          5
    95          9
    96         27
    97          4
    99        297
   100        310
   101         16
   102          1
   104          1
   105          2
   106          7
   107          0
   110          2
   111          6
   112          1
   113          3
   114          2
   115          2
   116          1
   118        110
   119        670
   120         53
   121          4
   122          0
   123          2
   127          0
   128          1
   133          2
   134          6
   135          0
   136          0
   139          0
   141          2
   142          0
   143          1
   145          2
   146          1
   149          3
   156          0
   161          0
   162          1
   163          1
   165          0
   166          2
   167          0
   180          1
   184          7
   185          0
   193         30
   194          2
   212        351
   213         29
   214          2