##TITLE=Library Entry 70443
##JCAMP-DX=Revision 4.10 
##DATA TYPE=MASS SPECTRUM
##SAMPLE DESCRIPTION=D.HENNEBERG, MAX-PLANCK INSTITUTE, MULHEIM, WEST GERMAN
Y
##NAMES=HP
##CAS NAME=2,4-Heptadienoic acid, 6-methyl-, ethyl ester
##MOLFORM=C10H16O2
##CAS REGISTRY NO=10236-06-3
##MP= -300
##BP= -300
##MW= 168
##$RETENTION INDEX=1296
##$CONDENSED SPECTRUM=NO
##NPOINTS= 132
##XYDATA=(XY..XY) 1 
    25          5
    26         65
    27        616
    28        121
    29        888
    30         36
    31         56
    32          5
    36          0
    37          5
    38         30
    39        427
    40         72
    41        535
    42        453
    43        298
    44         27
    45         75
    46          6
    47          3
    48          0
    49          6
    50         55
    51        157
    52         90
    53        270
    54         46
    55        385
    56         49
    57        115
    58         21
    59         31
    60         13
    61         12
    62          9
    63         40
    64         13
    65         89
    66         45
    67        360
    68         63
    69        107
    70         30
    71         42
    72         14
    73         22
    74         16
    75        254
    76         45
    77        286
    78         63
    79        498
    80        119
    81        208
    82         44
    83         57
    84        357
    85         31
    86         22
    87         16
    88          8
    89         11
    90          3
    91         92
    92         27
    93        394
    94        168
    95        878
    96         83
    97        999
    98         95
    99         29
   100          8
   101          4
   102          4
   103        260
   104         21
   105         32
   106          6
   107         71
   108         28
   109         33
   110         22
   111        225
   112        182
   113         20
   114          5
   115         16
   116          5
   117         11
   118         24
   119          5
   120          3
   121         52
   122         93
   123        388
   124         59
   125        936
   126         86
   127         12
   128          2
   129          4
   130          5
   131         22
   132          4
   133         10
   134         17
   135          5
   136          5
   137         10
   138         15
   139        182
   140         50
   141          5
   142          1
   143          2
   144          1
   145          5
   146          1
   147          2
   148          2
   149          2
   150          1
   151          3
   152         21
   153         45
   154          3
   166          3
   167         15
   168        473
   169         56
   170          5