##TITLE=Library Entry 40964
##JCAMP-DX=Revision 4.10 
##DATA TYPE=MASS SPECTRUM
##SAMPLE DESCRIPTION=Humboldt-Universitat zu Berlin, Department of Chemistry
, Analytical Group
##NAMES=HP
##CAS NAME=1-(.beta.-d-Arabinofuranosyl)-4-O-difluoromethyluracil
##MOLFORM=C10H12F2N2O6
##CAS REGISTRY NO=102302-66-9
##MP= -300
##BP= -300
##MW= 294
##$RETENTION INDEX=0
##$CONDENSED SPECTRUM=NO
##NPOINTS= 196
##XYDATA=(XY..XY) 1 
    12          8
    13          7
    14         27
    15        202
    16         13
    17         18
    18         61
    19        253
    20        125
    26        150
    27        280
    28        541
    29        576
    30        103
    31        636
    32         21
    33          4
    36          5
    37          5
    38         14
    39        111
    40        199
    41        334
    42        310
    43        491
    44        174
    45        363
    46         27
    47         66
    48         11
    49         15
    50          7
    51         93
    52         47
    53        127
    54        259
    55        432
    56        171
    57        867
    58        148
    59         71
    60        159
    61        186
    62         10
    64          6
    65          6
    66         14
    67         38
    68        153
    69        275
    70        362
    71        240
    73        999
    74        156
    75         39
    76          5
    77         14
    78          7
    79         20
    80         15
    81         71
    82        115
    83        113
    84         85
    85        159
    86        107
    87         57
    88          8
    89          9
    90          4
    91          8
    92         23
    93          6
    94         37
    95         63
    96        191
    97        104
    98        109
    99         17
   100         45
   101         20
   102          8
   103         47
   104         14
   105          4
   107          8
   108         25
   109         10
   110        106
   111         25
   112         35
   113        117
   114         67
   115        129
   116         17
   117          6
   118          2
   120          3
   122         16
   123          8
   124         22
   125          8
   126         12
   127          4
   128         21
   129          4
   131          4
   132         31
   133        465
   134         71
   135         11
   136          8
   137         10
   138         25
   139          6
   140          5
   141          5
   142          7
   143        103
   144          9
   145          6
   146          3
   147          2
   148          2
   149          4
   150          4
   151          4
   152          9
   153          7
   154          2
   155          8
   156          4
   157          3
   158          2
   160         11
   161          9
   162         19
   163        206
   164         17
   165          4
   166         15
   167          4
   168          3
   169          5
   170          6
   171          3
   173          3
   175          5
   176          1
   178          1
   179          2
   183          3
   185          8
   186          2
   187          2
   188          3
   189          1
   191         16
   192          2
   193          2
   195          1
   197          2
   202          7
   203          6
   204          3
   205         21
   206          4
   208          2
   209          1
   217          4
   219          2
   221         12
   222          1
   227          1
   228          1
   229          7
   230          1
   231          1
   233         15
   234         11
   235          2
   245          5
   246          1
   247          1
   259          4
   263         14
   264          3
   265          1
   276         42
   277          5
   278          0
   283          1
   288          1
   289          1
   294          2
   295          1