##TITLE=Library Entry 8312
##JCAMP-DX=Revision 4.10 
##DATA TYPE=MASS SPECTRUM
##SAMPLE DESCRIPTION=E. Zissis, LC, NIDDK, NIH, Bethesda, MD 20892
##NAMES=HP
##CAS NAME=5,6-Isopropylidene-d-manno-1,4-lactone
##MOLFORM=C9H14O6
##CAS REGISTRY NO=102355-63-5
##MP= -300
##BP= -300
##MW= 218
##$RETENTION INDEX=0
##$CONDENSED SPECTRUM=NO
##NPOINTS= 99
##XYDATA=(XY..XY) 1 
    41         92
    42        133
    43        999
    44        199
    45         52
    46          4
    47          6
    49          2
    50          6
    51         12
    52          7
    53         11
    54          6
    55         68
    56         16
    57         75
    58         20
    59        113
    60         86
    61        306
    62         19
    63          6
    64          2
    65          4
    66          2
    67          4
    68         10
    69         44
    70         11
    71         29
    72         53
    73         98
    74         12
    75          4
    76          3
    77         18
    78         45
    79          5
    81          6
    82          3
    83         24
    84          5
    85         36
    86          8
    87         10
    89          3
    90          3
    91          3
    93          2
    94          0
    95          4
    96          1
    97         48
    98          5
    99          8
   100          5
   101        220
   102         13
   103         10
   105          3
   106         19
   107          5
   109          2
   111          2
   112          0
   113          4
   114          2
   115         98
   116          7
   117          1
   119          2
   121          2
   123          1
   124         15
   125          4
   126          0
   127          1
   129          1
   131          4
   132          0
   133         24
   134          1
   139          0
   142          1
   143          3
   149          1
   153          0
   157         34
   158          3
   160          8
   161         15
   162          0
   175         17
   176          1
   203        132
   204         11
   205          2
   218          4
   219          0