##TITLE=Library Entry 96873
##JCAMP-DX=Revision 4.10 
##DATA TYPE=MASS SPECTRUM
##SAMPLE DESCRIPTION=Humboldt-Universitat zu Berlin, Department of Chemistry
, Analytical Group
##NAMES=HP
##CAS NAME=1-(.beta.-d-2-Desoxyribofuranosyl)-4-difluoromethyl-5-ethyluracil
##MOLFORM=C12H16F2N2O5
##CAS REGISTRY NO=102302-64-7
##MP= -300
##BP= -300
##MW= 306
##$RETENTION INDEX=0
##$CONDENSED SPECTRUM=NO
##NPOINTS= 145
##XYDATA=(XY..XY) 1 
    12          6
    15         43
    16         10
    17         23
    18         39
    19         45
    26         17
    27        124
    28        134
    29        163
    30         23
    31        187
    32         10
    38         15
    39        135
    40         36
    41        198
    42         76
    43        478
    44         97
    45        337
    46         15
    47         25
    48          9
    50         10
    51         53
    52         31
    53        100
    54        106
    55        126
    56         35
    57         91
    58         17
    59          9
    60         12
    61         11
    64         10
    65         15
    66         25
    67         55
    68         81
    69        190
    70         49
    71        225
    72         15
    73        387
    74         55
    75         18
    77         15
    78         17
    79         16
    80         63
    81         85
    82         96
    83         25
    84          9
    85         28
    86         13
    87         10
    91          8
    92         15
    93         15
    94         90
    95         40
    96         59
    97         52
    98         57
    99        328
   100         24
   101          8
   105          5
   106          7
   107         15
   108         98
   109         31
   110         20
   111         15
   112          7
   113          5
   114          5
   115         10
   117        999
   118         65
   119         12
   120          6
   121          7
   122         48
   123         22
   124        110
   125         20
   126          8
   127          6
   128         14
   133          5
   136         18
   137          5
   138          8
   139         13
   140         17
   141         12
   142         23
   143          4
   147          9
   149         13
   150          7
   151          4
   152          9
   153          3
   162          2
   164         16
   165          5
   166          3
   167          6
   169          2
   170         33
   171         33
   172          3
   175         48
   176          5
   182          4
   189          5
   190         86
   191         89
   192         10
   193          2
   197          5
   198          2
   201          1
   203          3
   204          2
   215          1
   216          2
   217         17
   218          8
   219          1
   220          2
   237          2
   245          5
   246          2
   257          1
   263          5
   270          5
   275          2
   306         20
   307          3