##TITLE=Library Entry 73790
##JCAMP-DX=Revision 4.10 
##DATA TYPE=MASS SPECTRUM
##SAMPLE DESCRIPTION=NIST Mass Spectrometry Data Center
##NAMES=HP
##CAS NAME=2,4-Dihydroxy-2,5-dimethyl-3(2H)-furan-3-one
##MOLFORM=C6H8O4
##CAS REGISTRY NO=10230-62-3
##MP= -300
##BP= -300
##MW= 144
##$RETENTION INDEX=989
##$CONDENSED SPECTRUM=NO
##NPOINTS= 32
##XYDATA=(XY..XY) 1 
    26         15
    27        133
    29         86
    37          7
    41         14
    42         85
    43        961
    44         71
    45        156
    53         28
    54         35
    55        745
    56         35
    57         10
    58         16
    59         10
    69         15
    71          8
    73        863
    74         34
    75          4
    83          3
    84          7
    87         11
   100          7
   101        999
   102         47
   103          7
   128          7
   144        471
   145         30
   146          5