##TITLE=Library Entry 51001
##JCAMP-DX=Revision 4.10 
##DATA TYPE=MASS SPECTRUM
##SAMPLE DESCRIPTION=MASS SPECTROMETRY CENTER, UNIV. OF UTAH EPA-PTSEL 3880
##NAMES=HP
##CAS NAME=Heptachlor epoxide
##MOLFORM=C10H5Cl7O
##CAS REGISTRY NO=1024-57-3
##MP= -300
##BP= -300
##MW= 386
##$RETENTION INDEX=2012
##$CONDENSED SPECTRUM=NO
##NPOINTS= 194
##XYDATA=(XY..XY) 1 
    27        247
    29        152
    35         33
    36        115
    37         48
    38         68
    39         82
    43          6
    44          3
    47         31
    49         71
    50         73
    51        182
    52         40
    53        209
    55         13
    60         52
    61        132
    62         57
    63         75
    65         28
    71         15
    72         38
    73        129
    74         72
    75         75
    77         26
    81        999
    82         81
    83         79
    84         63
    85        119
    86         68
    87        111
    88         19
    89         57
    90         17
    91         28
    95         38
    96         60
    97         73
    98         47
    99         48
   102         24
   103         24
   106         28
   107         68
   108         57
   109        181
   110         46
   111         61
   115        110
   116         21
   117         94
   118         29
   119         66
   120         43
   121         69
   122         35
   123        140
   124          5
   125         86
   126         48
   127         45
   130         34
   131         32
   132         24
   133         44
   135         22
   141         67
   142         16
   143         83
   144         22
   145         56
   147         61
   148         18
   149         27
   151        190
   152         16
   153        131
   154         16
   155         46
   156         12
   157         34
   158         14
   159         32
   165         32
   167         53
   168         14
   169         45
   170         26
   171         18
   172         12
   179         16
   180         14
   181         52
   182         42
   183        102
   184         25
   185         79
   187         28
   191         59
   192         15
   193         61
   195         26
   201         18
   203         25
   204         41
   205         33
   206         35
   214         25
   215         24
   216         51
   217        116
   218         50
   219        108
   220         34
   221         36
   222         16
   226         17
   227         29
   228         23
   229         28
   230         18
   231         16
   235        128
   236         16
   237        179
   238         32
   239        139
   240         34
   241         68
   242         18
   243         24
   246         15
   248         30
   249         22
   250         30
   251         92
   252         56
   253        113
   254         54
   255         82
   256         31
   257         47
   259         19
   261        128
   262         13
   263        188
   264         19
   265        123
   266         16
   267         51
   269         16
   270         58
   272         92
   273         21
   274         98
   275         23
   276         52
   277         17
   278         20
   280         45
   281         25
   282         57
   283         33
   284         29
   285         24
   287         46
   289         50
   290         16
   291         30
   293         14
   315         43
   317         68
   318         20
   319         46
   321         19
   351        483
   352         62
   353        942
   354        125
   355        722
   356         84
   357        323
   358         44
   359         82
   361         15
   386         40
   388         82
   389         15
   390         75
   392         46
   394         18