##TITLE=Library Entry 44572
##JCAMP-DX=Revision 4.10 
##DATA TYPE=MASS SPECTRUM
##SAMPLE DESCRIPTION=Chemical Sci. & Tec. Lab., NIST, Gaithersburg, MD 20899
##NAMES=HP
##CAS NAME=Octadecanoic acid, 2-[bis(2-hydroxyethyl)amino]ethyl ester
##MOLFORM=C24H49NO4
##CAS REGISTRY NO=10248-74-5
##MP= -300
##BP= -300
##MW= 415
##$RETENTION INDEX=0
##$CONDENSED SPECTRUM=NO
##NPOINTS= 121
##XYDATA=(XY..XY) 1 
    41        451
    42        251
    43        873
    44        210
    45        178
    47         20
    48          4
    49         10
    51         41
    53         16
    54         28
    55        429
    56        277
    57        520
    58         75
    59         17
    60        146
    61         46
    62         38
    67         48
    68         25
    69        200
    70        149
    71        207
    72         43
    73        158
    74        999
    75         36
    77          5
    78         20
    79         13
    81         43
    82         22
    83         97
    84        104
    85        104
    86        110
    87        155
    88        228
    89         15
    93          6
    95         34
    96         12
    97         59
    98         44
    99         74
   100        104
   101         23
   102         19
   103         29
   104        120
   105         13
   106         41
   107          4
   109         15
   111         21
   112         18
   113         26
   114         35
   115         27
   116         66
   118        709
   119         39
   125         17
   126          4
   127         29
   128         20
   129         63
   130         47
   131         36
   132        154
   133         11
   141         12
   142         17
   143         14
   147         34
   150          4
   155         12
   156         12
   157          5
   160         14
   169          9
   171          9
   185         13
   191         59
   197         11
   204         40
   239          5
   241          4
   246         10
   255         14
   256         12
   268         17
   282          5
   283        117
   284         49
   285          5
   297          6
   300         17
   302          4
   311        108
   312         54
   313         10
   324          5
   325          6
   326         20
   328         48
   329          5
   338          5
   340         30
   341          4
   342         11
   352          4
   354         12
   356        261
   357         53
   358         10
   370         29
   384        307
   385         76
   386         15