##TITLE=Library Entry 72889
##JCAMP-DX=Revision 4.10 
##DATA TYPE=MASS SPECTRUM
##SAMPLE DESCRIPTION=L. Tsai, LB, NHLBI, NIH, Bethesda, MD 20892
##NAMES=HP
##CAS NAME=Methyl-diisopropylacetamide
##MOLFORM=C9H19NO
##CAS REGISTRY NO=102450-54-4
##MP= -300
##BP= -300
##MW= 157
##$RETENTION INDEX=0
##$CONDENSED SPECTRUM=NO
##NPOINTS= 71
##XYDATA=(XY..XY) 1 
    41        487
    43        743
    44        359
    45         13
    46          7
    50          8
    51         24
    52         11
    53         92
    54         29
    55        283
    56          3
    57        633
    58         60
    59         12
    60          1
    62          1
    63          3
    65         14
    66          5
    67         32
    68          1
    69         74
    70         21
    71        115
    72         18
    73          3
    74          0
    77         10
    78          5
    79          8
    80          2
    81         15
    82          7
    83        146
    84         12
    86         12
    87          3
    91          5
    92          1
    93          0
    94          0
    95          1
    96          6
    97         45
    98         16
    99         27
   100        999
   101         56
   102          3
   106          1
   107          0
   109          0
   110          0
   111          0
   112          2
   113         12
   114        287
   115        704
   116         47
   117          2
   124          1
   125          0
   126          1
   128          1
   129          1
   142         11
   143          0
   156          0
   157         24
   158          1