##TITLE=Library Entry 34453
##JCAMP-DX=Revision 4.10 
##DATA TYPE=MASS SPECTRUM
##SAMPLE DESCRIPTION=Dmitri Zagorevskii, University of Missouri-Columbia, Co
lumbia, MO
##NAMES=HP
##CAS NAME=Phenylthio 4-methylpent-3-enoate
##MOLFORM=C12H14OS
##CAS REGISTRY NO=102496-83-3
##MP= -300
##BP= -300
##MW= 206
##$RETENTION INDEX=0
##$CONDENSED SPECTRUM=NO
##NPOINTS= 50
##XYDATA=(XY..XY) 1 
    26          5
    27         78
    29         31
    39        156
    40         20
    41        661
    42         35
    43         17
    44          9
    45         27
    50         20
    51         60
    52         10
    53         70
    54         13
    55          7
    58          9
    59          7
    63         14
    65        116
    66         50
    67         51
    68         20
    69        999
    70         61
    71          3
    76          3
    77         43
    78          8
    81         24
    82         12
    91          6
    95          9
    96        229
    97        208
    98         14
    99         16
   108         16
   109        188
   110        220
   111         27
   112         10
   119          6
   121          5
   123          5
   137          9
   154          8
   177          9
   206         36
   207          3