##TITLE=Library Entry 64171
##JCAMP-DX=Revision 4.10 
##DATA TYPE=MASS SPECTRUM
##SAMPLE DESCRIPTION=Japan AIST/NIMC Database- Spectrum MS-IW-6530
##NAMES=HP
##CAS NAME=3,5-Diacetyl-1-benzyl-4-phenyl-1,4-dihydropyridine
##MOLFORM=C22H21NO2
##CAS REGISTRY NO=102459-57-4
##MP= -300
##BP= -300
##MW= 331
##$RETENTION INDEX=0
##$CONDENSED SPECTRUM=NO
##NPOINTS= 112
##XYDATA=(XY..XY) 1 
    28          3
    39          7
    41          3
    43         50
    44          1
    50          2
    51          8
    52          1
    53          1
    62          1
    63          7
    64          1
    65         57
    66          3
    74          1
    75          3
    76          2
    77          9
    78          4
    87          1
    88          2
    89         10
    90          8
    91        999
    92         89
    93          3
   101          1
   102          2
   103          1
   104          1
   105          2
   110          1
   115          6
   120          2
   125          1
   126          3
   127          8
   128          3
   139          3
   140          1
   141          2
   148          2
   149          1
   150          2
   151          4
   152          4
   153          3
   154          6
   155          2
   156          1
   164          3
   165          2
   166          2
   167          5
   168          4
   175          1
   176          2
   177          2
   178          9
   179          5
   180         21
   181          4
   182          9
   183          2
   194          1
   195          1
   196          6
   197          2
   198          5
   199          1
   201          1
   202          3
   203          9
   204          9
   205          3
   206         11
   207          2
   208          1
   209          1
   210          2
   211          1
   221          6
   222         53
   223          9
   224         18
   225          3
   238          2
   239         20
   240         63
   241         10
   242          1
   244          1
   246          4
   247          1
   252          3
   253          3
   254        432
   255         77
   256          8
   274          1
   288         39
   289         10
   290          1
   302          6
   303          2
   314          1
   316          2
   330         25
   331        261
   332         65
   333          9
   334          1