##TITLE=Library Entry 25385
##JCAMP-DX=Revision 4.10 
##DATA TYPE=MASS SPECTRUM
##SAMPLE DESCRIPTION=Chemical Concepts
##NAMES=HP
##CAS NAME=Octatriacontane, 1,38-dibromo-
##MOLFORM=C38H76Br2
##CAS REGISTRY NO=102436-01-1
##MP= -300
##BP= -300
##MW= 690
##$RETENTION INDEX=0
##$CONDENSED SPECTRUM=NO
##NPOINTS= 316
##XYDATA=(XY..XY) 1 
    26          2
    27         26
    28          1
    29         80
    30          1
    36          1
    38          1
    39         22
    40         91
    41        264
    42         58
    43        604
    44         19
    45          1
    50          0
    51          1
    52          1
    53         11
    54         36
    55        519
    56        147
    57        999
    58         43
    59          9
    65          2
    66          4
    67         63
    68         54
    69        425
    70        112
    71        623
    72         36
    73          2
    77          2
    78          1
    79          8
    80         16
    81         53
    82         76
    83        347
    84         62
    85        402
    86         27
    87          1
    91          3
    92          1
    93          4
    94          6
    95         40
    96         51
    97        281
    98         35
    99        157
   100         13
   101          0
   105          1
   107          4
   108          3
   109         24
   110         21
   111        133
   112         23
   113        120
   114         11
   119          1
   120          0
   121          4
   122          2
   123         15
   124         12
   125         61
   126         13
   127         89
   128          9
   133          0
   135         42
   136          3
   137         39
   138          7
   139         29
   140          8
   141         67
   142          7
   148          5
   149         15
   150          5
   151         14
   152          4
   153         18
   154          5
   155         55
   156          6
   157          0
   161          0
   162          3
   163         11
   164          3
   165         12
   166          2
   167         11
   168          3
   169         43
   170          6
   175          0
   176          1
   177         13
   178          1
   179         12
   180          2
   181          8
   182          2
   183         35
   184          4
   185          0
   189          1
   190          0
   191         12
   192          1
   193         10
   194          1
   195          6
   196          1
   197         30
   198          4
   203          1
   204          0
   205         11
   206          1
   207         11
   208          1
   209          4
   210          1
   211         24
   212          4
   217          0
   219         10
   220          1
   221          8
   222          1
   223          3
   224          1
   225         20
   226          3
   231          0
   232          0
   233          9
   234          1
   235          7
   236          1
   237          2
   238          1
   239         17
   240          3
   245          0
   247          8
   248          1
   249          7
   250          1
   251          2
   252          1
   253         14
   254          3
   259          0
   261          8
   262          1
   263          7
   264          1
   265          1
   266          1
   267         12
   268          2
   273          0
   275          7
   276          1
   277          6
   278          1
   279          1
   280          1
   281         11
   282          2
   288          0
   289          6
   290          1
   291          6
   292          1
   293          1
   294          0
   295         10
   296          1
   302          0
   303          6
   304          1
   305          6
   306          1
   307          0
   309          8
   310          1
   316          1
   317          6
   318          1
   319          5
   320          1
   321          1
   323          5
   324          1
   331          5
   332          1
   333          5
   334          1
   335          1
   337          5
   338          1
   345          5
   346          1
   347          5
   348          1
   349          0
   351          4
   352          1
   359          4
   360          1
   361          4
   362          1
   363          0
   365          3
   366          1
   373          4
   374          1
   375          4
   376          1
   377          0
   379          2
   380          1
   387          3
   388          1
   389          3
   390          1
   391          0
   393          2
   394          0
   401          3
   402          1
   403          3
   404          1
   405          0
   407          2
   408          0
   415          4
   416          1
   417          4
   418          1
   419          0
   421          1
   429          3
   430          1
   431          3
   432          1
   435          1
   443          3
   444          0
   445          3
   446          1
   449          0
   457          2
   458          1
   459          3
   460          1
   471          2
   472          0
   473          3
   474          1
   477          1
   485          2
   486          0
   487          3
   488          1
   499          2
   500          0
   501          3
   502          1
   503          0
   513          2
   514          0
   515          2
   516          0
   517          0
   527          2
   528          1
   529          2
   530          3
   531          3
   532          2
   533          1
   541          1
   542          1
   543          1
   544          0
   555          1
   556          0
   557          1
   558          0
   569          0
   571          0
   583          0
   585          0
   606          0
   608          0
   611         44
   612         21
   613         46
   614         20
   615          3
   616          0
   625          1
   626          0
   627          0