##TITLE=Library Entry 34540
##JCAMP-DX=Revision 4.10 
##DATA TYPE=MASS SPECTRUM
##SAMPLE DESCRIPTION=K.Kumazawa ET AL, J.Agric. Food Chem., 49,3304(2001)
##NAMES=HP
##CAS NAME=3-Hydroxy-.beta.-damascone
##MOLFORM=C13H20O2
##CAS REGISTRY NO=102488-09-5
##MP= -300
##BP= -300
##MW= 208
##$RETENTION INDEX=1618
##$CONDENSED SPECTRUM=NO
##NPOINTS= 102
##XYDATA=(XY..XY) 1 
    40         76
    41        713
    42         41
    43        229
    44         17
    45         24
    50         28
    51         59
    52         24
    53        120
    54         13
    55        228
    56         29
    58         99
    59         10
    63         16
    64         18
    65         74
    66         34
    67        117
    68         23
    69        999
    70         47
    71         34
    74         14
    75         13
    76         24
    77        132
    78         35
    79        162
    80         33
    81         68
    83         32
    85         10
    86         20
    89         10
    91        128
    93        136
    94         35
    95         92
    96         17
    97         48
    98         15
   103         19
   104         42
   105        215
   106         42
   107         84
   108         37
   109        100
   110         22
   111         30
   112         62
   115         20
   116         17
   117         20
   118         16
   119        115
   120         26
   121        452
   122         86
   123         73
   124         27
   126         21
   128         18
   129         27
   131         20
   132         21
   133         91
   134         26
   135         50
   136         20
   137         69
   138         24
   139         63
   140         20
   142         30
   144         10
   145         27
   146         30
   147         94
   148         30
   149        295
   150         43
   151         70
   152         35
   157         41
   160         50
   161         35
   162         18
   163         27
   164         50
   165         35
   167         55
   175        441
   176         67
   180         20
   190         29
   193        333
   194         14
   208        350
   209         53