##TITLE=Library Entry 42604
##JCAMP-DX=Revision 4.10 
##DATA TYPE=MASS SPECTRUM
##SAMPLE DESCRIPTION=RADIAN CORP
##NAMES=HP
##CAS NAME=Phenylurea, 2TMS derivative
##MOLFORM=C13H24N2OSi2
##CAS REGISTRY NO=1024-58-4
##MP= -300
##BP= -300
##MW= 280
##$RETENTION INDEX=0
##$CONDENSED SPECTRUM=NO
##NPOINTS= 102
##XYDATA=(XY..XY) 1 
    15          5
    29          7
    31          5
    43         44
    44         34
    45        209
    46         15
    47          2
    51          3
    55          4
    56          6
    57         11
    58         36
    59         86
    60         11
    61          6
    69          3
    70         11
    71         10
    72         41
    73        999
    74        108
    77         39
    78          4
    79          4
    83          5
    84         54
    85          8
    86          8
    87          3
    90          3
    91          4
    92          3
    93         10
    94          3
    95          7
    99         10
   100          5
   101          5
   102          3
   103          5
   104          5
   105          5
   106         11
   107          6
   108          2
   109          1
   113          3
   115          9
   116         11
   117         11
   118         19
   120         17
   121          8
   122         10
   123          3
   130         36
   131         43
   132         42
   133         53
   134         64
   135         18
   136          6
   146        180
   147        538
   148        140
   149        183
   150        505
   151         82
   152         22
   157          6
   159          2
   161          5
   163          2
   164         19
   165         59
   166         10
   171          3
   173         14
   175         36
   176          6
   177          7
   188         55
   189        172
   190         67
   191         32
   192         20
   193          6
   206          2
   207          2
   208          5
   222         10
   223          5
   249         49
   250         10
   251          3
   265        139
   266          5
   267          9
   280         66
   281          2
   282          4