##TITLE=Library Entry 4151
##JCAMP-DX=Revision 4.10 
##DATA TYPE=MASS SPECTRUM
##SAMPLE DESCRIPTION=Chemical Concepts
##NAMES=HP
##CAS NAME=Succinic acid, (5-hexenyl)-
##MOLFORM=C10H16O4
##CAS REGISTRY NO=102540-74-9
##MP= -300
##BP= -300
##MW= 200
##$RETENTION INDEX=0
##$CONDENSED SPECTRUM=NO
##NPOINTS= 110
##XYDATA=(XY..XY) 1 
    26         30
    27        449
    28         36
    29        361
    30         10
    31         24
    38         24
    39        541
    40         87
    41        999
    42        124
    43        220
    44         16
    45        148
    46          6
    50         12
    51         47
    52         20
    53        217
    54        451
    55        584
    56         73
    57        110
    58         52
    59         16
    60         51
    61          9
    62          7
    63         11
    65         64
    66         57
    67        640
    68        428
    69        123
    70        101
    71        344
    72        109
    73        160
    74         19
    77         53
    78         19
    79        271
    80        755
    81        316
    82        183
    83        147
    84         36
    85         77
    86         49
    87         17
    91         54
    92         56
    93        233
    94        319
    95        302
    96         46
    97         67
    98         25
    99         96
   100        668
   101         38
   102         23
   104         23
   105         48
   106          9
   107         58
   108        137
   109        136
   110         45
   111         38
   112        116
   113        120
   114         20
   115          8
   117         19
   118        206
   119        110
   120         25
   121         66
   122        359
   123        195
   124         26
   125         27
   126         21
   127         31
   128         18
   131         15
   135         47
   136        216
   137        193
   138         85
   139         25
   140         63
   141         45
   142          6
   146         16
   147          7
   149         20
   153         33
   154         54
   155          9
   163          5
   164        887
   165        110
   166          9
   167         20
   181          5
   182        210
   183         34
   200          6