##TITLE=Library Entry 95335
##JCAMP-DX=Revision 4.10 
##DATA TYPE=MASS SPECTRUM
##SAMPLE DESCRIPTION=E.A. MASH, DEP. CHEM., UNIV. ARIZONA, TUCSON, ARIZ., US
A
##NAMES=HP
##CAS NAME=(1S,15S)-Bicyclo[13.1.0]hexadecan-2-one 1,4-di-O-methyl-d-threito
lketal
##MOLFORM=C22H40O4
##CAS REGISTRY NO=102521-16-4
##MP= -300
##BP= -300
##MW= 368
##$RETENTION INDEX=0
##$CONDENSED SPECTRUM=NO
##NPOINTS= 28
##XYDATA=(XY..XY) 1 
    67        140
    69        110
    84        200
    85        160
    95         80
   112         50
   115        999
   116         60
   144         50
   174        190
   187        740
   188         80
   213         50
   214         70
   237         70
   243         30
   255         50
   269         30
   283         30
   297         30
   311         50
   313         20
   323         60
   325        150
   326         30
   339         30
   368         50
   369         10