##TITLE=Library Entry 54036
##JCAMP-DX=Revision 4.10 
##DATA TYPE=MASS SPECTRUM
##SAMPLE DESCRIPTION=V.A.Korolev, Moscow, Russia
##NAMES=HP
##CAS NAME=Oxan-3-ylacetic acid
##MOLFORM=C7H12O3
##CAS REGISTRY NO=102539-71-9
##MP= -300
##BP= -300
##MW= 144
##$RETENTION INDEX=0
##$CONDENSED SPECTRUM=NO
##NPOINTS= 57
##XYDATA=(XY..XY) 1 
    37         10
    38         26
    39        290
    40         82
    41        410
    42        249
    43        131
    44         59
    45        499
    46         14
    47          5
    50         26
    51         46
    52         21
    53        139
    54        139
    55        411
    56        137
    57        159
    58        106
    60        153
    61         20
    62          3
    63          8
    65         21
    67        147
    68        113
    69        179
    70         21
    71         42
    72          3
    73         31
    77          2
    79         16
    80          9
    81         39
    82         27
    84        999
    85        547
    86         53
    87          4
    96          3
    97         33
    98         22
    99         15
   100          5
   101          2
   113          9
   114         88
   115          6
   125          2
   126         40
   127         23
   128          1
   143          8
   144         90
   145          7