##TITLE=Library Entry 25650
##JCAMP-DX=Revision 4.10 
##DATA TYPE=MASS SPECTRUM
##SAMPLE DESCRIPTION=Chemical Concepts
##NAMES=HP
##CAS NAME=Butanoic acid, 3,3-dimethyl-, methyl ester
##MOLFORM=C7H14O2
##CAS REGISTRY NO=10250-48-3
##MP= -300
##BP= -300
##MW= 130
##$RETENTION INDEX=804
##$CONDENSED SPECTRUM=NO
##NPOINTS= 64
##XYDATA=(XY..XY) 1 
    20          0
    25          3
    26         10
    27        165
    28         53
    29        327
    30         10
    31         24
    32          4
    33          2
    37          2
    38         10
    39        170
    40         26
    41        426
    42         54
    43        342
    44         17
    45         16
    46          1
    49          0
    50          7
    51         13
    52          4
    53         33
    54          9
    55        243
    56         84
    57        999
    58         43
    59        195
    60          5
    61          0
    63          0
    65          0
    66          0
    67          3
    68          1
    69         16
    70          5
    71         38
    72          3
    73        843
    74        891
    75         52
    76          4
    81          0
    82          6
    83        101
    84          5
    85          1
    86          1
    87          3
    97          1
    99        210
   100         14
   101          1
   113          0
   114          4
   115         57
   116          4
   119          1
   130         13
   131          2