##TITLE=Library Entry 16741
##JCAMP-DX=Revision 4.10 
##DATA TYPE=MASS SPECTRUM
##SAMPLE DESCRIPTION=Chemical Concepts
##NAMES=HP
##CAS NAME=Octanoic acid, 6-hydroxy-8-methoxy-, .epsilon.-lactone
##MOLFORM=C9H16O3
##CAS REGISTRY NO=102541-04-8
##MP= -300
##BP= -300
##MW= 172
##$RETENTION INDEX=0
##$CONDENSED SPECTRUM=NO
##NPOINTS= 132
##XYDATA=(XY..XY) 1 
    25          1
    26         51
    27        422
    28        303
    29        369
    30         13
    31        111
    33         47
    34          0
    37          5
    38         20
    39        368
    40         69
    41        447
    42        128
    43        173
    44         29
    45        999
    46         24
    47          3
    48          1
    49         14
    50         31
    51         16
    52        116
    53         88
    54         60
    55        412
    56        141
    57        145
    58         89
    59         35
    60         35
    61         10
    62          2
    63          6
    64          1
    65         16
    66         17
    67        331
    68        231
    69         45
    70         44
    71        361
    72         38
    73         24
    74          7
    75          2
    76          0
    77         12
    78          4
    79         28
    80         64
    81         81
    82         51
    83         88
    84        217
    85        262
    86         18
    87         82
    88         20
    89          5
    90          1
    91          5
    92          2
    93         11
    94         53
    95         61
    96         29
    97         33
    98         50
    99         14
   100         10
   101          8
   102         36
   103          3
   104          1
   105          1
   106          1
   107          2
   108          7
   109          6
   110         13
   111         27
   112        118
   113         69
   114         28
   115         59
   116          7
   117          1
   118          0
   119          0
   121          2
   122         16
   123         19
   124         23
   125          8
   126         33
   127          6
   128          3
   129          8
   130          1
   131          0
   132          5
   133          0
   135          0
   136          4
   137          0
   139         50
   140         39
   141         13
   142          7
   143          3
   144         11
   145          1
   149          0
   153          1
   154         11
   155          5
   156          0
   157          3
   158          0
   160          0
   165          0
   167          0
   168          0
   169          0
   170          0
   171          1
   172          2
   173          9
   174          1