##TITLE=Library Entry 53398
##JCAMP-DX=Revision 4.10 
##DATA TYPE=MASS SPECTRUM
##SAMPLE DESCRIPTION=Japan AIST/NIMC Database- Spectrum MS-NW-5093
##NAMES=HP
##CAS NAME=1,3,5-Triazine-2,4,6(1H,3H,5H)-trione, 1,3,5-tri-2-propenyl-
##MOLFORM=C12H15N3O3
##CAS REGISTRY NO=1025-15-6
##MP= -300
##BP= -300
##MW= 249
##$RETENTION INDEX=0
##$CONDENSED SPECTRUM=NO
##NPOINTS= 128
##XYDATA=(XY..XY) 1 
    12          1
    14          2
    15         12
    16          1
    17          1
    18          3
    24          1
    25          3
    26         27
    27         80
    28        141
    29         13
    30          6
    31          1
    32          1
    36          2
    37          9
    38         19
    39        236
    40         50
    41        501
    42         28
    43         13
    44         22
    50          1
    51          4
    52         12
    53         10
    54        145
    55        117
    56        315
    57         24
    58          4
    65          1
    66          2
    67          9
    68         19
    69         22
    70        320
    71         11
    72          2
    77          1
    78          1
    79          6
    80          9
    81         14
    82        560
    83        999
    84        230
    85         12
    86          1
    87          4
    93          2
    94          8
    95          8
    96         15
    97         12
    98          3
    99         11
   100          1
   108          2
   109         16
   110          7
   111         10
   112          3
   113          3
   121          1
   122          4
   123          8
   124         44
   125        192
   126         22
   127         13
   128          1
   130          1
   135          1
   136          1
   137         31
   138          9
   139         36
   140          6
   141          2
   151         19
   152          4
   153          4
   154          7
   155          1
   163          1
   164          1
   165         11
   166          9
   167         10
   168          3
   169          1
   170          2
   173          1
   174          2
   178          1
   179         10
   180          4
   182          2
   191          1
   192          2
   193          2
   194         10
   195          7
   196          1
   205          3
   206          5
   207          4
   208        134
   209         17
   210          9
   211          1
   220          4
   221          3
   222          6
   223          2
   232          2
   234         60
   235          9
   236          2
   247          1
   248          9
   249        751
   250        112
   251         17
   252          2