##TITLE=Library Entry 16701
##JCAMP-DX=Revision 4.10 
##DATA TYPE=MASS SPECTRUM
##SAMPLE DESCRIPTION=NIST Mass Spectrometry Data Center
##NAMES=HP
##CAS NAME=Acetic acid, cyano-, 2-methoxyethyl ester
##MOLFORM=C6H9NO3
##CAS REGISTRY NO=10258-54-5
##MP= -300
##BP= -300
##MW= 143
##$RETENTION INDEX=0
##$CONDENSED SPECTRUM=NO
##NPOINTS= 38
##XYDATA=(XY..XY) 1 
    12          3
    13          9
    14         27
    15        153
    16          4
    17          3
    19          3
    24          1
    25          4
    26         27
    27         58
    28         88
    29        242
    30         24
    31         47
    32          1
    33          4
    38         14
    39         36
    40        128
    41         35
    42         43
    43         95
    45        999
    46         25
    47          3
    52          1
    54          7
    55         14
    58        178
    59         22
    60          2
    68        128
    69          5
    75          5
    86          5
   112          2
   113          1