##TITLE=Library Entry 85400
##JCAMP-DX=Revision 4.10 
##DATA TYPE=MASS SPECTRUM
##SAMPLE DESCRIPTION=Japan AIST/NIMC Database- Spectrum MS-IW-3758
##NAMES=HP
##CAS NAME=Acetamide, N,N'-1,3-phenylenebis-
##MOLFORM=C10H12N2O2
##CAS REGISTRY NO=10268-78-7
##MP= -300
##BP= -300
##MW= 192
##$RETENTION INDEX=0
##$CONDENSED SPECTRUM=NO
##NPOINTS= 72
##XYDATA=(XY..XY) 1 
    14          1
    15         14
    26          1
    27          4
    28         10
    29          1
    30          1
    37          1
    38          5
    39         13
    40          5
    41          9
    42         11
    43        220
    44          5
    50          5
    51         12
    52         25
    53         26
    54          6
    55          2
    61          1
    62          3
    63         11
    64         12
    65         17
    66          7
    67          7
    68          2
    69          1
    75          1
    76          2
    77          4
    78         10
    79         13
    80        103
    81         63
    82          4
    89          1
    90          5
    91         13
    92          9
    93          7
    94          3
   104          1
   105          8
   106          7
   107         24
   108        999
   109         87
   110          3
   117          1
   119          2
   120          1
   121          7
   122          4
   132          1
   133          1
   134         25
   135          6
   148          2
   149         27
   150        436
   151         42
   152          3
   163          1
   173          1
   177          5
   191          5
   192        475
   193         55
   194          5