##TITLE=Library Entry 86356
##JCAMP-DX=Revision 4.10 
##DATA TYPE=MASS SPECTRUM
##SAMPLE DESCRIPTION=NIST Mass Spectrometry Data Center, 2009
##NAMES=HP
##CAS NAME=2-Fluorobenzyl acetate
##MOLFORM=C9H9FO2
##CAS REGISTRY NO=102606-96-2
##MP= -300
##BP= -300
##MW= 168
##$RETENTION INDEX=1177
##$CONDENSED SPECTRUM=NO
##NPOINTS= 82
##XYDATA=(XY..XY) 1 
    14          2
    15         11
    26          1
    27          3
    28          1
    29          9
    30          1
    31          5
    33          2
    37          2
    38          7
    39         28
    40          1
    41          2
    42         14
    43        385
    44         14
    45          5
    46          1
    49          3
    50         40
    51         55
    52          7
    53          2
    54         13
    56          6
    57         65
    58          3
    59         18
    60          1
    61          7
    62         21
    63         51
    64          5
    65          3
    68         11
    69         18
    70         22
    71          3
    73          3
    74         20
    75         73
    76         13
    77         72
    78         14
    79          4
    80          3
    81         28
    82         10
    83        174
    84         10
    85          3
    86          4
    87          5
    88          4
    89         28
    90          3
    91          1
    92          3
    93          3
    94         12
    95         95
    96         40
    97        152
    98         12
   105        170
   106         92
   107        187
   108        470
   109        999
   110         77
   111          3
   123         71
   124          9
   125        129
   126        757
   127         59
   128          3
   167         10
   168        296
   169         29
   170          2