##TITLE=Library Entry 16497
##JCAMP-DX=Revision 4.10 
##DATA TYPE=MASS SPECTRUM
##SAMPLE DESCRIPTION=AAFS Toxicology Section MS DB Committee, U. Alberta, Ca
nada
##NAMES=HP
##CAS NAME=Maprotiline
##MOLFORM=C20H23N
##CAS REGISTRY NO=10262-69-8
##MP= -300
##BP= -300
##MW= 277
##$RETENTION INDEX=2328
##$CONDENSED SPECTRUM=NO
##NPOINTS= 134
##XYDATA=(XY..XY) 1 
    30         87
    31         47
    34          1
    39          8
    40          1
    41          9
    42         58
    43         23
    44        999
    45         29
    50          3
    51          6
    52          2
    53          2
    54          4
    55          3
    56         39
    57         47
    58          6
    59        158
    60          7
    62          2
    63          6
    65          4
    66          1
    67          2
    68          5
    70        136
    71         65
    72          5
    73          1
    74          3
    75          5
    76          5
    77          9
    78          3
    79          2
    81          1
    82          3
    87          3
    88          4
    89         10
    91         11
    92          1
    94          7
    99          3
   100          3
   101         13
   102          7
   105          3
   106          2
   110          1
   113          3
   114          1
   115         25
   116          4
   117         11
   118          2
   125          2
   126          7
   127          9
   128         14
   129          6
   130          1
   131          2
   137          2
   138          2
   139         15
   140          3
   141          7
   142          3
   149          5
   150         23
   151         33
   152         35
   153          8
   154          2
   155          2
   161          2
   162          4
   163         26
   164         18
   165         67
   166         11
   167          1
   174          7
   175         11
   176         83
   177         40
   178        109
   179         23
   180          3
   186          2
   187         16
   188         17
   189        159
   190         71
   191        129
   192         31
   193          4
   198          1
   199          3
   200         33
   201         36
   202        211
   203        241
   204        185
   205         89
   206         15
   207          1
   211          2
   213         12
   214          5
   215         44
   216         15
   217         48
   218         42
   219          9
   220          2
   226          3
   227          3
   228          3
   229          2
   230          2
   231          1
   232          2
   233          3
   246          2
   247          2
   248          6
   249          2
   277        195
   278         45
   279          5