##TITLE=Library Entry 93703
##JCAMP-DX=Revision 4.10 
##DATA TYPE=MASS SPECTRUM
##SAMPLE DESCRIPTION=A.A.Kutin, Moscow, Russia
##NAMES=HP
##CAS NAME=Indano[2,1-d]1,3-dioxane,
##MOLFORM=C11H12O2
##CAS REGISTRY NO=102688-70-0
##MP= -300
##BP= -300
##MW= 176
##$RETENTION INDEX=0
##$CONDENSED SPECTRUM=NO
##NPOINTS= 79
##XYDATA=(XY..XY) 1 
    37         10
    38         46
    39        190
    41         41
    42          6
    43          6
    44          7
    45         19
    46          0
    47          2
    50         98
    51        121
    52         25
    53         11
    55         15
    57          9
    58          0
    59          2
    60          0
    61         16
    62         77
    63        187
    64         38
    65         96
    66          6
    73          5
    74         49
    75         43
    76         35
    77         77
    78         24
    79          4
    85          9
    86         25
    87         38
    88         28
    89        183
    90         83
    91        166
    92         15
    98          3
    99          2
   100          0
   101          8
   102         38
   103         49
   104         17
   105         13
   106          0
   110          1
   111          0
   113         28
   115        999
   116        599
   117        328
   118        101
   119         14
   120          1
   126          7
   127         55
   128        180
   129        339
   130        157
   131        163
   132         17
   133          4
   143          2
   145        121
   146        312
   147         33
   148          3
   159          0
   160          1
   161          0
   162          1
   165          0
   175          3
   176         33
   177          3