##TITLE=Library Entry 63316
##JCAMP-DX=Revision 4.10 
##DATA TYPE=MASS SPECTRUM
##SAMPLE DESCRIPTION=Chemical Concepts
##NAMES=HP
##CAS NAME=2a,6a-Methano-1H-cyclopropa[b]naphthalene-1,1,8,8-tetrachloro-1a,
2,3,6,7,7a-hexahydro-
##MOLFORM=C12H12Cl4
##CAS REGISTRY NO=102618-60-0
##MP= -300
##BP= -300
##MW= 296
##$RETENTION INDEX=0
##$CONDENSED SPECTRUM=NO
##NPOINTS= 239
##XYDATA=(XY..XY) 1 
    26         17
    27        160
    28         37
    29        129
    30          9
    36         11
    37         11
    38         35
    39        328
    40         34
    41        264
    42         50
    43        210
    44        173
    45        107
    47         16
    49         56
    50        132
    51        305
    52         80
    53        111
    54         28
    55        177
    56         66
    57        253
    58         33
    59         12
    60         51
    61         47
    62         90
    63        270
    64         93
    65        317
    66        178
    67        123
    68         35
    69        141
    70         67
    71        120
    72         13
    73        177
    74        106
    75        284
    76        228
    77        507
    78        165
    79        188
    80         43
    81        110
    82         52
    83        119
    84         50
    85        112
    86        129
    87        177
    88         54
    89        235
    90         53
    91        999
    92        143
    93         82
    94         52
    95         92
    96         44
    97        101
    98         49
    99        177
   100         61
   101        231
   102        203
   103        411
   104        172
   105        193
   106         35
   107         38
   108         17
   109        318
   110         43
   111        252
   112         86
   113        318
   114        103
   115        911
   116        337
   117        376
   118         63
   119         42
   120         19
   121         58
   122         69
   123         82
   124         55
   125        532
   126        150
   127        421
   128        488
   129        373
   130        102
   131        177
   132         34
   133         39
   134         17
   135         72
   136         73
   137        151
   138        145
   139        499
   140        111
   141        589
   142        271
   143        153
   144         37
   145         32
   146         42
   147        138
   148         77
   149         85
   150         91
   151        510
   152        304
   153        456
   154        262
   155        174
   156         41
   157         31
   158         17
   159        379
   160         90
   161        355
   162        183
   163        250
   164        114
   165        168
   166         44
   167         56
   168         19
   169         27
   170         19
   171         41
   172         95
   173        205
   174        223
   175        243
   176        196
   177        501
   178        135
   179        175
   180         38
   181         36
   182         17
   183         63
   184         31
   185        116
   186         53
   187        734
   188        116
   189        974
   190        219
   191        322
   192         74
   193         44
   194         25
   195         66
   196         47
   197        129
   198         53
   199        157
   200         54
   201         84
   202         27
   203         27
   204         17
   205         29
   206         35
   207         80
   208         49
   209         89
   210         38
   211         93
   212         32
   213        197
   214         39
   215        103
   216         20
   217         22
   218          7
   219         20
   220          8
   221         29
   222         16
   223         33
   224         23
   225        310
   226         72
   227        208
   228         43
   229         41
   230         11
   231          9
   232          9
   233         20
   234         37
   235         24
   236         31
   237         12
   238         11
   239          7
   241         11
   242         18
   243         14
   244         24
   245         18
   246         12
   247         20
   248          6
   249         13
   255         10
   256          7
   257         11
   259         10
   260         30
   261        479
   262         92
   263        453
   264         71
   265        155
   266         24
   267         21
   268          9
   281         10
   283         12
   285          6
   296         44
   297         10
   298         59
   299         10
   300         29
   301          5
   302          6