##TITLE=Library Entry 71942
##JCAMP-DX=Revision 4.10 
##DATA TYPE=MASS SPECTRUM
##SAMPLE DESCRIPTION=D.HENNEBERG, MAX-PLANCK INSTITUTE, MULHEIM, WEST GERMAN
Y
##NAMES=HP
##CAS NAME=Biuret, 1-[(dimethylamino)methylene]-
##MOLFORM=C5H10N4O2
##CAS REGISTRY NO=10264-58-1
##MP= -300
##BP= -300
##MW= 158
##$RETENTION INDEX=0
##$CONDENSED SPECTRUM=NO
##NPOINTS= 76
##XYDATA=(XY..XY) 1 
    27         17
    28        120
    29         22
    30         91
    31          4
    32          1
    39          0
    40          2
    41          9
    42        146
    43        134
    44        475
    45         39
    46          2
    50          0
    51          0
    52          0
    53          1
    54          2
    55         15
    56         26
    57         83
    58          6
    59          0
    60          4
    61          3
    67          0
    68          0
    69         11
    70         48
    71         78
    72         51
    73          4
    74          0
    77          0
    79          0
    80          0
    81          0
    82          1
    83         19
    84          1
    85         56
    86         11
    87          4
    88          4
    96          0
    97          1
    98        284
    99        999
   100         59
   101          4
   102          1
   103          0
   105          0
   107          0
   108          0
   112          1
   113          1
   114          9
   115         45
   116          3
   126          0
   129          2
   130          9
   131          0
   140          0
   141          6
   142          1
   143         24
   144          1
   155          0
   156          0
   157          0
   158        335
   159         25
   160          2