##TITLE=Library Entry 83082
##JCAMP-DX=Revision 4.10 
##DATA TYPE=MASS SPECTRUM
##SAMPLE DESCRIPTION=Chemical Concepts
##NAMES=HP
##CAS NAME=Propanamide, N-(phenylmethyl)-
##MOLFORM=C10H13NO
##CAS REGISTRY NO=10264-12-7
##MP= -300
##BP= -300
##MW= 163
##$RETENTION INDEX=0
##$CONDENSED SPECTRUM=NO
##NPOINTS= 81
##XYDATA=(XY..XY) 1 
    27        106
    28        121
    29        414
    30         94
    31          2
    37          2
    38          6
    39         68
    40         10
    41         19
    42         11
    43          7
    44         10
    49          1
    50         32
    51        108
    52         29
    53         10
    54          5
    55         14
    56         16
    57        254
    58         16
    59          3
    62          7
    63         42
    64         11
    65        164
    66         11
    67          1
    70          1
    72          5
    74          7
    75          6
    76         11
    77        152
    78         64
    79        166
    80         13
    83          4
    84          3
    85          5
    86          6
    87          1
    89         38
    90         16
    91        975
    92         75
    93          3
    94          1
   102          1
   103          8
   104         74
   105         48
   106        999
   107        416
   108         33
   109          1
   112          1
   115          1
   116          3
   117          5
   118          6
   119          6
   120          2
   130          3
   131          3
   132         14
   133         17
   134         12
   135          1
   144          2
   145          2
   146          3
   147          1
   148         27
   149          4
   162         45
   163        977
   164        107
   165          7