##TITLE=Library Entry 65736
##JCAMP-DX=Revision 4.10 
##DATA TYPE=MASS SPECTRUM
##SAMPLE DESCRIPTION=Chemical Concepts
##NAMES=HP
##CAS NAME=Pentanamide, N-phenyl-
##MOLFORM=C11H15NO
##CAS REGISTRY NO=10264-18-3
##MP= -300
##BP= -300
##MW= 177
##$RETENTION INDEX=1642
##$CONDENSED SPECTRUM=NO
##NPOINTS= 80
##XYDATA=(XY..XY) 1 
    26          2
    27         43
    28          4
    29        110
    30          3
    31          0
    37          1
    38          6
    39         41
    40          3
    41         66
    42          4
    43          2
    44          0
    50          6
    51         21
    52          4
    53          3
    54          2
    55         11
    56          2
    57        103
    58          4
    59          1
    61          0
    62          1
    63          6
    64          9
    65         42
    66         42
    67          4
    68          0
    69          0
    73          0
    74          1
    75          1
    76          2
    77         42
    78          5
    79          1
    80          0
    81          0
    83          0
    84          0
    85         19
    86          1
    89          0
    90          1
    91         10
    92         31
    93        999
    94         66
    95          2
   103          0
   104          1
   105          0
   106          4
   107          0
   117          0
   118          1
   119          4
   120         17
   121          1
   130          0
   131          0
   132          0
   133          0
   134          6
   135         70
   136          6
   137          0
   146          0
   148          4
   149          0
   162          0
   163          0
   176          3
   177        109
   178         18
   179          1