##TITLE=Library Entry 7665
##JCAMP-DX=Revision 4.10 
##DATA TYPE=MASS SPECTRUM
##SAMPLE DESCRIPTION=CARL DJERASSI DEPT OF CHEM STANFORD UNIV STANFORD CALIF
 94305
##NAMES=HP
##CAS NAME=Valeramide, N-hexyl-
##MOLFORM=C11H23NO
##CAS REGISTRY NO=10264-25-2
##MP= -300
##BP= -300
##MW= 185
##$RETENTION INDEX=1516
##$CONDENSED SPECTRUM=NO
##NPOINTS= 41
##XYDATA=(XY..XY) 1 
    41        810
    42        160
    43        999
    44        590
    45         60
    53         20
    54        160
    55        310
    56        210
    57        820
    58        170
    59         40
    60         70
    69         30
    70         10
    71         50
    72        180
    73        470
    74         20
    82         10
    83         30
    84         50
    85        780
    86        370
    87        250
    88         10
    99         10
   100        190
   101        180
   102        170
   114        250
   115        140
   128        170
   129         10
   142        210
   143        420
   144         30
   156        210
   157         10
   170         20
   185         40