##TITLE=Library Entry 50359
##JCAMP-DX=Revision 4.10 
##DATA TYPE=MASS SPECTRUM
##SAMPLE DESCRIPTION=NIST Mass Spectrometry Data Center, 1990.
##NAMES=HP
##CAS NAME=3,7,11,15-Tetramethyl-2-hexadecen-1-ol
##MOLFORM=C20H40O
##CAS REGISTRY NO=102608-53-7
##MP= -300
##BP= -300
##MW= 296
##$RETENTION INDEX=2116
##$CONDENSED SPECTRUM=NO
##NPOINTS= 60
##XYDATA=(XY..XY) 1 
    27         89
    29        193
    39        129
    41        811
    42        144
    43        965
    44         40
    51         22
    52         20
    53        227
    55        852
    56        254
    57        811
    58         33
    65         82
    67        662
    68        728
    69        630
    70        203
    71        748
    72         42
    77        114
    79        339
    80        125
    81        999
    82        986
    83        467
    84         77
    85        150
    86         22
    91         95
    92         22
    93        136
    94        129
    95        962
    96        421
    97        290
    98         41
    99         27
   105         25
   107         86
   108         35
   109        263
   110        115
   111        157
   112         33
   113         18
   121         34
   123        892
   124        216
   125         62
   126         40
   137         91
   138         41
   151         27
   152         20
   179         40
   193         25
   278        113
   279         26