##TITLE=Library Entry 85710
##JCAMP-DX=Revision 4.10 
##DATA TYPE=MASS SPECTRUM
##SAMPLE DESCRIPTION=Div. of Experiment Therapeutics WRAIR, WRAMC, Washingto
n DC 20307
##NAMES=HP
##CAS NAME=1-[3-Aminopropyl]-2[1H]-pyridone
##MOLFORM=C8H12N2O
##CAS REGISTRY NO=102675-58-1
##MP= -300
##BP= -300
##MW= 152
##$RETENTION INDEX=0
##$CONDENSED SPECTRUM=NO
##NPOINTS= 86
##XYDATA=(XY..XY) 1 
    41        394
    42        177
    43        108
    44        212
    45         11
    46          3
    47         17
    48          6
    49         75
    50         50
    51        143
    52         85
    53        196
    54         92
    55         89
    56        705
    57        485
    58         54
    59          2
    63          8
    64         15
    65         37
    66        103
    67        472
    68         85
    69          9
    70         38
    71          6
    72          7
    73          2
    74          9
    75          5
    76          5
    77         10
    78        297
    79         43
    80        159
    81        384
    82         53
    83         34
    84         63
    85         42
    86         27
    88          2
    91          2
    92         12
    93         29
    94         70
    95        534
    96        703
    97         57
    98         68
    99         22
   100          7
   101          8
   104         43
   105          2
   106         15
   107         13
   109        999
   110         33
   111         18
   112         16
   113          9
   116         11
   118          6
   119          6
   120         34
   122        230
   123         80
   124         21
   125         12
   126         14
   127         10
   133          4
   134         43
   135        178
   136        253
   137         67
   138         14
   149         20
   150         42
   151         56
   152        262
   153         29
   154          4