##TITLE=Library Entry 10132
##JCAMP-DX=Revision 4.10 
##DATA TYPE=MASS SPECTRUM
##SAMPLE DESCRIPTION=Chemical Concepts
##NAMES=HP
##CAS NAME=3-Aza-2-oxabicyclo[2.2.2]oct-5-ene, 3-acetyl-7-endo,8-exo-dimetho
xy-
##MOLFORM=C10H15NO4
##CAS REGISTRY NO=102724-50-5
##MP= -300
##BP= -300
##MW= 213
##$RETENTION INDEX=0
##$CONDENSED SPECTRUM=NO
##NPOINTS= 99
##XYDATA=(XY..XY) 1 
    36          0
    37          2
    38          8
    39         65
    41         54
    42         36
    43        999
    45        138
    46          3
    47          8
    50          7
    51         19
    52         16
    53         47
    54         37
    55        154
    56         15
    57          7
    58          8
    59         26
    60          3
    61          2
    62          1
    63          4
    64          3
    65         35
    66         24
    67         23
    68         27
    69         18
    70          6
    71         11
    72          2
    73        208
    74         26
    75         76
    76          3
    77         52
    78         26
    79         22
    80         69
    81         44
    82         78
    83        410
    84         27
    85         21
    86          2
    87          1
    88        691
    89         44
    90          3
    91          3
    92          4
    93          9
    94         66
    95         20
    96         18
    97         25
    98         10
    99          3
   100          1
   101          4
   102          3
   106          3
   107         10
   108         23
   109         44
   110         18
   111         21
   112         20
   113          3
   114          1
   120          0
   121          2
   122         16
   123          8
   124         11
   125         61
   126         11
   127          5
   128          0
   131          2
   138         12
   139         26
   140         23
   141          2
   142          4
   144          0
   152          1
   153          0
   154         13
   155          1
   156          1
   165          0
   170          1
   171          3
   196          1
   213         14
   214          2