##TITLE=Library Entry 81097
##JCAMP-DX=Revision 4.10 
##DATA TYPE=MASS SPECTRUM
##SAMPLE DESCRIPTION=Chemical Concepts
##NAMES=HP
##CAS NAME=Benzene, 1-methoxy-2-(1-methylethenyl)-
##MOLFORM=C10H12O
##CAS REGISTRY NO=10278-02-1
##MP= -300
##BP= -300
##MW= 148
##$RETENTION INDEX=1094
##$CONDENSED SPECTRUM=NO
##NPOINTS= 120
##XYDATA=(XY..XY) 1 
    25          1
    26          8
    27         96
    28         18
    29          9
    30          1
    31          5
    32          2
    36          0
    37          6
    38         27
    39        174
    40         17
    41         31
    42          3
    43         15
    44          1
    45          4
    46          0
    49          2
    50         56
    51        152
    52         39
    53         37
    54          2
    55         27
    56          1
    57          6
    58          2
    59          2
    60          1
    61          7
    62         31
    63        112
    64         33
    65         84
    66         17
    67          3
    68          1
    69          0
    70          0
    71          1
    72          1
    73          3
    74         24
    75         35
    76         27
    77        273
    78        100
    79        191
    80         13
    81          1
    82          2
    83          4
    84          2
    85          2
    86          5
    87          8
    88          6
    89         87
    90         51
    91        112
    92         12
    93          4
    94          5
    95          1
    96          0
    97          0
    98          3
    99          1
   100          0
   101         10
   102         34
   103        191
   104         32
   105        999
   106         89
   107         17
   108          7
   109          0
   110          0
   111          0
   112          0
   113          4
   114          5
   115        137
   116         23
   117         66
   118         51
   119         16
   120          8
   121          3
   122          0
   123          0
   124          0
   125          0
   126          0
   127          2
   128          4
   129          5
   130          2
   131         70
   132         27
   133        935
   134         91
   135          0
   137          0
   138          0
   139          0
   141          0
   142          0
   143          0
   144          0
   145          4
   146          1
   147          5
   148        671
   149         76
   150          5
   151          0