##TITLE=Library Entry 97419
##JCAMP-DX=Revision 4.10 
##DATA TYPE=MASS SPECTRUM
##SAMPLE DESCRIPTION=Institute of Organic Chemistry, USSR, 1990
##NAMES=HP
##CAS NAME=4-Pentylbenzonitrile
##MOLFORM=C12H15N
##CAS REGISTRY NO=10270-29-8
##MP= -300
##BP= -300
##MW= 173
##$RETENTION INDEX=0
##$CONDENSED SPECTRUM=NO
##NPOINTS= 55
##XYDATA=(XY..XY) 1 
    40          8
    41        152
    42         21
    43         57
    44          9
    45         19
    50         23
    51         26
    52         11
    53          6
    55         26
    56         14
    57        160
    58         10
    59          9
    60          8
    62          6
    63         29
    64         12
    65         13
    69         10
    70         10
    73          9
    74         12
    75         21
    76         53
    77         34
    78          8
    88          7
    89        107
    90         66
    91         29
    92         15
   101          8
   102         19
   103        142
   104         31
   105          8
   114          6
   115         13
   116        282
   117        999
   118         93
   119         11
   128         12
   129         16
   130         42
   131         14
   140          6
   144         19
   145          7
   158         11
   172          5
   173        265
   174         37