##TITLE=Library Entry 7677
##JCAMP-DX=Revision 4.10 
##DATA TYPE=MASS SPECTRUM
##SAMPLE DESCRIPTION=NIST Mass Spectrometry Data Center, 1994
##NAMES=HP
##CAS NAME=p-Nitrophenyl hexadecyl ether
##MOLFORM=C22H37NO3
##CAS REGISTRY NO=102703-33-3
##MP= -300
##BP= -300
##MW= 363
##$RETENTION INDEX=0
##$CONDENSED SPECTRUM=NO
##NPOINTS= 122
##XYDATA=(XY..XY) 1 
     9          2
    17          1
    18          4
    27         71
    28         37
    29        277
    30         38
    32          0
    38          7
    39         99
    41        746
    42        137
    43        999
    44         40
    50         15
    51         10
    52          7
    53         42
    54         51
    55        583
    56        158
    57        771
    58         33
    62          4
    63         24
    64         26
    65         52
    66         15
    67         66
    68         36
    69        297
    70        101
    71        402
    72         22
    75         17
    76         32
    77         15
    78         19
    79         17
    80         13
    81         53
    82         43
    83        183
    84         57
    85        237
    86         14
    91         11
    92         19
    93         47
    94         31
    95         24
    96         24
    97        154
    98         31
    99         50
   100          3
   105          5
   106         22
   107         26
   108         31
   109        260
   110         46
   111         64
   112         19
   113         19
   118          3
   119          3
   121          7
   122         38
   123        169
   124        353
   125         66
   126         17
   127          9
   131          4
   133         11
   134          3
   135          7
   136          4
   137          5
   138          3
   139         98
   140         96
   141         35
   142          2
   152         25
   153          6
   154          4
   163          3
   166          2
   167          2
   246          3
   249          4
   260          4
   263          5
   264          4
   274          5
   277          7
   278          6
   288          5
   291          7
   292         11
   293          3
   302          7
   305          7
   306         14
   316          3
   319          7
   320         12
   328         28
   329         86
   330         23
   331          5
   332          3
   333         31
   334         17
   335          2
   346        466
   347        122
   348         19
   363         12
   364          3