##TITLE=Library Entry 45851
##JCAMP-DX=Revision 4.10 
##DATA TYPE=MASS SPECTRUM
##SAMPLE DESCRIPTION=Chemical Concepts
##NAMES=HP
##CAS NAME=6-Ethyl-3-octanone, 5-(t-butyldimethylsilyloxy)-7-triethylsilylox
y-
##MOLFORM=C22H48O3Si2
##CAS REGISTRY NO=102736-52-7
##MP= -300
##BP= -300
##MW= 416
##$RETENTION INDEX=0
##$CONDENSED SPECTRUM=NO
##NPOINTS= 177
##XYDATA=(XY..XY) 1 
    26          3
    27         27
    28          4
    29         79
    30          2
    31         11
    38         24
    40          6
    41         76
    42          7
    43         49
    44          9
    45        124
    46         11
    47        163
    48          9
    49          7
    51          5
    53         21
    54          6
    55         75
    56         24
    57        165
    58         48
    59        190
    60         27
    61         52
    62          4
    63         10
    64          3
    65         11
    66          8
    67         53
    68          8
    69         22
    70          6
    71         39
    72          8
    73        108
    74         32
    75        999
    76        111
    77         77
    78          8
    79         20
    80          7
    81         28
    82          6
    83         22
    84          6
    85         50
    86         25
    87        393
    88         42
    89         23
    91         19
    92          4
    93         21
    94          9
    95         69
    96         10
    97         72
    98          9
    99        138
   100         13
   101         38
   102          9
   103        439
   104         47
   105         27
   106          4
   107         11
   108         26
   109         23
   110          6
   111         18
   112          5
   113         84
   114         14
   115        829
   116        100
   117         44
   118          3
   119         12
   121          8
   122         10
   123         60
   124          8
   125         22
   126         30
   127         66
   128         12
   129         50
   130          9
   131        262
   132         67
   133         25
   134          4
   135         14
   136          6
   137         37
   138          5
   139         21
   140          7
   141         36
   142          9
   143         17
   144          4
   145         23
   146          4
   147         16
   148          2
   149         18
   150          3
   151          9
   152         19
   153         40
   154          7
   155         14
   156          3
   157        125
   158         20
   159        839
   160        140
   161         60
   162          6
   163          2
   165          5
   167          9
   169         73
   170         11
   171         31
   172          5
   173         22
   175         10
   177         10
   181         11
   182          3
   183         45
   184          9
   185         78
   186         28
   187         16
   189         12
   197         54
   198         10
   199         17
   200          3
   201        148
   202         24
   203          9
   205          4
   211        705
   212        129
   213         47
   214          6
   215         32
   216          6
   217         13
   225         14
   226          4
   227         35
   228          7
   229         51
   230          9
   231          4
   240        125
   241         27
   242          8
   255        197
   256         40
   257         12
   261          3
   269          8
   315         11
   316          3
   387          4