##TITLE=Library Entry 61318
##JCAMP-DX=Revision 4.10 
##DATA TYPE=MASS SPECTRUM
##SAMPLE DESCRIPTION=V.Zaikin,Topchiev Inst.Petrochem.Synth.,Moscow
##NAMES=HP
##CAS NAME=Octanoic acid, phenylmethyl ester
##MOLFORM=C15H22O2
##CAS REGISTRY NO=10276-85-4
##MP= -300
##BP= -300
##MW= 234
##$RETENTION INDEX=1720
##$CONDENSED SPECTRUM=NO
##NPOINTS= 102
##XYDATA=(XY..XY) 1 
    26          5
    27         16
    28          6
    29         23
    36          5
    38          2
    39         24
    40          4
    41         57
    42         14
    43         51
    44          2
    45          2
    50          6
    51         15
    52          6
    53          6
    54          3
    55         60
    56         10
    57        161
    58          8
    59          5
    60          9
    61          2
    62          2
    63         10
    64          4
    65         56
    66          4
    67         13
    68          3
    69         13
    70          5
    71          5
    73          8
    74          2
    75          2
    76          2
    77         40
    78         14
    79         47
    80          5
    81         10
    82         11
    83         72
    84         12
    85          6
    87          6
    89         31
    90         83
    91        999
    92        235
    93         18
    95          2
    96          9
    97         70
    98         13
    99          2
   100          2
   101         10
   102          1
   104          7
   105         28
   106         10
   107         73
   108        748
   109         66
   110          4
   111          1
   115          2
   117          5
   118          1
   119          2
   124         19
   125        123
   126         12
   127        134
   128         13
   129          1
   131          2
   132          2
   133          2
   141          1
   142          9
   143        115
   144         12
   145          2
   147          3
   150          6
   159          1
   161          6
   162          1
   174          6
   175          3
   177          6
   191          3
   216         12
   217          2
   234         83
   235         14
   236          2