##TITLE=Library Entry 51942
##JCAMP-DX=Revision 4.10 
##DATA TYPE=MASS SPECTRUM
##SAMPLE DESCRIPTION=Chemical Concepts
##NAMES=HP
##CAS NAME=7-Oxabicyclo[4.1.0]heptan-2-one, 4,4,6-trimethyl-
##MOLFORM=C9H14O2
##CAS REGISTRY NO=10276-21-8
##MP= -300
##BP= -300
##MW= 154
##$RETENTION INDEX=1333
##$CONDENSED SPECTRUM=NO
##NPOINTS= 102
##XYDATA=(XY..XY) 1 
    25          1
    26         12
    27        131
    28          4
    29        100
    30          4
    31          5
    33          0
    37          5
    38         18
    39        229
    40         38
    41        544
    42         64
    43        297
    44          6
    45          4
    49          1
    50         14
    51         26
    52         11
    53         63
    54         17
    55        287
    56        172
    57         51
    58        118
    59          5
    60          0
    61          1
    62          3
    63          7
    64          1
    65         13
    66          7
    67         53
    68         16
    69        475
    70         38
    71         42
    72          6
    73          1
    74          1
    75          1
    76          1
    77         20
    78          4
    79         26
    80          6
    81         42
    82         29
    83        999
    84         54
    85         10
    86          1
    89          1
    90          1
    91          8
    92          1
    93         18
    94          5
    95         12
    96         23
    97        204
    98         66
    99         16
   100          1
   103          0
   104          0
   105          1
   107          6
   108          2
   109          4
   110          5
   111         77
   112         17
   113          2
   114          2
   115          0
   119          1
   120          0
   121          3
   122          0
   123          1
   124          0
   125         15
   126         78
   127          7
   128         13
   129          1
   135          2
   136          0
   137          0
   138          0
   139        160
   140         14
   141          5
   152          0
   153          2
   154        133
   155         15
   156          2