##TITLE=Library Entry 21808
##JCAMP-DX=Revision 4.10 
##DATA TYPE=MASS SPECTRUM
##SAMPLE DESCRIPTION=P.A. Leclercq, Lab. Instrum. Anal., Eindhoven Univ. Tec
hnol., Netherlands
##NAMES=HP
##CAS NAME=[1,1'-Bicyclohexyl]-4-carboxylic acid, 4'-propyl-, 4-pentylcycloh
exyl ester
##MOLFORM=C27H48O2
##CAS REGISTRY NO=102714-92-1
##MP= -300
##BP= -300
##MW= 404
##$RETENTION INDEX=0
##$CONDENSED SPECTRUM=NO
##NPOINTS= 89
##XYDATA=(XY..XY) 1 
    15          9
    27         82
    28         72
    29        209
    39         67
    41        536
    42         69
    43        354
    44         22
    53         77
    54        241
    55        999
    56         79
    57        229
    58         15
    65         23
    67        544
    68        135
    69        827
    70         68
    71        111
    73         23
    77         35
    79        191
    81        950
    82        601
    83        792
    84         50
    85         31
    91         35
    92         13
    93         71
    94         37
    95        328
    96        965
    97        707
    98         51
    99         10
   105         11
   107         54
   109        351
   110        140
   111        305
   112         26
   119         15
   121         65
   122         29
   123        171
   124        143
   125        168
   126         27
   127        144
   128         55
   129         35
   133         22
   135         58
   136         11
   137         77
   138         11
   147         18
   149         17
   151         79
   152        699
   153         91
   154          9
   161         26
   163         33
   164         11
   165         23
   166         12
   169         47
   175         19
   189         10
   191         19
   205         28
   207         99
   208         16
   209         14
   215         12
   217        321
   218         55
   223         10
   233         22
   234         50
   235         46
   251         12
   253        971
   254        164
   255         18