##TITLE=Library Entry 42983
##JCAMP-DX=Revision 4.10 
##DATA TYPE=MASS SPECTRUM
##SAMPLE DESCRIPTION=John Halket,Royal Holloway, University of London, UK
##NAMES=HP
##CAS NAME=2-Ketoglutaric acid, 2TMS derivative
##MOLFORM=C11H22O5Si2
##CAS REGISTRY NO=1027138-06-2
##MP= -300
##BP= -300
##MW= 290
##$RETENTION INDEX=1621
##$CONDENSED SPECTRUM=NO
##NPOINTS= 124
##XYDATA=(XY..XY) 1 
    15         11
    26          7
    27         39
    28         55
    29         30
    30          3
    31         10
    39          6
    41          3
    42         16
    43         98
    44         57
    45        272
    46         21
    47         57
    48          3
    49          2
    51          7
    52          8
    53          8
    55        147
    56         22
    57         18
    58         56
    59         53
    60         12
    61         30
    62          2
    63          2
    66         80
    68          1
    69          2
    70          6
    71         12
    73        999
    74        100
    75        235
    76         16
    77         11
    79          1
    81          1
    82          1
    83          3
    84          2
    85          8
    86         10
    87          6
    88          3
    89          4
    90          1
    91          2
    97          1
    98          1
    99         10
   100          2
   101          8
   102          7
   103         10
   104          2
   105          4
   108          1
   111          6
   112          2
   113         22
   114          3
   115         13
   116          6
   117         13
   118          2
   119          4
   120          1
   125          1
   129         30
   130         12
   131         26
   133         44
   134          5
   135          4
   141          1
   142          1
   143          2
   144          1
   147        505
   148         77
   149         45
   150          6
   151          2
   157        542
   158         67
   159         27
   160          3
   163          1
   170          1
   171          5
   173        543
   174         77
   175         29
   176          2
   183          1
   185         38
   186          6
   187          3
   190         44
   191          9
   192          4
   203          6
   204          1
   215          1
   217          2
   218          3
   219          1
   229          1
   231          9
   232          2
   233          1
   246         55
   247         54
   248         14
   249          5
   250          1
   275         27
   276          6
   277          3
   278          1