##TITLE=Library Entry 37548
##JCAMP-DX=Revision 4.10 
##DATA TYPE=MASS SPECTRUM
##SAMPLE DESCRIPTION=M.Bartek ET AL. J.Chrom., 377,183(1986)
##NAMES=HP
##CAS NAME=6-Hydroxy-3-[2-methyl-2-[2-hydroxy-3-(2-cyano-4-hydroxyphenoxy)pr
opylamino]propyl]indol
##MOLFORM=C22H25N3O3
##CAS REGISTRY NO=102791-21-9
##MP= -300
##BP= -300
##MW= 379
##$RETENTION INDEX=0
##$CONDENSED SPECTRUM=NO
##NPOINTS= 58
##XYDATA=(XY..XY) 1 
    62         10
    63         66
    64         18
    65         25
    68         15
    69         25
    70        999
    71        707
    72        119
    74         35
    75         73
    76        139
    77         43
    78         18
    79         25
    80         10
    81         10
    82         45
    84         38
    85          8
    90         10
    91         13
    96         71
    97         20
    98         86
    99         15
   100        399
   101         58
   102        247
   103         66
   106         18
   107         15
   114        111
   115         10
   117         28
   118         18
   120         13
   128         81
   129        384
   130        225
   131         43
   134         25
   135         43
   136         28
   143         23
   144         18
   146         13
   148         33
   156         28
   157         15
   162         10
   170         13
   171         33
   172         48
   174         33
   233         56
   249        533
   250         73