##TITLE=Library Entry 97380
##JCAMP-DX=Revision 4.10 
##DATA TYPE=MASS SPECTRUM
##SAMPLE DESCRIPTION=Chemical Concepts
##NAMES=HP
##CAS NAME=Benzene, [3-(methylthio)-1-propenyl]-
##MOLFORM=C10H12S
##CAS REGISTRY NO=10276-15-0
##MP= -300
##BP= -300
##MW= 164
##$RETENTION INDEX=0
##$CONDENSED SPECTRUM=NO
##NPOINTS= 65
##XYDATA=(XY..XY) 1 
    27          9
    28          3
    35          4
    38          6
    39         87
    40          5
    41         13
    43          3
    44          3
    45         39
    46          5
    47         18
    48          3
    50         25
    51         62
    52         16
    53          4
    55          4
    61         18
    62         18
    63         61
    64         11
    65         73
    66          4
    69          6
    71          4
    73          5
    74         16
    75         16
    76         18
    77         55
    78         26
    79          6
    82         15
    85          2
    86          5
    87          9
    88          5
    89         71
    90          9
    91         70
    92         25
   102         27
   103         23
   104          6
   105         17
   113         13
   114         13
   115        985
   116        285
   117        999
   118        273
   119          9
   121         11
   131          7
   132          4
   133          5
   134         10
   147         32
   148         18
   149         19
   164        591
   165         57
   166         25
   167          5