##TITLE=Library Entry 55150
##JCAMP-DX=Revision 4.10 
##DATA TYPE=MASS SPECTRUM
##SAMPLE DESCRIPTION=P.A. Leclercq, Lab. Instrum. Anal., Eindhoven Univ. Tec
hnol., Netherlands
##NAMES=HP
##CAS NAME=1,1'-Bicyclohexyl, 4-ethoxy-4'-pentyl-
##MOLFORM=C19H36O
##CAS REGISTRY NO=102714-96-5
##MP= -300
##BP= -300
##MW= 280
##$RETENTION INDEX=0
##$CONDENSED SPECTRUM=NO
##NPOINTS= 91
##XYDATA=(XY..XY) 1 
    15          9
    27        141
    29        548
    30         17
    31         49
    39         95
    41        606
    42         63
    43        456
    44        124
    45         36
    53         94
    54        108
    55        666
    57        588
    58         63
    59         25
    65         41
    67        499
    68        111
    69        326
    70         37
    71         71
    72        156
    73         54
    77         58
    79        266
    80        139
    81        767
    82        297
    83        348
    85        999
    86        158
    87         14
    91         65
    92         19
    93        133
    94         71
    95        279
    96        168
    97        241
    98         27
    99          9
   105         22
   107         82
   108        126
   109        167
   110         75
   111         94
   112          9
   119         11
   121        162
   122        148
   123        108
   124         34
   125         27
   126          9
   127         13
   129         10
   133         12
   135        117
   136         40
   137        152
   138         70
   139         17
   149         70
   150         63
   151        207
   152        108
   153         17
   163        403
   164        131
   165         21
   166         32
   167         14
   177         52
   178         60
   179         31
   180         10
   191         24
   192         22
   193         13
   205        310
   206         77
   207         14
   208         11
   209         20
   219         12
   234        414
   235         89
   236          8