##TITLE=Library Entry 79189
##JCAMP-DX=Revision 4.10 
##DATA TYPE=MASS SPECTRUM
##SAMPLE DESCRIPTION=NIST Mass Spectrometry Data Center
##NAMES=HP
##CAS NAME=2-(Ethylthio)acetophenone
##MOLFORM=C10H12OS
##CAS REGISTRY NO=10271-55-3
##MP= -300
##BP= -300
##MW= 180
##$RETENTION INDEX=0
##$CONDENSED SPECTRUM=NO
##NPOINTS= 73
##XYDATA=(XY..XY) 1 
    14          3
    15          5
    16          1
    17          1
    18          2
    25          1
    26         15
    27         90
    28          9
    29         66
    30          1
    34          1
    35          9
    37          3
    38          9
    39         48
    40          4
    41         24
    42          9
    43          6
    45         58
    46         22
    47         77
    48          3
    49          8
    50         75
    51        224
    52         18
    53          3
    55          1
    57          3
    58          9
    59         11
    60          3
    61          6
    62          8
    63         20
    64          5
    65         53
    66          3
    69          1
    71          1
    73          4
    74         23
    75         89
    76         34
    77        537
    78         57
    79          4
    82          1
    86          1
    87          1
    89         11
    90          4
    91         54
    92          7
   102          2
   103          9
   105        999
   106         79
   107          5
   110          1
   117          1
   118          1
   120        335
   121         57
   122          4
   123          3
   137          1
   179          1
   180        113
   181         16
   182          7