##TITLE=Library Entry 50247
##JCAMP-DX=Revision 4.10 
##DATA TYPE=MASS SPECTRUM
##SAMPLE DESCRIPTION=Thomas J.Bruno
##NAMES=HP
##CAS NAME=2-Chloro-1,3-difluoropropane
##MOLFORM=C3H5ClF2
##CAS REGISTRY NO=102738-79-4
##MP= -300
##BP= -300
##MW= 114
##$RETENTION INDEX=0
##$CONDENSED SPECTRUM=NO
##NPOINTS= 19
##XYDATA=(XY..XY) 1 
    27        413
    33        873
    39        154
    45        613
    46        135
    57        130
    59        472
    61        500
    62        182
    63        177
    77        346
    78        992
    79        159
    80        358
    81        999
    82        137
    83        355
   114         94
   116         31