##TITLE=Library Entry 96901
##JCAMP-DX=Revision 4.10 
##DATA TYPE=MASS SPECTRUM
##SAMPLE DESCRIPTION=A.A.Kutin, Moscow, Russia
##NAMES=HP
##CAS NAME=Pyrimidine, 2,5-bis(4-acetylaminophenyl)-
##MOLFORM=C20H18N4O2
##CAS REGISTRY NO=102770-06-9
##MP= -300
##BP= -300
##MW= 346
##$RETENTION INDEX=0
##$CONDENSED SPECTRUM=NO
##NPOINTS= 177
##XYDATA=(XY..XY) 1 
    33         15
    34          1
    37          0
    38          9
    39         33
    40         43
    41         15
    43        920
    44         78
    45          1
    50         10
    51         17
    52         13
    53          3
    54          4
    55          3
    56          0
    57          2
    58          0
    60          0
    62         31
    63         78
    64         33
    65         35
    66          7
    67          4
    68          0
    69          2
    70          0
    71          0
    72          4
    73         23
    74          9
    75         21
    76         15
    77         17
    78          9
    79          1
    80          1
    83          1
    87         12
    89        291
    90         97
    91         57
    92         18
    93          9
    94          1
    95          1
    98          2
    99          2
   100          5
   101         22
   102         21
   103         14
   104         11
   105          4
   106          5
   109          3
   111          0
   112          1
   114         39
   116        408
   117        999
   118        303
   119         38
   120          4
   123          4
   124          0
   126          6
   127          5
   128         16
   129         13
   131        194
   137          3
   138         14
   139          2
   140          5
   141          9
   142         23
   143         55
   144         18
   145          4
   150          1
   151          6
   152         12
   153          4
   154          4
   155          4
   156          2
   157          3
   158          4
   159          3
   163          0
   164          2
   165          2
   166          2
   167          2
   168          4
   169          3
   170          5
   171          1
   173          0
   176          0
   177          3
   178          4
   179          6
   180          6
   181          5
   182          2
   183          0
   185          0
   190          6
   191          5
   192          4
   193          3
   194          1
   196          0
   202          0
   203          1
   205         18
   206         12
   207         10
   208          5
   209          8
   210          1
   215          1
   216          5
   217          6
   218          6
   219          3
   220          3
   221          2
   230          5
   231          5
   232         14
   233         25
   234         41
   235         20
   236          4
   242          0
   243          3
   244          8
   245          3
   246          2
   247          1
   257          2
   259         35
   260         42
   261        207
   262        659
   263        140
   264         14
   273          0
   274          1
   275          2
   276          2
   277          5
   287          0
   288         26
   289          4
   299          2
   300          5
   302         30
   303         82
   304        544
   305        105
   306         11
   318          1
   340          0
   341          3
   342          5
   343         17
   345         74
   346        398
   347         86
   348         10
   349          0