##TITLE=Library Entry 3964
##JCAMP-DX=Revision 4.10 
##DATA TYPE=MASS SPECTRUM
##SAMPLE DESCRIPTION=James Little,Eastman Chem.Co.,Kingsport,TN
##NAMES=HP
##CAS NAME=1,3,4-Thiadiazol-2-amine, N-2-propenyl-
##MOLFORM=C5H7N3S
##CAS REGISTRY NO=102718-20-7
##MP= -300
##BP= -300
##MW= 141
##$RETENTION INDEX=0
##$CONDENSED SPECTRUM=NO
##NPOINTS= 36
##XYDATA=(XY..XY) 1 
    27        150
    30        100
    39        506
    41        999
    42        112
    43         89
    45        331
    54        238
    55        218
    56        809
    59        115
    60        118
    61        109
    68         42
    71         31
    72        110
    73         49
    74         63
    81        192
    85        204
    86         72
    87        132
    99         45
   100         30
   101         92
   102         38
   113        170
   114        819
   115         70
   116         42
   126        132
   127         10
   140        401
   141        818
   142        111
   143         42