##TITLE=Library Entry 26309
##JCAMP-DX=Revision 4.10 
##DATA TYPE=MASS SPECTRUM
##SAMPLE DESCRIPTION=A.A.Kutin, Moscow, Russia
##NAMES=HP
##CAS NAME=Diethyl 2-(N-(tert-butoxycarbonyl)amino)malonate
##MOLFORM=C12H21NO6
##CAS REGISTRY NO=102831-44-7
##MP= -300
##BP= -300
##MW= 275
##$RETENTION INDEX=0
##$CONDENSED SPECTRUM=NO
##NPOINTS= 72
##XYDATA=(XY..XY) 1 
    37          0
    38          1
    39         24
    40         10
    41        128
    42          8
    43         20
    44         17
    45         12
    46         12
    47          6
    50          0
    51          1
    52          0
    53          2
    54          3
    55         17
    57        999
    58         43
    59         52
    60          0
    61          0
    69          2
    70          0
    71          0
    72          2
    73         11
    74         58
    75          6
    76          0
    77          0
    83          9
    84          2
    85          0
    86          6
    87          5
    88          0
    90          0
   100         10
   101         53
   102        331
   103         17
   104          2
   105          0
   110          0
   115          0
   118          3
   119          0
   127          0
   128          5
   129         18
   130          3
   131          0
   141          0
   146         16
   147         30
   148          1
   149          0
   156          0
   157          0
   158          6
   159          0
   174         34
   175          7
   176         11
   177          0
   202         24
   203          3
   204          0
   219          0
   220          9
   221          0