##TITLE=Library Entry 79251
##JCAMP-DX=Revision 4.10 
##DATA TYPE=MASS SPECTRUM
##SAMPLE DESCRIPTION=LAC, NIDDK, NIH, Bethesda, MD 20892
##NAMES=HP
##CAS NAME=2-Thiophenecarboxamide, N-benzoyloxy-
##MOLFORM=C12H9NO3S
##CAS REGISTRY NO=102834-54-8
##MP= -300
##BP= -300
##MW= 247
##$RETENTION INDEX=0
##$CONDENSED SPECTRUM=NO
##NPOINTS= 56
##XYDATA=(XY..XY) 1 
    41          2
    43          4
    45         59
    47          6
    49         12
    50         55
    51        124
    52         18
    53          8
    54         10
    55          2
    57         20
    58          9
    60          1
    61          2
    62          4
    63          6
    64          7
    65          6
    66          3
    68          1
    69         11
    70         23
    71          6
    73          2
    74         16
    75          8
    77        334
    78         20
    79          0
    80          1
    81          6
    82          3
    83         20
    84          3
    86          2
    91          5
    94          6
    96          8
    97         27
    98          3
    99          2
   105        999
   106         63
   107          3
   109          9
   111        110
   112          6
   113          5
   119          8
   122        155
   123         11
   125         58
   126         14
   127          3
   135          2