##TITLE=Library Entry 57432
##JCAMP-DX=Revision 4.10 
##DATA TYPE=MASS SPECTRUM
##SAMPLE DESCRIPTION=A. VAN LANGENHOVE, HARVARD SCH. PUBLIC HEALTH, BOSTON,
 USA
##NAMES=HP
##CAS NAME=1,5-Anhydro-6-O-acetyl-2,3,4-tri-O-methyl-D-galactitol
##MOLFORM=C11H20O6
##CAS REGISTRY NO=102850-65-7
##MP= -300
##BP= -300
##MW= 248
##$RETENTION INDEX=1581
##$CONDENSED SPECTRUM=NO
##NPOINTS= 52
##XYDATA=(XY..XY) 1 
    71        525
    72         55
    73        227
    74         35
    75        678
    76         23
    81         40
    82         12
    83         75
    84         93
    85         96
    86         46
    87        999
    88        617
    89         96
    95         46
    96         19
    97         44
    98         45
    99        131
   100         15
   101        866
   102         57
   103         38
   104         12
   109         18
   110         10
   111         86
   112         12
   113         24
   114        118
   115         95
   116         12
   117         56
   124         47
   125         44
   126         64
   127         44
   128         12
   129        105
   130        271
   131         48
   141         25
   143        103
   156        151
   157         21
   158         31
   169         12
   175         58
   186         11
   188        220
   189         28