##TITLE=Library Entry 16588
##JCAMP-DX=Revision 4.10 
##DATA TYPE=MASS SPECTRUM
##SAMPLE DESCRIPTION=A.A.Kutin, Moscow, Russia
##NAMES=HP
##CAS NAME=Carbamic acid, N-[10,11-dihydro-5-(2-methylamino-1-oxoethyl)-3-5H
-dibenzo[b,f]azepinyl]-, ethyl ester
##MOLFORM=C20H23N3O3
##CAS REGISTRY NO=102821-92-1
##MP= -300
##BP= -300
##MW= 353
##$RETENTION INDEX=0
##$CONDENSED SPECTRUM=NO
##NPOINTS= 227
##XYDATA=(XY..XY) 1 
    33          2
    34          4
    36          6
    37          4
    38          9
    39         58
    40         68
    41        148
    42        109
    43        168
    44        999
    46          1
    47          0
    48          0
    50         10
    51         25
    52         15
    53         15
    54         16
    55        118
    56         29
    57         82
    59        107
    60         15
    61          2
    62          3
    63         15
    64          7
    65         17
    66          6
    67         23
    68         10
    69         47
    70         29
    71         34
    72         47
    73          8
    74          2
    75          5
    76          9
    77         32
    78         12
    79         11
    80          5
    81         13
    82         10
    83         26
    84         20
    85          8
    86          7
    87          2
    88          2
    89         21
    90          9
    91         22
    92          6
    93          9
    94          3
    95          9
    96          7
    97         14
    98         26
    99          5
   100          5
   101          5
   102          6
   103          7
   104          8
   105          5
   106          7
   107          4
   108          1
   109          5
   110          3
   111          7
   112         15
   113          7
   114          6
   115         11
   116         10
   117         12
   118          4
   119          3
   120          2
   121          2
   122          1
   123          4
   124          2
   125          4
   126          8
   127          7
   128         11
   129          8
   130         10
   131          7
   132          5
   133          3
   134          0
   135          1
   136          1
   137          2
   138          1
   139          5
   140          6
   141          2
   142          4
   143          4
   144          2
   145          0
   146          1
   147          1
   148          0
   149          4
   150          2
   151          6
   152         14
   153          6
   154          9
   155          3
   156          2
   157          3
   158          0
   159          1
   160          0
   161          1
   163          1
   164          3
   165         14
   166         10
   167         21
   168         10
   169          2
   170          2
   171         20
   172          2
   173          0
   175          0
   176          1
   177          5
   178          9
   179          8
   180         35
   181         14
   182         12
   183          3
   184          1
   187          0
   188          0
   189          2
   190          6
   191         17
   192         34
   193         43
   194         24
   195         10
   196          1
   199          1
   202          0
   204          3
   205          9
   206         12
   207         35
   208         26
   209         59
   210         17
   211          2
   217          2
   218          0
   219          1
   220          2
   221         12
   222          3
   223          1
   224          0
   233          3
   234          8
   235         38
   236         47
   237         10
   238          2
   239          2
   240          0
   242          0
   245          1
   246          0
   247          0
   248          0
   249          1
   250          1
   251          1
   252          3
   253         11
   254         16
   255          2
   263          2
   266          0
   267          3
   268          0
   275          1
   276          1
   277          3
   278          4
   280          8
   281         40
   282        348
   283         71
   284          7
   285          0
   293          0
   294          1
   295          0
   301          0
   307          1
   308          1
   309          2
   310          1
   320          1
   321          0
   323          1
   324         11
   325          2
   337          1
   350          0
   351          1
   353         47
   354         12
   355          1