##TITLE=Library Entry 59817
##JCAMP-DX=Revision 4.10 
##DATA TYPE=MASS SPECTRUM
##SAMPLE DESCRIPTION=Chemical Concepts
##NAMES=HP
##CAS NAME=3-Chloro-endo-6-(phenylthio)bicyclo[3.1.1]hept-2-ene
##MOLFORM=C13H13ClS
##CAS REGISTRY NO=102870-57-5
##MP= -300
##BP= -300
##MW= 236
##$RETENTION INDEX=0
##$CONDENSED SPECTRUM=NO
##NPOINTS= 173
##XYDATA=(XY..XY) 1 
    26          7
    27         46
    28         65
    29         12
    31          3
    32          9
    35          2
    36         10
    37          4
    38         17
    39        210
    40         21
    41         69
    42          5
    43         21
    44          8
    45        149
    46          4
    47         22
    48          0
    49         13
    50         40
    51        170
    52         27
    53         27
    54          3
    55         17
    56          6
    57         23
    58         14
    59         10
    60          1
    61          7
    62         13
    63         61
    64         19
    65        317
    66         62
    67         24
    68          4
    69         51
    70         11
    71         24
    72          1
    73         23
    74         10
    75         41
    76         14
    77        194
    78         60
    79         72
    80          9
    81         16
    82         17
    83         25
    84         22
    85         19
    86          8
    87          8
    88          2
    89         49
    90         22
    91        999
    92        144
    93         27
    94          3
    95          7
    96          4
    97         28
    98          5
    99         35
   100         13
   101         12
   102          8
   103          7
   104          1
   105          9
   106          7
   107          5
   108         20
   109        105
   110        152
   111         37
   112         23
   113         48
   114          9
   115         44
   116         16
   117          7
   118          2
   119          3
   120          0
   121         34
   122         12
   123        234
   124        273
   125        112
   126         87
   127        228
   128         55
   129         71
   130          6
   131          3
   132          0
   133          3
   134         18
   135         31
   136         45
   137          7
   138          3
   139          6
   140          3
   141          9
   142          5
   143          1
   144          6
   145          2
   146          2
   147         19
   148          3
   149          5
   150          1
   151          3
   152         16
   153         17
   154         19
   155          8
   156          1
   157         11
   158          7
   159         13
   160         33
   161         20
   162          5
   163          4
   164          2
   165         15
   166          6
   167         23
   168         15
   169          3
   170          1
   171         16
   172          4
   173         11
   174          1
   175          0
   183          2
   184         23
   185         35
   186         48
   187         32
   188          6
   189          1
   190          0
   191          0
   195          1
   197          3
   198          2
   199          7
   200         30
   201        153
   202         27
   203          9
   204          1
   205          1
   234          4
   235          1
   236        175
   237         26
   238         64
   239          8
   240          2