##TITLE=Library Entry 41613
##JCAMP-DX=Revision 4.10 
##DATA TYPE=MASS SPECTRUM
##SAMPLE DESCRIPTION=Chemical Concepts
##NAMES=HP
##CAS NAME=Tricyclo[2.2.2.1(2,5)]nonane, 3-cyano-3-trimethylsilyloxy-
##MOLFORM=C13H21NOSi
##CAS REGISTRY NO=102861-18-7
##MP= -300
##BP= -300
##MW= 235
##$RETENTION INDEX=0
##$CONDENSED SPECTRUM=NO
##NPOINTS= 200
##XYDATA=(XY..XY) 1 
    26          3
    27         46
    28         36
    29         26
    30          2
    31          8
    33          1
    34          0
    36          0
    37          1
    38          2
    39         84
    40          9
    41        137
    42          9
    43         59
    44         21
    45        147
    46         11
    47         48
    48          1
    49          1
    50          4
    51         21
    52         14
    53         53
    54        109
    55        127
    56         16
    57         19
    58         26
    59         40
    60          8
    61         26
    62          3
    63          8
    64          6
    65         48
    66        118
    67         87
    68         40
    69         25
    70         14
    71          1
    72          6
    73        999
    74         50
    75        299
    76         30
    77        109
    78         31
    79        703
    80        106
    81        266
    82         22
    83          1
    84         68
    85          9
    86          6
    87          1
    88          1
    89         18
    90          7
    91        116
    92        303
    93        130
    94        184
    95         25
    96          1
    97          3
    98          8
    99          4
   100         64
   101         12
   102          7
   103         16
   104         55
   105         32
   106          5
   107         99
   108         36
   109          2
   110          4
   111          4
   112          2
   113         47
   114          4
   115         35
   116         22
   117         88
   118        142
   119         87
   120          8
   121          9
   122          1
   123          2
   124          3
   125          3
   126         56
   127         15
   128         29
   129         32
   130         39
   131          5
   132          2
   133          2
   134          2
   136        153
   137         17
   138          5
   139         45
   140         22
   141         12
   142         11
   143          6
   144         60
   145         99
   146          4
   147          1
   148          0
   149          4
   150          3
   151         23
   152         19
   153         16
   154         35
   155         44
   156         24
   157          4
   158          1
   159          0
   160          0
   161          1
   162          1
   163          2
   164         15
   165         19
   166         28
   167         30
   168         11
   169          5
   170          2
   171          0
   172          0
   173          0
   174          0
   175          5
   176          2
   177          2
   178         18
   179         20
   180         18
   181         10
   182          3
   183          0
   184          0
   185          0
   186          0
   187          0
   188          0
   189          1
   190          3
   191          8
   192         60
   193        169
   194         39
   195          8
   196          1
   197          0
   198          0
   199          0
   200          0
   201          0
   202          1
   203          2
   204          2
   205          3
   206         27
   207        180
   208         60
   209         18
   210          4
   211          0
   216          0
   217          3
   218          9
   219          2
   220        165
   221         25
   222          6
   223          1
   224          0
   225          0
   226          1
   233          1
   234         10
   235         69
   236         14
   237          3
   238          0