##TITLE=Library Entry 29628
##JCAMP-DX=Revision 4.10 
##DATA TYPE=MASS SPECTRUM
##SAMPLE DESCRIPTION=V.G.Zaikin, TIPS, Russian Acad. Sci.
##NAMES=HP
##CAS NAME=3-Tridecanol
##MOLFORM=C13H28O
##CAS REGISTRY NO=10289-68-6
##MP= -300
##BP= -300
##MW= 200
##$RETENTION INDEX=1599
##$CONDENSED SPECTRUM=NO
##NPOINTS= 43
##XYDATA=(XY..XY) 1 
    29        100
    31         35
    40        148
    41        399
    42         82
    43        399
    44         83
    45         34
    53         32
    54         37
    55        394
    56        100
    57        269
    58        151
    59        999
    60         42
    67         44
    68         31
    69        325
    70         75
    71        125
    72         39
    73         39
    81         24
    82         26
    83        305
    84         47
    85         55
    87         21
    95         19
    96         19
    97        281
    98         72
    99         19
   101         16
   111        106
   112         19
   124         16
   125         18
   171        152
   172         19
   182         55
   183          8