##TITLE=Library Entry 32624
##JCAMP-DX=Revision 4.10 
##DATA TYPE=MASS SPECTRUM
##SAMPLE DESCRIPTION=NIST Mass Spectrometry Data Center
##NAMES=HP
##CAS NAME=R(-)3,7-Dimethyl-1,6-octadiene
##MOLFORM=C10H18
##CAS REGISTRY NO=10281-56-8
##MP= -300
##BP= -300
##MW= 138
##$RETENTION INDEX=943
##$CONDENSED SPECTRUM=NO
##NPOINTS= 42
##XYDATA=(XY..XY) 1 
    39         87
    40         31
    41        678
    42         50
    43         64
    50         17
    51         55
    52         26
    53        193
    54         60
    55        990
    56         90
    57         40
    62          6
    63         15
    64          3
    65         63
    66         25
    67        999
    68        664
    69        870
    70        103
    77         57
    78         13
    79        100
    80         67
    81        481
    82        983
    83        192
    91         26
    93         38
    94         62
    95        831
    96        194
    97         11
   107          7
   109        102
   110         17
   123        211
   124         17
   138        131
   139         14