##TITLE=Library Entry 78746
##JCAMP-DX=Revision 4.10 
##DATA TYPE=MASS SPECTRUM
##SAMPLE DESCRIPTION=A.A.Kutin, Moscow, Russia
##NAMES=HP
##CAS NAME=Benzamide, N-allyl-
##MOLFORM=C10H11NO
##CAS REGISTRY NO=10283-95-1
##MP= -300
##BP= -300
##MW= 161
##$RETENTION INDEX=1483
##$CONDENSED SPECTRUM=NO
##NPOINTS= 83
##XYDATA=(XY..XY) 1 
    37          9
    38         23
    39         89
    40          9
    41         40
    42          2
    43          2
    44          5
    50        107
    51        282
    52         31
    53          8
    54         16
    55          7
    56         63
    57          3
    58          1
    60          0
    61          1
    62          4
    63          6
    64          3
    65          5
    66          2
    68          0
    71          0
    73          6
    74         29
    75         21
    77        607
    78         57
    79          6
    82          0
    83          0
    84          1
    85          0
    86          0
    87          0
    88          0
    89          2
    90          1
    91          6
    92          1
    93          0
    94          0
    99          0
   100          0
   101          0
   102          1
   103          6
   105        999
   106         86
   107          5
   108          0
   113          0
   115          8
   116          3
   117          6
   118          4
   119          1
   120          0
   122          0
   127          0
   128          1
   129          0
   130          1
   131          1
   132          3
   133          4
   134          6
   135          0
   140          0
   142          1
   143          1
   144          1
   146         78
   147          8
   148          0
   158          0
   160         12
   161        117
   162         15
   163          1