##TITLE=Library Entry 13351
##JCAMP-DX=Revision 4.10 
##DATA TYPE=MASS SPECTRUM
##SAMPLE DESCRIPTION=Div. of Experiment Therapeutics WRAIR, WRAMC, Washingto
n DC 20307
##NAMES=HP
##CAS NAME=1-Acetamindo-7-nitronaphthalene
##MOLFORM=C12H10N2O3
##CAS REGISTRY NO=102877-10-1
##MP= -300
##BP= -300
##MW= 230
##$RETENTION INDEX=0
##$CONDENSED SPECTRUM=NO
##NPOINTS= 42
##XYDATA=(XY..XY) 1 
    41         10
    42        120
    43        999
    44         14
    46         11
    50         16
    51         21
    52          8
    61          6
    62         12
    63         51
    64          6
    65          6
    74         13
    75          8
    76          8
    86          6
    87         17
    88         28
    89         12
   102         40
   113        104
   114        179
   115        425
   116         38
   126         12
   127          6
   128          6
   130        100
   131          7
   140         63
   141         56
   142        111
   154          8
   156          5
   158         19
   160          7
   172          7
   188        452
   189         15
   230        124
   231         19