##TITLE=Library Entry 59313
##JCAMP-DX=Revision 4.10 
##DATA TYPE=MASS SPECTRUM
##SAMPLE DESCRIPTION=Chemical Concepts
##NAMES=HP
##CAS NAME=2,3-Dibromopropionic acid, benzyl ester
##MOLFORM=C10H10Br2O2
##CAS REGISTRY NO=10288-11-6
##MP= -300
##BP= -300
##MW= 320
##$RETENTION INDEX=0
##$CONDENSED SPECTRUM=NO
##NPOINTS= 158
##XYDATA=(XY..XY) 1 
    25          4
    26         47
    27        142
    28          5
    29          9
    30          0
    31          1
    36          0
    37          3
    38         16
    39        101
    40          9
    41         27
    42          2
    43          2
    44          1
    45          2
    46          1
    49          2
    50         54
    51        142
    52         45
    53         14
    54          7
    55        280
    56         19
    57          1
    58          0
    60          0
    61          3
    62         19
    63         66
    64         24
    65        179
    66         10
    67          0
    68          0
    69          0
    70          0
    71          2
    72          0
    73          1
    74          9
    75          9
    76         12
    77        141
    78         36
    79        131
    80          9
    81          4
    82          3
    83          0
    84          0
    85          1
    86          2
    87          2
    88          2
    89         68
    90        140
    91        999
    92         81
    93          2
    94          1
    95          2
    96          1
    97          0
    99          0
   102          0
   103          1
   104          1
   105         38
   106         12
   107        230
   108         71
   109          5
   110          0
   111          0
   113          0
   114          0
   115         23
   116         11
   117         89
   118          9
   119          0
   120          0
   121          0
   122          0
   124          0
   125          0
   127          0
   128          0
   131          0
   132          1
   133         18
   134          2
   135         14
   136          1
   137          3
   139          0
   142          0
   143          3
   144          3
   145          0
   149          0
   150          0
   151          0
   152          0
   153          0
   157          0
   158          0
   160          1
   161        122
   162         17
   163          1
   164          0
   169        130
   170         10
   171        128
   172         10
   173          0
   182          0
   183          1
   184          0
   185          8
   186          0
   187         16
   188          0
   189          7
   190          0
   195          0
   196          0
   197          1
   198          0
   199          0
   200          0
   201          0
   210          0
   211          0
   213          0
   214          0
   215          1
   216          0
   217          0
   218          0
   222          0
   224          0
   225          0
   240          4
   241         71
   242         11
   243         70
   244          7
   245          0
   320          1
   322          2
   323          0
   324          1
   325          0