##TITLE=Library Entry 13774
##JCAMP-DX=Revision 4.10 
##DATA TYPE=MASS SPECTRUM
##SAMPLE DESCRIPTION=J.A.GALBIS PEREZ,DEP.QUIM.ORG.,UNIV.EXTREMADURA,BADAJOZ
,SPAIN
##NAMES=HP
##CAS NAME=3-Methoxycarbonyl-2-methyl-5-(2,3,5-tri-O-acetyl-.beta.-d-ribofur
anosyl)pyrrole
##MOLFORM=C18H23NO9
##CAS REGISTRY NO=102803-65-6
##MP= -300
##BP= -300
##MW= 397
##$RETENTION INDEX=0
##$CONDENSED SPECTRUM=NO
##NPOINTS= 29
##XYDATA=(XY..XY) 1 
    43        999
    57         27
    69        185
    85        127
   136        121
   138         12
   139         39
   140         18
   152         37
   166         51
   167         39
   168        246
   180         36
   181         54
   191          4
   194         40
   218        846
   219        104
   234          8
   235          8
   277          2
   278         60
   279         12
   324          3
   337         18
   338          3
   366         18
   397          7
   398          1