##TITLE=Library Entry 36401
##JCAMP-DX=Revision 4.10 
##DATA TYPE=MASS SPECTRUM
##SAMPLE DESCRIPTION=Chemical Concepts
##NAMES=HP
##CAS NAME=Butane, 1,2-dibromo-3-methyl-
##MOLFORM=C5H10Br2
##CAS REGISTRY NO=10288-13-8
##MP= -300
##BP= -300
##MW= 228
##$RETENTION INDEX=0
##$CONDENSED SPECTRUM=NO
##NPOINTS= 131
##XYDATA=(XY..XY) 1 
    25          2
    26         44
    27        271
    29        126
    30          3
    31          1
    36          4
    37         12
    38         34
    39        234
    40         37
    41        296
    42        143
    43        670
    44         41
    45          3
    46          0
    47          0
    48          1
    49          5
    50         30
    51         58
    52         17
    53        172
    54         28
    55        184
    56         21
    57         28
    58          2
    59          2
    60          2
    61          4
    62          5
    63          8
    64          2
    65         11
    66          3
    67         46
    68         10
    69        999
    70        112
    71         18
    72          2
    73          5
    74          3
    75          1
    76          1
    77          3
    78          1
    79         15
    80         29
    81         12
    82         24
    83         10
    84          3
    85          7
    86          1
    87          2
    88          0
    89          1
    90          0
    91          8
    92          4
    93         17
    94          6
    95         13
    96          4
    97         12
    98          4
    99          4
   100          1
   101          1
   102          1
   103          1
   104          4
   105         29
   106         52
   107         77
   108         54
   109         77
   110          3
   111          6
   112          4
   113          4
   114          1
   115          3
   116          0
   117          1
   118          1
   119          7
   120          2
   121         16
   122          1
   123         12
   124          3
   125          3
   126          2
   127          2
   128          2
   129          3
   130          2
   131          2
   132          1
   133         38
   134          3
   135         50
   136          2
   137          2
   138          2
   139          3
   140          1
   142          1
   143          1
   144          0
   145          3
   146          1
   147          5
   148          2
   149        734
   150         56
   151        725
   152         54
   153          2
   189          0
   228          6
   229          1
   230          9
   231          1
   232          6
   233          1
   234          1