##TITLE=Library Entry 55111
##JCAMP-DX=Revision 4.10 
##DATA TYPE=MASS SPECTRUM
##SAMPLE DESCRIPTION=A. VAN LANGENHOVE, HARVARD SCH. PUBLIC HEALTH, BOSTON,
 USA
##NAMES=HP
##CAS NAME=1,5-Anhydro-4,6-di-O-acetyl-2,3-di-O-methyl-D-glucitol
##MOLFORM=C12H20O7
##CAS REGISTRY NO=102803-54-3
##MP= -300
##BP= -300
##MW= 276
##$RETENTION INDEX=1685
##$CONDENSED SPECTRUM=NO
##NPOINTS= 68
##XYDATA=(XY..XY) 1 
    69         45
    71        814
    72        100
    73        364
    74        777
    75        759
    76         31
    81         88
    82        164
    83         67
    84        102
    85        999
    86         64
    87        592
    88        311
    89         87
    94         15
    95         28
    96         83
    97        688
    98        184
    99        192
   100         70
   101        438
   102         56
   103        721
   104         35
   110         34
   111        289
   112         63
   113        120
   114         94
   115        388
   116        486
   117        408
   118         28
   119         21
   124        126
   125        149
   126         32
   127         71
   129        298
   130         33
   131         32
   141         49
   142        106
   143        675
   144         53
   145        435
   146         33
   147         16
   153         13
   155         19
   156        765
   157        249
   158        124
   159         59
   161         16
   171        267
   172         32
   173         34
   174         26
   175         19
   184         25
   203         56
   217         54
   233         18
   234         11