##TITLE=Library Entry 57355
##JCAMP-DX=Revision 4.10 
##DATA TYPE=MASS SPECTRUM
##SAMPLE DESCRIPTION=A. VAN LANGENHOVE, HARVARD SCH. PUBLIC HEALTH, BOSTON,
 USA
##NAMES=HP
##CAS NAME=1,5-Anhydro-2,6-di-O-acetyl-3,4-di-O-methyl-D-glucitol
##MOLFORM=C12H20O7
##CAS REGISTRY NO=102850-66-8
##MP= -300
##BP= -300
##MW= 276
##$RETENTION INDEX=1717
##$CONDENSED SPECTRUM=NO
##NPOINTS= 64
##XYDATA=(XY..XY) 1 
    67         12
    71        988
    72        102
    73        183
    74        537
    75        120
    81         85
    82         28
    83        120
    84        299
    85        153
    86        167
    87        999
    88        455
    89         51
    91         10
    94         14
    95         41
    96         26
    97         76
    98         25
    99        182
   100         70
   101        158
   102         16
   103         70
   104         30
   109         31
   110         28
   111        330
   112         34
   113         68
   114         61
   115        121
   116        117
   117        383
   118         21
   124        223
   125         93
   126         41
   127         29
   129        352
   130        760
   131        155
   132         15
   141         32
   142        128
   143        141
   144         13
   145         12
   146         14
   147         46
   153         17
   156         55
   159         11
   171         19
   184         49
   185         16
   203         10
   212         14
   213         11
   216         86
   217         14
   234         10