##TITLE=Library Entry 21444
##JCAMP-DX=Revision 4.10 
##DATA TYPE=MASS SPECTRUM
##SAMPLE DESCRIPTION=Div. of Experiment Therapeutics WRAIR, WRAMC, Washingto
n DC 20307
##NAMES=HP
##CAS NAME=Dodecan-1,12-diol, bis[4-nitrophenyl]- ether
##MOLFORM=C24H32N2O6
##CAS REGISTRY NO=102897-56-3
##MP= -300
##BP= -300
##MW= 444
##$RETENTION INDEX=0
##$CONDENSED SPECTRUM=NO
##NPOINTS= 65
##XYDATA=(XY..XY) 1 
    41        400
    42         69
    43        442
    53         46
    55        999
    56         84
    57        245
    63         43
    64         40
    65        103
    67        149
    68         67
    69        741
    70         55
    71         82
    75         52
    76         63
    77         24
    78         47
    79         40
    81        209
    82         63
    83        409
    84         39
    85         66
    91         31
    92         58
    93        136
    94         64
    95        147
    96         43
    97        336
    98         20
   105         10
   106         69
   107        155
   108         54
   109        394
   110         78
   111        120
   113         68
   121         10
   122        162
   123        896
   124        416
   125         71
   131         32
   133         60
   134         10
   139        219
   140        552
   141         68
   152        168
   163         10
   222         10
   260         52
   271         49
   288         88
   306        231
   307         64
   426        192
   427         59
   428         24
   444         92
   445         33