##TITLE=Library Entry 39260
##JCAMP-DX=Revision 4.10 
##DATA TYPE=MASS SPECTRUM
##SAMPLE DESCRIPTION=A. VAN LANGENHOVE, HARVARD SCH. PUBLIC HEALTH, BOSTON,
 USA
##NAMES=HP
##CAS NAME=1,5-Anhydro-2-O-acetyl-3,4,6-tri-O-methyl-D-galactitol
##MOLFORM=C11H20O6
##CAS REGISTRY NO=102850-62-4
##MP= -300
##BP= -300
##MW= 248
##$RETENTION INDEX=1589
##$CONDENSED SPECTRUM=NO
##NPOINTS= 50
##XYDATA=(XY..XY) 1 
    71        999
    72        194
    73        108
    74        173
    75         88
    79         13
    81         55
    82         25
    83         76
    84        122
    85        107
    86        101
    87        307
    88        140
    89         67
    94         11
    95         16
    96         11
    97         41
    98         14
    99        131
   100         26
   101        639
   102        363
   103         45
   104         10
   111        278
   112         46
   113         24
   114         20
   115        122
   116         28
   117         27
   125         25
   126         14
   129        176
   130         18
   131         50
   141        112
   142         22
   143        186
   144         17
   145         10
   147        189
   148         11
   156         17
   157         16
   171         16
   185         12
   203         14