##TITLE=Library Entry 70187
##JCAMP-DX=Revision 4.10 
##DATA TYPE=MASS SPECTRUM
##SAMPLE DESCRIPTION=A. VAN LANGENHOVE, HARVARD SCH. PUBLIC HEALTH, BOSTON,
 USA
##NAMES=HP
##CAS NAME=1,5-Anhydro-4-O-acetyl-2,3,6-tri-O-methyl-D-galactitol
##MOLFORM=C11H20O6
##CAS REGISTRY NO=102850-64-6
##MP= -300
##BP= -300
##MW= 248
##$RETENTION INDEX=1498
##$CONDENSED SPECTRUM=NO
##NPOINTS= 81
##XYDATA=(XY..XY) 1 
    70         75
    71        634
    72         74
    73        217
    74        637
    75        301
    76         11
    77         19
    79         20
    81        111
    82         62
    83         76
    84        391
    85        401
    86        248
    87        802
    88        384
    89        106
    91         14
    94         12
    95         43
    96         20
    97        999
    98        120
    99        148
   100        119
   101        351
   102         86
   103        479
   104         21
   105         16
   109         14
   110         12
   111        209
   112         38
   113         71
   114         49
   115        194
   116        174
   117        251
   118         24
   119         35
   124         16
   125         92
   126         38
   127         34
   128         17
   129        708
   130         98
   131         54
   132         20
   134         12
   135         10
   136         12
   141         27
   142         82
   143        338
   144         37
   145        175
   146         12
   147         15
   155         12
   156         73
   157         23
   158         21
   159         11
   160         10
   161         52
   171        585
   172         52
   173         24
   174         56
   175         20
   185         79
   186        103
   187         12
   189         17
   203        238
   204         14
   206         52
   216         14