##TITLE=Library Entry 2772
##JCAMP-DX=Revision 4.10 
##DATA TYPE=MASS SPECTRUM
##SAMPLE DESCRIPTION=Chemical Concepts
##NAMES=HP
##CAS NAME=1,6-Octadiene, 3,7-dimethyl-, (S)-
##MOLFORM=C10H18
##CAS REGISTRY NO=10281-55-7
##MP= -300
##BP= -300
##MW= 138
##$RETENTION INDEX=0
##$CONDENSED SPECTRUM=NO
##NPOINTS= 74
##XYDATA=(XY..XY) 1 
    25          1
    26         15
    27        263
    28         43
    29        197
    30          5
    31          1
    33          0
    36          0
    37          3
    38         14
    39        284
    40         63
    41        999
    42         72
    43         79
    44          3
    45          0
    46          0
    49          1
    50         12
    51         33
    52         17
    53        124
    54         47
    55        670
    56         61
    57         22
    58          2
    59          0
    61          0
    62          2
    63          6
    64          2
    65         25
    66         15
    67        446
    68        286
    69        423
    70         55
    71          3
    73          0
    74          1
    75          1
    76          1
    77         18
    78          4
    79         34
    80         23
    81        162
    82        309
    83         63
    84          6
    89          1
    91          8
    92          2
    93         10
    94         19
    95        216
    96         51
    97          5
   105          1
   106          0
   107          2
   108          1
   109         21
   110          5
   111          0
   117          0
   121          1
   123         40
   124          5
   138         16
   139          2