##TITLE=Library Entry 74421
##JCAMP-DX=Revision 4.10 
##DATA TYPE=MASS SPECTRUM
##SAMPLE DESCRIPTION=A. VAN LANGENHOVE, HARVARD SCH. PUBLIC HEALTH, BOSTON,
 USA
##NAMES=HP
##CAS NAME=1,5-Anhydro-3-O-acetyl-2,4,6-tri-O-methyl-D-galactitol
##MOLFORM=C11H20O6
##CAS REGISTRY NO=102850-63-5
##MP= -300
##BP= -300
##MW= 248
##$RETENTION INDEX=1556
##$CONDENSED SPECTRUM=NO
##NPOINTS= 62
##XYDATA=(XY..XY) 1 
    70         22
    71        447
    72         64
    73         71
    74        773
    75        749
    76         35
    77         10
    79         10
    81         43
    82         17
    83        182
    84        180
    85        183
    86        107
    87        207
    88         45
    89        113
    95         27
    97        135
    98         41
    99        119
   100         74
   101        999
   102         92
   103         26
   111        147
   112         82
   113         37
   114        302
   115        158
   116        104
   117        108
   118         14
   124         11
   125        166
   126         37
   127        112
   128         33
   129        368
   130         37
   131         32
   139        126
   140         18
   141         79
   142         57
   143        220
   144         18
   154         22
   156         65
   157        102
   158         92
   159         27
   161         22
   171        386
   172         37
   173         13
   184         45
   188         51
   203        203
   204         21
   216         14