##TITLE=Library Entry 40407
##JCAMP-DX=Revision 4.10 
##DATA TYPE=MASS SPECTRUM
##SAMPLE DESCRIPTION=M.A.BALDWIN UNIVERSITY COLLEGE, LONDON, UK
##NAMES=HP
##CAS NAME=Urea, N'-(3,5-dichlorophenyl)-N,N-dimethyl-
##MOLFORM=C9H10Cl2N2O
##CAS REGISTRY NO=10290-38-7
##MP= -300
##BP= -300
##MW= 232
##$RETENTION INDEX=0
##$CONDENSED SPECTRUM=NO
##NPOINTS= 31
##XYDATA=(XY..XY) 1 
    28        107
    32         13
    36         43
    38         16
    41         11
    42         54
    43         25
    44         92
    45         20
    56         17
    61         11
    62         18
    63         24
    72        999
    73         45
    74         14
    75         12
    88         10
    97         10
   124         42
   126         15
   133         13
   159         11
   161         15
   187         84
   189         54
   232        126
   233         16
   234         80
   235         10
   236         14