##TITLE=Library Entry 10267
##JCAMP-DX=Revision 4.10 
##DATA TYPE=MASS SPECTRUM
##SAMPLE DESCRIPTION=LAC, NIDDK, NIH, Bethesda, MD 20892
##NAMES=HP
##CAS NAME=Benzyl 2-acetamido-3,5,6-tri-O-acetyl-2-deoxy-d-mannofuranoside
##MOLFORM=C21H27NO9
##CAS REGISTRY NO=10299-93-1
##MP= -300
##BP= -300
##MW= 437
##$RETENTION INDEX=0
##$CONDENSED SPECTRUM=NO
##NPOINTS= 163
##XYDATA=(XY..XY) 1 
    41         35
    42         31
    43        999
    44         33
    45         12
    50          4
    51         14
    52          6
    53          6
    54          4
    55         16
    56         15
    57         11
    58         15
    59         33
    60         90
    61         11
    63          9
    64          1
    65         78
    66          4
    67          7
    68         25
    69         46
    70         19
    71         11
    72         50
    73         19
    74          6
    77         33
    78          8
    79         16
    80         18
    81         25
    82         15
    83          9
    84        109
    85         38
    86         15
    87          5
    88         21
    89         16
    90          6
    91        939
    92         73
    93          3
    96        168
    97        163
    98         57
    99         10
   100         36
   101         34
   102         38
   103         13
   105         48
   106          9
   107         12
   108         22
   109         15
   110         55
   111         22
   112         38
   114        146
   115         35
   116          5
   120          5
   121          1
   122         23
   123          3
   124         15
   125         26
   126         80
   127         31
   128         18
   129          1
   130         31
   131          8
   132          2
   138        133
   139        376
   140         89
   141         16
   142         23
   143         15
   144          9
   145         11
   149          1
   150         10
   151         24
   152         23
   153         10
   154          2
   156        286
   157        216
   158         20
   160          1
   162          3
   166          6
   168         93
   169         19
   170         19
   171          1
   172         15
   174          7
   180          2
   181         68
   182         16
   183          3
   184          8
   186          5
   187          4
   190          2
   198         39
   199         32
   200         10
   202         14
   203         42
   204         11
   210         20
   211          1
   214          8
   216         11
   217          1
   219          7
   220         10
   226          1
   227         11
   228          9
   230          6
   232          6
   240          6
   241         23
   242         52
   243          6
   244         58
   245        274
   246         32
   247          5
   258         27
   259          7
   262         75
   263         12
   264          3
   271          8
   272          5
   286          4
   288          1
   292         17
   300          8
   301         52
   302          7
   304        667
   305         84
   306         17
   322          3
   330         99
   331         68
   332         13
   346         49
   347          8
   378          3
   437         12
   438          1