##TITLE=Library Entry 10041
##JCAMP-DX=Revision 4.10 
##DATA TYPE=MASS SPECTRUM
##SAMPLE DESCRIPTION=Exported from NIST MS Search
##NAMES=HP
##CAS NAME=2-Propanol, 1-bromo-, acetate
##MOLFORM=C5H9BrO2
##CAS REGISTRY NO=10299-39-5
##MP= -300
##BP= -300
##MW= 180
##$RETENTION INDEX=0
##$CONDENSED SPECTRUM=NO
##NPOINTS= 60
##XYDATA=(XY..XY) 1 
    14          5
    15         35
    26          4
    27         26
    28          7
    29         13
    30          1
    31         11
    37          2
    38          5
    39         40
    40          6
    41        147
    42         32
    43        999
    44         27
    45         34
    57          5
    58          5
    59         19
    60          1
    61        117
    62          3
    72          2
    73         43
    74          2
    79          2
    80          1
    81          2
    82          1
    86          1
    87        321
    88         15
    89          2
    92          1
    93         15
    94          3
    95         15
    96          2
   100          3
   101         34
   102          2
   105          1
   107          4
   108          1
   109          3
   116          1
   120        137
   121         21
   122        137
   123         21
   125          2
   137          2
   139          1
   150          1
   152          1
   165          3
   167          3
   181          1
   183          1