##TITLE=Library Entry 16552
##JCAMP-DX=Revision 4.10 
##DATA TYPE=MASS SPECTRUM
##SAMPLE DESCRIPTION=K. Kirk, LC, NIDDK, NIH, Bethesda, MD 20892
##NAMES=HP
##CAS NAME=2,4-Dibromohistidine
##MOLFORM=C6H7Br2N3O2
##CAS REGISTRY NO=102974-89-0
##MP= -300
##BP= -300
##MW= 311
##$RETENTION INDEX=0
##$CONDENSED SPECTRUM=NO
##NPOINTS= 188
##XYDATA=(XY..XY) 1 
    41         45
    42         64
    43         62
    44        999
    45         63
    46         42
    47          4
    48          6
    49          3
    50         18
    51         16
    52         60
    53         30
    54         56
    55         24
    56         15
    57         24
    58          3
    59          1
    60          8
    61          3
    62          4
    63          4
    64         15
    65          9
    66          7
    67         10
    68          4
    69         11
    70          4
    71          5
    72          0
    73          5
    74         76
    75         13
    76          3
    77          8
    78          5
    79         94
    80        163
    81        102
    82        168
    83          5
    84          4
    85          3
    86          1
    87          1
    88          6
    89          2
    90          0
    91          8
    92          3
    93         10
    94          6
    95          5
    96          4
    97          4
    98          3
    99          5
   100          4
   101          1
   102          0
   104          0
   105          9
   106         31
   107         30
   108         39
   109          9
   110          3
   111          1
   112          2
   113          0
   114          0
   115          7
   116          3
   117          9
   118          6
   119          9
   120          7
   121          3
   122          2
   123          1
   124          0
   125          1
   126          0
   127          1
   128          1
   129          2
   130          1
   131          2
   132         11
   133          6
   134         15
   135          5
   136          1
   138          0
   139          0
   141          4
   142          0
   143          1
   144          3
   145          2
   146          4
   147          1
   148          1
   149          7
   150          6
   151          2
   152          5
   153          0
   154          2
   155          0
   156          5
   157          3
   158         60
   159         50
   160         55
   161         49
   162          4
   166          1
   168          1
   170          1
   171          1
   172          3
   173          2
   174          1
   175          2
   176          0
   177          0
   180          1
   185          1
   186          7
   187          9
   188          8
   189          9
   190          3
   193          6
   194         12
   195          7
   196         16
   197          3
   198          7
   199          1
   200          2
   208          1
   210          7
   212         12
   214          6
   215          1
   223          0
   224          1
   225          1
   226          1
   232          1
   233          3
   234          2
   235          3
   237         56
   238        142
   239        110
   240        268
   241         63
   242        133
   243          7
   248          0
   251          3
   252          4
   253          4
   254          5
   255          2
   256          3
   262          2
   264          0
   265          1
   266          5
   267          5
   268         10
   269          4
   270          5
   271          1
   278          1
   280          1
   282          1
   311         12
   313         24
   314          5
   315          8
   316          0