##TITLE=Library Entry 46886
##JCAMP-DX=Revision 4.10 
##DATA TYPE=MASS SPECTRUM
##SAMPLE DESCRIPTION=Chemical Concepts
##NAMES=HP
##CAS NAME=9-Oxabicyclo[3.3.1]nona-2,6-diene
##MOLFORM=C8H10O
##CAS REGISTRY NO=10299-48-6
##MP= -300
##BP= -300
##MW= 122
##$RETENTION INDEX=0
##$CONDENSED SPECTRUM=NO
##NPOINTS= 83
##XYDATA=(XY..XY) 1 
    25          2
    26         47
    27        315
    28         31
    29         77
    30          1
    31         11
    34          0
    35          1
    36          1
    37         32
    38         96
    39        707
    40        156
    41        193
    42         17
    43         23
    44          9
    45          4
    46          4
    47          2
    48          1
    49          8
    50         89
    51        193
    52         87
    53        179
    54         26
    55         53
    56          2
    57         32
    58          1
    59          2
    60          4
    61         18
    62         42
    63         96
    64         25
    65        267
    66        358
    67         65
    68        119
    69          9
    70          1
    71          0
    72          1
    73          5
    74         12
    75         13
    76          7
    77        999
    78        261
    79        538
    80         70
    81        140
    82         10
    83          1
    84          0
    85          1
    86          2
    87          2
    88          1
    89         21
    90         10
    91        824
    92        341
    93        938
    94        422
    95         37
    96          1
   102          3
   103         24
   104         92
   105         16
   106          4
   107         58
   108          5
   119          0
   120          0
   121         27
   122        326
   123         31
   124          1