##TITLE=Library Entry 29637
##JCAMP-DX=Revision 4.10 
##DATA TYPE=MASS SPECTRUM
##SAMPLE DESCRIPTION=NIST Mass Spectrometry Data Center, 1990.
##NAMES=HP
##CAS NAME=2-Methyl-2-nonanol
##MOLFORM=C10H22O
##CAS REGISTRY NO=10297-57-1
##MP= -300
##BP= -300
##MW= 158
##$RETENTION INDEX=0
##$CONDENSED SPECTRUM=NO
##NPOINTS= 51
##XYDATA=(XY..XY) 1 
    14          2
    15         10
    17          3
    18         12
    27         89
    28         33
    29        110
    30          2
    31         65
    32          0
    39         80
    40         22
    41        255
    42         45
    43        230
    44         10
    45         33
    51          5
    52          3
    53         28
    54         15
    55        136
    56        185
    57        101
    58          3
    59        999
    60         31
    61          2
    65          5
    67         24
    69        221
    70         33
    71         41
    72          2
    73          2
    79          3
    81          5
    82          5
    83         57
    84         17
    85          9
    96          2
    97          8
    98          3
   111          2
   112          4
   125          4
   140         19
   141          2
   143         65
   144          6