##TITLE=Library Entry 31355
##JCAMP-DX=Revision 4.10 
##DATA TYPE=MASS SPECTRUM
##SAMPLE DESCRIPTION=Japan AIST/NIMC Database- Spectrum MS-IW-6239
##NAMES=HP
##CAS NAME=(2-Methyl-1-cyclohexenyl)formaldehyde semicarbazone
##MOLFORM=C9H15N3O
##CAS REGISTRY NO=102943-52-2
##MP= -300
##BP= -300
##MW= 181
##$RETENTION INDEX=0
##$CONDENSED SPECTRUM=NO
##NPOINTS= 137
##XYDATA=(XY..XY) 1 
    13          1
    14          1
    15          8
    16         19
    17         50
    18          5
    26         11
    27        119
    28         68
    29         63
    30         51
    31          9
    32          1
    37          5
    38         15
    39        195
    40         48
    41        262
    42        137
    43        236
    44        131
    45         14
    46          2
    49          1
    50         24
    51         76
    52         57
    53        151
    54         78
    55        197
    56         40
    57         13
    58          9
    59          5
    60         66
    61        999
    62         28
    63         34
    64         15
    65        129
    66        125
    67        225
    68        231
    69        100
    70         23
    71          7
    72          1
    73          1
    74          5
    75          6
    76         10
    77        252
    78         73
    79        530
    80        303
    81        214
    82         74
    83         63
    84          6
    85          2
    86         15
    87          2
    88          2
    89         18
    90         20
    91        269
    92        157
    93        642
    94        321
    95        450
    96        182
    97         27
    98          2
   101          1
   102          5
   103         36
   104         45
   105         89
   106        247
   107         95
   108         92
   109        272
   110        150
   111         18
   112          2
   113          2
   114          1
   115          2
   116         18
   117         45
   118         53
   119         34
   120        284
   121        587
   122        962
   123        569
   124         47
   125          3
   126          2
   128          2
   129          1
   130          1
   131          4
   132          4
   133          4
   134          3
   135         25
   136         15
   137        363
   138        251
   139         44
   140          3
   142          2
   143          1
   144          1
   145          2
   146          3
   147          2
   148          6
   149         11
   150          2
   151          2
   152          9
   153          3
   154          4
   161          1
   162          2
   163         16
   164         29
   165         16
   166         83
   167          9
   179          1
   180         34
   181        847
   182        162
   183         13