##TITLE=Library Entry 40346
##JCAMP-DX=Revision 4.10 
##DATA TYPE=MASS SPECTRUM
##SAMPLE DESCRIPTION=NIST Mass Spectrometry Data Center, 1998.
##NAMES=HP
##CAS NAME=3-(2,3-Dichlorophenyl)-1,1-dimethylurea
##MOLFORM=C9H10Cl2N2O
##CAS REGISTRY NO=10290-37-6
##MP= -300
##BP= -300
##MW= 232
##$RETENTION INDEX=0
##$CONDENSED SPECTRUM=NO
##NPOINTS= 140
##XYDATA=(XY..XY) 1 
    15         15
    18         12
    26          1
    27          3
    28         16
    29          2
    30          4
    35          1
    36          1
    37          5
    38          6
    39          7
    40          3
    41          5
    42         57
    43         17
    44         84
    45         11
    47          2
    48          1
    49          5
    50          5
    51          4
    52          5
    53          1
    54          1
    55          1
    56         30
    57          1
    58          2
    60          1
    61          9
    62         18
    63         26
    64          9
    65          2
    66          1
    72        999
    73         54
    74         17
    75         16
    76          3
    77          2
    78          1
    79          1
    83          3
    84          5
    85          5
    86          4
    87          4
    88         10
    89          6
    90         18
    91          3
    92          1
    93          1
    96          2
    97         14
    98          9
    99         10
   100          3
   101          2
   102          1
   104          1
   106          1
   107          5
   108          2
   109         13
   110          4
   111          6
   112          2
   113          1
   116          1
   117          1
   118          1
   119          1
   122          1
   123          1
   124         47
   125         16
   126         19
   127          7
   128          1
   129          1
   131          1
   132          1
   133         39
   134          3
   135         25
   136          2
   137          4
   138          1
   139          1
   140          3
   141          1
   142          1
   145          3
   146          1
   147          2
   149          1
   152          1
   153          4
   154          2
   155          1
   156          1
   158          1
   159          7
   160         13
   161         12
   162         10
   163          5
   164          2
   165          1
   166          1
   167          2
   169          1
   174          3
   175          1
   176          2
   181          3
   182          3
   183          1
   184          1
   187         19
   188          3
   189         13
   190          2
   191          2
   195          2
   196          6
   197        297
   198         33
   199         98
   200         10
   201          1
   232         33
   233          4
   234         21
   235          2
   236          4