##TITLE=Library Entry 35399
##JCAMP-DX=Revision 4.10 
##DATA TYPE=MASS SPECTRUM
##SAMPLE DESCRIPTION=Exported from NIST MS Search
##NAMES=HP
##CAS NAME=Bicyclo[2.2.1]heptan-2-one, 4,7,7-trimethyl-, (1S)-
##MOLFORM=C10H16O
##CAS REGISTRY NO=10292-98-5
##MP= -300
##BP= -300
##MW= 152
##$RETENTION INDEX=1145
##$CONDENSED SPECTRUM=NO
##NPOINTS= 50
##XYDATA=(XY..XY) 1 
    15          5
    26          6
    27        108
    28         15
    29         76
    38          7
    39        165
    40         31
    41        400
    42         28
    43         39
    50          7
    51         26
    52         12
    53         82
    54         17
    55        156
    56         16
    57         23
    63          7
    65         25
    66         18
    67        119
    68        110
    69        999
    70         93
    71          4
    77         39
    78          8
    79         40
    80        185
    81        855
    82        119
    83         52
    84         29
    91         24
    93         21
    94         10
    95        165
    96         24
    97          7
   107          6
   108         11
   109        194
   110         29
   123          6
   124         20
   137         12
   152        224
   153         24