##TITLE=Library Entry 83955
##JCAMP-DX=Revision 4.10 
##DATA TYPE=MASS SPECTRUM
##SAMPLE DESCRIPTION=NIST Mass Spectrometry Data Center
##NAMES=HP
##CAS NAME=Acetamide, N-(4-methylphenyl)-
##MOLFORM=C9H11NO
##CAS REGISTRY NO=103-89-9
##MP= -300
##BP= -300
##MW= 149
##$RETENTION INDEX=0
##$CONDENSED SPECTRUM=NO
##NPOINTS= 59
##XYDATA=(XY..XY) 1 
    15          2
    26          1
    27          8
    30          1
    37          1
    38          6
    39         31
    40          3
    41          9
    42         12
    43        141
    44          3
    49          1
    50         28
    51         67
    52         57
    53         39
    54         10
    61          3
    62         10
    63         29
    64         12
    65         36
    66          8
    67          3
    73          1
    74          5
    75          5
    76         10
    77        183
    78         67
    79         82
    80         19
    81          2
    86          1
    87          1
    89         13
    90          8
    91         36
    92          5
    93          1
   102          2
   103          2
   104         31
   105         11
   106        972
   107        999
   108         83
   109          3
   118          3
   120          6
   131          1
   132          8
   133          4
   134          3
   147          1
   149        410
   150         42
   151          2