##TITLE=Library Entry 67383
##JCAMP-DX=Revision 4.10 
##DATA TYPE=MASS SPECTRUM
##SAMPLE DESCRIPTION=NIST Mass Spectrometry Data Center, 1992
##NAMES=HP
##CAS NAME=Benzene, ethoxy-
##MOLFORM=C8H10O
##CAS REGISTRY NO=103-73-1
##MP= -300
##BP= -300
##MW= 122
##$RETENTION INDEX=989
##$CONDENSED SPECTRUM=NO
##NPOINTS= 65
##XYDATA=(XY..XY) 1 
    12          0
    13          1
    14          4
    15         13
    17          0
    18          2
    24          0
    25          3
    26         28
    27        112
    28         29
    29         72
    30          3
    31          2
    32          3
    37         15
    38         49
    39        207
    40         47
    41          6
    42          5
    43         10
    44          1
    45          1
    46          0
    49          5
    50         51
    51        104
    52          9
    53         11
    54          2
    55         28
    56          0
    61          7
    62         20
    63         53
    64         27
    65        172
    66        302
    67         18
    68          4
    69          0
    73          2
    74         14
    75          7
    76          0
    77        101
    78         14
    79         18
    80          1
    81          0
    89          0
    91         10
    92          6
    94        999
    95         67
    96          4
   103          2
   105          1
   107          6
   108          0
   119          0
   122        388
   123         33
   124          1