##TITLE=Library Entry 61091
##JCAMP-DX=Revision 4.10 
##DATA TYPE=MASS SPECTRUM
##SAMPLE DESCRIPTION=Japan AIST/NIMC Database- Spectrum MS-NW- 885
##NAMES=HP
##CAS NAME=Dibenzylamine
##MOLFORM=C14H15N
##CAS REGISTRY NO=103-49-1
##MP= -300
##BP= -300
##MW= 197
##$RETENTION INDEX=1679
##$CONDENSED SPECTRUM=NO
##NPOINTS= 66
##XYDATA=(XY..XY) 1 
    15          1
    26          1
    27         10
    28         31
    29          2
    30          5
    36          2
    37          1
    38          6
    39         60
    40          5
    41         23
    42          5
    43          5
    44          1
    50         15
    51         54
    52         12
    53          3
    56          2
    57          3
    62          6
    63         26
    64          9
    65        151
    66          9
    71          1
    74          3
    75          3
    76          6
    77         42
    78         16
    79         40
    80          2
    83          1
    86          1
    87          1
    89         30
    90         20
    91        999
    92        247
    93         15
    97          1
   103          6
   104         21
   105          5
   106        529
   107         43
   108          1
   115          1
   116          5
   117         16
   118         45
   119          7
   120         67
   121          6
   152          3
   165          5
   166          2
   167          3
   193          2
   194         29
   195         32
   196         88
   197         58
   198          8