##TITLE=Library Entry 89197
##JCAMP-DX=Revision 4.10 
##DATA TYPE=MASS SPECTRUM
##SAMPLE DESCRIPTION=RADIAN CORP
##NAMES=HP
##CAS NAME=2-Propanol, 1-(cyclohexylamino)-
##MOLFORM=C9H19NO
##CAS REGISTRY NO=103-00-4
##MP= -300
##BP= -300
##MW= 157
##$RETENTION INDEX=0
##$CONDENSED SPECTRUM=NO
##NPOINTS= 90
##XYDATA=(XY..XY) 1 
    15          7
    18          8
    19          8
    26          3
    27         55
    28        129
    29         73
    30        862
    31         42
    32          4
    38          2
    39         79
    40         14
    41        237
    42         63
    43         69
    44         65
    45         58
    46          2
    50          2
    51          9
    52          5
    53         41
    54         47
    55        416
    56        344
    57         30
    58         49
    59         11
    60         61
    61          2
    65         11
    66          4
    67         32
    68         61
    69         28
    70         69
    71          5
    72          3
    73          3
    74         17
    75          2
    76          1
    77         14
    78          2
    79         27
    80          9
    81         28
    82         31
    83        156
    84         16
    85          1
    86          4
    91         30
    92          2
    93          2
    94          4
    95          3
    96         41
    97          5
    98          9
    99          1
   100          5
   101          1
   108          1
   110          8
   111          1
   112        999
   113         87
   114        106
   115          8
   118          2
   120          2
   124          1
   126          4
   127          1
   128          2
   130          1
   134         10
   135          2
   137          1
   138          3
   139          6
   140         21
   141          2
   142         21
   143          2
   156          3
   157         36
   158          5