##TITLE=Library Entry 76769
##JCAMP-DX=Revision 4.10 
##DATA TYPE=MASS SPECTRUM
##SAMPLE DESCRIPTION=Japan AIST/NIMC Database- Spectrum MS-NW- 156
##NAMES=HP
##CAS NAME=Acetic acid, 2-phenylethyl ester
##MOLFORM=C10H12O2
##CAS REGISTRY NO=103-45-7
##MP= -300
##BP= -300
##MW= 164
##$RETENTION INDEX=1258
##$CONDENSED SPECTRUM=NO
##NPOINTS= 46
##XYDATA=(XY..XY) 1 
    14          3
    15         22
    18          2
    26          2
    27         14
    28          7
    29          5
    31          2
    32          1
    38          6
    39         43
    40          3
    41          9
    42          7
    43        589
    44         12
    45          2
    50         17
    51         47
    52         11
    53          6
    61          1
    62          7
    63         24
    64          7
    65         69
    66          4
    73         10
    74          5
    75          5
    76          5
    77         54
    78         53
    79         20
    89         14
    90          8
    91        182
    92         36
    93          3
   102          7
   103         54
   104        999
   105        116
   106          6
   121          2
   122          2