##TITLE=Library Entry 63241
##JCAMP-DX=Revision 4.10 
##DATA TYPE=MASS SPECTRUM
##SAMPLE DESCRIPTION=Japan AIST/NIMC Database- Spectrum MS-NW-4171
##NAMES=HP
##CAS NAME=Benzenemethanamine, N-phenyl-
##MOLFORM=C13H13N
##CAS REGISTRY NO=103-32-2
##MP= -300
##BP= -300
##MW= 183
##$RETENTION INDEX=0
##$CONDENSED SPECTRUM=NO
##NPOINTS= 67
##XYDATA=(XY..XY) 1 
    26          1
    27          8
    28          1
    30          2
    37          2
    38          8
    39         53
    40          4
    41         10
    44          1
    50         15
    51         63
    52         12
    53          3
    54          1
    61          1
    62          5
    63         21
    64          9
    65        124
    66          9
    74          4
    75          4
    76          6
    77        140
    78         27
    79         14
    80          1
    83          4
    84          1
    87          1
    89         15
    90         10
    91        999
    92         87
    93          6
   102          1
   103          1
   104         60
   105         17
   106        172
   107         13
   115          3
   116          1
   117          1
   127          2
   128          2
   129          1
   139          1
   141          1
   151          1
   152          6
   153          4
   154          5
   155          2
   165          4
   166          2
   167          4
   168          1
   178          1
   179          1
   180         31
   181         15
   182        181
   183        527
   184         75
   185          5