##TITLE=Library Entry 66345
##JCAMP-DX=Revision 4.10 
##DATA TYPE=MASS SPECTRUM
##SAMPLE DESCRIPTION=Japan AIST/NIMC Database- Spectrum MS-NW-3756
##NAMES=HP
##CAS NAME=2-Pyridineethanol
##MOLFORM=C7H9NO
##CAS REGISTRY NO=103-74-2
##MP= -300
##BP= -300
##MW= 123
##$RETENTION INDEX=1119
##$CONDENSED SPECTRUM=NO
##NPOINTS= 75
##XYDATA=(XY..XY) 1 
    14          2
    15          9
    17          5
    18         19
    25          2
    26         27
    27         54
    28         39
    29         23
    30          3
    31         91
    32          3
    36          1
    37         17
    38         34
    39        170
    40         40
    41         31
    42         14
    43          9
    44          3
    45          2
    46          2
    47          1
    49          7
    50         55
    51        119
    52        140
    53         49
    54         15
    55          2
    60          1
    61          6
    62         11
    63         35
    64         26
    65        188
    66        188
    67         51
    68          4
    69          1
    70          1
    73          2
    74          4
    75          5
    76          7
    77         20
    78        116
    79        430
    80         94
    81          5
    87          1
    88          2
    90          2
    91          8
    92        140
    93        999
    94        129
    95          7
   101          1
   102          1
   103          2
   104         70
   105        189
   106        897
   107         71
   108         10
   109          1
   118          1
   120          6
   121          5
   122        249
   123        140
   124         12
   125          1