##TITLE=Library Entry 77238
##JCAMP-DX=Revision 4.10 
##DATA TYPE=MASS SPECTRUM
##SAMPLE DESCRIPTION=V.Zaikin,Topchiev Inst.Petrochem.Synth.,Moscow
##NAMES=HP
##CAS NAME=.beta.-Phenylethyl butyrate
##MOLFORM=C12H16O2
##CAS REGISTRY NO=103-52-6
##MP= -300
##BP= -300
##MW= 192
##$RETENTION INDEX=1447
##$CONDENSED SPECTRUM=NO
##NPOINTS= 25
##XYDATA=(XY..XY) 1 
    27          9
    39         10
    41         16
    43         80
    44          3
    50          4
    51         13
    52          6
    60          3
    63          5
    65         18
    71        140
    72          7
    77         33
    78         22
    79         23
    89          6
    90          3
    91         54
    92         10
   102          5
   103         38
   104        999
   105        171
   106         11