##TITLE=Library Entry 63470
##JCAMP-DX=Revision 4.10 
##DATA TYPE=MASS SPECTRUM
##SAMPLE DESCRIPTION=Japan AIST/NIMC Database- Spectrum MS-NW-5687
##NAMES=HP
##CAS NAME=Monobenzone
##MOLFORM=C13H12O2
##CAS REGISTRY NO=103-16-2
##MP= -300
##BP= -300
##MW= 200
##$RETENTION INDEX=0
##$CONDENSED SPECTRUM=NO
##NPOINTS= 87
##XYDATA=(XY..XY) 1 
    26          6
    27         17
    28          7
    29          2
    31          1
    37          1
    38          6
    39         37
    40          2
    41          9
    42          2
    43          2
    44          2
    45          1
    49          1
    50          8
    51         18
    52          9
    53         13
    54          9
    55          6
    56          2
    57          2
    58          2
    61          2
    62          7
    63         17
    64          7
    65         95
    66          7
    67          1
    69          2
    70          2
    71          1
    73          1
    74          2
    75          2
    76          2
    77          8
    78          2
    79          2
    80          2
    81         20
    82          5
    83          1
    87          1
    88          1
    89         16
    90          9
    91        999
    92         87
    93          5
    94          2
    99          1
   100          1
   103          1
   104          1
   105          2
   106          1
   107          1
   108          5
   109         20
   110          7
   111          1
   112          1
   115          3
   116          1
   117          2
   118          3
   119          2
   121          1
   122          2
   127          1
   128          3
   129          1
   139          1
   140          2
   141          2
   142          1
   152          3
   153          2
   197          2
   198          2
   199          1
   200        157
   201         23
   202          3