##TITLE=Library Entry 15734
##JCAMP-DX=Revision 4.10 
##DATA TYPE=MASS SPECTRUM
##SAMPLE DESCRIPTION=Japan AIST/NIMC Database- Spectrum MS-NW-8512
##NAMES=HP
##CAS NAME=2H-Pyran, 2-ethoxy-3,4-dihydro-
##MOLFORM=C7H12O2
##CAS REGISTRY NO=103-75-3
##MP= -300
##BP= -300
##MW= 128
##$RETENTION INDEX=874
##$CONDENSED SPECTRUM=NO
##NPOINTS= 63
##XYDATA=(XY..XY) 1 
    14          5
    15         24
    16          1
    17          1
    18          3
    25          1
    26         29
    27        262
    28         58
    29        321
    30          9
    31         48
    37          3
    38          9
    39        139
    40         13
    41         89
    42         37
    43        416
    44        999
    45         79
    46          4
    47         14
    49          1
    50          9
    51         15
    52          8
    53         80
    54         79
    55        185
    56         21
    57        190
    58          9
    59          6
    65          4
    66          3
    67          1
    68          3
    69         20
    70          9
    71         38
    72        845
    73         59
    74          3
    75          2
    78          1
    79          1
    80          1
    81        103
    82        189
    83        339
    84         62
    85         21
    86          2
    97          2
    98          1
    99         31
   100          5
   101          2
   127          2
   128        261
   129         21
   130          2