##TITLE=Library Entry 61986
##JCAMP-DX=Revision 4.10 
##DATA TYPE=MASS SPECTRUM
##SAMPLE DESCRIPTION=NIST Mass Spectrometry Data Center, 1992
##NAMES=HP
##CAS NAME=Benzyl cinnamate
##MOLFORM=C16H14O2
##CAS REGISTRY NO=103-41-3
##MP= -300
##BP= -300
##MW= 238
##$RETENTION INDEX=2135
##$CONDENSED SPECTRUM=NO
##NPOINTS= 106
##XYDATA=(XY..XY) 1 
    12          0
    15          1
    16          0
    17          2
    18          9
    26         11
    27         45
    29         12
    30          1
    31          1
    37          5
    38         26
    39        158
    40          9
    41         28
    42          1
    43          1
    44          1
    45          2
    50        133
    51        345
    52         67
    53         25
    54          2
    55          2
    61          6
    62         31
    63        100
    64         32
    65        270
    66         16
    69         12
    73          4
    74         38
    75         51
    76         96
    77        588
    78         74
    79         81
    80          5
    85          1
    86          3
    87          5
    88          1
    89         85
    90          1
    91        999
    92         83
    93          3
    98          3
    99          1
   101         21
   102        138
   103        452
   104        140
   105         35
   106          5
   107         41
   108          4
   113          1
   115        154
   116         45
   117          7
   118          5
   119          4
   120          1
   127          0
   128          1
   131        758
   132         88
   133          7
   145          0
   147         63
   148          6
   149          1
   151          0
   152          2
   153          1
   160         20
   161          3
   165         10
   166          3
   167          3
   176          1
   178         71
   179         38
   180          5
   181          0
   189          1
   192        540
   193        353
   194         54
   195          5
   202          1
   203          2
   204          1
   205          0
   219         16
   220         42
   221          7
   222          0
   223          2
   224          0
   238         94
   239         17
   240          1