##TITLE=Library Entry 61016
##JCAMP-DX=Revision 4.10 
##DATA TYPE=MASS SPECTRUM
##SAMPLE DESCRIPTION=Japan AIST/NIMC Database- Spectrum MS-NW-8367
##NAMES=HP
##CAS NAME=Benzene, (2-bromoethyl)-
##MOLFORM=C8H9Br
##CAS REGISTRY NO=103-63-9
##MP= -300
##BP= -300
##MW= 184
##$RETENTION INDEX=1219
##$CONDENSED SPECTRUM=NO
##NPOINTS= 51
##XYDATA=(XY..XY) 1 
    26          5
    27         38
    28          2
    37          4
    38         11
    39         52
    40          4
    41          7
    42          1
    49          4
    50         49
    51        128
    52         28
    53          8
    61          4
    62         11
    63         32
    64          7
    65         60
    66          4
    73          3
    74         16
    75         12
    76         14
    77        138
    78         66
    79         94
    80          6
    81          2
    82          4
    85          1
    86          1
    87          2
    89         15
    90          5
    91        999
    92         76
    93          3
    95          2
    98          1
   101          2
   102         13
   103         81
   104         80
   105        629
   106         55
   107          6
   184        190
   185         16
   186        185
   187         15