##TITLE=Library Entry 61280
##JCAMP-DX=Revision 4.10 
##DATA TYPE=MASS SPECTRUM
##SAMPLE DESCRIPTION=Japan AIST/NIMC Database- Spectrum MS-NW-5837
##NAMES=HP
##CAS NAME=Butanoic acid, 3-methyl-, phenylmethyl ester
##MOLFORM=C12H16O2
##CAS REGISTRY NO=103-38-8
##MP= -300
##BP= -300
##MW= 192
##$RETENTION INDEX=1395
##$CONDENSED SPECTRUM=NO
##NPOINTS= 86
##XYDATA=(XY..XY) 1 
    14          1
    15          5
    16          1
    26          4
    27         41
    28         10
    29         69
    30          1
    31          2
    32          2
    37          2
    38          8
    39         80
    40          9
    41        116
    42         14
    43         56
    44         11
    45          3
    49          1
    50         16
    51         44
    52         14
    53          7
    54          1
    55         13
    56          8
    57        355
    58         13
    59         39
    60          9
    61          2
    62          6
    63         21
    64          8
    65         98
    66          5
    68          1
    69         20
    70          2
    71          6
    72          1
    73          2
    74          3
    75          2
    76          3
    77         64
    78         16
    79         68
    80          8
    83          4
    84          7
    85        265
    86         18
    87          4
    88          1
    89         36
    90        121
    91        999
    92        145
    93          9
    97          1
    99          1
   101          4
   104          2
   105         11
   106          4
   107         49
   108        372
   109         29
   115          1
   117          2
   118          1
   122          2
   131          3
   132         10
   133          3
   135          1
   146          1
   150          1
   174          9
   175          2
   177          1
   192        193
   193         28
   194          3