##TITLE=Library Entry 109684
##JCAMP-DX=Revision 4.10 
##DATA TYPE=MASS SPECTRUM
##SAMPLE DESCRIPTION=MASS SPECTROMETRY CENTER, UNIV. OF UTAH. EPA-PTSEL 1340
##NAMES=HP
##CAS NAME=Chlorbenside
##MOLFORM=C13H10Cl2S
##CAS REGISTRY NO=103-17-3
##MP= -300
##BP= -300
##MW= 268
##$RETENTION INDEX=2074
##$CONDENSED SPECTRUM=NO
##NPOINTS= 51
##XYDATA=(XY..XY) 1 
    27          0
    28          3
    38          6
    39         38
    40          0
    45         24
    49          0
    50         17
    51         19
    58          2
    61          4
    62         15
    63         61
    64          9
    65         10
    69         18
    70          0
    73         26
    74          6
    75         32
    76          1
    77          3
    81          0
    82          6
    86          0
    87          1
    89         98
    90         46
    91          4
    99         56
   100          2
   101         19
   107          0
   108         46
   109          4
   110          0
   124         39
   125        999
   126        124
   127        438
   128         37
   143         34
   144          2
   145         12
   155          4
   231          0
   268        131
   269         21
   270         92
   271         15
   272         21