##TITLE=Library Entry 22657
##JCAMP-DX=Revision 4.10 
##DATA TYPE=MASS SPECTRUM
##SAMPLE DESCRIPTION=NIST Mass Spectrometry Data Center
##NAMES=HP
##CAS NAME=4,4'-Dithiodimorpholine
##MOLFORM=C8H16N2O2S2
##CAS REGISTRY NO=103-34-4
##MP= -300
##BP= -300
##MW= 236
##$RETENTION INDEX=0
##$CONDENSED SPECTRUM=NO
##NPOINTS= 79
##XYDATA=(XY..XY) 1 
    15         30
    26         23
    27        117
    28        225
    29        213
    30        124
    31         47
    32          7
    33         12
    34          4
    35          9
    39          3
    40         11
    41         70
    42        224
    43         41
    44         82
    45         44
    46         42
    47         32
    48          4
    49          7
    51          1
    52          6
    53          2
    54         95
    55        265
    56        999
    57        131
    58         41
    59         91
    60        456
    61        107
    62         45
    63          7
    64         23
    65          7
    66          4
    67          1
    68          2
    69          1
    70          4
    71          1
    72         18
    73          7
    74         60
    75          8
    76          5
    79          8
    84        151
    85        142
    86        930
    87        134
    88        142
    89         29
    90         46
    91          5
    92          4
    93          1
    98          1
   100          3
   104          1
   106          2
   116        722
   117         48
   118        653
   119         40
   120         32
   121          1
   149        478
   150        468
   151        141
   152         46
   153          9
   154          1
   204          2
   236         61
   237          6
   238          6