##TITLE=Library Entry 23157
##JCAMP-DX=Revision 4.10 
##DATA TYPE=MASS SPECTRUM
##SAMPLE DESCRIPTION=Exported from NIST MS Search
##NAMES=HP
##CAS NAME=2-Propen-1-ol, 3-phenyl-, propanoate
##MOLFORM=C12H14O2
##CAS REGISTRY NO=103-56-0
##MP= -300
##BP= -300
##MW= 190
##$RETENTION INDEX=1517
##$CONDENSED SPECTRUM=NO
##NPOINTS= 52
##XYDATA=(XY..XY) 1 
    27        193
    28         75
    29        443
    30         12
    31          6
    38         13
    39         89
    40          6
    41          9
    42          6
    43         20
    50         34
    51         86
    52         20
    53          8
    55         18
    56          6
    57        999
    58         39
    62         14
    63         44
    64          9
    65         34
    71          5
    74         11
    75         15
    76         14
    77         96
    78         44
    79         23
    89         23
    90          7
    91         94
    92         50
   102         25
   103         43
   104         15
   105         86
   106         10
   113          5
   114         21
   115        322
   116        180
   117        257
   118         28
   131         13
   133        113
   134         99
   135          9
   148          7
   190        108
   191         14