##TITLE=Library Entry 10244
##JCAMP-DX=Revision 4.10 
##DATA TYPE=MASS SPECTRUM
##SAMPLE DESCRIPTION=Exported from NIST MS Search
##NAMES=HP
##CAS NAME=Benzyl methyl ketone
##MOLFORM=C9H10O
##CAS REGISTRY NO=103-79-7
##MP= -300
##BP= -300
##MW= 134
##$RETENTION INDEX=1110
##$CONDENSED SPECTRUM=NO
##NPOINTS= 65
##XYDATA=(XY..XY) 1 
    25          1
    26         10
    27         24
    28          9
    29          4
    36          1
    37         10
    38         26
    39        125
    40          9
    41         24
    42         10
    43        999
    44         25
    45          4
    46          2
    49          4
    50         35
    51         63
    52         16
    53          5
    55          1
    57          1
    58          1
    60          1
    61          9
    62         25
    63         66
    64         18
    65        140
    66          9
    73          2
    74          8
    75          6
    76          4
    77         17
    78          4
    79          4
    85          2
    86          5
    87          4
    88          2
    89         39
    90         21
    91        600
    92        160
    93         10
    94          1
    98          1
   101          1
   102          2
   103          5
   104          2
   105          5
   106          1
   115          4
   116          2
   117          3
   118          2
   119          3
   131          1
   133          1
   134        180
   135         18
   136          1