##TITLE=Library Entry 39324
##JCAMP-DX=Revision 4.10 
##DATA TYPE=MASS SPECTRUM
##SAMPLE DESCRIPTION=V.Zaikin,Topchiev Inst.Petrochem.Synth.,Moscow
##NAMES=HP
##CAS NAME=Butanoic acid, 3-phenyl-2-propenyl ester
##MOLFORM=C13H16O2
##CAS REGISTRY NO=103-61-7
##MP= -300
##BP= -300
##MW= 204
##$RETENTION INDEX=1582
##$CONDENSED SPECTRUM=NO
##NPOINTS= 94
##XYDATA=(XY..XY) 1 
    25          1
    26         13
    27         72
    29         16
    30          2
    31          3
    37          1
    38          4
    39         68
    40          7
    41         73
    42         12
    43        480
    44         30
    45          3
    50         19
    51         51
    52         13
    53          4
    55         17
    56          2
    58         20
    59          1
    60          7
    61          2
    62          7
    63         30
    64          8
    65         37
    66          2
    70          4
    71        999
    72         47
    73          7
    74          7
    75         10
    76         15
    77         90
    78         52
    79         23
    86          2
    87          3
    88          7
    89         32
    90          7
    91        139
    92         67
    93          5
    98          2
   101          2
   102         35
   103         66
   104         35
   105         70
   106          6
   113          2
   114          4
   115        629
   116        282
   117        466
   118         52
   119          3
   123          1
   125          2
   127          1
   128          4
   129          4
   131         22
   132          8
   133        228
   134        117
   135         13
   136          1
   143          2
   149          3
   150          1
   153          2
   154          1
   155          2
   156          2
   157          2
   162         10
   169          1
   170          2
   175          6
   176          4
   178          1
   181          1
   182          2
   184          3
   193          4
   204        194
   205         24
   206          3