##TITLE=Library Entry 82910
##JCAMP-DX=Revision 4.10 
##DATA TYPE=MASS SPECTRUM
##SAMPLE DESCRIPTION=NIST Mass Spectrometry Data Center, 1998.
##NAMES=HP
##CAS NAME=Benzenamine, N-ethyl-
##MOLFORM=C8H11N
##CAS REGISTRY NO=103-69-5
##MP= -300
##BP= -300
##MW= 121
##$RETENTION INDEX=1128
##$CONDENSED SPECTRUM=NO
##NPOINTS= 62
##XYDATA=(XY..XY) 1 
    15          2
    26          4
    27         18
    28          3
    29          9
    30          4
    37          5
    38         14
    39         53
    40          9
    41         10
    42         12
    43          1
    44          7
    49          2
    50         34
    51        102
    52         35
    53         35
    54          6
    58          6
    59          2
    61          5
    62         10
    63         30
    64         20
    65         79
    66         26
    67          5
    68          1
    73          2
    74         12
    75          8
    76         11
    77        219
    78         48
    79        111
    80         12
    81          1
    87          1
    88          1
    89          4
    90          4
    91         33
    92         32
    93         16
    94          5
   102          1
   103         15
   104         37
   105         13
   106        999
   107         85
   108          3
   116          1
   117          7
   118         29
   119          9
   120         55
   121        378
   122         36
   123          1