##TITLE=Library Entry 61496
##JCAMP-DX=Revision 4.10 
##DATA TYPE=MASS SPECTRUM
##SAMPLE DESCRIPTION=Japan AIST/NIMC Database- Spectrum MS-NW- 930
##NAMES=HP
##CAS NAME=Benzeneacetyl chloride
##MOLFORM=C8H7ClO
##CAS REGISTRY NO=103-80-0
##MP= -300
##BP= -300
##MW= 154
##$RETENTION INDEX=0
##$CONDENSED SPECTRUM=NO
##NPOINTS= 60
##XYDATA=(XY..XY) 1 
    26          6
    27         11
    28          8
    31          1
    35          7
    36         51
    37         16
    38         37
    39        103
    40         11
    41         14
    42          1
    43         14
    44          8
    45         51
    46          4
    49          8
    50         47
    51         62
    52         11
    53          1
    55          1
    59         14
    60          3
    61         20
    62         47
    63        110
    64         42
    65        126
    66          6
    73          3
    74         11
    75          8
    76          4
    77         17
    78          1
    84          1
    85          5
    86          9
    87          7
    88          3
    89        217
    90        261
    91        999
    92         81
    93          2
    99          1
   105         24
   106          3
   112         12
   114          4
   118        263
   119        101
   120          9
   136          8
   138          2
   154        128
   155         10
   156         40
   157          4