##TITLE=Library Entry 107136
##JCAMP-DX=Revision 4.10 
##DATA TYPE=MASS SPECTRUM
##SAMPLE DESCRIPTION=NIST Mass Spectrometry Data Center, 2010
##NAMES=HP
##CAS NAME=Acetic acid, (phenylthio)-
##MOLFORM=C8H8O2S
##CAS REGISTRY NO=103-04-8
##MP= -300
##BP= -300
##MW= 168
##$RETENTION INDEX=1535
##$CONDENSED SPECTRUM=NO
##NPOINTS= 124
##XYDATA=(XY..XY) 1 
    14          2
    15          1
    17          1
    18          3
    25          1
    26          2
    27         10
    28          3
    29          9
    30          1
    31         14
    32          2
    33          1
    35          4
    36         19
    37          7
    38         19
    39         69
    40          5
    41          5
    42         19
    43          6
    44          8
    45        346
    46         23
    47         20
    48          2
    49          5
    50         64
    51        154
    52         17
    53          6
    54          2
    55          4
    56          1
    57         13
    58         14
    59          7
    60          7
    61          9
    62         14
    63         32
    64          6
    65        135
    66         24
    67          2
    68          3
    69         78
    70          7
    71         12
    72          2
    73          7
    74         31
    75         17
    76         15
    77        176
    78         69
    79         86
    80          9
    81         17
    82         30
    83         12
    84         13
    85          2
    86          1
    87          1
    88          1
    89          8
    90          3
    91         43
    92          5
    93          7
    94         12
    95          6
    96          2
    97         18
    98          2
    99          2
   100          1
   101          1
   103          1
   104          1
   105         12
   106          3
   107          3
   108         47
   109        186
   110         58
   111         14
   112          3
   113          1
   115          1
   117          1
   119          1
   121         57
   122         16
   123        999
   124         91
   125         49
   126          4
   130          1
   131          3
   132          1
   134          1
   135          1
   136          1
   137          1
   139          1
   141          2
   142          2
   143          1
   148          1
   149          1
   150         10
   151          2
   152          1
   153          1
   156          1
   158          1
   159          5
   168        737
   169         74
   170         37
   171          3