##TITLE=Library Entry 66659
##JCAMP-DX=Revision 4.10 
##DATA TYPE=MASS SPECTRUM
##SAMPLE DESCRIPTION=Japan AIST/NIMC Database- Spectrum MS-NW- 192
##NAMES=HP
##CAS NAME=Thiourea, phenyl-
##MOLFORM=C7H8N2S
##CAS REGISTRY NO=103-85-5
##MP= -300
##BP= -300
##MW= 152
##$RETENTION INDEX=0
##$CONDENSED SPECTRUM=NO
##NPOINTS= 102
##XYDATA=(XY..XY) 1 
    15          3
    26         12
    27         31
    28         92
    29          5
    30          2
    31          2
    32         22
    33         13
    34          4
    36          1
    37         28
    38         71
    39        219
    40         38
    41         28
    42         12
    43         72
    44          7
    45         13
    46          4
    47          5
    48          4
    49          9
    50         90
    51        205
    52         51
    53         12
    54         21
    55          4
    56          2
    57          4
    58          6
    59         29
    60        251
    61         19
    62         29
    63         79
    64         52
    65        246
    66        294
    67         34
    68          2
    69         12
    70          5
    71          2
    73         12
    74         30
    75         29
    76         39
    77        250
    78         38
    79          5
    80         14
    81          3
    82          6
    83          5
    84          6
    86          1
    87          3
    88          3
    89          2
    90         10
    91         43
    92        122
    93        999
    94         71
    95          3
    96          5
    97          9
    98          2
    99          2
   103          6
   104         21
   105          3
   107          2
   108          9
   109         51
   110        216
   111         17
   112         10
   117          2
   118         37
   119        171
   120         17
   122          7
   123          4
   124         21
   125          7
   126          1
   133          2
   134          3
   135         23
   136         10
   137          2
   149          2
   150          4
   151         63
   152        618
   153         61
   154         30
   155          4