##TITLE=Library Entry 83736
##JCAMP-DX=Revision 4.10 
##DATA TYPE=MASS SPECTRUM
##SAMPLE DESCRIPTION=Japan AIST/NIMC Database- Spectrum MS-NW-7254
##NAMES=HP
##CAS NAME=Dibenzyl succinate
##MOLFORM=C18H18O4
##CAS REGISTRY NO=103-43-5
##MP= -300
##BP= -300
##MW= 298
##$RETENTION INDEX=0
##$CONDENSED SPECTRUM=NO
##NPOINTS= 68
##XYDATA=(XY..XY) 1 
    17          1
    18          4
    26          2
    27          9
    28         17
    29          7
    38          2
    39         23
    40          2
    41          8
    42          1
    43          3
    44          1
    45          3
    50          6
    51         21
    52          6
    53          2
    55         25
    56         14
    57          1
    62          2
    63         11
    64          5
    65         70
    66          4
    73         24
    74          2
    75          1
    76          2
    77         35
    78          9
    79         61
    80          4
    83          1
    89         21
    90         28
    91        552
    92        168
    93         10
   101        162
   102          7
   103          1
   104          2
   105         11
   106          3
   107        999
   108         89
   109          6
   117          2
   118          1
   152          1
   162          3
   165          2
   166          1
   167          4
   168          1
   178          2
   179          3
   180         29
   181          5
   192          1
   197          1
   198          2
   207         42
   208          5
   298          5
   299          1