##TITLE=Library Entry 15818
##JCAMP-DX=Revision 4.10 
##DATA TYPE=MASS SPECTRUM
##SAMPLE DESCRIPTION=AAFS Toxicology Section MS DB Committee, U. Alberta, Ca
nada
##NAMES=HP
##CAS NAME=Paradrine
##MOLFORM=C9H13NO
##CAS REGISTRY NO=103-86-6
##MP= -300
##BP= -300
##MW= 151
##$RETENTION INDEX=1429
##$CONDENSED SPECTRUM=NO
##NPOINTS= 23
##XYDATA=(XY..XY) 1 
    29         21
    31          1
    32         12
    39         41
    40         20
    42         20
    44        999
    45         28
    51         32
    53         33
    55          4
    56          3
    65         12
    68         27
    77         84
    78         33
    79          4
    91         11
   105         11
   107         78
   108         32
   133          3
   151         34