##TITLE=Library Entry 28765
##JCAMP-DX=Revision 4.10 
##DATA TYPE=MASS SPECTRUM
##SAMPLE DESCRIPTION=Japan AIST/NIMC Database- Spectrum MS-NW-8486
##NAMES=HP
##CAS NAME=Benzenemethanamine, N,N-dimethyl-
##MOLFORM=C9H13N
##CAS REGISTRY NO=103-83-3
##MP= -300
##BP= -300
##MW= 135
##$RETENTION INDEX=1022
##$CONDENSED SPECTRUM=NO
##NPOINTS= 63
##XYDATA=(XY..XY) 1 
    14          1
    15         33
    17          1
    26          2
    27         10
    28         15
    29          9
    30         39
    37          2
    38          9
    39         68
    40          8
    41         27
    42        191
    43         27
    44        155
    45          5
    50         17
    51         45
    52         10
    53          3
    56          6
    57         32
    58        999
    59         36
    61          3
    62         10
    63         38
    64         10
    65        125
    66          9
    67          8
    68          1
    74          4
    75          4
    76          5
    77         28
    78          9
    79          2
    86          2
    87          1
    89         29
    90         12
    91        444
    92         76
    93          5
    94          1
   103          4
   104          3
   105          5
   106          2
   116          2
   117          5
   118         28
   119          6
   120          1
   131          1
   132         12
   133          3
   134        255
   135        375
   136         37
   137          1