##TITLE=Library Entry 8678
##JCAMP-DX=Revision 4.10 
##DATA TYPE=MASS SPECTRUM
##SAMPLE DESCRIPTION=Japan AIST/NIMC Database- Spectrum MS-NW- 515
##NAMES=HP
##CAS NAME=Acetic acid, 2-ethylhexyl ester
##MOLFORM=C10H20O2
##CAS REGISTRY NO=103-09-3
##MP= -300
##BP= -300
##MW= 172
##$RETENTION INDEX=1129
##$CONDENSED SPECTRUM=NO
##NPOINTS= 78
##XYDATA=(XY..XY) 1 
    15         39
    17          2
    18          7
    26          4
    27         89
    28         11
    29        142
    30          3
    31         13
    32          2
    38          2
    39         58
    40          9
    41        280
    42         98
    43        999
    44         24
    45          9
    50          1
    51          4
    52          2
    53         17
    54         19
    55        359
    56        274
    57        588
    58         27
    59          7
    60          3
    61         72
    62          2
    63          1
    65          2
    66          1
    67         15
    68         20
    69        139
    70        900
    71        116
    72         16
    73        111
    74        184
    75         21
    76          1
    77          2
    79          2
    81          5
    82         36
    83        238
    84        116
    85         13
    86         67
    87          7
    88          1
    91          2
    95          2
    96          2
    97         20
    98         25
    99         12
   100          6
   101          3
   106          2
   110          3
   111         20
   112        132
   113         11
   114          2
   115          7
   120          6
   121          2
   125          3
   126          1
   129          3
   135          3
   139          1
   141          2
   143          3