##TITLE=Library Entry 63456
##JCAMP-DX=Revision 4.10 
##DATA TYPE=MASS SPECTRUM
##SAMPLE DESCRIPTION=Japan AIST/NIMC Database- Spectrum MS-NW-5690
##NAMES=HP
##CAS NAME=Phenol, 4-[(phenylmethyl)amino]-
##MOLFORM=C13H13NO
##CAS REGISTRY NO=103-14-0
##MP= -300
##BP= -300
##MW= 199
##$RETENTION INDEX=0
##$CONDENSED SPECTRUM=NO
##NPOINTS= 107
##XYDATA=(XY..XY) 1 
    15          1
    26          5
    27         30
    28          3
    29          4
    30          2
    37          3
    38         14
    39        106
    40          9
    41         15
    42          2
    43          1
    44          1
    50         20
    51         51
    52         39
    53         45
    54          8
    55         11
    61          3
    62         13
    63         43
    64         18
    65        203
    66         19
    67          5
    68          4
    70          1
    71          2
    74          5
    75          6
    76          7
    77         42
    78         14
    79          9
    80         15
    81         81
    82          5
    83          3
    84          2
    85          1
    86          2
    87          2
    88          1
    89         25
    90         11
    91        999
    92        113
    93         49
    94         22
    95          5
    98          3
    99          1
   101          1
   102          2
   103          3
   104         12
   105          2
   106          4
   107          3
   108        366
   109         32
   110          2
   113          1
   114          1
   115          9
   116          3
   117          2
   119          3
   120         64
   121         18
   122        127
   123          9
   124          1
   127          2
   128          3
   129          2
   130          1
   139          3
   140          2
   141          5
   142          2
   143          2
   151          2
   152          5
   153          4
   154          2
   155          1
   165          1
   166          2
   167          9
   168         10
   169          3
   170          3
   178          1
   180          3
   181          2
   182          2
   183          2
   195          1
   196         52
   197         62
   198        138
   199        821
   200        123
   201         10