##TITLE=Library Entry 60534
##JCAMP-DX=Revision 4.10 
##DATA TYPE=MASS SPECTRUM
##SAMPLE DESCRIPTION=Japan AIST/NIMC Database- Spectrum MS-NW-1741
##NAMES=HP
##CAS NAME=Benzeneacetamide
##MOLFORM=C8H9NO
##CAS REGISTRY NO=103-81-1
##MP= -300
##BP= -300
##MW= 135
##$RETENTION INDEX=1402
##$CONDENSED SPECTRUM=NO
##NPOINTS= 56
##XYDATA=(XY..XY) 1 
    16          4
    17          1
    18          1
    26          5
    27         16
    28          9
    29          1
    30          2
    37         10
    38         32
    39        165
    40         14
    41         33
    42          3
    43          7
    44        210
    45          8
    49          4
    50         45
    51         80
    52         22
    53          9
    54          1
    61         14
    62         41
    63        106
    64         30
    65        251
    66         17
    67          1
    73          1
    74          9
    75          7
    76          5
    77         21
    78          4
    79          7
    80          1
    85          5
    86          8
    87          6
    88          1
    89         75
    90         49
    91        999
    92        915
    93         66
    94          2
   104          2
   106          5
   107          1
   116          6
   117         14
   118          5
   135        175
   136         15