##TITLE=Library Entry 24232
##JCAMP-DX=Revision 4.10 
##DATA TYPE=MASS SPECTRUM
##SAMPLE DESCRIPTION=Japan AIST/NIMC Database- Spectrum MS-NW-4440
##NAMES=HP
##CAS NAME=Heptane, 3-[(ethenyloxy)methyl]-
##MOLFORM=C10H20O
##CAS REGISTRY NO=103-44-6
##MP= -300
##BP= -300
##MW= 156
##$RETENTION INDEX=1019
##$CONDENSED SPECTRUM=NO
##NPOINTS= 65
##XYDATA=(XY..XY) 1 
    14          2
    15         11
    17          1
    18          3
    26          9
    27        161
    28         28
    29        280
    30          6
    31         60
    32          7
    38          2
    39         83
    40         11
    41        461
    42         75
    43        871
    44         36
    45         16
    50          3
    51          6
    52          3
    53         25
    54         13
    55        271
    56        164
    57        999
    58         45
    59         10
    63          1
    65          3
    66          1
    67         14
    68         13
    69         99
    70        251
    71        601
    72         33
    73          1
    77          2
    79          2
    80          1
    81         11
    82         19
    83        122
    84         60
    85         11
    87          1
    95          2
    96          6
    97         14
    98          3
    99          3
   100          2
   109          2
   110         58
   111         17
   112         76
   113         19
   114          2
   123          4
   127          1
   141         81
   142          8
   156          3