##TITLE=Library Entry 28741
##JCAMP-DX=Revision 4.10 
##DATA TYPE=MASS SPECTRUM
##SAMPLE DESCRIPTION=Japan AIST/NIMC Database- Spectrum MS-NW-9650
##NAMES=HP
##CAS NAME=N'-Benzyl-N,N-dimethylethylenediamine
##MOLFORM=C11H18N2
##CAS REGISTRY NO=103-55-9
##MP= -300
##BP= -300
##MW= 178
##$RETENTION INDEX=0
##$CONDENSED SPECTRUM=NO
##NPOINTS= 78
##XYDATA=(XY..XY) 1 
    14          1
    15          7
    27          5
    28         30
    29          9
    30         35
    31          1
    38          1
    39         11
    40          2
    41          9
    42         48
    43         24
    44         28
    45          8
    50          3
    51          9
    52          3
    53          1
    54          2
    55          3
    56         22
    57         19
    58        999
    59        319
    60         12
    62          1
    63          6
    64          2
    65         43
    66          2
    69          1
    70          9
    71         10
    72         20
    73         27
    74          1
    75          1
    76          1
    77          9
    78          4
    79          2
    83          2
    84          1
    85          6
    89          9
    90          5
    91        440
    92         39
    93          1
    97          1
    98          5
    99         11
   103          3
   104         10
   105          7
   106          6
   107          1
   113          1
   116          1
   117          3
   118         13
   119         19
   120         66
   121          6
   130          2
   131          2
   132         11
   133          6
   134         32
   135          3
   146          7
   147          1
   148          2
   161          1
   162          1
   178         13
   179          3