##TITLE=Library Entry 20354
##JCAMP-DX=Revision 4.10 
##DATA TYPE=MASS SPECTRUM
##SAMPLE DESCRIPTION=NIST Mass Spectrometry Data Center, 1998.
##NAMES=HP
##CAS NAME=2-Ethylhexyl acrylate
##MOLFORM=C11H20O2
##CAS REGISTRY NO=103-11-7
##MP= -300
##BP= -300
##MW= 184
##$RETENTION INDEX=1220
##$CONDENSED SPECTRUM=NO
##NPOINTS= 87
##XYDATA=(XY..XY) 1 
    15          1
    25          1
    26         11
    27        134
    28          1
    29         93
    30          3
    31          8
    37          1
    38          2
    39         67
    40         11
    41        262
    42         93
    43        163
    44          9
    45          3
    50          2
    51          5
    52          3
    53         32
    54         29
    55        999
    56        221
    57        382
    58         57
    59          6
    60          1
    63          1
    65          4
    66          2
    67         21
    68         27
    69        122
    70        703
    71        103
    72          8
    73         79
    74          5
    75          1
    77          2
    78          1
    79          4
    80          1
    81          9
    82         47
    83        232
    84        145
    85         92
    86         41
    87         15
    88          1
    91          1
    93          1
    94          1
    95          8
    96          4
    97         35
    98         32
    99          5
   100          2
   101          1
   107          1
   108          1
   109          4
   110          9
   111         22
   112        137
   113         14
   114          3
   115          1
   123          2
   124          4
   125          4
   126          2
   127          6
   128          2
   129          2
   137          6
   138          1
   139          1
   141          3
   142          1
   151          1
   153          1
   155          4
   156          1