##TITLE=Library Entry 30311
##JCAMP-DX=Revision 4.10 
##DATA TYPE=MASS SPECTRUM
##SAMPLE DESCRIPTION=Japan AIST/NIMC Database- Spectrum MS-NW-5277
##NAMES=HP
##CAS NAME=Benzenepropanol, .alpha.,.alpha.-dimethyl-
##MOLFORM=C11H16O
##CAS REGISTRY NO=103-05-9
##MP= -300
##BP= -300
##MW= 164
##$RETENTION INDEX=1276
##$CONDENSED SPECTRUM=NO
##NPOINTS= 95
##XYDATA=(XY..XY) 1 
    15         10
    18          1
    26          2
    27         31
    28          7
    29         13
    31         69
    32          2
    37          1
    38          5
    39         58
    40          6
    41         59
    42          3
    43         86
    44          2
    45          7
    50         16
    51         53
    52         13
    53         13
    54          1
    55         12
    56          5
    57          6
    58         20
    59        999
    60         35
    61          3
    62          5
    63         25
    64          9
    65         90
    66          6
    67          5
    68         12
    69          6
    70          4
    71          6
    72          1
    73          1
    74          7
    75          6
    76          5
    77         65
    78         72
    79         38
    80          2
    81          1
    82          1
    83          4
    84          1
    85          1
    86          1
    87          2
    89         17
    90          8
    91        821
    92         71
    93          4
    94          1
    95          1
    97          2
   101          1
   102          6
   103         31
   104         34
   105         57
   106         42
   107          7
   108          4
   112          1
   115         12
   116         12
   117         12
   118          4
   119          1
   121          2
   122          1
   127          4
   128          8
   129         14
   130          6
   131        454
   132         53
   133          4
   140          1
   143          1
   144          1
   145         12
   146        440
   147         55
   148          4
   149         63
   150          8