##TITLE=Library Entry 86817
##JCAMP-DX=Revision 4.10 
##DATA TYPE=MASS SPECTRUM
##SAMPLE DESCRIPTION=Japan AIST/NIMC Database- Spectrum MS-IW-6417
##NAMES=HP
##CAS NAME=Dodecanamide, N-(4-hydroxyphenyl)-
##MOLFORM=C18H29NO2
##CAS REGISTRY NO=103-98-0
##MP= -300
##BP= -300
##MW= 291
##$RETENTION INDEX=0
##$CONDENSED SPECTRUM=NO
##NPOINTS= 80
##XYDATA=(XY..XY) 1 
    17          3
    18         10
    27          6
    28          3
    29         13
    39          5
    41         31
    42          5
    43         43
    44          1
    51          1
    52          2
    53          6
    54          2
    55         28
    56          4
    57         30
    58          1
    63          1
    65          4
    66          1
    67          4
    68          1
    69          9
    70          2
    71          9
    76          1
    77          1
    79          2
    80          9
    81         13
    82          3
    83          7
    84          2
    85          5
    91          1
    92          2
    93          6
    94          2
    95          4
    96          1
    97          4
    98          2
   104          1
   107         19
   108         36
   109        999
   110         88
   111          6
   119          1
   120          1
   121          1
   122          4
   123          1
   133          1
   134          1
   135          5
   136         10
   137          1
   149          1
   150          3
   151         72
   152          7
   153          1
   163          1
   164          9
   165          1
   178          2
   179          2
   183          2
   192          1
   206          1
   223          4
   262          1
   263          1
   276          1
   290          6
   291        160
   292         33
   293          4