##TITLE=Library Entry 11373
##JCAMP-DX=Revision 4.10 
##DATA TYPE=MASS SPECTRUM
##SAMPLE DESCRIPTION=Chuck Anderson, Aldrich Chemical Co.
##NAMES=HP
##CAS NAME=Acetic acid, cinnamyl ester
##MOLFORM=C11H12O2
##CAS REGISTRY NO=103-54-8
##MP= -300
##BP= -300
##MW= 176
##$RETENTION INDEX=1445
##$CONDENSED SPECTRUM=NO
##NPOINTS= 107
##XYDATA=(XY..XY) 1 
    12          0
    13          0
    14          3
    15         27
    16          0
    25          0
    26          5
    27         44
    28          9
    29         18
    30          1
    31          5
    32          0
    36          0
    37          3
    38         12
    39         99
    40          6
    41          9
    42         12
    43        999
    44         24
    45          5
    46          0
    49          1
    50         46
    51        124
    52         28
    53         11
    54          1
    55         37
    56          8
    58         57
    60          1
    61          5
    62         20
    63         61
    64         10
    65         50
    66          4
    67          0
    68          0
    69          0
    70          0
    73          1
    74         18
    75         20
    76         27
    77        196
    78        115
    79         79
    80          5
    81          0
    84          0
    85          2
    86          6
    87          9
    88          7
    89         62
    90         11
    91        202
    92        347
    93         25
    94          1
    97          0
    98          2
    99          1
   100          0
   101          5
   102         54
   103        119
   104         34
   105        400
   106         40
   107          5
   108          0
   109          0
   110          0
   111          0
   113          6
   114          9
   115        920
   116        349
   117        281
   118         28
   119          3
   120          0
   127          0
   128          0
   129          2
   130          1
   131         29
   132          6
   133        378
   134        406
   135         37
   136          2
   137          0
   145          0
   147         10
   148          6
   149          0
   161          0
   176        222
   177         25
   178          2
   179          0