##TITLE=Library Entry 77044
##JCAMP-DX=Revision 4.10 
##DATA TYPE=MASS SPECTRUM
##SAMPLE DESCRIPTION=C.M.WILLIAMS/M.W.CROUCH VET. ADMIN. HOSP., GAINESVILLE,
 FLA
##NAMES=HP
##CAS NAME=Benzenepropanoic acid, methyl ester
##MOLFORM=C10H12O2
##CAS REGISTRY NO=103-25-3
##MP= -300
##BP= -300
##MW= 164
##$RETENTION INDEX=1279
##$CONDENSED SPECTRUM=NO
##NPOINTS= 81
##XYDATA=(XY..XY) 1 
    14         19
    15        164
    16          7
    17         19
    18         54
    26         19
    27         98
    28         66
    29         39
    30         15
    31         19
    32         19
    37         11
    38         23
    39        121
    40         15
    41         35
    42         27
    43         19
    44          3
    45         15
    49          7
    50         74
    51        329
    52         47
    53         27
    54          7
    55         31
    56          7
    57          7
    59         35
    60         15
    61         15
    62         23
    63         58
    64         19
    65        102
    67          7
    68          3
    69          7
    73          7
    74         35
    75         23
    76         23
    77        192
    78        133
    79        105
    80         11
    81          7
    83          7
    84          7
    85          7
    86          7
    87         27
    88          7
    89         31
    90         15
    91        600
    92         58
    93          7
    96          7
    97         15
    98          7
   101          7
   102         23
   103        105
   104        999
   105        368
   106         31
   107         62
   108          7
   120          7
   121         19
   122          3
   131         27
   132         15
   133        102
   134         15
   164        278
   165         35
   166          7