##TITLE=Library Entry 72026
##JCAMP-DX=Revision 4.10 
##DATA TYPE=MASS SPECTRUM
##SAMPLE DESCRIPTION=Japan AIST/NIMC Database- Spectrum MS-NW- 758
##NAMES=HP
##CAS NAME=1-Piperazineethanol
##MOLFORM=C6H14N2O
##CAS REGISTRY NO=103-76-4
##MP= -300
##BP= -300
##MW= 130
##$RETENTION INDEX=0
##$CONDENSED SPECTRUM=NO
##NPOINTS= 76
##XYDATA=(XY..XY) 1 
    14          3
    15         34
    17          3
    18         10
    26         13
    27         69
    28        129
    29         88
    30         76
    31         13
    32          4
    37          1
    38          3
    39         25
    40         10
    41        119
    42        337
    43        166
    44        175
    45         39
    49          4
    50          3
    51          5
    52          7
    53          8
    54         23
    55         48
    56        497
    57        161
    58        114
    59          4
    63          1
    65          1
    67          4
    68         13
    69         21
    70        197
    71         51
    72         21
    73         23
    74         33
    75          2
    76          1
    77          3
    78         17
    79          2
    80          8
    81          4
    82          7
    83         16
    84         61
    85         23
    86         17
    87          2
    88        303
    89         14
    90          1
    91          5
    92          3
    95          2
    96          1
    97         24
    98         12
    99        999
   100        144
   101          7
   107          1
   110          1
   111          2
   112        126
   113         11
   127          1
   128          2
   129         11
   130         29
   131          3