##TITLE=Library Entry 9042
##JCAMP-DX=Revision 4.10 
##DATA TYPE=MASS SPECTRUM
##SAMPLE DESCRIPTION=Exported from NIST MS Search
##NAMES=HP
##CAS NAME=Propanoic acid, 2-methyl-, 3-phenyl-2-propenyl ester
##MOLFORM=C13H16O2
##CAS REGISTRY NO=103-59-3
##MP= -300
##BP= -300
##MW= 204
##$RETENTION INDEX=1562
##$CONDENSED SPECTRUM=NO
##NPOINTS= 51
##XYDATA=(XY..XY) 1 
    27        209
    28         79
    29         21
    31          5
    38         17
    39        160
    40         18
    41        134
    42         18
    43        999
    44         35
    50         32
    51         86
    52         21
    53          9
    55         20
    57          8
    58          6
    62         13
    63         44
    64         10
    65         39
    70         16
    71        728
    72         33
    74          9
    75         12
    76         14
    77         92
    78         47
    79         21
    89         26
    90          7
    91        124
    92         42
   102         27
   103         42
   104         15
   105         70
   106          8
   113          7
   114         23
   115        326
   116        172
   117        480
   118         50
   131         12
   133         69
   134         36
   204        124
   205         18