##TITLE=Library Entry 84670
##JCAMP-DX=Revision 4.10 
##DATA TYPE=MASS SPECTRUM
##SAMPLE DESCRIPTION=Japan AIST/NIMC Database- Spectrum MS-NW-9449
##NAMES=HP
##CAS NAME=p-Tolyl isobutyrate
##MOLFORM=C11H14O2
##CAS REGISTRY NO=103-93-5
##MP= -300
##BP= -300
##MW= 178
##$RETENTION INDEX=1290
##$CONDENSED SPECTRUM=NO
##NPOINTS= 55
##XYDATA=(XY..XY) 1 
    15          2
    26          3
    27         50
    28          7
    29          2
    38          3
    39         36
    40          5
    41         54
    42         23
    43        522
    44         17
    50          8
    51         24
    52         15
    53         18
    54          1
    55         10
    56          1
    62          2
    63          9
    64          2
    65         23
    66          3
    69          3
    70         77
    71        159
    72          7
    74          1
    75          1
    76          1
    77         77
    78         19
    79         47
    80         34
    81          4
    89          5
    90         26
    91         41
    92          7
    93          1
   105          1
   106          2
   107        226
   108        999
   109         80
   110          5
   119          2
   121          2
   122          6
   135          2
   149          1
   178        136
   179         18
   180          1