##TITLE=Library Entry 91387
##JCAMP-DX=Revision 4.10 
##DATA TYPE=MASS SPECTRUM
##SAMPLE DESCRIPTION=NIST Mass Spectrometry Data Center, 1990.
##NAMES=HP
##CAS NAME=2-Phenoxyethyl isobutyrate
##MOLFORM=C12H16O3
##CAS REGISTRY NO=103-60-6
##MP= -300
##BP= -300
##MW= 208
##$RETENTION INDEX=1488
##$CONDENSED SPECTRUM=NO
##NPOINTS= 62
##XYDATA=(XY..XY) 1 
    15          8
    17          1
    19          2
    25          1
    26         10
    27         72
    29          6
    31          4
    37          3
    38         15
    39        101
    40         15
    41         97
    42          1
    43        752
    44         28
    45         22
    50         18
    51         81
    52          7
    53          4
    55         19
    56          2
    61          1
    62          4
    63         17
    64         14
    65         88
    66         24
    67          1
    68          1
    69          9
    70          1
    71        249
    72         11
    73          2
    74          4
    75          3
    77        174
    78         14
    79         15
    80          1
    89          1
    91         44
    92         14
    93         21
    94         59
    95          8
    99         10
   103          5
   107         14
   108          2
   112          1
   115        999
   116         64
   117          6
   119         15
   120         38
   121         15
   138          1
   208         16
   209          1