##TITLE=Library Entry 13056
##JCAMP-DX=Revision 4.10 
##DATA TYPE=MASS SPECTRUM
##SAMPLE DESCRIPTION=MUS56 A. Mujsce, AT&T Bell Labs., Murray Hill, N.J., US
A
##NAMES=HP
##CAS NAME=Acetamide, N-(4-bromophenyl)-
##MOLFORM=C8H8BrNO
##CAS REGISTRY NO=103-88-8
##MP= -300
##BP= -300
##MW= 213
##$RETENTION INDEX=0
##$CONDENSED SPECTRUM=NO
##NPOINTS= 91
##XYDATA=(XY..XY) 1 
    15         28
    25          4
    26         15
    27         16
    28         34
    29         43
    30          1
    37         33
    38         79
    39         65
    40         35
    41         68
    42        254
    43        999
    44         29
    45          6
    49         13
    50         92
    51         42
    52         85
    53         12
    54          6
    57          3
    60          7
    61         73
    62        170
    63        414
    64        239
    65        296
    66         34
    67          5
    73         14
    74         67
    75         55
    76         42
    77         17
    78         11
    79         41
    80          9
    81         31
    82          8
    85          1
    86          6
    87         12
    88         15
    89         13
    90         85
    91        244
    92        411
    93         47
    94          3
    95          9
    99          3
   102          4
   104         16
   105         15
   106          8
   107          5
   115          3
   116          9
   117         58
   118         12
   119         61
   130          3
   131          3
   132          2
   133         13
   134          5
   141          2
   143         77
   144          9
   145         71
   146          8
   155          9
   157         11
   169          8
   171        829
   172         90
   173        794
   174         52
   175          2
   182          2
   184          4
   186          2
   197          6
   198          4
   199          4
   213        198
   214         25
   215        195
   216         23