##TITLE=Library Entry 84954
##JCAMP-DX=Revision 4.10 
##DATA TYPE=MASS SPECTRUM
##SAMPLE DESCRIPTION=V.Zaikin,Topchiev Inst.Petrochem.Synth.,Moscow
##NAMES=HP
##CAS NAME=Butanoic acid, phenylmethyl ester
##MOLFORM=C11H14O2
##CAS REGISTRY NO=103-37-7
##MP= -300
##BP= -300
##MW= 178
##$RETENTION INDEX=1345
##$CONDENSED SPECTRUM=NO
##NPOINTS= 58
##XYDATA=(XY..XY) 1 
    25          1
    26          8
    27         26
    28          2
    29          4
    39         36
    40          5
    41         39
    42          6
    43        149
    44         10
    45          3
    49          2
    50         14
    51         34
    52         18
    53          4
    55         13
    57          2
    60          3
    62          5
    63         20
    64          7
    65         77
    66          5
    69          3
    70          8
    71        229
    72         11
    73          2
    74          4
    75          5
    76          4
    77         66
    78         23
    79         91
    80          8
    82          1
    87          2
    89         53
    90        182
    91        927
    92         75
    93          4
   104          2
   105         32
   106         11
   107         94
   108        999
   109         80
   110          5
   117          2
   118          9
   119          3
   160          4
   178        364
   179         41
   180          4