##TITLE=Library Entry 22855
##JCAMP-DX=Revision 4.10 
##DATA TYPE=MASS SPECTRUM
##SAMPLE DESCRIPTION=Japan AIST/NIMC Database- Spectrum MS-NW-3589
##NAMES=HP
##CAS NAME=CHES
##MOLFORM=C8H17NO3S
##CAS REGISTRY NO=103-47-9
##MP= -300
##BP= -300
##MW= 207
##$RETENTION INDEX=0
##$CONDENSED SPECTRUM=NO
##NPOINTS= 145
##XYDATA=(XY..XY) 1 
    14          3
    15         32
    16          2
    17          3
    18          9
    25          2
    26         27
    27        165
    28        153
    29         73
    30        137
    31          4
    32          5
    34          2
    36          2
    37          2
    38          6
    39         88
    40         15
    41        223
    42        162
    43        234
    44        133
    45         17
    46         58
    47          1
    48         41
    49          1
    50          6
    51         11
    52          9
    53         38
    54         97
    55        172
    56        999
    57         54
    58          5
    60          1
    62          1
    63          3
    64         73
    65         39
    66          7
    67         67
    68         62
    69         66
    70        130
    71         12
    72          1
    74          1
    75          1
    76          1
    77         10
    78          7
    79         18
    80         18
    81         32
    82        154
    83        100
    84         35
    85          3
    89          1
    90          1
    91          5
    92          2
    93          7
    94          7
    95          6
    96         34
    97         19
    98         51
    99        281
   100         20
   104          1
   105          2
   106          7
   107          2
   108         18
   109         13
   110         25
   111          3
   112         26
   113          2
   117          2
   118          2
   119          2
   120          5
   121          2
   122          3
   123          7
   124         15
   125         32
   126         20
   127         64
   128          6
   130          1
   131          1
   132          2
   133          1
   134          3
   136          2
   138         24
   139          1
   140          1
   144          1
   145          1
   146          8
   147          2
   148          2
   149          2
   150          1
   151         35
   152          6
   153          2
   158          1
   159          1
   160          1
   162         14
   163          2
   164        872
   165         62
   166         46
   167          3
   172          1
   173          1
   176          2
   177          2
   178         44
   179          4
   180          3
   182          1
   186          6
   187          4
   189          1
   190          2
   192          2
   201          7
   202          1
   204          2
   205          5
   206          9
   207         72
   208         17
   209          5
   210          1