##TITLE=Library Entry 52902
##JCAMP-DX=Revision 4.10 
##DATA TYPE=MASS SPECTRUM
##SAMPLE DESCRIPTION=Chemical Concepts
##NAMES=HP
##CAS NAME=1-Cyclohexyl-3-nitropentan-1-ol
##MOLFORM=C11H21NO3
##CAS REGISTRY NO=103077-91-4
##MP= -300
##BP= -300
##MW= 215
##$RETENTION INDEX=0
##$CONDENSED SPECTRUM=NO
##NPOINTS= 100
##XYDATA=(XY..XY) 1 
    26          8
    27         69
    28        202
    29        158
    30         58
    31         37
    38          3
    39         87
    40         15
    41        476
    42         51
    43        258
    44         47
    45         36
    46         11
    47         81
    48          7
    50          2
    51          8
    52          5
    53         47
    54         39
    55        736
    56         93
    57        402
    58         22
    59         62
    60         12
    65         13
    66          7
    67        449
    68         37
    69        158
    70         37
    71         23
    72          7
    73          6
    74          4
    76         22
    77         18
    78          5
    79         35
    80         13
    81        106
    82         28
    83        999
    84         76
    85        810
    86         52
    87         22
    88          4
    89          3
    90         25
    91         11
    92          2
    93         46
    94         11
    95        932
    96         77
    97         12
    98          4
    99          8
   100          4
   101         14
   102          3
   103          7
   105          2
   107          8
   108          4
   109         36
   110          6
   111         74
   112         14
   113        240
   114         23
   115          2
   116         19
   121          6
   124          2
   126          3
   127          2
   128          2
   129         60
   130          6
   131          5
   132        202
   133         36
   134          4
   139          6
   142          9
   145          2
   149          6
   150          2
   151         29
   152          4
   167         10
   168          2
   169         10
   170          2
   198          4