##TITLE=Library Entry 51532
##JCAMP-DX=Revision 4.10 
##DATA TYPE=MASS SPECTRUM
##SAMPLE DESCRIPTION=P. Vainiotalo, Dep. Chem., Joensuu Univ., Joensuu, Finl
and
##NAMES=HP
##CAS NAME=Bicyclo[2.2.1]heptan-2-one, 1,4,7,7-tetramethyl-
##MOLFORM=C11H18O
##CAS REGISTRY NO=10309-50-9
##MP= -300
##BP= -300
##MW= 166
##$RETENTION INDEX=0
##$CONDENSED SPECTRUM=NO
##NPOINTS= 52
##XYDATA=(XY..XY) 1 
    27        186
    29        207
    39        265
    40        113
    41        677
    42         46
    43        138
    44         22
    51         41
    52         22
    53        145
    54         50
    55        574
    56         37
    57         62
    65         49
    66         16
    67        288
    68         33
    69        272
    70         57
    77         69
    78         14
    79         76
    80        130
    81        462
    82        999
    83        904
    84         78
    91         63
    93         45
    94         18
    95        220
    96         51
    97         24
    98         17
   105         15
   107         80
   108         26
   109        811
   110         91
   111         38
   122        355
   123        336
   124        145
   125         13
   138        138
   139         16
   151         14
   152          1
   166        284
   167         36