##TITLE=Library Entry 60652
##JCAMP-DX=Revision 4.10 
##DATA TYPE=MASS SPECTRUM
##SAMPLE DESCRIPTION=Chemical Concepts
##NAMES=HP
##CAS NAME=Benzene, (2-chloropropyl)-
##MOLFORM=C9H11Cl
##CAS REGISTRY NO=10304-81-1
##MP= -300
##BP= -300
##MW= 154
##$RETENTION INDEX=1133
##$CONDENSED SPECTRUM=NO
##NPOINTS= 34
##XYDATA=(XY..XY) 1 
    26          2
    27         33
    28         35
    34          1
    36          4
    38          3
    39         19
    41         23
    42          0
    44          1
    46          2
    51         16
    52          2
    55          1
    61          0
    63         14
    64          1
    65         48
    66          3
    77          1
    89          6
    90         11
    91        999
    92         85
    93          5
    99          0
   105          5
   118         45
   119         10
   120          2
   154         50
   155          2
   156         28
   157          3