##TITLE=Library Entry 79435
##JCAMP-DX=Revision 4.10 
##DATA TYPE=MASS SPECTRUM
##SAMPLE DESCRIPTION=Chemical Concepts
##NAMES=HP
##CAS NAME=3-Nitro-1-phenylpentan-1-one
##MOLFORM=C11H13NO3
##CAS REGISTRY NO=103077-79-8
##MP= -300
##BP= -300
##MW= 207
##$RETENTION INDEX=0
##$CONDENSED SPECTRUM=NO
##NPOINTS= 73
##XYDATA=(XY..XY) 1 
    26          4
    27         43
    28         11
    29         42
    30        159
    31          2
    38          4
    39         42
    40          5
    41         10
    43         11
    44          9
    50         32
    51        126
    52         13
    53         23
    54         14
    55         87
    56          8
    57          6
    58          2
    62          3
    63          9
    64          4
    65          8
    66          4
    68          3
    69          3
    73          2
    74         10
    75          9
    76         18
    77        414
    78         37
    79          5
    81          6
    82         16
    83        277
    84         15
    89          6
    90          2
    91         22
    92          3
   102          4
   103         13
   104          5
   105        999
   106         72
   107          5
   115         29
   116         12
   117         47
   118          5
   127         15
   128          8
   129          8
   130          4
   131        222
   132         39
   133          4
   141         10
   142          6
   143         10
   144          8
   145        148
   146         16
   157          6
   158         21
   159         57
   160        331
   161         82
   162          8
   173          2