##TITLE=Library Entry 65471
##JCAMP-DX=Revision 4.10 
##DATA TYPE=MASS SPECTRUM
##SAMPLE DESCRIPTION=Dmitri Zagorevskii, University of Ottawa, Ontario, Cana
da
##NAMES=HP
##CAS NAME=4-Amino-4'-methoxycarbonylazobenzene
##MOLFORM=C14H13N3O2
##CAS REGISTRY NO=103072-48-6
##MP= -300
##BP= -300
##MW= 255
##$RETENTION INDEX=0
##$CONDENSED SPECTRUM=NO
##NPOINTS= 50
##XYDATA=(XY..XY) 1 
    27          8
    28          9
    38         10
    39         79
    40          3
    41         18
    42          8
    44          6
    50         33
    51         16
    52         27
    53         13
    54          9
    57          5
    59         11
    63         26
    64         33
    65        285
    66         35
    74          4
    75         31
    76         46
    77         26
    78          7
    79         13
    80          8
    90          6
    91         28
    92        999
    93         80
   103         35
   104         22
   105         12
   106          6
   107          7
   108         13
   112          3
   119         13
   120        376
   121         31
   135         55
   136          3
   151         12
   167         17
   168          8
   224         26
   254          3
   255        274
   256         48
   257          5