##TITLE=Library Entry 114632
##JCAMP-DX=Revision 4.10 
##DATA TYPE=MASS SPECTRUM
##SAMPLE DESCRIPTION=Chemical Concepts
##NAMES=HP
##CAS NAME=Benzenemethanol, .alpha.-(2-aminocyclopentyl)-
##MOLFORM=C12H17NO
##CAS REGISTRY NO=103077-83-4
##MP= -300
##BP= -300
##MW= 191
##$RETENTION INDEX=0
##$CONDENSED SPECTRUM=NO
##NPOINTS= 144
##XYDATA=(XY..XY) 1 
    26          4
    27         51
    28         84
    29         55
    30        174
    31         32
    37          1
    38          4
    39         61
    40          9
    41         87
    42         54
    43        176
    44         34
    45         23
    46         13
    50         17
    51         67
    52         20
    53         31
    54         26
    55         44
    56        514
    57        171
    58         13
    60          3
    61          1
    62          3
    63         14
    64          4
    65         30
    66         11
    67         83
    68         66
    69        144
    70         33
    71         14
    72         21
    73          5
    74         11
    75          9
    76          9
    77        214
    78         49
    79        224
    80         28
    81         12
    82        146
    83         51
    84        391
    85        135
    86         63
    87         17
    88          1
    89         10
    90          5
    91        120
    92         15
    93          8
    94          7
    95          9
    96         23
    97          9
    98          3
    99          2
   100          4
   101          2
   102          9
   103         17
   104         14
   105        138
   106         26
   107        201
   108         65
   109          8
   110          3
   111          5
   112          5
   113         14
   114         14
   115         91
   116         24
   117         56
   118         13
   119          6
   120         35
   121          5
   122          3
   123          2
   124          3
   125          2
   126          2
   127         12
   128         34
   129        159
   130        999
   131        143
   132         23
   133         54
   134          7
   135          1
   136          3
   137          2
   138          1
   139          1
   140          2
   141          6
   142          4
   143         10
   144         64
   145         53
   146         60
   147          8
   148         24
   149         17
   150          2
   151          1
   152          2
   153          3
   154          2
   155          7
   156          9
   157          7
   158          5
   159          4
   160          4
   161          2
   162         12
   163          2
   165          0
   167          1
   168          1
   169          1
   170          3
   171          2
   172         39
   173         88
   174        100
   175         16
   176          2
   179          1
   190          2
   191         60
   192          7