##TITLE=Library Entry 58749
##JCAMP-DX=Revision 4.10 
##DATA TYPE=MASS SPECTRUM
##SAMPLE DESCRIPTION=ASES Database, Dalian Institute, P.R. China
##NAMES=HP
##CAS NAME=3-Thietanol
##MOLFORM=C3H6OS
##CAS REGISTRY NO=10304-16-2
##MP= -300
##BP= -300
##MW= 90
##$RETENTION INDEX=0
##$CONDENSED SPECTRUM=NO
##NPOINTS= 15
##XYDATA=(XY..XY) 1 
    43        381
    45        385
    46        769
    47        343
    48         37
    57         31
    58         14
    59         22
    60         14
    61        310
    62         53
    89         45
    90        999
    91         30
    92         30