##TITLE=Library Entry 40656
##JCAMP-DX=Revision 4.10 
##DATA TYPE=MASS SPECTRUM
##SAMPLE DESCRIPTION=Chemical Concepts
##NAMES=HP
##CAS NAME=3-Heptanol, 2-methyl-5-nitro-, (R*,R*)-
##MOLFORM=C8H17NO3
##CAS REGISTRY NO=103077-90-3
##MP= -300
##BP= -300
##MW= 175
##$RETENTION INDEX=0
##$CONDENSED SPECTRUM=NO
##NPOINTS= 107
##XYDATA=(XY..XY) 1 
    26         18
    27        228
    28         68
    29        362
    30        155
    31         92
    37          4
    38         10
    39        143
    40         28
    41        545
    42        172
    43        711
    44         93
    45        122
    46        212
    47         57
    48         19
    50          5
    51         10
    52          6
    53         41
    54         24
    55        630
    56        243
    57        570
    58         58
    59         89
    61         11
    62          2
    63          2
    65          9
    66          4
    67        230
    68         43
    69        304
    70         78
    71        142
    72         56
    73        999
    74        107
    75          8
    76         62
    77          7
    78          2
    79          6
    80          3
    81         11
    82          8
    83        127
    84         52
    85        654
    86         89
    87         98
    88         54
    89         30
    90         10
    91          6
    92          2
    93          4
    94          4
    95         14
    96         12
    97         11
    98         19
    99         12
   101         34
   102         68
   103          6
   104          3
   105          3
   107          2
   108          3
   109          6
   110          9
   111        105
   112         32
   113         10
   114         18
   115          8
   116        428
   117         36
   118          3
   119          2
   123          3
   124          4
   125          5
   126         12
   127         10
   128          7
   129         19
   130         50
   131          6
   132        210
   133         20
   134          3
   140          3
   141          6
   142         31
   143         13
   144          5
   145         62
   146          7
   157          2
   158          3
   159          3
   160          3