##TITLE=Library Entry 72244
##JCAMP-DX=Revision 4.10 
##DATA TYPE=MASS SPECTRUM
##SAMPLE DESCRIPTION=Chemical Concepts
##NAMES=HP
##CAS NAME=Cyclohexanol, 1-(2-nitropropyl)-
##MOLFORM=C9H17NO3
##CAS REGISTRY NO=103077-77-6
##MP= -300
##BP= -300
##MW= 187
##$RETENTION INDEX=0
##$CONDENSED SPECTRUM=NO
##NPOINTS= 85
##XYDATA=(XY..XY) 1 
    26         14
    27        157
    28         48
    29        135
    30         62
    31         52
    37          3
    38          9
    39        174
    40         40
    41        486
    42        195
    43        308
    44         23
    45         60
    46          5
    48          5
    50          5
    51         17
    52         10
    53         82
    54         33
    55        509
    56         58
    57        117
    58         26
    59         50
    60          6
    61          3
    63          5
    65         20
    66         10
    67         84
    68         17
    69        368
    70        110
    71         73
    72          9
    73         43
    74          3
    77         29
    78          6
    79         65
    80         43
    81        641
    82         50
    83         77
    84         54
    85         40
    86          5
    87         61
    88          4
    89          3
    91         12
    93         12
    94          5
    95         25
    96          9
    97        467
    98        132
    99        999
   100         64
   101          5
   107          6
   109          2
   111         38
   112         24
   113         10
   114         12
   115         24
   121          5
   122          6
   123         57
   124          6
   125         63
   126          6
   138          3
   139         12
   140        116
   141         73
   142          9
   144          6
   145          6
   157          2
   170          4