##TITLE=Library Entry 20734
##JCAMP-DX=Revision 4.10 
##DATA TYPE=MASS SPECTRUM
##SAMPLE DESCRIPTION=Chemical Concepts
##NAMES=HP
##CAS NAME=2-Nitro-4-nonanol
##MOLFORM=C9H19NO3
##CAS REGISTRY NO=103077-85-6
##MP= -300
##BP= -300
##MW= 189
##$RETENTION INDEX=0
##$CONDENSED SPECTRUM=NO
##NPOINTS= 133
##XYDATA=(XY..XY) 1 
    25          0
    26         15
    27        248
    28         30
    29        384
    30        159
    31        114
    33          0
    37          2
    38          8
    39        173
    40         34
    41        844
    42        183
    43        789
    44        127
    45        119
    46         59
    47         21
    48         34
    49          1
    50          3
    51          9
    52          5
    53         57
    54         33
    55        999
    56        132
    57        218
    58         63
    59         76
    60         40
    61          1
    62          0
    63          1
    64          0
    65          6
    66          3
    67         56
    68         22
    69        210
    70         30
    71        844
    72         67
    73         39
    74         17
    75         12
    76         41
    77         11
    78          8
    79         10
    80          6
    81         69
    82         35
    83        917
    84         60
    85         15
    86         12
    87         14
    88         24
    89         23
    90          1
    91          2
    92          0
    93          1
    94          1
    95         11
    96         14
    99        139
   100         15
   101        440
   102         25
   103          1
   104          3
   105          0
   106          0
   107          0
   108          0
   109          3
   110          1
   111          1
   112          4
   113          9
   114         62
   115          5
   116         22
   117         57
   118        244
   119         11
   120          1
   121          0
   122          0
   123          3
   124          4
   125         13
   126          1
   127          3
   128          0
   129          1
   130          2
   131          8
   132          0
   139          0
   140          0
   141         12
   142          1
   143         19
   144          1
   145          0
   146          0
   147          0
   148          0
   149          0
   153          0
   154          0
   155          0
   156          0
   158          0
   160          0
   161          1
   168          0
   169          0
   170          0
   171          0
   172          6
   173          1
   184          0
   185          0
   186          0
   187          0
   188          0
   189          0
   190          1