##TITLE=Library Entry 86890
##JCAMP-DX=Revision 4.10 
##DATA TYPE=MASS SPECTRUM
##SAMPLE DESCRIPTION=Exported from NIST MS Search
##NAMES=HP
##CAS NAME=1,2-Benzenediol, mono(methylcarbamate)
##MOLFORM=C8H9NO3
##CAS REGISTRY NO=10309-97-4
##MP= -300
##BP= -300
##MW= 167
##$RETENTION INDEX=0
##$CONDENSED SPECTRUM=NO
##NPOINTS= 6
##XYDATA=(XY..XY) 1 
    15        150
    27         60
    63         50
    64        100
   110        999
   167         90