##TITLE=Library Entry 58459
##JCAMP-DX=Revision 4.10 
##DATA TYPE=MASS SPECTRUM
##SAMPLE DESCRIPTION=Exported from NIST MS Search
##NAMES=HP
##CAS NAME=Acetic acid, (butylthio)-, methyl ester
##MOLFORM=C7H14O2S
##CAS REGISTRY NO=10309-14-5
##MP= -300
##BP= -300
##MW= 162
##$RETENTION INDEX=0
##$CONDENSED SPECTRUM=NO
##NPOINTS= 49
##XYDATA=(XY..XY) 1 
    28         70
    29         20
    30        160
    39         50
    40         20
    41        260
    42         50
    43        160
    44         30
    45        280
    46        110
    47        240
    48         20
    53         30
    54         40
    55        510
    56        200
    57        150
    58         30
    59        150
    60         60
    61        670
    62         30
    63         30
    73         80
    74        900
    75        240
    76         40
    87         60
    88        120
    89        999
    90         70
    91        120
    92         20
   101         20
   102         10
   103        180
   104         30
   105         30
   106        180
   107         70
   108         20
   119         60
   130         20
   131         20
   133         20
   162        500
   163         80
   164         40