##TITLE=Library Entry 5355
##JCAMP-DX=Revision 4.10 
##DATA TYPE=MASS SPECTRUM
##SAMPLE DESCRIPTION=A.S.Moskovkin,I.M.Karnaukh, Russian Center on Disaster
 Medicine
##NAMES=HP
##CAS NAME=5,7-Dipropyl-1,3-diazaadamantan-6-one
##MOLFORM=C14H24N2O
##CAS REGISTRY NO=103086-94-8
##MP= -300
##BP= -300
##MW= 236
##$RETENTION INDEX=0
##$CONDENSED SPECTRUM=NO
##NPOINTS= 111
##XYDATA=(XY..XY) 1 
    39         83
    40         42
    41        562
    42        999
    43        269
    44        212
    45         10
    50          9
    51         23
    52         19
    53        103
    54         67
    55        379
    56        124
    57        167
    58        676
    59         23
    60         15
    65         38
    66         21
    67        162
    68        169
    69        333
    70         67
    71         96
    72         13
    73         11
    74          2
    75          8
    77         33
    78          8
    79         49
    80         47
    81         75
    82        136
    83        104
    84         40
    85         19
    92         12
    93         30
    94         45
    95         65
    96        113
    97        212
    98         55
    99          8
   103          2
   104          1
   105         12
   106         14
   107         23
   108         34
   109         41
   110        118
   111         36
   112         90
   113         14
   117          5
   118         10
   119         45
   120         12
   121         19
   122         49
   123         26
   124         51
   125         27
   126         15
   127          1
   128          5
   134         12
   135         27
   136         91
   137         72
   138         41
   139         55
   140         18
   141          7
   147          1
   148         27
   149         46
   150        103
   151         48
   152         60
   153         27
   154          3
   163         14
   164        460
   165        209
   166        182
   167         28
   176         10
   177         14
   178        125
   179         97
   180         54
   181          8
   192         49
   193        425
   194        981
   195        167
   196         13
   206         12
   207        328
   208        119
   209         10
   221         34
   222          3
   235         23
   236        674
   237        109
   238          8