##TITLE=Library Entry 50144
##JCAMP-DX=Revision 4.10 
##DATA TYPE=MASS SPECTRUM
##SAMPLE DESCRIPTION=R. SINNHUBER, DEP. FOOD SCI. TECHNOL., OREGON STATE UNI
V., U
##NAMES=HP
##CAS NAME=1,2-Dipropylcyclopropene
##MOLFORM=C9H16
##CAS REGISTRY NO=10306-92-0
##MP= -300
##BP= -300
##MW= 124
##$RETENTION INDEX=919
##$CONDENSED SPECTRUM=NO
##NPOINTS= 35
##XYDATA=(XY..XY) 1 
    27        640
    29        340
    38         70
    39        640
    40        120
    41         90
    42         90
    43        150
    44         40
    50         80
    51        170
    52        120
    53        460
    54        150
    55        130
    56        180
    63         60
    65        130
    66         80
    67        990
    68        240
    69        110
    77        230
    78         40
    79        250
    80         90
    81        999
    82        170
    91         80
    93         90
    95        950
    96        440
    97         40
   109        110
   124        290