##TITLE=Library Entry 83889
##JCAMP-DX=Revision 4.10 
##DATA TYPE=MASS SPECTRUM
##SAMPLE DESCRIPTION=Chemical Concepts
##NAMES=HP
##CAS NAME=Benzenemethanol, .alpha.-(2-nitropentyl)-
##MOLFORM=C12H17NO3
##CAS REGISTRY NO=103077-81-2
##MP= -300
##BP= -300
##MW= 223
##$RETENTION INDEX=0
##$CONDENSED SPECTRUM=NO
##NPOINTS= 108
##XYDATA=(XY..XY) 1 
    26          5
    27         67
    28         15
    29         60
    30         21
    31          9
    38          4
    39         66
    40         11
    41        107
    42         58
    43         47
    44         15
    45          7
    46          3
    50         19
    51         81
    52         24
    53         31
    54          7
    55        110
    56         11
    57         37
    58          5
    59          8
    60          3
    62          4
    63         13
    64          3
    65         17
    66          3
    67          9
    68          5
    69         34
    70         19
    71         12
    72          6
    73         30
    74          6
    75          8
    76         10
    77        320
    78         79
    79        551
    80         43
    81         17
    82          4
    83          7
    84          4
    85          9
    86          6
    89          8
    90          2
    91        117
    92         11
    93          2
    94          4
    95          2
    96          4
    97          6
    98          5
    99          4
   100          3
   101          4
   102          5
   103         23
   104         17
   105        753
   106         82
   107        999
   108         93
   109          6
   110          4
   112          4
   114          4
   115         23
   116          9
   117         63
   118          7
   119          2
   120         15
   121          9
   122          2
   123         35
   124          3
   126         14
   127          5
   128         10
   129         13
   130          3
   132          8
   133         51
   134          7
   140          3
   141          4
   142          3
   143          2
   147          2
   152          2
   154          2
   157          4
   159         33
   160          4
   173          5
   175         41
   176          6
   177          8
   206          1