##TITLE=Library Entry 76861
##JCAMP-DX=Revision 4.10 
##DATA TYPE=MASS SPECTRUM
##SAMPLE DESCRIPTION=Chemical Concepts
##NAMES=HP
##CAS NAME=2-Nitro-4-nonanol, (R*,R*)-, TBDMS derivative
##MOLFORM=C15H33NO3Si
##CAS REGISTRY NO=103077-86-7
##MP= -300
##BP= -300
##MW= 303
##$RETENTION INDEX=0
##$CONDENSED SPECTRUM=NO
##NPOINTS= 148
##XYDATA=(XY..XY) 1 
    26          7
    27         48
    28         14
    29        117
    30        171
    31          9
    38          3
    39         43
    40         11
    41        202
    42         34
    43        100
    44         11
    45         62
    46          4
    47         59
    48          2
    53         18
    54         11
    55        187
    56         54
    57        187
    58         39
    59        155
    60         20
    61         64
    62          5
    63          5
    65          4
    67         36
    68         18
    69        296
    70         44
    71         31
    72         12
    73        723
    74         78
    75        697
    76         55
    77        114
    78          7
    79          8
    81         52
    82         90
    83        217
    84         39
    85         35
    86          6
    87         13
    88          3
    89         25
    90          6
    91          4
    93         12
    94          2
    95         17
    96          6
    97         22
    98         11
    99         63
   100         13
   101         70
   102         11
   103         68
   104        999
   105        133
   106         51
   107          4
   109          5
   111          5
   112          2
   113         16
   114          6
   115        123
   116         60
   117         32
   118         31
   119         20
   120          4
   122          3
   123         13
   124         25
   125         51
   126         31
   127          8
   128          3
   129         56
   130         19
   131        369
   132        145
   133         40
   134         31
   135          3
   141          6
   142          2
   143         11
   144          5
   145        154
   146         78
   147         19
   148         35
   149         11
   150          5
   154          2
   155          4
   156          2
   157         22
   158          5
   159        152
   160         39
   161         12
   162         19
   163          2
   171         17
   172         13
   173        162
   174        208
   175         74
   176         24
   177          4
   185        198
   186         34
   187         28
   188          6
   190          4
   199         13
   200          3
   201         28
   202          5
   204        648
   205         98
   206         33
   207          2
   215        372
   216         88
   217         28
   218          4
   228          2
   229          3
   230          5
   232         13
   233          2
   246        125
   247         36
   248          9
   255          3
   257         24
   258          6