##TITLE=Library Entry 88964
##JCAMP-DX=Revision 4.10 
##DATA TYPE=MASS SPECTRUM
##SAMPLE DESCRIPTION=V.A.Korolev, Moscow, Russia
##NAMES=HP
##CAS NAME=4-(Hydroxymethyl)-6-[(thiophen-2-yl)carbonyl]-3-oxabicyclo[3.1.0]
hexan-2-one
##MOLFORM=C11H10O4S
##CAS REGISTRY NO=1030901-08-6
##MP= -300
##BP= -300
##MW= 238
##$RETENTION INDEX=0
##$CONDENSED SPECTRUM=NO
##NPOINTS= 128
##XYDATA=(XY..XY) 1 
    33          8
    34          8
    36          9
    37         56
    38        165
    39        409
    40         34
    41         94
    42         34
    43         44
    44         38
    45        545
    46         14
    47         27
    48          3
    49         37
    50        156
    51        197
    52         57
    53        243
    54         35
    55        119
    56          8
    57        264
    58        120
    59         26
    60         18
    61         33
    62         46
    63         94
    64         17
    65         70
    66         44
    67         59
    68        107
    69        190
    70         42
    71         47
    72          5
    73          9
    74         25
    75         23
    76         13
    77        122
    78         62
    79        192
    80         19
    81        158
    82        161
    83        527
    84        104
    85         47
    86         11
    87          7
    89         47
    90          6
    91        380
    92         32
    93         21
    94          8
    95        149
    96         70
    97        202
    98         18
    99         10
   102         10
   103          7
   105         10
   106          2
   107         18
   108         24
   109        166
   111        999
   112         77
   113         32
   114          9
   115          5
   118          9
   119          6
   121        158
   122         83
   123        624
   124         91
   125         32
   126         47
   127        227
   128         15
   131          1
   132          3
   133         54
   134        113
   135        183
   136         23
   137         40
   138          3
   139          3
   142          3
   145          2
   147          4
   149         26
   150         81
   151        198
   152         26
   153         10
   154          1
   161         46
   162          7
   163        207
   164         23
   165         27
   166          4
   177          1
   178         10
   179        131
   180         16
   181          6
   189         19
   190          2
   191         10
   192          4
   207        734
   208        134
   209         56
   210          5
   238        469
   239         62
   240         28
   241          3