##TITLE=Library Entry 63643
##JCAMP-DX=Revision 4.10 
##DATA TYPE=MASS SPECTRUM
##SAMPLE DESCRIPTION=A.A.Kutin, Moscow, Russia
##NAMES=HP
##CAS NAME=Cyclohexanone, 2-dibenzylaminomethyl-
##MOLFORM=C21H25NO
##CAS REGISTRY NO=103157-25-1
##MP= -300
##BP= -300
##MW= 307
##$RETENTION INDEX=0
##$CONDENSED SPECTRUM=NO
##NPOINTS= 115
##XYDATA=(XY..XY) 1 
    39        110
    40         59
    41        122
    42         61
    43         35
    44         22
    45          8
    46          0
    49          0
    50          8
    51         24
    52         17
    53         20
    54          8
    55         84
    56          7
    57          0
    63         20
    64          2
    65        133
    66          2
    67         42
    68          7
    69          8
    70          7
    71          3
    73          2
    77         26
    78          9
    79         13
    80          5
    81          9
    82         10
    83          7
    84          3
    85          1
    89         27
    90          1
    91        999
    92         78
    93          4
    95          4
    96          2
    97          4
    98          3
    99          1
   100          0
   105         56
   106         12
   107          2
   109          1
   110          8
   111          2
   112          0
   118         44
   119          8
   120         16
   121          2
   122          0
   126          2
   127          0
   132          3
   133          1
   134          2
   135          1
   136          0
   137          0
   138          3
   139          1
   140          0
   141          1
   142          0
   143          0
   144          1
   145          0
   146          1
   147          0
   149          2
   150          1
   151          0
   152          1
   153          0
   158          1
   159          0
   160          1
   161          0
   165          3
   166          2
   167          1
   168          0
   181         34
   182          3
   195          4
   196          9
   197          8
   198          1
   199          0
   209         10
   210        531
   211         83
   212          7
   213          0
   216         49
   217          7
   218          0
   224          0
   230          2
   231          0
   235          0
   236          2
   237          0
   306          0
   307          6
   308          1
   309          0