##TITLE=Library Entry 60275
##JCAMP-DX=Revision 4.10 
##DATA TYPE=MASS SPECTRUM
##SAMPLE DESCRIPTION=LAC, NIDDK, NIH, Bethesda, MD 20892
##NAMES=HP
##CAS NAME=l-Alaninylglycinyl-l-valinyl-S-benzylcysteine, benzyl ester
##MOLFORM=C27H36N4O5S
##CAS REGISTRY NO=103100-47-6
##MP= -300
##BP= -300
##MW= 528
##$RETENTION INDEX=0
##$CONDENSED SPECTRUM=NO
##NPOINTS= 61
##XYDATA=(XY..XY) 1 
    41         32
    42         23
    43         33
    44         41
    45         91
    46          4
    47         16
    49          4
    50        140
    51        193
    52         51
    53         37
    55         24
    56         19
    57          4
    60          3
    61         28
    62         60
    63        116
    64         30
    65        180
    66         12
    69         22
    70         13
    71          9
    72         85
    73          9
    74         29
    75         19
    77        274
    78         69
    79        283
    80         28
    83          4
    85         14
    86          9
    89         87
    91        999
    92         71
    95          3
    97          8
    99         17
   105         34
   107        170
   108        205
   109         19
   121         23
   123          9
   124        264
   125         24
   126         15
   127         16
   134          3
   162          3
   226         28
   254          8
   347          7
   362          3
   391         22
   392          4
   437          5