##TITLE=Library Entry 83409
##JCAMP-DX=Revision 4.10 
##DATA TYPE=MASS SPECTRUM
##SAMPLE DESCRIPTION=Chemical Concepts
##NAMES=HP
##CAS NAME=Benzenemethanol, .alpha.-(2-nitrocyclopentyl)-, [1.alpha.(R*),2.a
lpha.]-
##MOLFORM=C12H15NO3
##CAS REGISTRY NO=103130-02-5
##MP= -300
##BP= -300
##MW= 221
##$RETENTION INDEX=0
##$CONDENSED SPECTRUM=NO
##NPOINTS= 96
##XYDATA=(XY..XY) 1 
    26          6
    27         71
    28         29
    29         80
    30         28
    38          7
    39         91
    40         20
    41        229
    42         35
    43         25
    44         29
    45          5
    46        447
    47          8
    50         18
    51         61
    52         20
    53         39
    54         25
    55         54
    56         26
    57         47
    58         11
    59          6
    60          8
    62          4
    63         13
    64          5
    65         24
    66         14
    67        103
    68         78
    69        171
    70         29
    71          7
    72         33
    73          6
    74          6
    76          8
    77        182
    78         38
    79        348
    80         30
    81          8
    84         27
    85          6
    86         15
    87          3
    88          7
    89         11
    90          6
    91         83
    92          7
    93          2
    94          3
    95          6
    96         16
    97         14
    98         22
    99          9
   100         24
   101          3
   102          4
   103          6
   104          3
   105        121
   106         23
   107        999
   108        112
   109          9
   111          4
   112         14
   113          4
   114        196
   115         29
   116          5
   117          8
   124          3
   126          2
   127          4
   128         62
   129         15
   130          4
   134          3
   136          2
   141          7
   142          3
   143          2
   145          5
   156          6
   157         54
   158          6
   173          3
   175         16
   221          1