##TITLE=Library Entry 77941
##JCAMP-DX=Revision 4.10 
##DATA TYPE=MASS SPECTRUM
##SAMPLE DESCRIPTION=B.V.Rozynov
##NAMES=HP
##CAS NAME=8-Nitro-2-phenylisoxazolizidine
##MOLFORM=C11H12N2O4
##CAS REGISTRY NO=10313-22-1
##MP= -300
##BP= -300
##MW= 236
##$RETENTION INDEX=0
##$CONDENSED SPECTRUM=NO
##NPOINTS= 66
##XYDATA=(XY..XY) 1 
    30        745
    31         76
    32        127
    40         53
    41        109
    42        150
    43         38
    44        185
    45         68
    50         45
    51         86
    52         53
    53         33
    54        104
    55         45
    67         40
    69         53
    70         27
    76         33
    77        613
    78        216
    79        152
    80         25
    83         30
    84         50
    85        101
    86         63
    94         38
    95         30
    96         17
   102         30
   103        231
   104        506
   105        999
   106        745
   107        198
   108         33
   115        124
   116         76
   117         40
   118         66
   123         78
   129         94
   130         73
   131         38
   132         25
   133         20
   143         20
   144         53
   145        106
   146         40
   147         10
   157         53
   158         68
   159         50
   160         50
   161         30
   162         15
   173        213
   174        190
   175        104
   176         38
   189         22
   190        137
   191        124
   192         35