##TITLE=Library Entry 20547
##JCAMP-DX=Revision 4.10 
##DATA TYPE=MASS SPECTRUM
##SAMPLE DESCRIPTION=G. JANSSEN,REGA INST. MED. RES.,KATHOLIEKE UNIV.,LEUVEN
,BELG.
##NAMES=HP
##CAS NAME=Methyl (25rs)-3.beta.-acetoxy-5-cholesten-26-oate
##MOLFORM=C30H48O4
##CAS REGISTRY NO=103160-13-0
##MP= -300
##BP= -300
##MW= 472
##$RETENTION INDEX=0
##$CONDENSED SPECTRUM=NO
##NPOINTS= 218
##XYDATA=(XY..XY) 1 
    50         19
    51         19
    53        130
    54         25
    55        999
    56         80
    57        173
    59        198
    60         31
    61          6
    63          6
    65         49
    66         25
    67        475
    68         80
    69        407
    70         31
    71         25
    73         68
    74          6
    77        167
    78         49
    79        438
    80         80
    81        944
    82         93
    83        160
    84         12
    85         25
    87         49
    88        309
    89          6
    90          6
    91        580
    92        167
    93        660
    94        185
    95        627
    96         74
    97        309
    98         25
    99         12
   101         86
   102          6
   103         43
   104         62
   105        691
   106        265
   107        660
   108        253
   109        358
   110         43
   111         49
   113          6
   115         86
   116         43
   117        253
   118        136
   119        407
   120        395
   121        414
   122        160
   123        198
   124         25
   125         80
   126         12
   127         19
   128         68
   129        179
   130         93
   131        333
   132        117
   133        389
   134        130
   135        302
   136         56
   137         62
   138         12
   139         19
   141         49
   142         49
   143        315
   144        123
   145        716
   146        253
   147        772
   148        259
   149        198
   150         25
   151         49
   152          6
   153         12
   154          6
   155         62
   156         25
   157        210
   158        298
   159        364
   160        265
   161        290
   162         86
   163         86
   164         12
   165         25
   166          6
   167         12
   168          6
   169         37
   170         12
   171        111
   172         56
   173        154
   174         62
   175        136
   176         37
   177         37
   178          6
   179         12
   181          6
   182          6
   183         43
   184         12
   185        117
   186         37
   187         68
   188         12
   189         37
   190          6
   191         12
   193          6
   195         12
   196          6
   197         43
   198         19
   199        123
   200         68
   201         86
   202         12
   203         25
   205          6
   209         19
   211         19
   212         19
   213        315
   214        111
   215         68
   216         12
   217         12
   221         12
   223         12
   225         12
   226          6
   227         49
   228         99
   229         56
   230          6
   231          6
   235         12
   236          6
   237         31
   238          6
   239         19
   240          6
   241         31
   242          6
   243          6
   249         68
   250         49
   251         31
   253         19
   254         19
   255        377
   256         86
   257         19
   259         25
   260          6
   261          6
   262          6
   263         19
   264          6
   265          6
   267          6
   273          6
   275          6
   283         43
   284         12
   289        136
   290         49
   291        401
   292         93
   293         12
   302          6
   303         37
   304        105
   305         74
   306         12
   307          6
   309          6
   317          6
   318         12
   319         12
   324          6
   353          6
   358          6
   365         12
   370         31
   371         12
   381         62
   382         19
   383          6
   384          6
   397        216
   398         68
   399         12
   412        877
   413        290
   414         56
   441          4