##TITLE=Library Entry 16696
##JCAMP-DX=Revision 4.10 
##DATA TYPE=MASS SPECTRUM
##SAMPLE DESCRIPTION=D.HENNEBERG, MAX-PLANCK INSTITUTE, MULHEIM, WEST GERMAN
Y
##NAMES=HP
##CAS NAME=Acetaldehyde, methoxy-
##MOLFORM=C3H6O2
##CAS REGISTRY NO=10312-83-1
##MP= -300
##BP= -300
##MW= 74
##$RETENTION INDEX=557
##$CONDENSED SPECTRUM=NO
##NPOINTS= 16
##XYDATA=(XY..XY) 1 
    28        110
    29        291
    30         17
    31         62
    32         35
    40          2
    41          5
    42         35
    43         44
    44        199
    45        999
    46         22
    56          2
    59          3
    74         28
    75          3