##TITLE=Library Entry 70089
##JCAMP-DX=Revision 4.10 
##DATA TYPE=MASS SPECTRUM
##SAMPLE DESCRIPTION=Chemical Concepts
##NAMES=HP
##CAS NAME=Cyclopentanemethanol, .alpha.-(1-methylethyl)-2-nitro-, [1.alpha.
(S*),2.alpha.]-
##MOLFORM=C9H17NO3
##CAS REGISTRY NO=103129-99-3
##MP= -300
##BP= -300
##MW= 187
##$RETENTION INDEX=0
##$CONDENSED SPECTRUM=NO
##NPOINTS= 72
##XYDATA=(XY..XY) 1 
    26          5
    27        113
    28         24
    29         79
    30         21
    31         62
    38          5
    39        114
    40         27
    41        393
    42         42
    43        300
    44         17
    45         57
    46         15
    47         14
    48         12
    51         12
    52          8
    53         57
    54         18
    55        302
    56         22
    57         98
    58          9
    59         20
    65         24
    66         34
    67        559
    68        524
    69        187
    70         40
    71         62
    72         41
    73        716
    74         33
    77         30
    78          6
    79        312
    80         35
    81        107
    82         21
    83         22
    84          5
    85         16
    89          8
    91         11
    93          8
    94          4
    95         45
    96         21
    97        999
    98        103
    99         78
   100          6
   107         10
   110          4
   111          5
   113          3
   114          7
   121          4
   122         13
   123         69
   124          8
   125          9
   126          4
   128         25
   139          9
   141          5
   144         22
   152          1
   170          1