##TITLE=Library Entry 37912
##JCAMP-DX=Revision 4.10 
##DATA TYPE=MASS SPECTRUM
##SAMPLE DESCRIPTION=J. Daly, M. Garraffo, T. Spande, LBC-NIDDK-NIH, Bethesd
a, MD
##NAMES=HP
##CAS NAME=(8S,Z)-8-Methyl-6-(2-methylpropylidene)octahydroindolizin-8-ol
##MOLFORM=C13H23NO
##CAS REGISTRY NO=103190-29-0
##MP= -300
##BP= -300
##MW= 209
##$RETENTION INDEX=0
##$CONDENSED SPECTRUM=NO
##NPOINTS= 89
##XYDATA=(XY..XY) 1 
    51         13
    52         10
    53         61
    54         32
    55        158
    56         33
    57         13
    58         17
    59          5
    63          4
    65         29
    66         20
    67         80
    68         85
    69         60
    70        999
    71        173
    72        162
    73          8
    75         12
    77         44
    78         12
    79         60
    80         34
    81         78
    82         62
    83         64
    84        256
    85         25
    91         23
    92          7
    93         20
    94         35
    95         53
    96        128
    97         49
    98         14
   104          2
   105          8
   106         17
   107         29
   108         90
   109         22
   110         20
   112        152
   113         13
   114          4
   115          3
   117          5
   118          6
   119          6
   120         39
   121         18
   122         52
   123        108
   124         22
   125         18
   132          8
   133          8
   134         25
   136         50
   137         10
   138         21
   139          4
   146          6
   148         73
   149         12
   150         38
   151         26
   152         29
   153         18
   158          2
   160         11
   161          4
   162          7
   164        118
   166        584
   167         67
   174         12
   176         56
   177          9
   190          7
   191          8
   192         20
   194         70
   195          8
   208         51
   209         90
   210         12