##TITLE=Library Entry 55218
##JCAMP-DX=Revision 4.10 
##DATA TYPE=MASS SPECTRUM
##SAMPLE DESCRIPTION=CARL DJERASSI DEPT OF CHEM STANFORD UNIV STANFORD CALIF
 94305
##NAMES=HP
##CAS NAME=2,6-Octadiene-4,5-diol, 3,6-dimethyl-
##MOLFORM=C10H18O2
##CAS REGISTRY NO=10317-05-2
##MP= -300
##BP= -300
##MW= 170
##$RETENTION INDEX=0
##$CONDENSED SPECTRUM=NO
##NPOINTS= 26
##XYDATA=(XY..XY) 1 
    39        297
    41        267
    43         79
    51          9
    53         39
    54          9
    55         79
    56          9
    57         79
    58          9
    65         19
    67         79
    68         39
    69          9
    71        277
    72          9
    81          9
    83         19
    84         29
    85        999
    86        574
    87         29
   109         12
   123          3
   170         19
   171          6