##TITLE=Library Entry 53889
##JCAMP-DX=Revision 4.10 
##DATA TYPE=MASS SPECTRUM
##SAMPLE DESCRIPTION=Japan AIST/NIMC Database- Spectrum MS-NW-5770
##NAMES=HP
##CAS NAME=Cyclopentanemethanol, 1-amino-
##MOLFORM=C6H13NO
##CAS REGISTRY NO=10316-79-7
##MP= -300
##BP= -300
##MW= 115
##$RETENTION INDEX=0
##$CONDENSED SPECTRUM=NO
##NPOINTS= 78
##XYDATA=(XY..XY) 1 
    14          2
    15         20
    16          2
    17          3
    18         10
    26          7
    27         43
    28         72
    29         27
    30        119
    31         30
    32          2
    37          2
    38          6
    39         54
    40          9
    41        150
    42        111
    43         30
    44         29
    45         21
    46          8
    47          2
    50          5
    51          7
    52          7
    53         14
    54         56
    55         32
    56         95
    57         28
    58          7
    59          7
    60          4
    61          1
    62          1
    63          2
    64          1
    65         12
    66          6
    67        169
    68         58
    69         37
    70         16
    71          3
    72         36
    73        120
    74          6
    75          1
    76          2
    77          6
    78          3
    79          9
    80          9
    81         11
    82         29
    83          9
    84        999
    85         63
    86        135
    87         36
    88          3
    93          4
    94          3
    95          2
    96         16
    97          9
    98         78
    99          9
   100          6
   101          2
   109          1
   110          3
   111          3
   112          5
   113          1
   114          3
   115          3