##TITLE=Library Entry 20419
##JCAMP-DX=Revision 4.10 
##DATA TYPE=MASS SPECTRUM
##SAMPLE DESCRIPTION=ORMSBG,9(2)257(1974); NIBBERZNG
##NAMES=HP
##CAS NAME=Pentanoic acid, 4-nitro-, methyl ester
##MOLFORM=C6H11NO4
##CAS REGISTRY NO=10312-37-5
##MP= -300
##BP= -300
##MW= 161
##$RETENTION INDEX=0
##$CONDENSED SPECTRUM=NO
##NPOINTS= 59
##XYDATA=(XY..XY) 1 
    25         10
    26         40
    27        220
    28        110
    29        260
    30        270
    31         50
    36         10
    37         10
    38         20
    39        180
    40         60
    41        320
    42        180
    43        200
    44         80
    45         80
    46         10
    50         10
    51         20
    52         10
    53         60
    54         60
    55        999
    56        100
    57         40
    58         30
    59        490
    60         50
    61         10
    67         10
    68         10
    69         20
    70         10
    71         60
    72         30
    73        570
    74         30
    81         30
    82         60
    83        480
    84         40
    85         20
    87         20
    88         10
    89         10
    95         10
    97         10
    98         10
    99         70
   100         20
   102         10
   113         20
   114         50
   115        240
   116         20
   129         10
   130        250
   131         20