##TITLE=Library Entry 49124
##JCAMP-DX=Revision 4.10 
##DATA TYPE=MASS SPECTRUM
##SAMPLE DESCRIPTION=Chemical Concepts
##NAMES=HP
##CAS NAME=3,3-Dibromotricyclo[4.1.1.0(2,4)]octane
##MOLFORM=C8H10Br2
##CAS REGISTRY NO=103149-67-3
##MP= -300
##BP= -300
##MW= 264
##$RETENTION INDEX=0
##$CONDENSED SPECTRUM=NO
##NPOINTS= 100
##XYDATA=(XY..XY) 1 
    25          1
    26         41
    27        371
    28        133
    29         48
    34          4
    36         14
    37         14
    38         77
    39        682
    40         72
    41        349
    42         12
    43         14
    44          4
    49          4
    50        135
    51        426
    52        175
    53        163
    54         32
    55         32
    56         10
    57         16
    59          1
    61          4
    62         34
    63        135
    64         33
    65        305
    66        161
    67        688
    68         40
    69          3
    74         23
    75         32
    76         28
    77        653
    78        389
    79        999
    80        375
    81         62
    82         67
    83         17
    84          1
    85          4
    87          1
    89         28
    90         21
    91        276
    92         31
    93         35
    94          1
    95         38
   102         24
   103        153
   104         78
   105        954
   106        199
   107         32
   117         21
   119         48
   121         17
   131         19
   132          3
   133         18
   134          3
   138          4
   143         17
   144         26
   145         23
   146         25
   147          8
   149          1
   156         30
   157        187
   158         55
   159        178
   160         24
   169          9
   171         12
   172          2
   184         36
   185        131
   186         45
   187        128
   188         10
   210          9
   211          0
   212         16
   213          1
   214          7
   215          0
   264         12
   265          1
   266         25
   267          2
   268         12
   269          1
   270          0