##TITLE=Library Entry 91105
##JCAMP-DX=Revision 4.10 
##DATA TYPE=MASS SPECTRUM
##SAMPLE DESCRIPTION=Exported from NIST MS Search
##NAMES=HP
##CAS NAME=Silacyclooctan-5-one, 1,1-dimethyl-
##MOLFORM=C9H18OSi
##CAS REGISTRY NO=10325-31-2
##MP= -300
##BP= -300
##MW= 170
##$RETENTION INDEX=0
##$CONDENSED SPECTRUM=NO
##NPOINTS= 61
##XYDATA=(XY..XY) 1 
    50         60
    51         10
    52         10
    53         70
    54         20
    55        150
    56         30
    57        100
    58        150
    59        420
    60         50
    61        240
    62         20
    63         10
    64         10
    65         20
    66         20
    67         60
    68         10
    69         50
    70         50
    71        110
    72        579
    73        110
    74         40
    75        390
    76         30
    77         30
    79         10
    81         50
    83         40
    84         20
    85        230
    86         50
    87         30
    95         10
    96         10
    97         30
    98         20
    99        599
   100         70
   101         20
   109         20
   111         30
   113         60
   114        999
   115        110
   116         40
   117         10
   125         20
   127        959
   128        120
   129         40
   141         10
   142        579
   143         80
   144         20
   155         60
   156         10
   169          3
   170          3