##TITLE=Library Entry 77259
##JCAMP-DX=Revision 4.10 
##DATA TYPE=MASS SPECTRUM
##SAMPLE DESCRIPTION=RADIAN CORP
##NAMES=HP
##CAS NAME=2H-3,1-Benzoxazine-2,4(1H)-dione, 1-methyl-
##MOLFORM=C9H7NO3
##CAS REGISTRY NO=10328-92-4
##MP= -300
##BP= -300
##MW= 177
##$RETENTION INDEX=0
##$CONDENSED SPECTRUM=NO
##NPOINTS= 76
##XYDATA=(XY..XY) 1 
    12          3
    13          2
    14          3
    15         15
    26         10
    27         20
    28         31
    29          5
    30          2
    32          3
    34          2
    37         30
    38         62
    39        101
    40         13
    41          6
    42         12
    43          2
    44         11
    45         17
    47          1
    48          1
    49         16
    50        146
    51        157
    52         28
    53         24
    54          6
    55          2
    56          2
    57          4
    60          1
    61         29
    62         67
    63        241
    64        191
    65         21
    66          2
    67          1
    71          2
    73         16
    74         81
    75         72
    76         81
    77        287
    78        445
    79         48
    80          4
    81          3
    82          1
    83          1
    86          3
    87          9
    88         17
    89          9
    90         79
    91         10
    92        138
    93          9
    95          1
    99          1
   102          8
   103         11
   104        999
   105        669
   106         52
   107          1
   117          5
   119          1
   132         88
   133        378
   134         34
   135          3
   177        239
   178         25
   179          2