##TITLE=Library Entry 10114
##JCAMP-DX=Revision 4.10 
##DATA TYPE=MASS SPECTRUM
##SAMPLE DESCRIPTION=H. Fales, LC, NHLBI, NIH, Bethesda, MD 20892
##NAMES=HP
##CAS NAME=Cucurbitacin b, 23,24-dihydro-25-deacetoxy-
##MOLFORM=C30H46O6
##CAS REGISTRY NO=103251-92-9
##MP= -300
##BP= -300
##MW= 502
##$RETENTION INDEX=0
##$CONDENSED SPECTRUM=NO
##NPOINTS= 235
##XYDATA=(XY..XY) 1 
    41        207
    42          7
    43        999
    44         96
    45         24
    51          5
    53         27
    54          8
    55        139
    56         31
    57         67
    58          8
    59         23
    60          5
    61         11
    65         13
    66          5
    67         55
    68          9
    69        109
    70         20
    71        116
    72          7
    73         11
    77         33
    78          7
    79         53
    80          9
    81        134
    82         22
    83         87
    84         34
    85         67
    86          5
    87        499
    88         22
    89          5
    91         77
    92         12
    93         77
    94         23
    95        100
    96         23
    97         46
    98         15
    99        154
   100         12
   101          8
   103          9
   104          5
   105        100
   106         17
   107         88
   108         25
   109        153
   110         26
   111         52
   112          9
   113         12
   115         16
   116          7
   117         23
   118          7
   119         74
   120         17
   121         74
   122         26
   123         45
   124         10
   125         38
   126          8
   127         12
   128         11
   129         18
   130          8
   131         24
   132         10
   133         78
   134         18
   135         91
   136         38
   137         92
   138         13
   139         13
   141         12
   142         21
   143         21
   144         19
   145         50
   146         13
   147         45
   148         18
   149         71
   150         16
   151        101
   152         16
   153         16
   154          6
   155         11
   156          6
   157         24
   158         10
   159         67
   160         16
   161         58
   162         14
   163         38
   164         48
   165         27
   166         15
   167         13
   169         11
   170          5
   171         36
   172         10
   173         44
   174         12
   175         51
   176         11
   177         68
   178         13
   179         66
   180         14
   181         28
   182          6
   183         11
   185         19
   186          8
   187         55
   188         14
   189         61
   190         14
   191         16
   192          5
   193         14
   195         10
   197         13
   199         18
   200          5
   201         19
   202          6
   203         23
   204         12
   205         18
   206          5
   207         16
   209         14
   210          5
   211         12
   213         19
   214          5
   215         18
   217         16
   219         79
   220         15
   221         11
   223         13
   225         13
   227         14
   229         12
   231         16
   233         11
   235          7
   237         14
   239         13
   241         13
   243          8
   245          5
   247          6
   249          7
   251         18
   252          5
   253          9
   255         13
   257         24
   258          5
   259          6
   261          5
   263          6
   265         17
   267         14
   269         13
   271          7
   273          5
   279          8
   281         11
   283         18
   284          5
   285         10
   287          9
   295          6
   297         10
   299         11
   301         10
   307         15
   309         12
   311         10
   313          7
   315          6
   321          6
   323          6
   325         42
   326         10
   327         11
   329          5
   339         28
   340          7
   341         14
   343         12
   349          9
   353          6
   355          6
   357         13
   367         32
   368          9
   369          9
   371         11
   383          7
   384          5
   385         68
   386         18
   387         11
   389         19
   390          5
   399         11
   401         19
   402          9
   403        211
   404         54
   405         13
   417         11
   419          6
   435          5
   487          6
   502         10