##TITLE=Library Entry 44442
##JCAMP-DX=Revision 4.10 
##DATA TYPE=MASS SPECTRUM
##SAMPLE DESCRIPTION=Chemical Concepts
##NAMES=HP
##CAS NAME=Silane, 1,2,3,4,5,6-benzenehexaylhexakis[trimethyl-
##MOLFORM=C24H54Si6
##CAS REGISTRY NO=103240-52-4
##MP= -300
##BP= -300
##MW= 510
##$RETENTION INDEX=0
##$CONDENSED SPECTRUM=NO
##NPOINTS= 238
##XYDATA=(XY..XY) 1 
    26          2
    27          0
    29          1
    39          0
    43          7
    44          5
    45         99
    46          4
    47          5
    53          0
    55          2
    57          1
    58          1
    59         13
    61          1
    67          4
    69          0
    70          0
    71          2
    72          4
    73        999
    74         82
    75         35
    76          0
    79          1
    80          0
    81          1
    83         11
    84          1
    85          4
    86          0
    87          0
    91          1
    93          0
    95          1
    96          2
    97         42
    98          3
    99          2
   101          2
   103          0
   104          0
   105          0
   106          0
   107          1
   108          0
   109          2
   111          2
   112          0
   113          6
   114          1
   115         11
   116          0
   117          2
   118          1
   119          0
   121          4
   122          0
   123          1
   124          0
   125         12
   126          1
   127          3
   129         13
   130          0
   131          1
   133          1
   135          0
   137          1
   138          0
   139          3
   140         13
   141          4
   142          2
   143          2
   146          1
   149          3
   150          0
   151          0
   153          4
   154          0
   155        188
   156         36
   157         17
   158          0
   159          1
   161          1
   163          1
   164          9
   165          5
   167          2
   168          1
   169          7
   170          5
   172          1
   173          0
   176          0
   177          1
   178          1
   179        119
   180         19
   181         10
   182          3
   183          2
   185          0
   187          2
   191          1
   193          2
   194          1
   195          1
   196          0
   197          3
   198          1
   199          0
   203          0
   204          0
   205          0
   206          1
   207          3
   209          0
   210          1
   211          1
   212          1
   213          7
   214          0
   215          2
   221          9
   222          3
   223          1
   224          0
   225         10
   226          2
   227          8
   228         94
   229         21
   230         13
   231         12
   232          0
   233          2
   234          1
   235          0
   236          1
   237         73
   238         18
   239         15
   240          3
   241          0
   242          0
   244          1
   245         21
   246          6
   250          0
   251          4
   252         61
   253         21
   254         14
   255          4
   256          0
   257          2
   258          0
   259          7
   260          1
   261         41
   262         11
   267         11
   268          3
   269          4
   271          0
   273          0
   275          9
   276          0
   283          0
   288          0
   289          0
   295          1
   296          0
   299          2
   300          0
   301          1
   302          0
   304          1
   308          0
   309          1
   310          0
   311          1
   313          3
   315          0
   316          0
   317          1
   318          1
   319          4
   325          2
   331          0
   332          0
   333         34
   334         21
   340         13
   341          2
   342          2
   343          1
   347          1
   348          2
   349         54
   350         18
   351          3
   352          0
   353          0
   361          0
   363          2
   407         21
   408          7
   409          7
   410          0
   421          2
   422          5
   426          0
   436          3
   437        121
   438         56
   439         29
   440          9
   441          3
   442          0
   468          0
   494         20
   495         42
   496         25
   497          6
   498          4
   499          1
   500          0
   510        548
   511        312
   512        196
   513         67
   514         24
   515          9
   516          0