##TITLE=Library Entry 70785
##JCAMP-DX=Revision 4.10 
##DATA TYPE=MASS SPECTRUM
##SAMPLE DESCRIPTION=Exported from NIST MS Search
##NAMES=HP
##CAS NAME=Piperidine, 1-pentyl-
##MOLFORM=C10H21N
##CAS REGISTRY NO=10324-58-0
##MP= -300
##BP= -300
##MW= 155
##$RETENTION INDEX=1124
##$CONDENSED SPECTRUM=NO
##NPOINTS= 47
##XYDATA=(XY..XY) 1 
    15          5
    18          2
    26          1
    27         19
    28         22
    29         22
    30         18
    32          1
    39         14
    40          2
    41         69
    42         58
    43         27
    44         33
    45          1
    53          4
    54          7
    55         53
    56         18
    57          7
    58          1
    67          4
    68          5
    69         24
    70         24
    71          2
    80          1
    81          1
    82          4
    83          4
    84         27
    85          5
    86          1
    96         14
    97          4
    98        999
    99         69
   100          6
   110          2
   111          1
   112          3
   124          2
   126          1
   140          3
   154         17
   155         43
   156          5