##TITLE=Library Entry 72491
##JCAMP-DX=Revision 4.10 
##DATA TYPE=MASS SPECTRUM
##SAMPLE DESCRIPTION=A.A.Kutin, Moscow, Russia
##NAMES=HP
##CAS NAME=2-Pyrazoline-1-carboxaldehyde, 5-tert-butyl-5-hydroxy-3-methyl-
##MOLFORM=C9H16N2O2
##CAS REGISTRY NO=103214-44-4
##MP= -300
##BP= -300
##MW= 184
##$RETENTION INDEX=0
##$CONDENSED SPECTRUM=NO
##NPOINTS= 77
##XYDATA=(XY..XY) 1 
    33          2
    34          0
    37          2
    39        175
    40         54
    41        308
    42        141
    43         90
    44         45
    45          8
    46          2
    50          4
    51         12
    52          7
    53         23
    54         32
    55         50
    56         55
    57        160
    58         29
    59         27
    60          1
    61          0
    62          0
    63          1
    65          6
    66          3
    67         15
    68          5
    69         30
    70         13
    71         22
    72          5
    73          0
    74          0
    77          8
    78          1
    79          4
    80          1
    81          5
    82         26
    83         29
    84          6
    85         29
    86          1
    87          6
    91          2
    92          0
    93          0
    95          7
    96          3
    97         11
    99        999
   100         52
   101          2
   105          1
   107          0
   109          1
   110          1
   111          1
   112          0
   113          0
   121          0
   123         45
   124          4
   126         69
   127        381
   128         23
   129          1
   137          0
   138          0
   139          0
   141          2
   151          0
   169          0
   184          3
   185          0