##TITLE=Library Entry 100903
##JCAMP-DX=Revision 4.10 
##DATA TYPE=MASS SPECTRUM
##SAMPLE DESCRIPTION=LAC, NIDDK, NIH, Bethesda, MD 20892
##NAMES=HP
##CAS NAME=Dihydrobenzofuran-2-one, 3-[2-nitrophenyl]methylene-
##MOLFORM=C15H9NO4
##CAS REGISTRY NO=1032-73-1
##MP= -300
##BP= -300
##MW= 267
##$RETENTION INDEX=0
##$CONDENSED SPECTRUM=NO
##NPOINTS= 122
##XYDATA=(XY..XY) 1 
    41          4
    42          4
    46          2
    49         30
    50         76
    51         87
    52         31
    53          9
    55          6
    61          3
    62         21
    63        131
    64         84
    65         35
    70         45
    74         47
    75         40
    76        159
    77        109
    78         18
    79         12
    81         21
    82         24
    83         30
    84         18
    85          3
    86         49
    87         49
    88         34
    89         66
    90         23
    91        176
    92        670
    93         54
    98         29
    99         21
   100         12
   101         16
   102         18
   103         13
   104         95
   105         50
   106          3
   110         15
   111         24
   112          6
   113         33
   114         17
   115         54
   116          8
   119        999
   120        185
   121         82
   122          9
   124          3
   125         10
   126         51
   127         31
   128          9
   129          3
   131          3
   133         66
   134         31
   135          2
   137         32
   138         25
   139        125
   140         49
   141         14
   145         15
   146          7
   149          6
   150         29
   151         72
   152        148
   153         30
   154         33
   155          8
   160          2
   161          3
   162         26
   163        223
   164        137
   165        295
   166        130
   167        110
   168         19
   169          6
   171          7
   176         32
   177         21
   178         29
   179         12
   180          8
   181         35
   182         12
   183         15
   185          3
   192          8
   193         33
   194         28
   195         49
   196         10
   197         14
   206         49
   207         11
   209          4
   210          5
   211         10
   212          2
   220         42
   221        389
   222        138
   223         21
   236          3
   237         12
   238          4
   250         41
   251          8
   267        810
   268        128
   269         14