##TITLE=Library Entry 3402
##JCAMP-DX=Revision 4.10 
##DATA TYPE=MASS SPECTRUM
##SAMPLE DESCRIPTION=Japan AIST/NIMC Database- Spectrum MS-NW-1567
##NAMES=HP
##CAS NAME=2-Pentenoic acid, 4-methyl-
##MOLFORM=C6H10O2
##CAS REGISTRY NO=10321-71-8
##MP= -300
##BP= -300
##MW= 114
##$RETENTION INDEX=0
##$CONDENSED SPECTRUM=NO
##NPOINTS= 80
##XYDATA=(XY..XY) 1 
    13          1
    14          5
    15         32
    16          2
    17          7
    18         25
    19          1
    25          3
    26         57
    27        343
    28         47
    29        152
    30          4
    31         31
    32         10
    33          2
    36          1
    37         15
    38         37
    39        303
    40         62
    41        999
    42        151
    43        321
    44         15
    45        100
    46          5
    47          5
    49          9
    50         50
    51         74
    52         35
    53        289
    54         48
    55        164
    56        334
    57         81
    58         15
    59        768
    60         46
    61          6
    62          7
    63          9
    64          2
    65         15
    66          9
    67        131
    68        133
    69        868
    70         58
    71        130
    72         34
    73        138
    74          7
    77          3
    78          1
    79          6
    80          2
    81        161
    82         16
    83          5
    84          2
    85         20
    86         10
    87          5
    88          1
    91          2
    95         33
    96         84
    97         69
    98          6
    99        283
   100         16
   101          2
   111          3
   112          1
   113         16
   114        423
   115         31
   116          3