##TITLE=Library Entry 60176
##JCAMP-DX=Revision 4.10 
##DATA TYPE=MASS SPECTRUM
##SAMPLE DESCRIPTION=E. KEINAN,DEP. ORG. CHEM.,WEIZMANN INST. SCI.,REHOVOT,I
SRAEL
##NAMES=HP
##CAS NAME=3-Methyl-7-phenylhepta-1,3,4-triene
##MOLFORM=C14H16
##CAS REGISTRY NO=103240-61-5
##MP= -300
##BP= -300
##MW= 184
##$RETENTION INDEX=0
##$CONDENSED SPECTRUM=NO
##NPOINTS= 17
##XYDATA=(XY..XY) 1 
    63        100
    65        430
    77        810
    78        200
    79        150
    91        999
    92        110
    93        170
   115        100
   128        140
   129        170
   141        280
   154        120
   155        160
   156        260
   169        430
   184         60