##TITLE=Library Entry 61505
##JCAMP-DX=Revision 4.10 
##DATA TYPE=MASS SPECTRUM
##SAMPLE DESCRIPTION=E. KEINAN,DEP. ORG. CHEM.,WEIZMANN INST. SCI.,REHOVOT,I
SRAEL
##NAMES=HP
##CAS NAME=1,5-Diphenylhex-3-ene
##MOLFORM=C18H20
##CAS REGISTRY NO=103240-60-4
##MP= -300
##BP= -300
##MW= 236
##$RETENTION INDEX=0
##$CONDENSED SPECTRUM=NO
##NPOINTS= 14
##XYDATA=(XY..XY) 1 
    51        170
    65        310
    77        180
    91        999
    92        120
   105        300
   106        110
   115        130
   117        320
   118        370
   129        100
   131        220
   145        260
   236         20