##TITLE=Library Entry 16653
##JCAMP-DX=Revision 4.10 
##DATA TYPE=MASS SPECTRUM
##SAMPLE DESCRIPTION=Exported from NIST MS Search
##NAMES=HP
##CAS NAME=2-Butanol, 3-chloro-, (R*,R*)-
##MOLFORM=C4H9ClO
##CAS REGISTRY NO=10325-40-3
##MP= -300
##BP= -300
##MW= 108
##$RETENTION INDEX=0
##$CONDENSED SPECTRUM=NO
##NPOINTS= 84
##XYDATA=(XY..XY) 1 
    12          3
    13          6
    14         21
    15         81
    16          3
    17          3
    18          3
    19         32
    24          1
    25          6
    26         49
    27        212
    28         36
    29        187
    30          8
    31         31
    32          1
    33          1
    34          1
    35          5
    36          8
    37          9
    38         11
    39         36
    40          4
    41         21
    42         17
    43        126
    44         23
    45        999
    46         22
    47          3
    48          2
    49          7
    50          8
    51          8
    52          2
    53          9
    54          2
    55         55
    56          5
    57         42
    58          3
    59          1
    60          1
    61          4
    62          4
    63         15
    64          2
    65          7
    66          1
    67          1
    69          1
    70          1
    71          4
    72          3
    73          8
    74          1
    75          3
    76          1
    77          1
    78          2
    79          1
    80          1
    81          1
    83          1
    84          1
    85          1
    86          1
    87          1
    89          1
    90          1
    91          2
    92          1
    93         28
    94          1
    95          9
    96          1
    97          1
   105          1
   106          2
   107          1
   108          1
   109          1