##TITLE=Library Entry 84118
##JCAMP-DX=Revision 4.10 
##DATA TYPE=MASS SPECTRUM
##SAMPLE DESCRIPTION=V.A. KOPTYUG, VOL5, ATLAS OF MS OF ORGANIC COMPOUNDS
##NAMES=HP
##CAS NAME=5-Acetylpyrimidine
##MOLFORM=C6H6N2O
##CAS REGISTRY NO=10325-70-9
##MP= -300
##BP= -300
##MW= 122
##$RETENTION INDEX=0
##$CONDENSED SPECTRUM=NO
##NPOINTS= 45
##XYDATA=(XY..XY) 1 
    37         17
    38         22
    39         29
    40         12
    41          8
    42         37
    43        403
    44         10
    45          2
    49          4
    50         12
    51         64
    52        264
    53        166
    54          5
    55          3
    56          1
    57          4
    62          1
    63          2
    64          2
    65          2
    66          4
    67          5
    68          9
    69          3
    70          1
    71          2
    75          2
    76          2
    77          6
    78          5
    79        518
    80         83
    81          3
    94          1
    95          3
    97          2
   107        999
   108         67
   109          4
   121          1
   122        658
   123         56
   124          4