##TITLE=Library Entry 41099
##JCAMP-DX=Revision 4.10 
##DATA TYPE=MASS SPECTRUM
##SAMPLE DESCRIPTION=H. Fales, LC, NHLBI, NIH, Bethesda, MD 20892
##NAMES=HP
##CAS NAME=d-Arabinose
##MOLFORM=C5H10O5
##CAS REGISTRY NO=10323-20-3
##MP= -300
##BP= -300
##MW= 150
##$RETENTION INDEX=0
##$CONDENSED SPECTRUM=NO
##NPOINTS= 103
##XYDATA=(XY..XY) 1 
    42        268
    43        319
    44        106
    45        148
    46          7
    47         38
    48          1
    49          4
    50          4
    51          6
    52          2
    53          8
    54         14
    55         71
    56         36
    57        131
    58         41
    60        579
    61        152
    62          8
    63          6
    64          2
    65          2
    66          2
    67          2
    68         31
    69         32
    70          1
    71        213
    72         44
    73        999
    74         62
    75         11
    76          3
    77         14
    78         24
    79          3
    81          3
    82          1
    83         13
    84          4
    85         36
    86        107
    87         20
    88          4
    89         18
    90          8
    91         43
    92          1
    93          1
    94          1
    95          4
    96          1
    97          7
    98          2
    99          3
   101         86
   102         33
   103         40
   104          4
   105          3
   106         13
   107          5
   109          1
   110          1
   111          2
   112          1
   113          2
   114         23
   115         16
   116          2
   117          1
   119         72
   120          4
   121          4
   122          1
   123          1
   124         19
   125          2
   126          1
   127          1
   128          2
   129          5
   130          1
   131          3
   132          3
   133         93
   134          5
   135          2
   136          0
   137          1
   138          1
   139          1
   140          0
   141          0
   142          0
   143          0
   145          1
   147          0
   149          1
   150          2
   151          1
   152          1