##TITLE=Library Entry 67715
##JCAMP-DX=Revision 4.10 
##DATA TYPE=MASS SPECTRUM
##SAMPLE DESCRIPTION=NIST Mass Spectrometry Data Center, 1994
##NAMES=HP
##CAS NAME=Bicyclo[2.2.1]heptane-2,3-dione, 1,7,7-trimethyl-, (1R)-
##MOLFORM=C10H14O2
##CAS REGISTRY NO=10334-26-6
##MP= -300
##BP= -300
##MW= 166
##$RETENTION INDEX=0
##$CONDENSED SPECTRUM=NO
##NPOINTS= 63
##XYDATA=(XY..XY) 1 
    14          2
    15        110
    16          1
    26         48
    27        464
    28         87
    29        150
    30          1
    37         12
    38         48
    39        570
    40        108
    41        846
    42         61
    43         52
    44          3
    46          2
    49          3
    50         45
    51        102
    52         46
    53        190
    54         49
    55        728
    56         34
    57          3
    61          2
    62         12
    63         25
    64          6
    65         70
    66         22
    67        343
    68         50
    69        563
    70         32
    77         90
    78         25
    79         87
    80         27
    81         42
    82         55
    83        513
    84         35
    91         41
    92          7
    93         47
    94          7
    95        999
    96        101
    97         17
   105          7
   107          6
   108          2
   109         26
   110         83
   111          8
   123        154
   124         14
   138        190
   139         21
   166         80
   167          8