##TITLE=Library Entry 57054
##JCAMP-DX=Revision 4.10 
##DATA TYPE=MASS SPECTRUM
##SAMPLE DESCRIPTION=Exported from NIST MS Search
##NAMES=HP
##CAS NAME=Tridecanoic acid, 4,8,12-trimethyl-, methyl ester
##MOLFORM=C17H34O2
##CAS REGISTRY NO=10339-74-9
##MP= -300
##BP= -300
##MW= 270
##$RETENTION INDEX=0
##$CONDENSED SPECTRUM=NO
##NPOINTS= 128
##XYDATA=(XY..XY) 1 
    27        142
    28        150
    29        207
    31         52
    32         15
    33         10
    37         15
    38         12
    39        125
    40         62
    41        490
    42        150
    43        838
    44         52
    45         42
    50         10
    51         12
    52         10
    53         72
    54         60
    55        488
    56        193
    57        480
    58         54
    59        143
    60         15
    65         22
    66         16
    67         88
    68         50
    69        319
    70        108
    71        310
    72         54
    73        125
    74        459
    75        106
    76         15
    77         17
    79         52
    80         20
    82         62
    83        194
    84         75
    85        197
    86         42
    87        999
    88        106
    89         17
    91         21
    93         52
    94         15
    95         80
    96         35
    97        100
    98         37
    99         98
   100         15
   101         37
   107         21
   109         59
   110         37
   111         70
   112         54
   113         79
   114         21
   115         71
   116         15
   121         17
   123         22
   124         18
   125         37
   126         46
   127         80
   128         21
   129         22
   130         10
   135         37
   136         12
   137         16
   138         10
   139         22
   140         15
   141         50
   142         15
   143         62
   144         21
   149         21
   151         15
   153         52
   154         15
   155         15
   157        163
   158         35
   159         15
   163         15
   165         12
   167         10
   171         35
   176         10
   180         15
   181         12
   183         15
   185         25
   194         12
   196         62
   197        125
   198         45
   199         15
   205         12
   213        125
   214         42
   222         15
   224         20
   227         42
   237         12
   238         10
   239         57
   240         15
   241         37
   242         10
   247         10
   255         35
   256         15
   269         12
   270        213
   271         50
   272         16