##TITLE=Library Entry 19205
##JCAMP-DX=Revision 4.10 
##DATA TYPE=MASS SPECTRUM
##SAMPLE DESCRIPTION=FOOD RESEARCH REPORT 118, K.E. MURRAY & COLLEAGUES, DIV
. OF FOOD RESEARCH, CSIRO, AUSTRALIA
##NAMES=HP
##CAS NAME=3-Decen-1-ol, (E)-
##MOLFORM=C10H20O
##CAS REGISTRY NO=10339-60-3
##MP= -300
##BP= -300
##MW= 156
##$RETENTION INDEX=1232
##$CONDENSED SPECTRUM=NO
##NPOINTS= 77
##XYDATA=(XY..XY) 1 
    26         18
    27        312
    28        127
    29        390
    30         18
    31        260
    32          8
    37          4
    38         12
    39        325
    40         61
    41        857
    42        182
    43        519
    44        169
    45         23
    50         12
    51         36
    52         26
    53        156
    54        442
    55        999
    56        247
    57        234
    58         22
    59          3
    63         10
    64          4
    65         45
    66         69
    67        520
    68        727
    69        519
    70        143
    71        119
    72         16
    73          4
    75          3
    77         47
    78         16
    79         82
    80         34
    81        468
    82        312
    83        260
    84         94
    85         26
    86          9
    91         17
    92          6
    93         13
    94         10
    95        195
    96        156
    97         62
    98         17
    99          9
   105          6
   107          6
   108          3
   109         97
   110        114
   111         13
   112         13
   113          4
   115          4
   117          4
   123          8
   124          6
   126          3
   128          8
   136          4
   138        105
   139         10
   150          1
   152          1
   156          5