##TITLE=Library Entry 7153
##JCAMP-DX=Revision 4.10 
##DATA TYPE=MASS SPECTRUM
##SAMPLE DESCRIPTION=LAC, NIDDK, NIH, Bethesda, MD 20892
##NAMES=HP
##CAS NAME=Etiocholan-17-one, 3,9-epoxy-3-methoxy-11-[2-(N-acetyl)dithiocarb
amoyl-
##MOLFORM=C23H33NO4S2
##CAS REGISTRY NO=103308-23-2
##MP= -300
##BP= -300
##MW= 451
##$RETENTION INDEX=0
##$CONDENSED SPECTRUM=NO
##NPOINTS= 218
##XYDATA=(XY..XY) 1 
    41        180
    43        999
    45         73
    47         17
    49          4
    51          9
    53         63
    55        194
    57         20
    58         33
    59         76
    60         43
    61         18
    62          1
    63          2
    64          2
    65         32
    67         83
    69         57
    71         27
    72         13
    73         11
    74          7
    75          7
    76          2
    77         68
    79        118
    81         69
    83         15
    85         85
    87         17
    89          4
    91        133
    92         12
    93         70
    95         85
    97         65
    99         12
   101         19
   102          8
   103         15
   105         90
   107         48
   108          6
   109         57
   110        143
   111         60
   113         13
   115         26
   117         39
   119         54
   121         48
   123         74
   124         24
   125         31
   127         13
   128         21
   129         27
   131         48
   133         34
   135         51
   137        102
   139         49
   140          3
   141         16
   143         38
   145         38
   147         31
   149         31
   151         41
   152         15
   153         13
   155         21
   157         28
   159         23
   160         38
   161         16
   162         26
   163         15
   165         36
   166          5
   167          4
   169         15
   171         21
   173         17
   175         24
   176          9
   177         12
   179         50
   181         11
   183         11
   185         15
   187         17
   189         15
   190          1
   191         10
   193         10
   194         46
   195          3
   197         14
   199          9
   200          0
   201         12
   203          9
   204          9
   205         12
   207         10
   208          0
   209          8
   211          8
   213         14
   215         28
   216          5
   217          6
   219         10
   220          1
   221          5
   223          7
   225          7
   227          9
   229         10
   230          1
   231         22
   232          5
   233         40
   234          4
   235          7
   237          3
   238          0
   239          5
   241          7
   243          9
   245          6
   247         22
   248         29
   249          5
   250          3
   252          3
   253          1
   255          3
   257          7
   258          0
   259          7
   261          7
   262          5
   263          5
   265         16
   266          3
   267         12
   269          5
   271          5
   272          1
   273          5
   274          0
   275         14
   276          2
   277          0
   281          7
   283          4
   284          0
   285         14
   287          6
   288          6
   289          8
   290         25
   291          4
   292          0
   294         17
   296          2
   297          3
   298          3
   299         50
   301         38
   302          1
   303          7
   304          3
   307          0
   309          1
   313          2
   315          5
   316         19
   317        116
   318         28
   319          1
   321          2
   322          4
   330          9
   331         27
   332         14
   333          9
   335          5
   337          0
   348          9
   349         23
   350         36
   351          8
   352          1
   355          0
   359          2
   360          0
   374          2
   375          0
   376          3
   377          3
   378          4
   392          9
   394          6
   409          0
   418          4
   419          7
   420          2
   433          3
   436         10
   437          2
   451        102
   452         26
   453         13
   454          3