##TITLE=Library Entry 19243
##JCAMP-DX=Revision 4.10 
##DATA TYPE=MASS SPECTRUM
##SAMPLE DESCRIPTION=FOOD RESEARCH REPORT 118, K.E. MURRAY & COLLEAGUES, DIV
. OF FOOD RESEARCH, CSIRO, AUSTRALIA
##NAMES=HP
##CAS NAME=3-Nonen-1-ol, (E)-
##MOLFORM=C9H18O
##CAS REGISTRY NO=10339-61-4
##MP= -300
##BP= -300
##MW= 142
##$RETENTION INDEX=1143
##$CONDENSED SPECTRUM=NO
##NPOINTS= 72
##XYDATA=(XY..XY) 1 
    26         14
    27        274
    28         83
    29        372
    30         16
    31        230
    32          4
    37          2
    38         12
    39        301
    40         51
    41        912
    42        170
    43        301
    44        186
    45         23
    50         14
    51         39
    52         23
    53        150
    54        381
    55        999
    56        327
    57        310
    58         25
    59          4
    62          2
    63         11
    64          2
    65         41
    66         55
    67        460
    68        619
    69        779
    70        212
    71         71
    72         12
    73          4
    77         46
    78         18
    79         83
    80         28
    81        522
    82        301
    83        104
    84         37
    85         21
    86          7
    91         30
    92          4
    93         16
    94          9
    95        212
    96        147
    97         27
    98         21
    99         11
   103          4
   105         12
   107          9
   109         57
   110         12
   111          5
   112          4
   114          7
   120          4
   122          5
   123          4
   124        131
   125         14
   138          4
   142          5