##TITLE=Library Entry 81692
##JCAMP-DX=Revision 4.10 
##DATA TYPE=MASS SPECTRUM
##SAMPLE DESCRIPTION=N.Klyuev, Institute of Ecology & Evolution, RAS, Moscow
##NAMES=HP
##CAS NAME=2-(2-Oxo-2-phenylethyl)[1,2,4]triazino[2,3-a]benzimidazol-3(4H)-o
ne
##MOLFORM=C17H12N4O2
##CAS REGISTRY NO=103311-08-6
##MP= -300
##BP= -300
##MW= 304
##$RETENTION INDEX=0
##$CONDENSED SPECTRUM=NO
##NPOINTS= 47
##XYDATA=(XY..XY) 1 
    41         93
    42        156
    43        300
    44          3
    51         12
    53         26
    63         33
    64         26
    65         40
    77        640
    78         93
    79          2
    89         16
    90         35
    91        356
    92         72
    93          3
   102        100
   103         10
   105        999
   106         70
   107          1
   131        100
   132         12
   143         12
   144        110
   145        231
   146         32
   147          3
   160        240
   161         26
   162          2
   173         13
   174          4
   186         33
   187          4
   198         30
   199        832
   200        321
   201         30
   202          3
   227        230
   228         44
   229          5
   303         13
   304        820
   305        160