##TITLE=Library Entry 21007
##JCAMP-DX=Revision 4.10 
##DATA TYPE=MASS SPECTRUM
##SAMPLE DESCRIPTION=Insect Chem. Ecol. Lab., USDA, Beltsville, MD 20705
##NAMES=HP
##CAS NAME=1,6-Nonadien-3-ol, 3,7-dimethyl-
##MOLFORM=C11H20O
##CAS REGISTRY NO=10339-55-6
##MP= -300
##BP= -300
##MW= 168
##$RETENTION INDEX=0
##$CONDENSED SPECTRUM=NO
##NPOINTS= 111
##XYDATA=(XY..XY) 1 
    41        392
    43        740
    44          4
    45         34
    47          3
    48          1
    49         11
    50          8
    51         34
    52         14
    53        165
    54          2
    55        999
    56         14
    57        144
    58         31
    59         15
    60          1
    61          0
    62          2
    63          7
    65         39
    66          0
    67        293
    68        117
    69        256
    70        156
    71        859
    72         23
    73        149
    74          6
    75          0
    77         58
    78          0
    79        195
    80        421
    81        368
    82        231
    83        287
    84         57
    85         91
    86         33
    87          4
    88          0
    89          2
    91         70
    92         34
    93        949
    94         33
    95        174
    96        175
    97        190
    98         42
    99         18
   100          3
   101          2
   102          0
   103          3
   105         36
   106         14
   107         97
   108         54
   109         31
   110         39
   111         45
   112          9
   113          3
   114          1
   115          1
   116          0
   117          2
   119         13
   121        376
   122         46
   123        101
   124         10
   125          6
   127          2
   128          0
   131          0
   133         11
   135         90
   136          9
   137         11
   138          0
   139         13
   140          2
   141         13
   142          1
   143          0
   145          0
   147          1
   148          7
   149          8
   150        194
   151         60
   152         19
   153         24
   154          2
   155          2
   156          0
   157          0
   159          0
   161          0
   163          0
   164          0
   165          1
   166          2
   167          4
   168          6
   169          2