##TITLE=Library Entry 31224
##JCAMP-DX=Revision 4.10 
##DATA TYPE=MASS SPECTRUM
##SAMPLE DESCRIPTION=Japan AIST/NIMC Database- Spectrum MS-NW-7009
##NAMES=HP
##CAS NAME=L-Methionine, methyl ester
##MOLFORM=C6H13NO2S
##CAS REGISTRY NO=10332-17-9
##MP= -300
##BP= -300
##MW= 163
##$RETENTION INDEX=1290
##$CONDENSED SPECTRUM=NO
##NPOINTS= 86
##XYDATA=(XY..XY) 1 
    14          4
    15        120
    16          2
    17          1
    18          1
    26          8
    27         87
    28        252
    29         61
    30         93
    31          9
    32          2
    33        132
    34          2
    35          2
    39         24
    40          4
    41         63
    42        104
    43         64
    44         18
    45         75
    46         33
    47         73
    48         21
    49         19
    50          2
    51          2
    52         11
    53          4
    54         58
    55         77
    56        719
    57         83
    58         11
    59         42
    60         30
    61        999
    62         35
    63         46
    64          1
    68          2
    69          3
    70         11
    71          6
    72          3
    73          4
    74         91
    75        114
    76          8
    77          6
    82          1
    83        182
    84         13
    85          6
    86          9
    87         44
    88        252
    89         68
    90          6
    91          6
    99          7
   100         83
   101         10
   102         27
   103          5
   104        478
   105         28
   106         22
   107          1
   114         55
   115        206
   116         96
   117          8
   118          5
   131        133
   132          9
   133          7
   146         21
   147          2
   148         10
   149          1
   163        359
   164         34
   165         20
   166          2