##TITLE=Library Entry 87036
##JCAMP-DX=Revision 4.10 
##DATA TYPE=MASS SPECTRUM
##SAMPLE DESCRIPTION=LAC, NIDDK, NIH, Bethesda, MD 20892
##NAMES=HP
##CAS NAME=Etiocholan-3-ol-17-one, 3,9-epoxy-11-thiocyano-3-O-methyl-
##MOLFORM=C21H29NO3S
##CAS REGISTRY NO=103306-03-2
##MP= -300
##BP= -300
##MW= 375
##$RETENTION INDEX=0
##$CONDENSED SPECTRUM=NO
##NPOINTS= 232
##XYDATA=(XY..XY) 1 
    41        693
    43        534
    45        245
    47         38
    49        105
    51         71
    52         13
    53        291
    55        784
    56         16
    57        120
    59        261
    60         20
    61         13
    63         11
    65        140
    67        341
    69        208
    71         94
    72         88
    73         52
    74         31
    75         12
    77        287
    79        458
    81        288
    82         31
    83         31
    84        168
    85        408
    86        101
    87         40
    88         12
    89          9
    91        423
    93        285
    95        269
    97        291
    98         38
    99         27
   100         25
   101         22
   102          8
   103         50
   104          8
   105        322
   106         59
   107        139
   108         54
   109        176
   110        999
   111        232
   112         31
   113         23
   115        141
   116         11
   117        140
   119        201
   121        160
   122         51
   123        269
   124        119
   125         91
   126         12
   127         26
   128         57
   129         92
   131        152
   133        118
   134         38
   135         78
   136         93
   137        125
   138        110
   139        162
   140        229
   141         46
   142          8
   143        116
   144          8
   145        113
   147        120
   148         28
   149         54
   151        126
   152        133
   153         36
   155         60
   157         99
   158         19
   159         73
   161         65
   162        145
   163         40
   165        208
   166         42
   167         14
   169         34
   170          8
   171         47
   172          8
   173         45
   174          3
   175         41
   176         67
   177         29
   179        287
   180         39
   181         20
   182          6
   183         31
   185         36
   186          3
   187         40
   188         15
   189         22
   190         16
   191         14
   193         47
   194        442
   195         67
   197         34
   199         27
   201         32
   202          2
   203         21
   204          3
   205         47
   206         16
   207          9
   209         15
   211         19
   213         25
   215         33
   216         24
   217         14
   218          6
   219         34
   220          8
   221          5
   222          8
   223         13
   224          3
   225         14
   227         17
   229         22
   230         11
   231         26
   232         12
   233         22
   234         25
   235          9
   236          3
   237          2
   239         11
   240          2
   241         13
   243         21
   245         12
   247         35
   248          6
   249          5
   251          2
   254          2
   255          4
   257         22
   258         13
   259         12
   260          8
   261         14
   262         56
   263         11
   264          2
   265          5
   266         16
   267         10
   268          4
   269          8
   270          8
   271         11
   272          9
   273         22
   274         19
   275         89
   276         10
   283          8
   284          9
   285         45
   286         12
   287         10
   288          7
   289         30
   290        292
   291         68
   292         10
   293          3
   297          3
   298          5
   299         16
   300          3
   301         20
   302         11
   303          8
   304          2
   310          2
   314         10
   315         11
   316         47
   317         47
   318         12
   319          6
   320          2
   324          6
   326          2
   328          2
   332          7
   333          4
   334          4
   342         32
   343         27
   344          5
   346         12
   347         34
   348         10
   350          2
   357          8
   360         41
   361          4
   362          2
   375        183
   376         36
   377         12