##TITLE=Library Entry 63879
##JCAMP-DX=Revision 4.10 
##DATA TYPE=MASS SPECTRUM
##SAMPLE DESCRIPTION=K. Kirk, LC, NIDDK, NIH, Bethesda, MD 20892
##NAMES=HP
##CAS NAME=Benzaldehyde, 5-benzyloxy-2-fluoro-
##MOLFORM=C14H11FO2
##CAS REGISTRY NO=103438-92-2
##MP= -300
##BP= -300
##MW= 230
##$RETENTION INDEX=0
##$CONDENSED SPECTRUM=NO
##NPOINTS= 62
##XYDATA=(XY..XY) 1 
    41         10
    44          2
    45          1
    50         11
    51         22
    52          5
    53          2
    55          0
    56          4
    57         21
    58          0
    61          3
    62         10
    63         34
    64          9
    65        109
    66          6
    68          2
    69          2
    73          1
    74          5
    75         12
    76          2
    77          9
    78          2
    79          1
    80          1
    81         11
    82         15
    83         42
    84          3
    86          1
    87          1
    89         25
    90         16
    91        999
    92         80
    93          4
    94          5
    95          3
   105          3
   110          9
   111          2
   115          0
   122          0
   123          0
   133          0
   138          2
   139         14
   140          2
   151          1
   152          3
   153          2
   170          2
   171          1
   181          0
   183          1
   199          1
   229          1
   230        165
   231         25
   232          2