##TITLE=Library Entry 63892
##JCAMP-DX=Revision 4.10 
##DATA TYPE=MASS SPECTRUM
##SAMPLE DESCRIPTION=K. Kirk, LBC, NIDDK, NIH, Bethesda, MD 20892
##NAMES=HP
##CAS NAME=Phenethylamine, 3-benzyloxy-4-fluoro-.beta.-hydroxy-
##MOLFORM=C15H16FNO2
##CAS REGISTRY NO=103438-95-5
##MP= -300
##BP= -300
##MW= 261
##$RETENTION INDEX=0
##$CONDENSED SPECTRUM=NO
##NPOINTS= 123
##XYDATA=(XY..XY) 1 
    41         14
    42          5
    43         13
    44        143
    45         39
    46          4
    47          4
    49         24
    50          7
    51         20
    52          6
    53          4
    54          1
    55          5
    56          9
    57         27
    58          5
    59         10
    60          4
    61          1
    62          6
    63         25
    64         12
    65        129
    66          8
    68          1
    69          3
    70          8
    71         12
    72          1
    73         10
    74          3
    75          8
    76          3
    77         16
    78         10
    79          4
    81          5
    82          5
    83         16
    84         24
    85         17
    86          1
    89         18
    91        999
    92        141
    93         14
    94          4
    95         11
    96          9
    97         11
    98          4
    99          4
   104          5
   105          5
   106          6
   107          6
   108          1
   109          3
   110          1
   111          3
   112          9
   113         19
   114          1
   119          1
   120          3
   121          1
   122          9
   123          7
   124         10
   125         14
   126          4
   127          6
   128          1
   130          1
   132          1
   135          7
   136          1
   137          1
   138          1
   139          5
   140         13
   141         60
   142          5
   149          5
   150          1
   151          2
   152         10
   153        104
   154         15
   155          2
   165          1
   166          6
   167          5
   168          1
   169          3
   170        119
   171         12
   172          1
   177          1
   181          2
   183          1
   184          7
   185          1
   197          1
   212          2
   213          1
   214          2
   215          1
   227          1
   230        104
   231        125
   232        220
   233         34
   234          3
   243          7
   244         85
   245         16
   246          1
   260          3
   261         76
   262         23
   263          3