##TITLE=Library Entry 73808
##JCAMP-DX=Revision 4.10 
##DATA TYPE=MASS SPECTRUM
##SAMPLE DESCRIPTION=Institute of Organic Chemistry, Novosibirsk, USSR 1988
##NAMES=HP
##CAS NAME=1,5-Di-O-acetyl-2,3,4,6,7-penta-O-methyl-l-glycero-d-mannoheptito
l
##MOLFORM=C16H30O9
##CAS REGISTRY NO=103489-00-5
##MP= -300
##BP= -300
##MW= 366
##$RETENTION INDEX=0
##$CONDENSED SPECTRUM=NO
##NPOINTS= 65
##XYDATA=(XY..XY) 1 
    41         67
    43        889
    45        239
    53         14
    55         38
    56         21
    57         49
    58         45
    59        249
    69         30
    70          9
    71         85
    72          9
    73         54
    74         69
    75        289
    85         61
    87        139
    88        119
    89        659
    98         25
    99        169
   100         13
   101        999
   102         59
   111         21
   113        209
   114         28
   115         28
   117        629
   125         11
   127         21
   129        112
   131        125
   132          9
   133          6
   139          4
   141         11
   143         45
   145         52
   155         19
   157        149
   158         14
   161        229
   162         14
   169          6
   173        139
   183          3
   185          9
   186         16
   187          8
   189         40
   201          2
   203          8
   205        429
   206         45
   213          2
   215          9
   219          2
   245          2
   249        219
   250         26
   261         11
   289          1
   307          2