##TITLE=Library Entry 69519
##JCAMP-DX=Revision 4.10 
##DATA TYPE=MASS SPECTRUM
##SAMPLE DESCRIPTION=Exported from NIST MS Search
##NAMES=HP
##CAS NAME=Quinoline, decahydro-, cis-
##MOLFORM=C9H17N
##CAS REGISTRY NO=10343-99-4
##MP= -300
##BP= -300
##MW= 139
##$RETENTION INDEX=0
##$CONDENSED SPECTRUM=NO
##NPOINTS= 18
##XYDATA=(XY..XY) 1 
    39         80
    40         60
    41        110
    53         50
    54         30
    55         60
    56         60
    67         50
    68         70
    81         40
    82         80
    83         70
    96        999
    97         80
   110         80
   138         60
   139        120
   140         20