##TITLE=Library Entry 78895
##JCAMP-DX=Revision 4.10 
##DATA TYPE=MASS SPECTRUM
##SAMPLE DESCRIPTION=D.HENNEBERG, MAX-PLANCK INSTITUTE, MULHEIM, WEST GERMAN
Y
##NAMES=HP
##CAS NAME=Benzene, (1-methyl-3-butenyl)-
##MOLFORM=C11H14
##CAS REGISTRY NO=10340-49-5
##MP= -300
##BP= -300
##MW= 146
##$RETENTION INDEX=1227
##$CONDENSED SPECTRUM=NO
##NPOINTS= 97
##XYDATA=(XY..XY) 1 
    26         18
    27         59
    28         76
    29          5
    30          0
    32          8
    34          0
    35          0
    36          0
    37          2
    38          6
    39         65
    40          7
    41         34
    42          3
    43          2
    44          3
    45          0
    49          1
    50         19
    51         62
    52         17
    53         16
    54          1
    55          3
    56          1
    58          1
    59          2
    60          1
    61          1
    62          4
    63         18
    64          6
    65         24
    66          3
    67          3
    68          1
    71          0
    72          0
    73          0
    74          5
    75          8
    76          9
    77        123
    78         33
    79        122
    80          8
    81          2
    82          1
    83          1
    84          0
    85          0
    86          1
    87          1
    88          1
    89          7
    90          2
    91         43
    92          3
    96          0
    97          0
    98          0
    99          0
   100          0
   101          4
   102         10
   103         64
   104         39
   105        999
   106         84
   107          4
   108          0
   109          0
   113          0
   114          1
   115         19
   116          7
   117          7
   118          1
   121          0
   122          0
   123          1
   126          1
   127          4
   128         13
   129          9
   130          2
   131          4
   132          0
   134          0
   138          0
   139          0
   141          0
   142          0
   145          0
   146         35
   147          3