##TITLE=Library Entry 19208
##JCAMP-DX=Revision 4.10 
##DATA TYPE=MASS SPECTRUM
##SAMPLE DESCRIPTION=FOOD RESEARCH REPORT 118, K.E. MURRAY & COLLEAGUES, DIV
. OF FOOD RESEARCH, CSIRO, AUSTRALIA
##NAMES=HP
##CAS NAME=3-Decen-1-ol, (Z)-
##MOLFORM=C10H20O
##CAS REGISTRY NO=10340-22-4
##MP= -300
##BP= -300
##MW= 156
##$RETENTION INDEX=1225
##$CONDENSED SPECTRUM=NO
##NPOINTS= 77
##XYDATA=(XY..XY) 1 
    26         19
    27        359
    28        160
    29        449
    30         22
    31        282
    32         12
    37          4
    38         13
    39        372
    40         63
    41        962
    42        218
    43        590
    44        231
    45         27
    50         13
    51         38
    52         27
    53        179
    54        487
    55        999
    56        256
    57        244
    58         22
    59          3
    63         12
    64          4
    65         47
    66         74
    67        628
    68        859
    69        462
    70        167
    71        122
    72         15
    73          4
    75          3
    77         50
    78         19
    79         97
    80         35
    81        628
    82        358
    83        218
    84         86
    85         26
    86          9
    91         29
    92          6
    93         21
    94         14
    95        244
    96        179
    97         62
    98         18
    99         12
   105          6
   107          9
   108          4
   109        103
   110        119
   111         17
   112         19
   113          4
   115          4
   117          4
   123         12
   124          4
   128          9
   136          5
   138         99
   139         12
   150          1
   152          3
   154          1
   156          4