##TITLE=Library Entry 35599
##JCAMP-DX=Revision 4.10 
##DATA TYPE=MASS SPECTRUM
##SAMPLE DESCRIPTION=Chemical Concepts
##NAMES=HP
##CAS NAME=Pentanoic acid, 2-hydroxy-4-methyl-, ethyl ester
##MOLFORM=C8H16O3
##CAS REGISTRY NO=10348-47-7
##MP= -300
##BP= -300
##MW= 160
##$RETENTION INDEX=1060
##$CONDENSED SPECTRUM=NO
##NPOINTS= 104
##XYDATA=(XY..XY) 1 
    26         18
    27        238
    28         48
    29        342
    30         27
    31         94
    33          2
    35          0
    36          7
    37          1
    38          7
    39         96
    40         18
    41        288
    42         56
    43        690
    44        119
    45        503
    46         25
    47         76
    48          1
    49          0
    50          3
    51          6
    52          2
    53         25
    54          7
    55         81
    56         20
    57        146
    58         34
    59         15
    60         12
    61          4
    62          0
    63          1
    65          3
    66          1
    67         16
    68         11
    69        999
    70         92
    71        109
    72         11
    73         34
    74          5
    75         99
    76        120
    77          5
    78          1
    79          0
    80          0
    81          6
    82          2
    83          4
    84          1
    85         37
    86         44
    87        896
    88         79
    89         14
    90          7
    91          1
    92          0
    93          0
    95          7
    96          3
    97          4
    98          3
    99         52
   100          5
   101          6
   102          1
   103         38
   104        151
   105          9
   106          2
   107          0
   111          1
   112          1
   113          8
   114          8
   115         35
   116          6
   117         44
   118          5
   119          0
   127         12
   128          1
   129          0
   130          0
   131          1
   132          0
   133          0
   139          1
   141         12
   142          3
   143          2
   144          0
   145          5
   146          0
   158          1
   160          3
   161          1