##TITLE=Library Entry 109471
##JCAMP-DX=Revision 4.10 
##DATA TYPE=MASS SPECTRUM
##SAMPLE DESCRIPTION=V.Zaikin,Topchiev Inst.Petrochem.Synth.,Moscow
##NAMES=HP
##CAS NAME=5,7-Dimethyl-1,3-adamantanediol
##MOLFORM=C12H20O2
##CAS REGISTRY NO=10347-01-0
##MP= -300
##BP= -300
##MW= 196
##$RETENTION INDEX=1456
##$CONDENSED SPECTRUM=NO
##NPOINTS= 105
##XYDATA=(XY..XY) 1 
    26          5
    27         25
    28          3
    29         32
    31          9
    36          1
    37          3
    38          5
    39         63
    40         15
    41         89
    42         10
    43         89
    44          4
    45          4
    48          3
    50          5
    51         14
    52          9
    53         44
    54         11
    55         78
    56         17
    57         22
    58         10
    59          3
    62          1
    63          5
    64          3
    65         18
    66          6
    67         35
    68          5
    69         23
    70          3
    71          6
    73          4
    74          1
    75          1
    77         48
    78         12
    79         48
    80         10
    81         28
    82         18
    83         27
    84          8
    85          7
    89          2
    91         41
    92          5
    93         23
    94         16
    95         61
    96         10
    97         21
    98          3
    99          4
   103          5
   104          2
   105         29
   106          6
   107         36
   108         12
   109         31
   110         16
   111         15
   112          3
   115          4
   116          2
   117          3
   119          8
   120         28
   121        129
   122         78
   123        324
   124         45
   125        999
   126         80
   127          6
   128          2
   129          1
   131          2
   133          3
   134          1
   135          6
   136          3
   137          8
   138          2
   139         16
   140          2
   145          3
   147          1
   149          1
   163         15
   164          2
   165          1
   178          6
   179          4
   181         27
   182          3
   191          1
   193          1
   196         47
   197          6