##TITLE=Library Entry 57692
##JCAMP-DX=Revision 4.10 
##DATA TYPE=MASS SPECTRUM
##SAMPLE DESCRIPTION=Institute of Organic Chemistry, Novosibirsk, USSR 1988
##NAMES=HP
##CAS NAME=Dimethyl 2-methylundecane-1,11-dioate
##MOLFORM=C14H26O4
##CAS REGISTRY NO=10348-33-1
##MP= -300
##BP= -300
##MW= 258
##$RETENTION INDEX=0
##$CONDENSED SPECTRUM=NO
##NPOINTS= 124
##XYDATA=(XY..XY) 1 
    29        110
    30          5
    31         21
    33          7
    39         32
    40         10
    41        257
    42         62
    43        234
    44         12
    45         33
    52          5
    53         25
    54         22
    55        362
    56         66
    57         73
    58          4
    59        172
    60         10
    61          3
    65          5
    66          4
    67         60
    68         31
    69        346
    70         48
    73         44
    74        211
    75         13
    76          3
    77          3
    78          2
    79         17
    80         12
    81         71
    82         26
    83        207
    84        100
    85         24
    87        100
    88        999
    89         49
    90          6
    91          5
    93         20
    94         17
    95         54
    96         34
    97        150
    98        282
    99         25
   100          3
   101         40
   102          8
   106          4
   107         22
   108          9
   109         23
   110         32
   111         73
   112        284
   113         34
   114          7
   115         28
   119          5
   120          3
   121         44
   122         10
   123         19
   124         25
   125         42
   126         78
   127         13
   132          2
   133          4
   134          3
   135         17
   136          6
   137          9
   138         18
   139        190
   140         17
   142          7
   143         10
   147          9
   148         10
   149         52
   150         12
   151         15
   152         53
   153         98
   154         12
   155          7
   156          4
   162          4
   164          2
   165          2
   166         44
   167         55
   168          9
   170         12
   171        126
   172         14
   175          4
   176         14
   179          4
   180          2
   184          8
   185         74
   186         13
   187          6
   194         25
   195          1
   196          6
   198          4
   199        107
   200         15
   201          5
   208          5
   210          5
   226          9
   227         36
   228          6