##TITLE=Library Entry 41683
##JCAMP-DX=Revision 4.10 
##DATA TYPE=MASS SPECTRUM
##SAMPLE DESCRIPTION=Chemical Concepts
##NAMES=HP
##CAS NAME=Decanedioic acid, 2-ethyl-
##MOLFORM=C12H22O4
##CAS REGISTRY NO=10348-28-4
##MP= -300
##BP= -300
##MW= 230
##$RETENTION INDEX=0
##$CONDENSED SPECTRUM=NO
##NPOINTS= 125
##XYDATA=(XY..XY) 1 
    26          8
    27        266
    28         62
    29        383
    30         11
    31         50
    39        170
    40         30
    41        720
    42        123
    43        296
    44          8
    45        198
    46          3
    47          8
    51          5
    52          1
    53         66
    54         49
    55        910
    56        123
    57        147
    58         13
    59         88
    60        293
    61         27
    65         10
    66          5
    67        119
    68         89
    69        568
    70        271
    71         93
    72         16
    73        999
    74        106
    75          7
    77         10
    79         61
    80         32
    81        153
    82         84
    83        380
    84        335
    85         64
    86         17
    87        143
    88        991
    89         45
    90          7
    91          9
    93         20
    94         21
    95         79
    96         59
    97        219
    98        679
    99         63
   100         22
   101        175
   102         18
   105          5
   107         77
   108         17
   109         29
   110         61
   111         67
   112        477
   113         50
   114         21
   115         92
   116         10
   119         14
   121         25
   122         26
   123         42
   124         73
   125        262
   126        541
   127         56
   128         24
   129        126
   130         12
   134          4
   135         10
   137         46
   138        366
   139         50
   140         49
   141         16
   142         19
   143        153
   144         15
   147         10
   148         17
   149         17
   150         10
   151         16
   152         75
   153        133
   154         16
   155          2
   156         76
   157         36
   158          5
   165         29
   166        138
   167         26
   168          7
   170         35
   171         57
   172          6
   176         36
   177          5
   179          3
   183          4
   184         50
   185         16
   186        198
   187         24
   194        171
   195         25
   202         12
   212         28
   213         12