##TITLE=Library Entry 15451
##JCAMP-DX=Revision 4.10 
##DATA TYPE=MASS SPECTRUM
##SAMPLE DESCRIPTION=K. Kirk, LC, NIDDK, NIH, Bethesda, MD 20892
##NAMES=HP
##CAS NAME=Benzeneethanamine, 4-fluoro-.beta.,3-dihydroxy-N-methyl-
##MOLFORM=C9H12FNO2
##CAS REGISTRY NO=103439-06-1
##MP= -300
##BP= -300
##MW= 185
##$RETENTION INDEX=0
##$CONDENSED SPECTRUM=NO
##NPOINTS= 103
##XYDATA=(XY..XY) 1 
    41         10
    42         48
    43         36
    44        999
    45         49
    46          5
    47          0
    48          1
    49          1
    50          6
    51         14
    52          4
    53          7
    54          1
    55          5
    56          7
    57         24
    58         10
    59          5
    60          2
    61          2
    62          4
    63         13
    64         12
    65         34
    66          4
    67          1
    68          2
    69          3
    70          3
    71          3
    72          4
    73          3
    74          3
    75          6
    76          2
    77         13
    78         17
    79          2
    80          1
    81          4
    82          2
    83         16
    84          4
    85          2
    86          1
    87          1
    88          0
    89          2
    90          0
    91          2
    92          2
    93         10
    94          2
    95         11
    96          3
    97          2
    98          0
    99          0
   100         12
   101          1
   104          0
   105          1
   106          7
   107          3
   108          1
   109          4
   110          1
   111          7
   112          6
   113         14
   114          1
   118          1
   119          0
   121          1
   122          0
   123          1
   124          7
   125          7
   126          1
   135          1
   136          1
   137          1
   138          4
   139         13
   140          4
   141          6
   142          1
   146          2
   149          1
   150          0
   151          2
   152          0
   153          2
   154          2
   155          1
   164          1
   166          2
   167          1
   168          1
   169          0
   185          6
   186          1