##TITLE=Library Entry 20042
##JCAMP-DX=Revision 4.10 
##DATA TYPE=MASS SPECTRUM
##SAMPLE DESCRIPTION=NIST Mass Spectrometry Data Center
##NAMES=HP
##CAS NAME=3-Nonen-1-ol, (Z)-
##MOLFORM=C9H18O
##CAS REGISTRY NO=10340-23-5
##MP= -300
##BP= -300
##MW= 142
##$RETENTION INDEX=1156
##$CONDENSED SPECTRUM=NO
##NPOINTS= 80
##XYDATA=(XY..XY) 1 
    15          3
    19          1
    26          9
    27        134
    28         30
    29        213
    30          9
    31        190
    32          1
    33          1
    37          2
    38         10
    39        287
    40         45
    41        736
    42        165
    43        212
    44         65
    45         21
    46          1
    49          1
    50         14
    51         40
    52         23
    53        195
    54        466
    55        999
    56        242
    57        327
    58         26
    59          3
    62          3
    63          8
    64          2
    65         53
    66         67
    67        683
    68        779
    69        601
    70        192
    71         67
    72         12
    73          3
    74          1
    75          1
    77         34
    78          7
    79        123
    80         26
    81        707
    82        454
    83        116
    84         26
    85         16
    86          7
    87          1
    91         10
    92          1
    93         14
    94         10
    95        407
    96        231
    97         25
    98         23
    99         16
   100          3
   105          1
   107          1
   109         40
   110          4
   111          2
   112          2
   113          3
   114         12
   115          1
   123          3
   124        106
   125         10
   126          1
   142          4