##TITLE=Library Entry 59715
##JCAMP-DX=Revision 4.10 
##DATA TYPE=MASS SPECTRUM
##SAMPLE DESCRIPTION=K. Kirk, LBC, NIDDK, NIH, Bethesda, MD 20892
##NAMES=HP
##CAS NAME=Benzaldehyde, 3-benzyloxy-4-fluoro-
##MOLFORM=C14H11FO2
##CAS REGISTRY NO=103438-91-1
##MP= -300
##BP= -300
##MW= 230
##$RETENTION INDEX=0
##$CONDENSED SPECTRUM=NO
##NPOINTS= 69
##XYDATA=(XY..XY) 1 
    41         10
    43          1
    44          4
    45          0
    50         10
    51         21
    52          5
    53          2
    55          0
    56          3
    57         20
    58          0
    61          2
    62          8
    63         32
    64          8
    65        118
    66          7
    68          2
    69          2
    73          1
    74          4
    75          9
    76          2
    77         10
    78          2
    79          1
    80          1
    81         11
    82         13
    83         34
    84          2
    85          1
    86          1
    87          1
    89         28
    90         15
    91        999
    92        102
    93          4
    94          5
    95          2
   105          2
   106          1
   110          7
   111          1
   114          0
   115          1
   122          0
   133          0
   138          3
   139         12
   140          2
   146          0
   150          0
   151          1
   152          3
   153          2
   165          0
   170          2
   171          1
   181          4
   183          1
   199          1
   202          1
   229          1
   230         91
   231         14
   232          1