##TITLE=Library Entry 64037
##JCAMP-DX=Revision 4.10 
##DATA TYPE=MASS SPECTRUM
##SAMPLE DESCRIPTION=K. Kirk, LBC, NIDDK, NIH, Bethesda, MD 20892
##NAMES=HP
##CAS NAME=Phenethylamine, 3-benzyloxy-4-fluoro-N-formyl-.beta.-hydroxy-
##MOLFORM=C16H16FNO3
##CAS REGISTRY NO=103438-98-8
##MP= -300
##BP= -300
##MW= 289
##$RETENTION INDEX=0
##$CONDENSED SPECTRUM=NO
##NPOINTS= 121
##XYDATA=(XY..XY) 1 
    41         11
    42          3
    43          4
    44         41
    45          2
    46          1
    50          4
    51         14
    52          3
    53          1
    55          2
    56          1
    57          8
    58         40
    59        205
    60          7
    61          1
    62          2
    63         17
    64          8
    65        104
    66          5
    67          0
    68          0
    69          1
    70          2
    71          1
    73          1
    74          1
    75          5
    76          1
    77          9
    78          2
    79          2
    80          0
    81          2
    82          2
    83         12
    84         13
    85          2
    87          0
    89         17
    90         16
    91        999
    92        101
    93          7
    94          2
    95          7
    96          6
    97          7
    98          1
   103          0
   104         53
   105          8
   106          1
   107          4
   108          0
   109          2
   110          1
   111          2
   112          5
   113          3
   115          0
   120          0
   122          2
   123          4
   124          6
   125          8
   126          2
   127          4
   128          0
   132          2
   133          0
   134          0
   135          0
   136          1
   138          0
   139         12
   140          9
   141         13
   142          0
   147          0
   149         12
   150          7
   151          1
   152          4
   153         64
   154          6
   155          1
   165          1
   166          0
   168          1
   169          0
   170          6
   171          0
   178          1
   181          3
   182          0
   183          1
   197          0
   198         19
   199          2
   213          1
   226          1
   227          2
   229          1
   230          4
   231        164
   232         27
   233          3
   243          0
   244        280
   245         45
   246          5
   261          0
   271          3
   272          5
   273          0
   287          0
   289         15
   290          3