##TITLE=Library Entry 15632
##JCAMP-DX=Revision 4.10 
##DATA TYPE=MASS SPECTRUM
##SAMPLE DESCRIPTION=K. Kirk, LC, NIDDK, NIH, Bethesda, MD 20892
##NAMES=HP
##CAS NAME=Benzeneethanamine, 3-benzyloxy-2-fluoro-.beta.-hydroxy-N-methyl-
##MOLFORM=C16H18FNO2
##CAS REGISTRY NO=103439-01-6
##MP= -300
##BP= -300
##MW= 275
##$RETENTION INDEX=0
##$CONDENSED SPECTRUM=NO
##NPOINTS= 105
##XYDATA=(XY..XY) 1 
    41         21
    42         61
    43         38
    44        999
    45        121
    46         41
    50         12
    51         21
    52          9
    53          5
    54          0
    55          3
    56         18
    57         19
    58        638
    59         25
    61          1
    62          9
    63         32
    64         13
    65        116
    66          8
    68          0
    69          1
    70          2
    71          2
    74          3
    75          9
    76          4
    77         16
    78          3
    79          2
    80          0
    81          6
    82          5
    83         21
    84         13
    85          0
    89         29
    90         10
    91        503
    92         51
    93          6
    94          4
    95         11
    96          8
    97          7
    98          0
   101          6
   102          1
   103          1
   104          1
   105          7
   107          7
   108          3
   109         13
   110          3
   111          7
   112         16
   113          9
   114          2
   115          3
   122          4
   123          9
   124          3
   125          9
   126          2
   127          6
   130          6
   133          3
   134          2
   135          4
   136          7
   138          8
   139          7
   140         11
   141         10
   150          0
   151          4
   152          9
   153          9
   154          1
   155          0
   156          1
   158          0
   159          0
   164          7
   165          5
   166          4
   167          1
   168          1
   170          0
   171          7
   178          2
   181          0
   182          6
   183          6
   184          5
   186          0
   196          0
   232         15
   233          2
   255          9
   275          8
   276          3