##TITLE=Library Entry 79962
##JCAMP-DX=Revision 4.10 
##DATA TYPE=MASS SPECTRUM
##SAMPLE DESCRIPTION=ORMSBG,9(10)1022(1974); LANGE
##NAMES=HP
##CAS NAME=Furazan, dibenzoyl-
##MOLFORM=C16H10N2O3
##CAS REGISTRY NO=10349-12-9
##MP= -300
##BP= -300
##MW= 278
##$RETENTION INDEX=0
##$CONDENSED SPECTRUM=NO
##NPOINTS= 7
##XYDATA=(XY..XY) 1 
    51        140
    77        540
   105        999
   106         80
   131        100
   278        540
   279         70