##TITLE=Library Entry 58541
##JCAMP-DX=Revision 4.10 
##DATA TYPE=MASS SPECTRUM
##SAMPLE DESCRIPTION=V.A.Korolev, Moscow, Russia
##NAMES=HP
##CAS NAME=3-Phenylfurazan
##MOLFORM=C8H6N2O
##CAS REGISTRY NO=10349-06-1
##MP= -300
##BP= -300
##MW= 146
##$RETENTION INDEX=0
##$CONDENSED SPECTRUM=NO
##NPOINTS= 72
##XYDATA=(XY..XY) 1 
    30         64
    37         87
    38        143
    39        234
    40         33
    41         52
    42          8
    43         32
    44          9
    48          4
    49         45
    50        383
    51        584
    52         96
    53         56
    54          7
    55         16
    56          5
    57          9
    58          3
    60          7
    61         62
    62        121
    63        202
    64        101
    65         84
    66         43
    67          6
    68          6
    69         15
    70          1
    71          4
    72          2
    73         28
    74        108
    75        133
    76        166
    77        280
    78        118
    79          8
    84          2
    85         10
    86         20
    87         44
    88        100
    89        999
    90         96
    91         46
    92         11
    93          9
    94         11
    98          1
    99          9
   100          6
   101         15
   102         35
   103         47
   104          8
   105          6
   111          4
   112          2
   114         48
   115         60
   116        872
   117         85
   118          4
   119         67
   120         11
   145          6
   146        592
   147         57
   148          5