##TITLE=Library Entry 57978
##JCAMP-DX=Revision 4.10 
##DATA TYPE=MASS SPECTRUM
##SAMPLE DESCRIPTION=Institute of Organic Chemistry, Novosibirsk, USSR 1988
##NAMES=HP
##CAS NAME=Methyl 2,3,4,6,7-penta-O-methyl-.alpha.-L-glycero-D-mannoheptopyr
anoside
##MOLFORM=C13H26O7
##CAS REGISTRY NO=103488-98-8
##MP= -300
##BP= -300
##MW= 294
##$RETENTION INDEX=0
##$CONDENSED SPECTRUM=NO
##NPOINTS= 45
##XYDATA=(XY..XY) 1 
    45        454
    59         99
    71         76
    73        117
    79         31
    85         31
    88        999
    89        317
   101        909
   111         22
   113         22
   114         26
   115         17
   117         54
   119         13
   127         13
   129         17
   131         44
   133         31
   141         13
   143         13
   144          8
   145         90
   146          8
   155         44
   157         54
   158          4
   159          4
   161         31
   173         35
   174         13
   175         13
   176         13
   186          8
   188          8
   193        131
   194          8
   199         31
   203          8
   205         17
   217         13
   231          8
   249         17
   262          2
   263          3