##TITLE=Library Entry 64019
##JCAMP-DX=Revision 4.10 
##DATA TYPE=MASS SPECTRUM
##SAMPLE DESCRIPTION=K. Kirk, LC, NIDDK, NIH, Bethesda, MD 20892
##NAMES=HP
##CAS NAME=Benzeneethanamine, 5-benzyloxy-2-fluoro-.beta.-hydroxy-
##MOLFORM=C15H16FNO2
##CAS REGISTRY NO=103438-93-3
##MP= -300
##BP= -300
##MW= 261
##$RETENTION INDEX=0
##$CONDENSED SPECTRUM=NO
##NPOINTS= 115
##XYDATA=(XY..XY) 1 
    41         10
    42          4
    43          5
    44          4
    45          1
    49          0
    50          8
    51         19
    52          5
    53          2
    55          0
    56          0
    57         10
    58          2
    59          4
    60          0
    61          0
    62          6
    63         29
    64         14
    65        148
    66          9
    67          0
    69          1
    70          4
    71          0
    73          2
    74          3
    75         10
    76          5
    77         18
    78          4
    79          4
    81          4
    82          5
    83         22
    84         22
    85          5
    86          1
    89         28
    90          3
    91        999
    92        173
    93         15
    94          4
    95         19
    96         11
    97         15
    98          4
   104          5
   105          7
   106          2
   107          4
   108          0
   109          1
   110          1
   111          5
   112         21
   113         27
   114          1
   115          0
   120          2
   121          0
   122          5
   123         12
   124          7
   125         20
   126          3
   127          9
   128          0
   132          2
   133         12
   134          1
   139          5
   140         16
   141         68
   142          5
   146          0
   149          0
   150          8
   151          2
   152          6
   153         39
   154          4
   165          2
   168          0
   169          0
   170         13
   171          1
   181          1
   183          2
   195          0
   196          1
   207          0
   212          0
   213          0
   214          5
   223          0
   224         57
   225         10
   226          0
   230         13
   231         19
   232        191
   233         30
   234          2
   240          9
   241        200
   242         35
   243          4
   244          9
   245          2
   261         25
   262          9
   263          1