##TITLE=Library Entry 62197
##JCAMP-DX=Revision 4.10 
##DATA TYPE=MASS SPECTRUM
##SAMPLE DESCRIPTION=C.B. THOMAS, DEP. CHEM., UNIV. YORK, U.K
##NAMES=HP
##CAS NAME=1-Nitro-4-propylbenzene
##MOLFORM=C9H11NO2
##CAS REGISTRY NO=10342-59-3
##MP= -300
##BP= -300
##MW= 165
##$RETENTION INDEX=1482
##$CONDENSED SPECTRUM=NO
##NPOINTS= 52
##XYDATA=(XY..XY) 1 
    40         78
    41        506
    42         69
    43         66
    44        153
    50        213
    51        404
    52        135
    53         85
    55         29
    62         83
    63        331
    64        112
    65        320
    66         42
    67         23
    74         48
    75         54
    76         65
    77        393
    78        719
    79        153
    87         18
    89        438
    90        461
    91        999
    92         96
    93         85
   102         33
   103         93
   104         69
   105         28
   106        528
   107        235
   108         23
   115         98
   116         28
   117         76
   118         51
   119        242
   120        112
   121         14
   124         22
   135         51
   136        764
   137        173
   138         17
   148         74
   149         39
   150         25
   165        640
   166         65