##TITLE=Library Entry 76517
##JCAMP-DX=Revision 4.10 
##DATA TYPE=MASS SPECTRUM
##SAMPLE DESCRIPTION=Chemical Concepts
##NAMES=HP
##CAS NAME=Tricyclo[3.1.0.0(2,4)]hex-3-ene-3-carbonitrile
##MOLFORM=C7H5N
##CAS REGISTRY NO=103495-51-8
##MP= -300
##BP= -300
##MW= 103
##$RETENTION INDEX=0
##$CONDENSED SPECTRUM=NO
##NPOINTS= 66
##XYDATA=(XY..XY) 1 
    25          0
    26         16
    27         20
    28         28
    29          5
    31          3
    36          2
    37         23
    38         27
    39         60
    40          9
    41         14
    42         16
    43          9
    44          2
    45          1
    47          0
    48          2
    49         19
    50        150
    51        107
    52         50
    53          8
    54          0
    55          1
    56          2
    57          5
    58          1
    60          1
    61          9
    62         11
    63         28
    64         17
    65          8
    66         81
    67          5
    69          3
    70          6
    71          6
    72          2
    73         11
    74         36
    75         82
    76        362
    77         60
    78          5
    79          2
    81          0
    84          0
    85          1
    86          2
    87          2
    88          6
    89          1
    91          3
    92          3
    93          2
    94          0
    98          1
    99         10
   100          4
   101          2
   102         15
   103        999
   104         81
   105          4