##TITLE=Library Entry 7293
##JCAMP-DX=Revision 4.10 
##DATA TYPE=MASS SPECTRUM
##SAMPLE DESCRIPTION=Div. of Experiment Therapeutics WRAIR, WRAMC, Washingto
n DC 20307
##NAMES=HP
##CAS NAME=5-Cholesten-3,26-diol di[3,5-dinitrobenzoate]-
##MOLFORM=C41H50N4O12
##CAS REGISTRY NO=103442-67-7
##MP= -300
##BP= -300
##MW= 790
##$RETENTION INDEX=0
##$CONDENSED SPECTRUM=NO
##NPOINTS= 75
##XYDATA=(XY..XY) 1 
    41        507
    43        999
    44        325
    45        202
    46         67
    49        199
    50        244
    51        122
    52         40
    53        251
    55        853
    56        101
    57        238
    58        112
    62         84
    63        278
    64        163
    65        106
    67        395
    69        789
    70         73
    71         72
    74        539
    75        753
    76         31
    77         92
    78         55
    79        309
    80         42
    81        638
    82        115
    83        143
    84        100
    86         65
    91        447
    92        122
    93        348
    95        370
    97         72
   101        135
   102        118
   103        106
   105        394
   107        301
   108         92
   109        162
   117        129
   119        583
   120        234
   121        146
   123         69
   128         30
   129         94
   131        174
   133        169
   135        178
   136        176
   141         82
   143        163
   145        257
   147        221
   149        283
   157        138
   158         29
   159        141
   161         65
   166        192
   171         30
   182        118
   195        273
   196         30
   212        512
   213        106
   578         40
   579         16