##TITLE=Library Entry 64046
##JCAMP-DX=Revision 4.10 
##DATA TYPE=MASS SPECTRUM
##SAMPLE DESCRIPTION=K. Kirk, LC, NIDDK, NIH, Bethesda, MD 20892
##NAMES=HP
##CAS NAME=Benzeneethanamine, 5-benzyloxy-2-fluoro-N-formyl-.beta.-hydroxy-
##MOLFORM=C16H16FNO3
##CAS REGISTRY NO=103438-96-6
##MP= -300
##BP= -300
##MW= 289
##$RETENTION INDEX=0
##$CONDENSED SPECTRUM=NO
##NPOINTS= 191
##XYDATA=(XY..XY) 1 
    41         10
    42          3
    43          3
    44          2
    45          0
    46          1
    49          0
    50          6
    51         17
    52          4
    53          2
    54          0
    55          1
    56          1
    57          9
    58         54
    59        210
    60          8
    61          1
    62          4
    63         24
    64         11
    65        126
    66          7
    67          1
    68          0
    69          1
    70          3
    71          1
    72          0
    73          1
    74          1
    75          8
    76          4
    77         14
    78          3
    79          2
    80          0
    81          3
    82          3
    83         18
    84         16
    85          2
    86          1
    87          0
    88          0
    89         24
    91        999
    92         26
    93          6
    94          3
    95         12
    96          7
    97         10
    98          2
    99          0
   100          0
   101          0
   102          0
   103          1
   104         39
   105         12
   106          1
   107          5
   108          1
   109          2
   110          2
   111          4
   112         17
   113          6
   114          0
   115          1
   116          0
   117          0
   118          0
   119          0
   120          0
   121          0
   122          2
   123         12
   124          8
   125         22
   126          3
   127          7
   128          1
   129          0
   131          0
   132          2
   133          5
   134          2
   135          1
   136          1
   137          0
   138          3
   139         17
   140         13
   141         14
   142          1
   143          0
   145          0
   146          0
   147          0
   148          0
   149          6
   150         12
   151          3
   152          9
   153         74
   154          7
   155          1
   157          0
   159          0
   163          0
   164          0
   165          2
   166          1
   167          0
   168          0
   169          1
   170          5
   171          1
   172          0
   173          0
   177          0
   178          1
   179          1
   180          1
   181          3
   182          1
   183          5
   184          0
   185          0
   186          0
   187          0
   193          0
   194          0
   195          0
   196          0
   197          8
   198         67
   199          8
   200          1
   201          1
   202          1
   203          0
   205          0
   207          0
   209          1
   210          0
   211          1
   212          0
   213          3
   214          0
   215          2
   216          0
   223          1
   224          2
   225          1
   226          7
   227          7
   228          1
   229          1
   230          3
   231        283
   232         44
   233          4
   234          0
   240          0
   241          0
   242          0
   243          1
   244        504
   245         69
   246          9
   247          0
   251          5
   252          1
   260          0
   262          0
   269          0
   270          0
   271          7
   272         22
   273          4
   274          0
   287          0
   288          0
   289        137
   290         30
   291          4
   292          0