##TITLE=Library Entry 1294
##JCAMP-DX=Revision 4.10 
##DATA TYPE=MASS SPECTRUM
##SAMPLE DESCRIPTION=H. SUESS, CIBA-GEIGY AG, MUNCHWILEN, SWITZER
##NAMES=HP
##CAS NAME=cis-1,3-Bis(aminomethyl)cyclohexane
##MOLFORM=C8H18N2
##CAS REGISTRY NO=10340-00-8
##MP= -300
##BP= -300
##MW= 142
##$RETENTION INDEX=0
##$CONDENSED SPECTRUM=NO
##NPOINTS= 19
##XYDATA=(XY..XY) 1 
    30        999
    41        120
    43         50
    53         50
    54        170
    55        140
    56        150
    67        200
    68        100
    79         80
    81        160
    82        150
    95        160
    96        150
   108         50
   112        100
   113        600
   125        420
   142          5