##TITLE=Library Entry 44943
##JCAMP-DX=Revision 4.10 
##DATA TYPE=MASS SPECTRUM
##SAMPLE DESCRIPTION=NIST Mass Spectrometry Data Center
##NAMES=HP
##CAS NAME=Butyl sec-butyl sulfide
##MOLFORM=C8H18S
##CAS REGISTRY NO=10359-61-2
##MP= -300
##BP= -300
##MW= 146
##$RETENTION INDEX=1034
##$CONDENSED SPECTRUM=NO
##NPOINTS= 58
##XYDATA=(XY..XY) 1 
    15         45
    25          3
    26         48
    27        549
    29        989
    30         20
    34          6
    35         43
    39        280
    40         43
    41        915
    42         52
    43         51
    45        151
    46         61
    47        243
    48         13
    49         18
    50         12
    51         14
    52          6
    53         44
    54         25
    55        342
    56        853
    57        828
    58         55
    59        111
    60        109
    61        509
    62         21
    63         28
    67          3
    69         76
    70          7
    71          9
    73         15
    75        999
    76         43
    77         48
    85          3
    88         20
    89        178
    90         98
    91        110
    92         12
    93          5
   103         54
   104          4
   105          3
   117        771
   118         57
   119         37
   120          4
   131         35
   146        347
   147         31
   148         15