##TITLE=Library Entry 32559
##JCAMP-DX=Revision 4.10 
##DATA TYPE=MASS SPECTRUM
##SAMPLE DESCRIPTION=Japan AIST/NIMC Database- Spectrum MS-IW-1524
##NAMES=HP
##CAS NAME=Oxirane, 3-butenyl-
##MOLFORM=C6H10O
##CAS REGISTRY NO=10353-53-4
##MP= -300
##BP= -300
##MW= 98
##$RETENTION INDEX=0
##$CONDENSED SPECTRUM=NO
##NPOINTS= 62
##XYDATA=(XY..XY) 1 
    14          6
    15         47
    25          1
    26         40
    27        437
    28         89
    29        526
    30         12
    31        636
    32          7
    33          1
    36          1
    37         21
    38         59
    39        719
    40        226
    41        870
    42        381
    43        179
    44        120
    45         19
    49          5
    50         35
    51         50
    52         31
    53        387
    54        909
    55        687
    56        137
    57        420
    58         30
    59          4
    61          5
    62          9
    63         15
    64          3
    65        109
    66         55
    67        999
    68        497
    69        266
    70        113
    71         43
    72          5
    73          2
    74          2
    75          1
    77         17
    78          5
    79        126
    80         77
    81         23
    82          5
    83        158
    84          9
    85          1
    94          1
    95          2
    96          1
    97         68
    98          8
    99          1