##TITLE=Library Entry 3914
##JCAMP-DX=Revision 4.10 
##DATA TYPE=MASS SPECTRUM
##SAMPLE DESCRIPTION=Chemical Concepts
##NAMES=HP
##CAS NAME=Bicyclo[2.2.1]heptane-2,5-diol, 1,7,7-trimethyl-, (2-endo,5-exo)-
##MOLFORM=C10H18O2
##CAS REGISTRY NO=10359-41-8
##MP= -300
##BP= -300
##MW= 170
##$RETENTION INDEX=0
##$CONDENSED SPECTRUM=NO
##NPOINTS= 80
##XYDATA=(XY..XY) 1 
    26         40
    27        509
    28         34
    29        326
    30         15
    31        105
    36         14
    38         46
    39        596
    40         86
    41        999
    42        115
    43        450
    44        209
    45         57
    50         48
    51        141
    52         79
    53        268
    54         69
    55        627
    56        134
    57        219
    58         30
    59         66
    60         35
    62         16
    63         36
    64         16
    65        185
    66        146
    67        561
    68        146
    69        467
    70         81
    71        108
    72         15
    76         21
    77        257
    78         52
    79        221
    80         61
    81        305
    82        179
    83        232
    84         42
    85         46
    91        308
    92         73
    93        669
    94        130
    95        379
    96        103
    97         55
    98         19
    99         22
   103         14
   105         55
   106         52
   107        165
   108        722
   109        261
   110         61
   111         48
   119        144
   120         34
   121         74
   122         23
   123        114
   124         32
   125         40
   133         14
   134        102
   135         21
   136         12
   137        125
   138         34
   139          9
   152         80
   153         20