##TITLE=Library Entry 88981
##JCAMP-DX=Revision 4.10 
##DATA TYPE=MASS SPECTRUM
##SAMPLE DESCRIPTION=A.A.Kutin, Moscow, Russia
##NAMES=HP
##CAS NAME=Thiophene-2-carboxamide, N-benzyl-
##MOLFORM=C12H11NOS
##CAS REGISTRY NO=10354-43-5
##MP= -300
##BP= -300
##MW= 217
##$RETENTION INDEX=0
##$CONDENSED SPECTRUM=NO
##NPOINTS= 133
##XYDATA=(XY..XY) 1 
    37          6
    39        239
    40         11
    41          9
    44          0
    45         28
    46          1
    47          1
    48          0
    49          4
    50         33
    51         74
    52         21
    53         14
    54          4
    55          1
    56          2
    57         25
    58         18
    59          3
    60          1
    61          1
    62          6
    63         23
    64         10
    65        100
    66          8
    67          1
    68          1
    69          7
    70          2
    71          3
    72          1
    73          1
    74          8
    75          5
    76         13
    77        111
    78         36
    79         85
    80          7
    81         13
    82         21
    83        113
    84         99
    85         41
    86          8
    87          3
    89         29
    91        199
    92         16
    93          0
    96          0
    97          5
    98          1
    99          1
   100          1
   101          0
   102          2
   104         66
   105        119
   106        421
   107         41
   109          4
   111        999
   112        127
   113         74
   114          7
   115          9
   116          3
   117          0
   118          0
   121          0
   122          1
   123          0
   125          1
   126          1
   127          3
   128          5
   129          5
   130          1
   131          0
   132          7
   133         13
   134          2
   135          0
   136          0
   138          1
   139          3
   140          7
   141          3
   142          1
   143          0
   146          0
   147          0
   148          0
   154          2
   155          1
   156          2
   157          0
   158          1
   159          1
   160          2
   161          1
   166          1
   167          1
   170          1
   171          7
   172          6
   173         21
   174          5
   175          1
   177          0
   182          1
   183          1
   184          9
   185          1
   186          1
   187          7
   188          3
   189          1
   190          0
   198          4
   199          5
   200          7
   201          2
   202          0
   205          0
   216         43
   217        724
   218        110
   219         34
   220          4