##TITLE=Library Entry 31078
##JCAMP-DX=Revision 4.10 
##DATA TYPE=MASS SPECTRUM
##SAMPLE DESCRIPTION=A.A.Kutin, Moscow, Russia
##NAMES=HP
##CAS NAME=Biguanidine, 1-(2,6-diethylphenyl)-
##MOLFORM=C12H19N5
##CAS REGISTRY NO=103554-41-2
##MP= -300
##BP= -300
##MW= 233
##$RETENTION INDEX=0
##$CONDENSED SPECTRUM=NO
##NPOINTS= 127
##XYDATA=(XY..XY) 1 
    39         60
    40         18
    41         43
    43        489
    44        170
    45         10
    48          0
    50         10
    51         45
    52         20
    53         29
    54          6
    55          8
    56          3
    60        999
    63         33
    65         59
    66          9
    68         74
    69          6
    70          5
    71          4
    72          5
    73         12
    75         12
    77        110
    78         24
    79         37
    80          7
    81          3
    82          1
    85        338
    86         56
    87          8
    89         27
    91        105
    92         19
    93         13
    94          6
    96          2
    97          0
    98          1
    99          2
   101         28
   103         46
   104         22
   105         30
   106         26
   107          5
   108          5
   111          1
   112          0
   113          2
   115         62
   116         36
   117         82
   118         41
   119         42
   120         38
   121         14
   122          1
   124          0
   126          3
   128         50
   130         57
   131         25
   132         67
   134        226
   135         17
   136          2
   139          1
   140          3
   141          5
   142         13
   143         24
   144         33
   145         65
   146         61
   147         24
   149        230
   150         20
   151          0
   153          0
   154          6
   155          6
   156         23
   157         23
   158         59
   159        152
   160         38
   162         99
   163          8
   164          0
   168          0
   169          2
   170          4
   171         15
   174        626
   175         78
   176         12
   177          1
   182          1
   183          1
   184          4
   185          4
   186          6
   187         25
   188          8
   190         28
   191          6
   192          0
   198          4
   199          5
   200          3
   204        269
   205         27
   206          1
   214          0
   215          6
   216          8
   217          5
   218          0
   228          0
   229          2
   233        393
   234         48
   235          2