##TITLE=Library Entry 2753
##JCAMP-DX=Revision 4.10 
##DATA TYPE=MASS SPECTRUM
##SAMPLE DESCRIPTION=D. Rasala, Inst. Chem., Pedagogical Univ., Kielce, Pola
nd
##NAMES=HP
##CAS NAME=4-Pyridinamine, N-cyclohexyl-3-nitro-
##MOLFORM=C11H15N3O2
##CAS REGISTRY NO=103565-87-3
##MP= -300
##BP= -300
##MW= 221
##$RETENTION INDEX=0
##$CONDENSED SPECTRUM=NO
##NPOINTS= 57
##XYDATA=(XY..XY) 1 
    41        999
    50        320
    51        220
    52        290
    53        340
    54        130
    55        390
    56         80
    63         70
    64        130
    65        350
    66        130
    67         80
    68         30
    76        110
    77         90
    78        270
    79        250
    80        250
    81         80
    91        120
    92        130
    93        120
    94         60
   104         90
   105         70
   106        220
   107        120
   108         60
   117         50
   118        120
   119        110
   120        150
   121         70
   131        160
   132        100
   133         60
   135        150
   136        120
   145        180
   147         50
   148         60
   149         30
   174         30
   175          2
   178        280
   179         60
   186        130
   187         30
   188         50
   191         30
   203        160
   204         40
   220          2
   221        130
   222         28
   223          4