##TITLE=Library Entry 44966
##JCAMP-DX=Revision 4.10 
##DATA TYPE=MASS SPECTRUM
##SAMPLE DESCRIPTION=Exported from NIST MS Search
##NAMES=HP
##CAS NAME=Butane, 2-(methylthio)-
##MOLFORM=C5H12S
##CAS REGISTRY NO=10359-64-5
##MP= -300
##BP= -300
##MW= 104
##$RETENTION INDEX=787
##$CONDENSED SPECTRUM=NO
##NPOINTS= 74
##XYDATA=(XY..XY) 1 
    12          4
    13         11
    14         39
    15        146
    16          6
    24          1
    25          4
    26         58
    27        374
    28        136
    29        585
    30         16
    32          6
    33          7
    34          7
    35         22
    36          2
    37         12
    38         25
    39        227
    40         33
    41        846
    42         42
    43         26
    44         12
    45        270
    46         96
    47        282
    48        127
    49        142
    50         26
    51         28
    52          7
    53         34
    54         11
    55        127
    56        419
    57        380
    58         54
    59         93
    60         27
    61        137
    62          8
    63          7
    64          9
    65          1
    66          1
    68          1
    69          7
    70          3
    71         14
    72          6
    73         17
    74         11
    75        999
    76         49
    77         46
    78          5
    79         39
    80          2
    81          5
    82          1
    83          1
    85          2
    86          1
    87          4
    88          2
    89         80
    90          2
    91          4
   104        361
   105         24
   106         17
   107          2