##TITLE=Library Entry 6300
##JCAMP-DX=Revision 4.10 
##DATA TYPE=MASS SPECTRUM
##SAMPLE DESCRIPTION=Exported from NIST MS Search
##NAMES=HP
##CAS NAME=Sulfide, isobutyl isopropyl
##MOLFORM=C7H16S
##CAS REGISTRY NO=10359-65-6
##MP= -300
##BP= -300
##MW= 132
##$RETENTION INDEX=895
##$CONDENSED SPECTRUM=NO
##NPOINTS= 42
##XYDATA=(XY..XY) 1 
    26         40
    27        557
    28         59
    29        242
    35         12
    37         18
    38         43
    39        448
    40         58
    41        747
    42         92
    43        999
    44         37
    45        211
    46        106
    47        555
    48        101
    49         63
    50         12
    51         11
    53         24
    54         11
    55        364
    56        429
    59        109
    60         44
    61        196
    71         17
    73         17
    74         51
    75        196
    76        143
    77         72
    89        677
    90         79
    91         37
   103         16
   117        188
   118         12
   132        416
   133         36
   134         20