##TITLE=Library Entry 39321
##JCAMP-DX=Revision 4.10 
##DATA TYPE=MASS SPECTRUM
##SAMPLE DESCRIPTION=A.A.Kutin, Moscow, Russia
##NAMES=HP
##CAS NAME=Piperidin-3-one, 2,2,5-methyl-
##MOLFORM=C8H15NO
##CAS REGISTRY NO=103634-57-7
##MP= -300
##BP= -300
##MW= 141
##$RETENTION INDEX=0
##$CONDENSED SPECTRUM=NO
##NPOINTS= 72
##XYDATA=(XY..XY) 1 
    35         17
    36         95
    38         45
    39        115
    40         26
    41        165
    42        217
    43         25
    44          9
    45          0
    50          1
    51          4
    52          5
    53         15
    54         20
    55         43
    56        109
    57         26
    58        124
    59          3
    63          0
    64          0
    65          1
    66          1
    67          5
    68          8
    69          9
    70        249
    71        999
    72         38
    73          1
    77          2
    79          4
    80          7
    81          5
    82         15
    83          8
    84         16
    85          1
    86          0
    91          0
    92          0
    93          1
    94          3
    95          2
    96          8
    98        344
    99         23
   100          4
   105          0
   106          0
   107          0
   108          1
   109          0
   110          2
   111          1
   112         12
   113        363
   114         29
   115          1
   122          0
   123          0
   124          1
   126         26
   127          1
   128          3
   129          0
   138          0
   139          0
   141         39
   142          3
   143          3