##TITLE=Library Entry 11733
##JCAMP-DX=Revision 4.10 
##DATA TYPE=MASS SPECTRUM
##SAMPLE DESCRIPTION=RH-37
##NAMES=HP
##CAS NAME=Bicyclo[2.2.2]octane-1,4-diol, diacetate
##MOLFORM=C12H18O4
##CAS REGISTRY NO=10364-35-9
##MP= -300
##BP= -300
##MW= 226
##$RETENTION INDEX=0
##$CONDENSED SPECTRUM=NO
##NPOINTS= 76
##XYDATA=(XY..XY) 1 
    12          2
    13          3
    14         18
    15        103
    18         18
    26         14
    27         66
    28         62
    29         31
    30          1
    31          6
    39         76
    40         15
    41         77
    42         75
    43        999
    44         29
    45         10
    50         10
    51         23
    52         13
    53         53
    54         38
    55        141
    56         22
    57         15
    61          8
    63          9
    65         24
    66         20
    67         32
    68          3
    69         18
    70         24
    71         21
    77         29
    78         26
    79         51
    80         34
    81         59
    82         57
    83         58
    84          8
    85          8
    91         52
    92          5
    93         20
    94         12
    95        120
    96        291
    97         25
    98          2
    99          2
   103         11
   105         12
   106        122
   107         39
   108         12
   109        114
   110          9
   111          3
   112          4
   113          7
   122         11
   123         29
   124        538
   125         67
   126          6
   133          6
   138         19
   141          5
   148         16
   149          3
   166        234
   226         40
   227          5