##TITLE=Library Entry 29090
##JCAMP-DX=Revision 4.10 
##DATA TYPE=MASS SPECTRUM
##SAMPLE DESCRIPTION=AAFS Toxicology Section MS DB Committee, U. Alberta, Ca
nada
##NAMES=HP
##CAS NAME=Sumatriptan
##MOLFORM=C14H21N3O2S
##CAS REGISTRY NO=103628-46-2
##MP= -300
##BP= -300
##MW= 295
##$RETENTION INDEX=2730
##$CONDENSED SPECTRUM=NO
##NPOINTS= 149
##XYDATA=(XY..XY) 1 
    35          1
    36          1
    37          1
    38          1
    39          3
    40          1
    41          2
    42         30
    43          7
    44          2
    45          1
    46          1
    47          1
    48          1
    49          1
    50          1
    51          4
    52          2
    53          1
    54          1
    55          1
    56          4
    58        999
    59         38
    60          1
    61          1
    62          1
    63          6
    64          4
    65          4
    66          1
    67          1
    68          1
    69          1
    70          1
    71          1
    73          1
    74          1
    75          2
    76          3
    77         11
    78          4
    79          1
    80          1
    81          1
    82          1
    83          1
    84          1
    85          1
    86          1
    87          1
    88          2
    89         11
    90          4
    91          3
    92          1
    93          1
    94          3
    95          1
    96          1
    97          1
    98          1
    99          1
   100          3
   101          3
   102          7
   103          5
   104          1
   105          1
   106          1
   107          1
   111          1
   113          3
   114          1
   115         57
   116         12
   117          8
   118          1
   119          1
   120          1
   125          1
   126          2
   127         10
   128         19
   129          7
   130         10
   131          1
   132          1
   133          1
   134          1
   137          1
   138          1
   139          1
   140          5
   142         87
   143        146
   144         22
   145          1
   146          1
   147          1
   152          1
   154         14
   156         50
   157         22
   158         24
   159          3
   160          1
   166          1
   167          1
   168          2
   169          2
   170          1
   171          1
   172          1
   173          1
   174          1
   181          1
   182          1
   183          2
   184          1
   185          2
   186          1
   187          1
   191          1
   195          1
   196          1
   197          1
   198          1
   199          6
   200          5
   201         21
   202          3
   203          1
   206          1
   210          1
   231          1
   237         11
   238          1
   239          1
   250          1
   251          6
   252          1
   253          1
   292          1
   293          1
   295         40
   296          6
   297          2
   298          1