##TITLE=Library Entry 44520
##JCAMP-DX=Revision 4.10 
##DATA TYPE=MASS SPECTRUM
##SAMPLE DESCRIPTION=Chemical Concepts
##NAMES=HP
##CAS NAME=3,6-Heptadienoic acid, 5-(2,2-dimethylcyclopropyl)-6-methyl-, met
hyl ester, (Z)
##MOLFORM=C14H22O2
##CAS REGISTRY NO=103620-10-6
##MP= -300
##BP= -300
##MW= 222
##$RETENTION INDEX=0
##$CONDENSED SPECTRUM=NO
##NPOINTS= 134
##XYDATA=(XY..XY) 1 
    26         24
    27        262
    28        309
    29        251
    30          7
    31         27
    32         29
    33          5
    37          2
    38         12
    39        330
    40         66
    41        977
    42         51
    43        314
    44         44
    45         41
    50         14
    51         64
    52         35
    53        198
    54         30
    55        223
    56         30
    57         34
    58          4
    59        194
    60          9
    61          6
    62          5
    63         23
    64         10
    65        121
    66         48
    67        213
    68         23
    69        473
    70         33
    71         16
    72          3
    73          6
    74        999
    75         65
    76         11
    77        322
    78         71
    79        467
    80         63
    81        124
    82        108
    83         26
    84          5
    85          7
    87          9
    88          4
    89         11
    90          9
    91        581
    92        521
    93        950
    94         99
    95        125
    96         44
    97         16
    98         11
    99          8
   101          4
   102          6
   103         24
   104         16
   105        305
   106        413
   107        563
   108         63
   109         92
   110          8
   111         53
   112         13
   115         15
   116          9
   117         25
   118          8
   119        251
   120         32
   121        105
   122         14
   123         50
   124         17
   125         14
   127          3
   128          7
   129          4
   130          3
   131         19
   132         10
   133        129
   134        100
   135         60
   136          9
   137         12
   138          3
   139          4
   141          5
   145          5
   146          3
   147        104
   148         69
   149         95
   150         14
   151         16
   152          4
   153         22
   154         29
   155          3
   161          3
   162         13
   163         18
   164          3
   165          8
   166        123
   167         23
   168          2
   173          8
   175         36
   176          7
   177          2
   179         99
   180         10
   181          3
   190          3
   191         10
   207         29
   208          4
   222          7