##TITLE=Library Entry 73707
##JCAMP-DX=Revision 4.10 
##DATA TYPE=MASS SPECTRUM
##SAMPLE DESCRIPTION=United States Army Criminal Investigation Laboratory (U
SACIL)
##NAMES=HP
##CAS NAME=(1-(2-Morpholin-4-ylethyl)indol-3-yl)-naphthalen-1-yl)methanone
##MOLFORM=C25H24N2O2
##CAS REGISTRY NO=103610-04-4
##MP= -300
##BP= -300
##MW= 384
##$RETENTION INDEX=0
##$CONDENSED SPECTRUM=NO
##NPOINTS= 190
##XYDATA=(XY..XY) 1 
    39          1
    40          1
    41          6
    42         18
    43          2
    44          1
    45          2
    50          1
    51          2
    52          1
    53          1
    54          3
    55         11
    56         67
    57          4
    58          1
    62          1
    63          2
    64          1
    65          1
    68          1
    69          1
    70         26
    71          1
    72         10
    74          1
    75          5
    76          5
    77          9
    78          1
    79          1
    82          1
    83          1
    84          1
    85          1
    86          1
    87          1
    88          2
    89          4
    90          1
    91          1
    93          1
    94          1
    95          1
    97          1
    98          9
   100        999
   101         69
   102         18
   103          3
   104          1
   106          1
   107          1
   112          3
   113          2
   114          3
   115         12
   116          4
   117          1
   118          1
   119          1
   120          1
   121          1
   125          1
   126         15
   127         92
   128         27
   129         12
   130          2
   131          1
   134          1
   135          1
   139          3
   140          1
   141          2
   142          1
   143          4
   144          2
   147          1
   148          1
   149          1
   150          1
   151          1
   152          1
   153          1
   154          1
   155         47
   156          8
   157          1
   158          1
   161          1
   162          1
   163          1
   164          1
   165          1
   167          1
   168          1
   169          1
   170          5
   171          1
   175          1
   176          1
   178          1
   181          1
   187          2
   188          1
   189          1
   190          1
   191          1
   192          1
   194          1
   197          1
   198          1
   199          1
   200          1
   201          1
   202          1
   203          1
   211          1
   212          1
   213          5
   214          4
   215          3
   216          1
   221          1
   224          1
   225          2
   226          8
   227          4
   228          4
   229          2
   230          1
   237          1
   238          1
   239          3
   240          7
   241          6
   242          2
   243          1
   249          1
   251          1
   252          2
   253          1
   254         23
   255         12
   256          5
   257          1
   264          1
   265          2
   266          5
   267          3
   268          2
   269          5
   270          6
   271          1
   278          1
   280          1
   282          1
   283          2
   284         20
   285          6
   286          1
   295          1
   296          3
   297          2
   298          1
   299          1
   311          1
   315          1
   325          1
   328          1
   329          1
   331          1
   332          1
   339          4
   340          1
   341          1
   342          1
   346          1
   347          1
   353          1
   364          1
   367          1
   382          3
   383          1
   384        122
   385         35
   386          5
   387          1
   405          1