##TITLE=Library Entry 56146
##JCAMP-DX=Revision 4.10 
##DATA TYPE=MASS SPECTRUM
##SAMPLE DESCRIPTION=Chemical Concepts
##NAMES=HP
##CAS NAME=3-Chlorobenzoic acid, 2-diethylaminoethyl ester
##MOLFORM=C13H18ClNO2
##CAS REGISTRY NO=10367-86-9
##MP= -300
##BP= -300
##MW= 255
##$RETENTION INDEX=0
##$CONDENSED SPECTRUM=NO
##NPOINTS= 59
##XYDATA=(XY..XY) 1 
    27         16
    28         27
    29         39
    30        118
    31          2
    38          3
    41         11
    42         61
    43         15
    44         28
    50         16
    51          9
    54          7
    55         11
    56         75
    57         18
    58        164
    59          5
    69          2
    70         19
    71         38
    72         12
    74          6
    75         47
    76         22
    77          7
    84         34
    85          8
    86        999
    87        118
    88          3
    98          4
    99        117
   101         20
   104          8
   110          3
   111        102
   112          8
   113         37
   114          4
   120         12
   121          4
   139        146
   140         12
   141         46
   142          4
   148          4
   183        155
   184         14
   185         41
   186          4
   240         22
   241          3
   242          7
   254          4
   255         12
   256          1
   257          4
   258          1