##TITLE=Library Entry 57334
##JCAMP-DX=Revision 4.10 
##DATA TYPE=MASS SPECTRUM
##SAMPLE DESCRIPTION=Zaikin V.G., TIPS RAS, Moscow, Russia
##NAMES=HP
##CAS NAME=Cyclopropanecarboxylic acid, undecyl ester
##MOLFORM=C15H28O2
##CAS REGISTRY NO=103677-78-7
##MP= -300
##BP= -300
##MW= 240
##$RETENTION INDEX=0
##$CONDENSED SPECTRUM=NO
##NPOINTS= 61
##XYDATA=(XY..XY) 1 
    26          3
    27         15
    28         12
    29         32
    30          1
    31          1
    37          1
    38          2
    39         41
    40         11
    41        183
    42         40
    43        119
    44          9
    45         10
    53          7
    54         19
    55        151
    56        131
    57        111
    58          4
    65          1
    67         24
    68         44
    69        794
    70        157
    71         42
    81         12
    82         57
    83        159
    84        124
    85         42
    86         13
    87        999
    88         47
    89          4
    95          6
    96         27
    97        172
    98         61
    99         12
   109          2
   110         12
   111         86
   112         45
   113          6
   114          6
   124         10
   125         45
   126         83
   127         13
   137          2
   139          1
   142         20
   152          2
   153          1
   154        125
   155         16
   168          3
   182          1
   241          1