##TITLE=Library Entry 90771
##JCAMP-DX=Revision 4.10 
##DATA TYPE=MASS SPECTRUM
##SAMPLE DESCRIPTION=A.A.Kutin, Moscow, Russia
##NAMES=HP
##CAS NAME=Butane-2-one, 3-methyl-3-(2-oxopropylamino)-
##MOLFORM=C8H15NO2
##CAS REGISTRY NO=103634-54-4
##MP= -300
##BP= -300
##MW= 157
##$RETENTION INDEX=0
##$CONDENSED SPECTRUM=NO
##NPOINTS= 59
##XYDATA=(XY..XY) 1 
    39        114
    40         34
    41        181
    42        207
    43        471
    44         99
    45         11
    46          0
    50          2
    51          4
    52          5
    53          9
    54         21
    55        101
    56        262
    57        126
    58        155
    59         53
    60          4
    64          0
    65          1
    67          6
    68          6
    69         17
    70        129
    71        255
    72         78
    73          3
    74         10
    77          2
    79          9
    80          4
    81         28
    82          4
    84         22
    85         22
    86         15
    87          0
    91          0
    94          3
    96        404
    97         40
    98         24
    99          1
   100          9
   107          0
   108          0
   111          0
   112          2
   114        999
   115         65
   116          4
   121          0
   122          0
   124          0
   129          0
   140          0
   142          7
   143          0