##TITLE=Library Entry 13941
##JCAMP-DX=Revision 4.10 
##DATA TYPE=MASS SPECTRUM
##SAMPLE DESCRIPTION=Chemical Concepts
##NAMES=HP
##CAS NAME=Benzenehexaethanol, hexaacetate
##MOLFORM=C30H42O12
##CAS REGISTRY NO=103673-32-1
##MP= -300
##BP= -300
##MW= 594
##$RETENTION INDEX=0
##$CONDENSED SPECTRUM=NO
##NPOINTS= 475
##XYDATA=(XY..XY) 1 
    25          0
    26          2
    27          3
    29         22
    30          7
    31          3
    33          0
    36          0
    38          0
    39          3
    41         18
    42         22
    43        999
    44         40
    45         31
    46          2
    47          2
    49          0
    50          1
    51          2
    52          1
    53          3
    54          0
    55         27
    56          4
    57         18
    58          4
    59          1
    60         16
    61          6
    64          1
    65          3
    66          2
    67         10
    68          3
    69         22
    70          7
    71         13
    72          1
    73         21
    74          2
    75          0
    76          1
    77          6
    79          7
    80          3
    81         15
    82          6
    83         11
    84          6
    85          8
    86          1
    87        168
    88         10
    89          3
    90          0
    91         10
    92          5
    93          9
    94          1
    95         10
    96          5
    97         11
    98          3
    99          3
   100          0
   101          4
   102          3
   103          4
   104          0
   105         13
   106          1
   107          7
   108          2
   109          6
   110          2
   111          4
   112          2
   113          5
   114          0
   115          7
   116          2
   117          7
   118          1
   119         10
   120          3
   121          3
   122          3
   123          5
   124          1
   125          4
   126          1
   127          4
   128         15
   129         27
   130          8
   131         14
   132          3
   133          6
   134          1
   135          2
   136          2
   137          5
   138          1
   139          4
   140          2
   141         27
   142         22
   143         38
   144         10
   145         19
   146          3
   147          6
   148          1
   149          2
   150          1
   151          3
   152         10
   153         27
   154         22
   155         62
   156         28
   157         45
   158         11
   159         21
   160          6
   161          5
   162          1
   163          3
   164          2
   165         48
   166         34
   167         73
   168         45
   169         79
   170         28
   171         48
   172         14
   173         27
   174          6
   175          5
   176          2
   177          2
   178         26
   179         66
   180         54
   181        100
   182         57
   183        108
   184         36
   185         62
   186         16
   187         26
   188          7
   189          8
   190          3
   191         35
   192         46
   193         97
   194         66
   195        136
   196         62
   197        113
   198         36
   199         84
   200         22
   201         33
   202         10
   203         13
   204         23
   205        243
   206        270
   207        356
   208        116
   209        173
   210         59
   211        134
   212         42
   213         97
   214         22
   215         39
   216          9
   217         12
   218         14
   219        162
   220         47
   221        182
   222         80
   223        196
   224         86
   225        129
   226         40
   227         91
   228         22
   229         56
   230         11
   231         15
   232          6
   233         94
   234        832
   235        216
   236         62
   237         45
   238         22
   239        141
   240         38
   241         78
   242         18
   243         42
   244          7
   245         16
   246          3
   247          5
   248          2
   249          7
   250          9
   251        219
   252        153
   253         72
   254         21
   255         43
   256         13
   257         80
   258         15
   259         16
   260          5
   261          3
   262          1
   263          3
   264          4
   265         31
   266         43
   267         94
   268         28
   269         83
   270         22
   271         38
   272         11
   273         42
   274          9
   275          8
   276          3
   277          3
   278          2
   279          4
   280          9
   281         28
   282         17
   283         55
   284         27
   285         56
   286         14
   287         37
   288          7
   289          8
   290          3
   291          1
   292          2
   293         10
   294        203
   295         54
   296         22
   297         30
   298         10
   299         86
   300         20
   301         24
   302          8
   303         13
   304          3
   305          2
   306          2
   307          1
   308          0
   309          2
   310          6
   311        108
   312         87
   313         47
   314         18
   315         19
   316          5
   317         57
   318         11
   319          5
   320          1
   321          1
   322          1
   323          1
   324          2
   325         10
   326         21
   327         32
   328         14
   329         44
   330         15
   331         20
   332          6
   333          7
   334          2
   335          2
   336          1
   337          1
   338          1
   339          2
   340          5
   341         19
   342          7
   343         27
   344         17
   345         61
   346         15
   347         11
   348          6
   349          2
   350          1
   351          1
   352          2
   353          4
   354        117
   355         38
   356         21
   357         46
   358         15
   359         63
   360         17
   361         13
   362          4
   363          2
   364          2
   365          1
   367          1
   368          2
   369          3
   370          6
   371         80
   372         82
   373         44
   374         16
   375         10
   376          4
   377          3
   378          2
   379          0
   380          0
   381          1
   382          0
   383          1
   384          3
   385          4
   386          5
   387         14
   388          5
   389         31
   390          9
   391          7
   392          3
   393          1
   395          0
   396          1
   397          1
   398          1
   399          3
   400          2
   401          7
   402          8
   403         10
   404          7
   405         16
   406          6
   407          1
   408          1
   410          1
   411          1
   412          1
   414        124
   415         38
   416         21
   417         41
   418         15
   419        105
   420         28
   421          6
   422          2
   423          0
   424          0
   426          1
   427          0
   428          1
   429          2
   430          7
   431         32
   432         57
   433         35
   434         14
   436          1
   437          1
   439          2
   440          5
   442          1
   443          0
   444          2
   445          1
   446          3
   447         20
   449          2
   453          0
   455          0
   456          0
   458          0
   459          2
   460          2
   461          3
   462          4
   463          3
   464          0
   465          0
   466          0
   468          1
   472          1
   474        150
   475         59
   476         22
   477         13
   478          4
   479          3
   480          1
   481          1
   483          0
   486          1
   487          0
   488          0
   489          2
   490         13
   491         17
   492         12
   493          9
   495          1
   496          0
   497          0
   503          1
   504          2
   505          1
   506          1
   507          1
   508          0
   516          2
   517          1
   518          0
   519          1
   520          2
   521          1
   522          2
   523          1
   524          0
   526          0
   532          0
   533          4
   534         44
   535         36
   536         14
   537          2
   538          1
   540          0
   549          0
   550          0
   551          1
   558          0
   559          1
   560          5
   562          0
   563          0
   594        101
   595         36
   596         14