##TITLE=Library Entry 78572
##JCAMP-DX=Revision 4.10 
##DATA TYPE=MASS SPECTRUM
##SAMPLE DESCRIPTION=NIST Mass Spectrometry Data Center
##NAMES=HP
##CAS NAME=N-Benzoylimidazole
##MOLFORM=C10H8N2O
##CAS REGISTRY NO=10364-94-0
##MP= -300
##BP= -300
##MW= 172
##$RETENTION INDEX=0
##$CONDENSED SPECTRUM=NO
##NPOINTS= 47
##XYDATA=(XY..XY) 1 
    12          1
    13          2
    17          2
    18          3
    25          1
    26         15
    27         25
    28         19
    29          1
    37          8
    38         28
    39         45
    40        136
    41         12
    42          1
    50        104
    51        280
    52         17
    53          6
    59          2
    61          3
    62          6
    63         10
    64          4
    65          1
    66          2
    67          3
    68         10
    72          6
    73          5
    74         29
    75         21
    77        652
    78         41
    79          1
    86          1
    87          1
    89          9
    90          2
    95          2
   102          1
   105        999
   106         69
   107          4
   116          2
   172         62
   173          7