##TITLE=Library Entry 63439
##JCAMP-DX=Revision 4.10 
##DATA TYPE=MASS SPECTRUM
##SAMPLE DESCRIPTION=Leung Pu, NIH, Bethesda, Maryland, U.S.
##NAMES=HP
##CAS NAME=N,N'-Dibenzyl-p-phenylene diamine
##MOLFORM=C20H20N2
##CAS REGISTRY NO=10368-25-9
##MP= -300
##BP= -300
##MW= 288
##$RETENTION INDEX=0
##$CONDENSED SPECTRUM=NO
##NPOINTS= 106
##XYDATA=(XY..XY) 1 
    41         22
    42          4
    43          4
    44          1
    45          1
    47          4
    48          2
    49         23
    50         12
    51         39
    52         19
    53          9
    54          3
    55          2
    56          1
    57          2
    59          0
    60          0
    62          4
    63         29
    64          6
    65        167
    66         12
    67          2
    68          0
    69          1
    70          0
    71          1
    73          0
    74          2
    75          3
    76         13
    77         26
    78         13
    79          5
    80         10
    81          0
    84         15
    86          9
    88          2
    89         24
    91        999
    92         79
    93          7
    94          1
    97          0
    98          0
   101          0
   102          3
   103          4
   104         13
   105          8
   106          3
   107          5
   108          0
   114          1
   115          6
   116          2
   117          2
   118          5
   119         16
   120          4
   126          0
   127          1
   128          2
   129          1
   131          0
   133          0
   139          2
   140          1
   141          4
   142          2
   143          1
   147          3
   150          0
   151          2
   152          3
   153          2
   154          1
   155          0
   165          1
   166          2
   167         11
   168         10
   169          2
   178          1
   179          0
   180          5
   181          1
   182          2
   183          1
   193          1
   194          1
   195         33
   196         11
   197        238
   198         30
   199          2
   209          2
   211          3
   285          3
   286          9
   287         20
   288        234
   289         50
   290          5