##TITLE=Library Entry 61360
##JCAMP-DX=Revision 4.10 
##DATA TYPE=MASS SPECTRUM
##SAMPLE DESCRIPTION=V.Zaikin,Topchiev Inst.Petrochem.Synth.,Moscow
##NAMES=HP
##CAS NAME=Pentanoic acid, phenylmethyl ester
##MOLFORM=C12H16O2
##CAS REGISTRY NO=10361-39-4
##MP= -300
##BP= -300
##MW= 192
##$RETENTION INDEX=1396
##$CONDENSED SPECTRUM=NO
##NPOINTS= 102
##XYDATA=(XY..XY) 1 
    25          1
    26          9
    27         22
    28          8
    29         27
    30          1
    35          2
    36         16
    37          2
    38          5
    39         33
    40         12
    41         46
    42          6
    43          7
    44          2
    45          2
    49          2
    50         13
    51         28
    52         17
    53          7
    54          3
    55         40
    56          7
    57        124
    58          6
    59          6
    60         10
    61          2
    62          5
    63         19
    64          7
    65         76
    66          6
    67          3
    68          1
    69          3
    70          2
    71          2
    73         13
    74          4
    75          4
    76          4
    77         56
    78         21
    79         72
    80          7
    81          2
    82          2
    83         18
    84         15
    85        159
    86         10
    87          2
    89         45
    90        122
    91        999
    92        159
    93         13
    94          1
    95          1
    96          1
    97          1
   101         56
   102          4
   103          3
   104          5
   105         34
   106         15
   107         76
   108        873
   109         60
   110          4
   115          2
   116          1
   117          5
   118          2
   119         13
   120          2
   126          1
   128          1
   129          1
   130          2
   131          2
   132         11
   133          8
   134          1
   135          4
   146          1
   147          5
   148          1
   150          2
   159          1
   174         24
   175          3
   177          1
   179          1
   191          1
   192        161
   193         23
   194          2