##TITLE=Library Entry 13785
##JCAMP-DX=Revision 4.10 
##DATA TYPE=MASS SPECTRUM
##SAMPLE DESCRIPTION=A. Kelecom, Dep. Gen. Biol., Univ. Fed. Fluminense, Nit
eroi, Brazil
##NAMES=HP
##CAS NAME=3-Pentanone, 1-(decahydro-1,7-dihydroxy-6,9a-dimethyl-4-methylene
-4a,7-epoxy-4aH-benzocyclohepten-6-yl)-4-methyl-, (1.alpha.,4a.alpha.,6.beta
.,7.alpha.,9a.beta.)-(-)-
##MOLFORM=C20H32O4
##CAS REGISTRY NO=103772-44-7
##MP= -300
##BP= -300
##MW= 336
##$RETENTION INDEX=0
##$CONDENSED SPECTRUM=NO
##NPOINTS= 32
##XYDATA=(XY..XY) 1 
    43        999
    55        430
    71        550
   125        510
   133        270
   145        180
   147        250
   149        200
   159        440
   173        220
   193        520
   201         70
   206        110
   217        100
   219        600
   227         50
   232        120
   233        150
   237        100
   238        110
   245        100
   247         90
   251        200
   257         60
   275        120
   279         30
   285         30
   300         50
   303         40
   308         50
   318        140
   336         30