##TITLE=Library Entry 51157
##JCAMP-DX=Revision 4.10 
##DATA TYPE=MASS SPECTRUM
##SAMPLE DESCRIPTION=J. Klune, Insect Chem. Ecol. Lab., USDA, Beltsville, MD
 20705
##NAMES=HP
##CAS NAME=9-Hexadecen-1-ol, (Z)-
##MOLFORM=C16H32O
##CAS REGISTRY NO=10378-01-5
##MP= -300
##BP= -300
##MW= 240
##$RETENTION INDEX=1863
##$CONDENSED SPECTRUM=NO
##NPOINTS= 162
##XYDATA=(XY..XY) 1 
    41        790
    42        140
    43        471
    44         32
    45         21
    47          0
    49          2
    51          6
    52          6
    53         95
    54        375
    55        953
    56        209
    57        232
    58         14
    59          6
    65         30
    66         93
    67        703
    68        506
    69        553
    70        149
    71        171
    72         15
    73          8
    75          1
    77         30
    78          8
    79        103
    80         78
    81        698
    82        999
    83        455
    84         82
    85         92
    86         11
    87          3
    91         28
    92          5
    93         45
    94         46
    95        593
    96        769
    97        298
    98         48
    99         24
   100          4
   101          2
   103          3
   104          0
   105          9
   106          3
   107         19
   108         46
   109        329
   110        324
   111        120
   112         23
   113         10
   114          4
   115          4
   117          3
   119          6
   120          3
   121         23
   122         28
   123        190
   124        187
   125         49
   126         14
   127          7
   128          3
   129          3
   131          3
   132          1
   133         10
   134          6
   135         21
   136         16
   137        108
   138        108
   139         25
   140         17
   141         10
   142          2
   143          1
   145          3
   146          0
   147          5
   148          6
   149         14
   150          6
   151         49
   152         54
   153         16
   154         13
   155          6
   156          1
   157          1
   159          7
   161          4
   162          3
   163         13
   164         34
   165         63
   166         63
   167         14
   168          4
   169          5
   170          0
   171          2
   173          5
   174          0
   175          3
   176          2
   177          5
   178          3
   179         23
   180         29
   181          8
   182          2
   183          2
   184          0
   185          2
   187          0
   189          4
   190          0
   191          5
   192          6
   193         16
   194         56
   195         11
   196          6
   197          3
   199          0
   203          2
   204          1
   205          4
   206          4
   207          7
   208          7
   209          3
   210          1
   211          1
   212          1
   213          1
   215          0
   217          0
   218          2
   219         15
   220          9
   221          5
   222        337
   223         56
   224          9
   225          3
   237          0
   238          3
   239          1
   240         11
   241          5
   242          0