##TITLE=Library Entry 25628
##JCAMP-DX=Revision 4.10 
##DATA TYPE=MASS SPECTRUM
##SAMPLE DESCRIPTION=Humboldt-Universitat zu Berlin, Department of Chemistry
, Analytical Group
##NAMES=HP
##CAS NAME=Trimethylsilylmethylensulfin-tert.butylamid
##MOLFORM=C8H21NOSSi
##CAS REGISTRY NO=103717-18-6
##MP= -300
##BP= -300
##MW= 207
##$RETENTION INDEX=0
##$CONDENSED SPECTRUM=NO
##NPOINTS= 112
##XYDATA=(XY..XY) 1 
    12          1
    13          1
    14          5
    15         79
    16          2
    17          4
    18         19
    26          6
    27         49
    28         60
    29        168
    30         47
    31         34
    32         10
    33          2
    34          1
    35          1
    37          1
    39         46
    40         10
    41        198
    42        175
    43        109
    44         79
    45        159
    46         32
    47         52
    48          6
    49          3
    50          1
    51          2
    52          2
    53          9
    54          8
    55         29
    56         61
    57        999
    58        228
    59        129
    60         29
    61         33
    62         15
    63         14
    64          7
    65          1
    66          1
    67          1
    68          1
    69          1
    70         16
    71         13
    72         53
    73        414
    74        138
    75        204
    76         22
    77         10
    78          1
    79          1
    84          1
    85          1
    86          2
    87         23
    88          7
    89          6
    90          5
    91          7
    92          4
    93          3
   100          1
   102         17
   103          3
   104          5
   105          8
   106         23
   107         20
   108          3
   109          2
   114          9
   115          1
   116          1
   117          3
   118         28
   119         13
   120        151
   121         10
   122          8
   130         38
   131          4
   132          2
   134          8
   135         41
   136        145
   137         18
   138         14
   139          1
   145          2
   150          1
   151         16
   152          4
   153          2
   164          1
   174          0
   190          0
   192         88
   193         12
   194          8
   195          1
   207         45
   208         10
   209          5
   210          1