##TITLE=Library Entry 68093
##JCAMP-DX=Revision 4.10 
##DATA TYPE=MASS SPECTRUM
##SAMPLE DESCRIPTION=Chuck Anderson, Aldrich Chemical Co.
##NAMES=HP
##CAS NAME=dl-Camphoroquinone
##MOLFORM=C10H14O2
##CAS REGISTRY NO=10373-78-1
##MP= -300
##BP= -300
##MW= 166
##$RETENTION INDEX=0
##$CONDENSED SPECTRUM=NO
##NPOINTS= 63
##XYDATA=(XY..XY) 1 
    15          9
    26         16
    27        194
    28         39
    29         81
    37          2
    38         13
    39        205
    40         38
    41        436
    42         26
    43         41
    44          1
    45          3
    46          1
    50         13
    51         34
    52         17
    53         81
    54         19
    55        458
    56         22
    57          1
    62          4
    63         11
    64          1
    65         39
    66         15
    67        230
    68         36
    69        655
    70         36
    71          1
    77         66
    78         14
    79         63
    80         17
    81         32
    82         49
    83        580
    84         38
    91         30
    92          5
    93         38
    94         15
    95        999
    96        102
    97         18
   105          7
   107          6
   108          0
   109         29
   110         88
   111          7
   120          0
   123        188
   124         16
   137          3
   138        344
   139         31
   140          0
   166        129
   167         13