##TITLE=Library Entry 7291
##JCAMP-DX=Revision 4.10 
##DATA TYPE=MASS SPECTRUM
##SAMPLE DESCRIPTION=Humboldt-Universitat zu Berlin, Department of Chemistry
, Analytical Group
##NAMES=HP
##CAS NAME=9,19-Cycloergost-24(28)-en-3-ol, 4,14-dimethyl-, acetate, (3.beta
.,4.alpha.,5.alpha.)-
##MOLFORM=C32H52O2
##CAS REGISTRY NO=10376-42-8
##MP= -300
##BP= -300
##MW= 468
##$RETENTION INDEX=3378
##$CONDENSED SPECTRUM=NO
##NPOINTS= 257
##XYDATA=(XY..XY) 1 
    14          5
    15         26
    16          6
    17         13
    18         44
    26          7
    27         38
    28         30
    29        111
    30          6
    31          7
    39         50
    40         18
    41        517
    42         48
    43        999
    44         55
    45         23
    51          7
    53         71
    54         22
    55        834
    56         76
    57        165
    58          9
    60          9
    61         11
    65         31
    66         13
    67        339
    68         51
    69        639
    70         47
    71         62
    72          5
    77         90
    78         23
    79        308
    80         45
    81        531
    82         71
    83        221
    84         58
    85         23
    91        314
    92         78
    93        415
    94         97
    95        548
    96         74
    97        127
    98         14
    99          7
   100          7
   103         17
   104         19
   105        400
   106        108
   107        446
   108        185
   109        349
   110         39
   111         41
   112          8
   113         12
   114          6
   115         22
   116         13
   117         99
   118         53
   119        277
   120        165
   121        317
   122        108
   123        209
   124         64
   125         32
   126          6
   127         12
   128         22
   129         46
   130         28
   131        165
   132         69
   133        259
   134        134
   135        227
   136         82
   137         67
   138         10
   139          7
   141         18
   142         15
   143         47
   144         24
   145        169
   146         56
   147        228
   148         97
   149        151
   150         34
   151         23
   152          5
   155         13
   156         10
   157         53
   158         24
   159        152
   160         66
   161        169
   162         48
   163        141
   164         22
   165         10
   167          4
   169         10
   170          5
   171         44
   172         22
   173        145
   174         63
   175        145
   176         37
   177         42
   178          7
   179          5
   183          7
   184          5
   185         39
   186         22
   187         85
   188         82
   189         96
   190         66
   191         28
   192          5
   197          7
   198          4
   199         31
   200         13
   201         78
   202         23
   203         40
   204         11
   205         22
   206          6
   207          5
   211          8
   212          4
   213         27
   214         13
   215         38
   216         44
   217         35
   218         31
   219         23
   220         26
   221          8
   225          8
   226          3
   227         34
   228         10
   229         21
   230          6
   231          9
   232          7
   233          7
   239          7
   240          4
   241         19
   242          8
   243         13
   244          4
   245         15
   246          4
   253          4
   255          7
   256          5
   257          9
   258          4
   259          3
   260          2
   267          4
   268          2
   269         10
   270          3
   271          4
   272          3
   273          4
   274          1
   275          3
   281         24
   282          7
   283         22
   284          6
   285          9
   286          4
   287          5
   288          3
   295          3
   296          2
   297          3
   298          1
   299          2
   300         14
   301          4
   302          1
   309          8
   310          4
   311          6
   312          4
   313          1
   323          2
   324          4
   325          6
   326          1
   327          1
   328          0
   337          1
   339          0
   341          4
   342          1
   343          4
   344          1
   353          8
   354          2
   355          1
   365          9
   366          5
   367          1
   369          1
   370          2
   371          1
   372          1
   379          1
   380          0
   384          1
   385          3
   386          0
   393         65
   394         21
   395          4
   396          0
   408        115
   409         39
   410          8
   411          1
   422          0
   425          7
   426          3
   427          0
   453          9
   454          3
   455          0
   468         11
   469          4
   470          1