##TITLE=Library Entry 34954
##JCAMP-DX=Revision 4.10 
##DATA TYPE=MASS SPECTRUM
##SAMPLE DESCRIPTION=Japan AIST/NIMC Database- Spectrum MS-NW-4890
##NAMES=HP
##CAS NAME=7-Tetradecene
##MOLFORM=C14H28
##CAS REGISTRY NO=10374-74-0
##MP= -300
##BP= -300
##MW= 196
##$RETENTION INDEX=1369
##$CONDENSED SPECTRUM=NO
##NPOINTS= 95
##XYDATA=(XY..XY) 1 
    14          1
    15          4
    26          7
    27        140
    28         10
    29        268
    30          6
    31          1
    32          2
    36          1
    37          1
    38          2
    39        109
    40         19
    41        547
    42        212
    43        681
    44         22
    45          2
    50          3
    51          8
    52          6
    53         53
    54        176
    55        953
    56        706
    57        504
    58         24
    59          2
    60          1
    63          2
    65         12
    66         13
    67        140
    68        103
    69        999
    70        663
    71        245
    72         13
    73          1
    77          9
    78          3
    79         17
    80          8
    81         70
    82        111
    83        679
    84        359
    85        117
    86          8
    91          6
    92          2
    93          3
    94          2
    95         24
    96         59
    97        393
    98        164
    99         21
   100          1
   105          1
   107          1
   108          1
   109          9
   110         26
   111        156
   112         84
   113         11
   114          2
   115          1
   123          4
   124          9
   125         50
   126         44
   127         11
   128          2
   137          1
   138          5
   139         15
   140         19
   141          6
   151          1
   152          2
   153          7
   154          8
   155          2
   166          1
   167          4
   168         15
   169          3
   194          3
   195          1
   196        164
   197         26
   198          2