##TITLE=Library Entry 39867
##JCAMP-DX=Revision 4.10 
##DATA TYPE=MASS SPECTRUM
##SAMPLE DESCRIPTION=B. Derendyaev, Novosibirsk Institute of Organic Chemist
ry
##NAMES=HP
##CAS NAME=1,1-(Diethylcarbamoyl)succinimide
##MOLFORM=C9H14N2O3
##CAS REGISTRY NO=103744-99-6
##MP= -300
##BP= -300
##MW= 198
##$RETENTION INDEX=0
##$CONDENSED SPECTRUM=NO
##NPOINTS= 22
##XYDATA=(XY..XY) 1 
    41         21
    42        154
    43         31
    44        164
    55        338
    56        484
    57         33
    58        723
    59         23
    70        269
    71        528
    72        999
    73         41
    83         10
    84         10
    98          9
    99         21
   100        152
   126        138
   127         10
   183         12
   198         49