##TITLE=Library Entry 1316
##JCAMP-DX=Revision 4.10 
##DATA TYPE=MASS SPECTRUM
##SAMPLE DESCRIPTION=N.W. Davies, Centr. Sci. Lab., Univ. Tasmania, Hobart,
 Australia
##NAMES=HP
##CAS NAME=Propanamide, N-[3-(difluoromethyl)-2-oxo-3-piperidinyl]-2,2,3,3,3
-pentafluoro-
##MOLFORM=C9H9F7N2O2
##CAS REGISTRY NO=103813-66-7
##MP= -300
##BP= -300
##MW= 310
##$RETENTION INDEX=0
##$CONDENSED SPECTRUM=NO
##NPOINTS= 166
##XYDATA=(XY..XY) 1 
    25         16
    26         49
    27        203
    28          2
    29          1
    30        999
    31         72
    32          1
    33          1
    34          3
    35          1
    36          1
    37          1
    38         34
    39        328
    40         71
    41        821
    42        272
    43        941
    44        339
    45          1
    46         61
    47         63
    48         17
    49         16
    50         13
    51        415
    52         65
    53        172
    54        219
    55         94
    56        502
    57         79
    58        223
    59        337
    60         46
    61         14
    63         16
    64         59
    65         75
    66         50
    67         86
    68        442
    69        470
    70         51
    71        173
    72         91
    73        107
    74         55
    75          1
    76        112
    77        205
    78        365
    79         24
    80        181
    81         55
    82        354
    83        169
    84        181
    85        132
    86        144
    87         27
    88         33
    89         30
    90         38
    91         74
    92         17
    93          1
    94         68
    95         51
    96         82
    97         24
    98         98
    99        122
   100        935
   101         51
   102        148
   103         33
   104         24
   105        144
   106         16
   107         23
   108         82
   109         57
   110         17
   111         25
   112         37
   113          1
   114         33
   115         26
   116         14
   117         21
   118        171
   119        749
   120        950
   121         89
   122         27
   123         30
   124         14
   126         33
   127         36
   128        251
   129         44
   130         27
   131         13
   134         34
   135         16
   139         30
   140         27
   141         18
   143         20
   145         47
   146        100
   147        827
   148        109
   149         12
   151         31
   154         14
   157         16
   163         98
   164         40
   170         17
   171         77
   172         29
   175         14
   184         13
   188         41
   191        217
   192         34
   200         27
   201         54
   202         45
   204         12
   207         24
   208         20
   213         27
   214        672
   215        115
   216         34
   219         25
   220        131
   221        239
   222         38
   226         27
   227        260
   228         68
   230         12
   231         58
   232         14
   234         16
   238         25
   239        255
   240         23
   241        391
   242        120
   243         26
   252         12
   259        254
   260         30
   269         21
   270        689
   271         63
   290         16
   291         29
   310        283
   311         49