##TITLE=Library Entry 58999
##JCAMP-DX=Revision 4.10 
##DATA TYPE=MASS SPECTRUM
##SAMPLE DESCRIPTION=N. DE KIMPE, LAB. ORG. CHEM., UNIV. GENT, BELGIUM
##NAMES=HP
##CAS NAME=Methyl N-cyclohexyl-3-phenylpropanimidate
##MOLFORM=C16H23NO
##CAS REGISTRY NO=103818-66-2
##MP= -300
##BP= -300
##MW= 245
##$RETENTION INDEX=0
##$CONDENSED SPECTRUM=NO
##NPOINTS= 29
##XYDATA=(XY..XY) 1 
    39        400
    41        940
    42        240
    43        200
    44        120
    51        180
    53        140
    54        220
    55        660
    56        220
    57        120
    58        200
    65        220
    67        180
    70        120
    77        180
    78         70
    79         90
    81        110
    82         70
    83        230
    91        999
    98        860
   104         90
   105        180
   117         50
   131         70
   154         70
   245         50