##TITLE=Library Entry 82011
##JCAMP-DX=Revision 4.10 
##DATA TYPE=MASS SPECTRUM
##SAMPLE DESCRIPTION=Chemical Concepts
##NAMES=HP
##CAS NAME=4-Imidazolidineacetic acid, 3-benzoyl-2-(1,1-dimethylethyl)-1-met
hyl-5-oxo-, (2S-trans)-
##MOLFORM=C17H22N2O4
##CAS REGISTRY NO=103825-46-3
##MP= -300
##BP= -300
##MW= 318
##$RETENTION INDEX=0
##$CONDENSED SPECTRUM=NO
##NPOINTS= 57
##XYDATA=(XY..XY) 1 
    27         11
    28         11
    29         21
    30          3
    39          8
    40          2
    41         31
    42         80
    43          7
    44          2
    45          2
    50          9
    51         46
    52          4
    53          2
    54         14
    55         11
    56          4
    57         28
    58          2
    68          4
    69          5
    70          4
    71          6
    74          3
    75          3
    76         16
    77        284
    78         28
    82          3
    83          3
    84          8
    85          2
    88          2
    91          2
    97          5
    98          2
    99          2
   100          2
   104          8
   105        999
   106         93
   107          6
   109         16
   111         46
   112         10
   113          2
   122          2
   138          3
   139        105
   140          8
   181          8
   215          2
   261        293
   262         55
   263          6
   275          3