##TITLE=Library Entry 6930
##JCAMP-DX=Revision 4.10 
##DATA TYPE=MASS SPECTRUM
##SAMPLE DESCRIPTION=Chemical Concepts
##NAMES=HP
##CAS NAME=5-Acetyl-3-amino-4,7-dihydro-6-methyl-4-(2-nitrophenyl)thieno[2,3
-b]pyridine-2-carbonitrile
##MOLFORM=C17H14N4O3S
##CAS REGISTRY NO=103886-34-6
##MP= -300
##BP= -300
##MW= 354
##$RETENTION INDEX=0
##$CONDENSED SPECTRUM=NO
##NPOINTS= 227
##XYDATA=(XY..XY) 1 
    33         24
    34          8
    39        159
    41        120
    43        999
    44         30
    45        244
    46         50
    48          9
    50         62
    51         49
    52         22
    53         14
    55         35
    56         26
    57         38
    58         14
    59          9
    60         14
    61          9
    62         22
    63         49
    64         23
    65         19
    66          9
    67         16
    69         39
    70         26
    71         17
    72         16
    73          9
    74         31
    75         41
    76         38
    77         38
    78         20
    79          6
    81          8
    82         15
    83         16
    84         13
    85         12
    86         21
    87         26
    88         23
    89         19
    90         20
    91         14
    92         11
    93          9
    94          8
    95          7
    96          9
    97          9
    98          9
    99         19
   100         16
   101         15
   102         16
   103         10
   104         13
   105         10
   106          8
   107          6
   109          9
   111         22
   112         20
   113         15
   114         18
   115         19
   116         10
   117         11
   118          9
   119          9
   120          9
   122         15
   123         13
   124          7
   125         15
   126         29
   127         30
   128         14
   129         10
   130          8
   131         10
   133          6
   134          9
   136          7
   137         13
   138         27
   139         27
   140         40
   141         10
   142          9
   144         10
   145          8
   146          6
   149         26
   150          9
   151         19
   152         31
   153         20
   154         11
   155          7
   156          5
   157          6
   158          5
   159          5
   161          6
   162          7
   164         59
   165         20
   166         16
   167          9
   168          9
   169          9
   170         11
   171         11
   172          6
   175          5
   177         62
   178         19
   179         26
   180         11
   181          9
   182          7
   183          8
   184          7
   185          8
   186          4
   189          9
   190         13
   191         24
   192         44
   193         27
   194         16
   195          9
   196         16
   197          9
   198          7
   199          6
   200          5
   203          8
   205         60
   206         18
   207         13
   208         10
   209          8
   210          9
   211         11
   212         13
   213          9
   217          7
   218          8
   219          9
   220          9
   221         22
   222         10
   223         17
   224         16
   225         14
   226         10
   227          5
   230          9
   231         11
   232         45
   233         15
   234          8
   235         14
   236         13
   238        205
   239         39
   240         18
   241         12
   248          9
   249          8
   250         16
   251         16
   252         37
   254        160
   255         36
   256         11
   262          8
   263         15
   264         42
   265         28
   266         17
   267         40
   268          9
   269          8
   270          8
   271          8
   272         12
   273          5
   274          5
   275          6
   276         14
   277         44
   278         75
   279         27
   280         42
   281         16
   282          7
   289         11
   290          7
   291         10
   292         28
   293         17
   294         47
   295         62
   296         17
   297         31
   298          6
   303         74
   304         37
   305         12
   306         25
   307          9
   310          7
   311         11
   312          5
   320          6
   337        117
   338         20
   339          8
   354         24
   355          4