##TITLE=Library Entry 33929
##JCAMP-DX=Revision 4.10 
##DATA TYPE=MASS SPECTRUM
##SAMPLE DESCRIPTION=Tox21 Consortium/NIST Mass Spectrometry Data Center, 20
12
##NAMES=HP
##CAS NAME=8-Bromotheophylline
##MOLFORM=C7H7BrN4O2
##CAS REGISTRY NO=10381-75-6
##MP= -300
##BP= -300
##MW= 258
##$RETENTION INDEX=0
##$CONDENSED SPECTRUM=NO
##NPOINTS= 128
##XYDATA=(XY..XY) 1 
    14          3
    15        151
    16          3
    25          1
    26          7
    27         43
    28        171
    29         37
    30         13
    31         13
    34          1
    38         83
    39         68
    40        232
    41        255
    42        254
    43         20
    44          5
    45          3
    50          3
    51         17
    52         64
    53        575
    54        105
    55         50
    56        170
    57         33
    58        134
    59          2
    64         35
    65         42
    66        134
    67        645
    68        999
    69         92
    70         71
    71          2
    73          3
    77          7
    78         35
    79         39
    80         47
    81         41
    82         28
    83         10
    91         21
    92         13
    93        100
    94        776
    95        148
    96         17
    97          6
   105         10
   106         69
   107         23
   108         76
   109          6
   110          3
   111         20
   117         20
   118          9
   119         23
   120         50
   121         13
   122        149
   123         23
   124         10
   129         17
   130         15
   131         20
   132          4
   133         23
   134         10
   135         13
   138         10
   143          8
   144          4
   145         19
   146         70
   147         10
   148         60
   149         11
   150          4
   151         12
   152         82
   153          9
   159         14
   160          7
   161         16
   162          4
   170          1
   171          5
   172         53
   173        647
   174        168
   175        643
   176        120
   177         15
   179          8
   180          6
   186         12
   187          3
   188         14
   189          4
   190          5
   199          4
   200         56
   201        220
   202         81
   203        202
   204         42
   205          9
   213          8
   214         14
   215         12
   216         13
   217          4
   228          5
   229         81
   230         14
   231         74
   232          7
   257         14
   258        970
   259         92
   260        967
   261         81
   262         12