##TITLE=Library Entry 81452
##JCAMP-DX=Revision 4.10 
##DATA TYPE=MASS SPECTRUM
##SAMPLE DESCRIPTION=Chemical Concepts
##NAMES=HP
##CAS NAME=4-Imidazolidinepropanoic acid, 3-benzoyl-2-(1,1-dimethylethyl)-1,
4-dimethyl-5-oxo-, (2S-cis)-
##MOLFORM=C19H26N2O4
##CAS REGISTRY NO=103825-55-4
##MP= -300
##BP= -300
##MW= 346
##$RETENTION INDEX=0
##$CONDENSED SPECTRUM=NO
##NPOINTS= 169
##XYDATA=(XY..XY) 1 
    27         16
    28         44
    29         43
    30          4
    31          2
    39         19
    40          5
    41         81
    42        105
    43         71
    44         17
    45         15
    49          6
    51         32
    52          4
    53         12
    54         11
    55         65
    56         27
    57        102
    58          9
    59          5
    60         22
    61          5
    65          6
    66          2
    67         20
    68         18
    69         81
    70         26
    71         43
    72          4
    73         21
    74          6
    75          4
    76         18
    77        268
    78         25
    79          8
    80          5
    81         40
    82         22
    83         43
    84         21
    85         29
    86          4
    87          5
    91          8
    92          3
    93         12
    94          6
    95         21
    96         16
    97         34
    98         84
    99         16
   100          7
   101          4
   102          2
   103          3
   104         14
   105        999
   106         80
   107         11
   108          3
   109         15
   110          8
   111         22
   112         14
   113         17
   114          3
   115         13
   116          4
   117          2
   118          2
   119          9
   120          2
   121         11
   122          6
   123         12
   124          6
   125         11
   126          4
   127          7
   128          4
   129         10
   130          2
   133          4
   134          3
   135          6
   136          7
   137         13
   138          6
   139         49
   140          7
   141         28
   142         11
   143          5
   144          5
   145          2
   146          2
   147          3
   148          2
   149        100
   150         10
   151          5
   152          6
   153          9
   154          4
   155         10
   156          3
   157          3
   158          6
   159          2
   161          5
   162          2
   163          5
   165          6
   166          3
   167        277
   168         52
   169          9
   170          2
   171          4
   175          2
   176          2
   177          3
   178          2
   179          3
   180          2
   181         18
   182          3
   183          3
   184          2
   185          4
   186          2
   189          2
   190          2
   191          5
   192          2
   193          2
   194          2
   195          2
   196          2
   198          2
   199          2
   203          2
   205          6
   209          4
   213          6
   215          2
   216          2
   217          4
   218          2
   219          2
   223          5
   225          2
   227          4
   228          2
   243          5
   254          2
   256          3
   271          2
   273          2
   289        201
   290         33
   291          4
   303          4
   331          3