##TITLE=Library Entry 11302
##JCAMP-DX=Revision 4.10 
##DATA TYPE=MASS SPECTRUM
##SAMPLE DESCRIPTION=H-F. GRUTZMACHER UNIVERSITY OF HAMBURG, W. GERMANY
##NAMES=HP
##CAS NAME=.alpha.-D-Galactopyranose, 2-(acetylamino)-2-deoxy-, 1,3,4,6-tetr
aacetate
##MOLFORM=C16H23NO10
##CAS REGISTRY NO=10385-50-9
##MP= -300
##BP= -300
##MW= 389
##$RETENTION INDEX=0
##$CONDENSED SPECTRUM=NO
##NPOINTS= 132
##XYDATA=(XY..XY) 1 
    40          1
    41         12
    42         20
    43        999
    44         30
    45         11
    46          1
    53          3
    54         29
    55          7
    56         10
    57          9
    58         12
    59         45
    60         52
    61         10
    68         10
    69         16
    70         15
    71         11
    72         66
    73         12
    74          2
    75          0
    80          9
    81         12
    82          7
    83         10
    84         71
    85         27
    86          8
    87          4
    88         10
    89          0
    95          3
    96        116
    97         42
    98         28
    99          5
   100          9
   101         35
   102         20
   103          5
   108         19
   109         10
   110          6
   111          4
   112          9
   113          7
   114        298
   115         31
   116          5
   117          0
   122          9
   123          2
   124          7
   125          8
   126         52
   127          8
   128          3
   129          3
   130          5
   131          2
   132          1
   138         38
   139        100
   140         31
   141          4
   142         17
   143          6
   144          8
   145          3
   150         29
   153          0
   154          4
   155          4
   156        149
   157         21
   158          3
   159          0
   160          3
   168         37
   169          6
   170          1
   171          0
   172          2
   180          6
   181         51
   182          9
   183          1
   184         11
   185          3
   186          4
   191          0
   198         34
   199         52
   200          6
   201          1
   202          7
   203          2
   210         10
   213          0
   214          0
   226          6
   227          5
   228          8
   229          1
   230          0
   232          0
   241        145
   242         19
   243          2
   244         15
   245          3
   246          1
   256          2
   259          1
   262          0
   270          2
   271          3
   283          4
   284          3
   286         10
   287         22
   288          5
   304          3
   318          0
   329         12
   330         29
   331          4
   346         20
   389          3