##TITLE=Library Entry 27880
##JCAMP-DX=Revision 4.10 
##DATA TYPE=MASS SPECTRUM
##SAMPLE DESCRIPTION=Drug Lab
##NAMES=HP
##CAS NAME=Clortermine
##MOLFORM=C10H14ClN
##CAS REGISTRY NO=10389-73-8
##MP= -300
##BP= -300
##MW= 183
##$RETENTION INDEX=1305
##$CONDENSED SPECTRUM=NO
##NPOINTS= 73
##XYDATA=(XY..XY) 1 
    40          5
    41         59
    42         89
    43         16
    44          1
    49          1
    50          9
    51         16
    52          4
    53          3
    54          3
    55          1
    56          9
    58        999
    59         33
    61          3
    62         11
    63         42
    64         10
    65         21
    67          5
    73          9
    74          5
    75         14
    76          3
    77         14
    78          2
    79          1
    84          3
    85          3
    86          4
    87          4
    89         79
    90         20
    91         26
    92          3
    93          1
    97          1
    99         23
   100          2
   101          9
   102          3
   103          5
   104          2
   105          1
   106          2
   112          1
   113          1
   114          2
   115         25
   116         14
   117         15
   118          5
   123          1
   125         83
   126          7
   127         30
   128          6
   129          2
   130          9
   131          7
   132         15
   133          3
   138          1
   139          1
   149          1
   151          2
   153          2
   166          1
   168         65
   169          6
   170         19
   171          1