##TITLE=Library Entry 89728
##JCAMP-DX=Revision 4.10 
##DATA TYPE=MASS SPECTRUM
##SAMPLE DESCRIPTION=Chemical Concepts
##NAMES=HP
##CAS NAME=3-Hydroxyisoxazole-5-(N-isopropyl)carboxamide
##MOLFORM=C7H10N2O3
##CAS REGISTRY NO=103871-68-7
##MP= -300
##BP= -300
##MW= 170
##$RETENTION INDEX=0
##$CONDENSED SPECTRUM=NO
##NPOINTS= 86
##XYDATA=(XY..XY) 1 
    25          1
    26         13
    27        154
    28        234
    29         93
    30         32
    31          5
    32          0
    35          5
    36          5
    37          2
    38          8
    39         77
    40         37
    41        248
    42        203
    43        414
    44        451
    45         28
    46          7
    47         12
    48          5
    49          4
    50          1
    51          1
    52          6
    53         49
    54         16
    55         25
    56        147
    57         37
    58         76
    59         45
    60          2
    67         17
    68         29
    69         39
    70         31
    71          7
    72          3
    73          0
    78         13
    80          1
    81         10
    82          7
    83         74
    84         41
    85         46
    86         62
    87          8
    91          1
    95          0
    96          7
    97          3
    98          3
    99          4
   100          4
   110          4
   111         11
   112        999
   113         51
   114         10
   115          0
   122          0
   125          0
   126          4
   127         19
   128         32
   129         39
   130          1
   138          9
   139          2
   140          4
   141         33
   142          7
   143         11
   144          0
   153          0
   154          4
   155        879
   156         67
   157          7
   169          9
   170        214
   171         21
   172          2