##TITLE=Library Entry 82092
##JCAMP-DX=Revision 4.10 
##DATA TYPE=MASS SPECTRUM
##SAMPLE DESCRIPTION=Chemical Concepts
##NAMES=HP
##CAS NAME=4-Imidazolidinepropanoic acid, 3-benzoyl-2-(1,1-dimethylethyl)-1-
methyl-5-oxo-, methyl ester, (2S-trans)-
##MOLFORM=C19H26N2O4
##CAS REGISTRY NO=103825-43-0
##MP= -300
##BP= -300
##MW= 346
##$RETENTION INDEX=0
##$CONDENSED SPECTRUM=NO
##NPOINTS= 76
##XYDATA=(XY..XY) 1 
    27          8
    28          7
    29         23
    30          3
    39         10
    40          2
    41         40
    42         72
    43         13
    44          2
    50          5
    51         30
    52          3
    53          2
    54          5
    55         14
    56         11
    57         35
    58          2
    59          5
    60          2
    67          3
    68          7
    69         11
    70          4
    71          7
    75          2
    76         12
    77        272
    78         22
    79          2
    81          4
    82          5
    83          5
    84         15
    85          4
    91          5
    95          3
    96          2
    97          5
    98          9
    99          7
   100          3
   104          7
   105        999
   106         96
   107          6
   109          2
   110          6
   111         14
   118          3
   124          7
   125          4
   136          1
   152          9
   153          4
   155          1
   161          2
   163          2
   166          8
   167          2
   174          1
   188          2
   202          4
   203          2
   220          2
   230          1
   257          7
   275          1
   288         11
   289        425
   290         85
   291         11
   315         12
   316          3
   331          3