##TITLE=Library Entry 17018
##JCAMP-DX=Revision 4.10 
##DATA TYPE=MASS SPECTRUM
##SAMPLE DESCRIPTION=NIST Mass Spectrometry Data Center
##NAMES=HP
##CAS NAME=Heptan-2-yl formate
##MOLFORM=C8H16O2
##CAS REGISTRY NO=103884-53-3
##MP= -300
##BP= -300
##MW= 144
##$RETENTION INDEX=969
##$CONDENSED SPECTRUM=NO
##NPOINTS= 46
##XYDATA=(XY..XY) 1 
    18          4
    26          5
    27         65
    28         14
    29        123
    30          5
    31         17
    38          5
    39        110
    40         19
    41        417
    42        143
    43        310
    44         74
    45        999
    46         26
    47         11
    53         24
    54         49
    55        530
    56        907
    57        380
    58         32
    63          3
    65          3
    66          2
    67         11
    68         57
    69        456
    70        639
    72         15
    73        196
    74         10
    79          5
    81          4
    82          3
    83        215
    84         16
    87          2
    88          5
    93          3
    98        326
    99         57
   100          4
   101         21
   115          5