##TITLE=Library Entry 24591
##JCAMP-DX=Revision 4.10 
##DATA TYPE=MASS SPECTRUM
##SAMPLE DESCRIPTION=Chemical Concepts
##NAMES=HP
##CAS NAME=(1RS)-propanol, 1-cyano-(2S)-(tert.butyloxycarbonyl)amino-
##MOLFORM=C9H16N2O3
##CAS REGISTRY NO=103865-01-6
##MP= -300
##BP= -300
##MW= 200
##$RETENTION INDEX=0
##$CONDENSED SPECTRUM=NO
##NPOINTS= 90
##XYDATA=(XY..XY) 1 
    25          1
    26         45
    27        303
    28        122
    29         45
    30         13
    31         96
    36          1
    37          7
    38         12
    39        121
    40         45
    41        493
    42        159
    43        119
    44        853
    45         34
    46          1
    48          0
    49          3
    50         12
    51          9
    52          5
    53         15
    54         14
    55         68
    56        162
    57        999
    58         48
    59        630
    60         23
    61          2
    62          1
    64          1
    65          0
    66          1
    67         18
    68          1
    69          1
    70        107
    71         11
    72          1
    73          4
    74         22
    78          0
    81          1
    82          1
    83          4
    87          2
    88        188
    89         31
    90          3
    91          1
    96          2
    98          9
    99         18
   100          6
   101          0
   104          0
   108          0
   109          1
   110          0
   111          4
   113          0
   117          2
   118          6
   119          0
   121          1
   122          0
   124          0
   126         11
   127          2
   128          0
   135          0
   139          0
   144        119
   145         12
   146          0
   149         12
   150          1
   151          0
   155          0
   158          1
   163          0
   167          1
   183          0
   185          0
   186          0
   191          0
   201          0