##TITLE=Library Entry 4066
##JCAMP-DX=Revision 4.10 
##DATA TYPE=MASS SPECTRUM
##SAMPLE DESCRIPTION=Chemical Concepts
##NAMES=HP
##CAS NAME=Phosphine sulfide, dichloromenthyl-
##MOLFORM=C10H19Cl2PS
##CAS REGISTRY NO=103953-58-8
##MP= -300
##BP= -300
##MW= 272
##$RETENTION INDEX=0
##$CONDENSED SPECTRUM=NO
##NPOINTS= 150
##XYDATA=(XY..XY) 1 
    24          1
    26          6
    27        408
    28         13
    29        358
    30          3
    31          0
    33          0
    34          1
    35          2
    36          8
    37          1
    38          3
    39        260
    40         22
    41        999
    42         51
    43        373
    44         12
    45         15
    46          1
    47          3
    49          1
    50          2
    51         30
    52         18
    53        174
    54         97
    55        714
    56         59
    57        147
    58          8
    59          8
    60          2
    61          1
    62          0
    63         38
    64          6
    65         54
    66         22
    67        348
    68        105
    69        296
    70         26
    71         14
    72          1
    73          3
    74          1
    75          7
    76          1
    77         76
    78         12
    79        118
    80         67
    81        510
    82        232
    83        265
    84         17
    85          7
    86          2
    87          0
    89          3
    90          0
    91         34
    92          5
    93         47
    94        115
    95        790
    96        178
    97         53
    98          8
    99          6
   100          2
   101         13
   102          1
   103          7
   104          0
   105          4
   106          0
   107          7
   108          2
   109         62
   110         22
   111          2
   112          0
   113          1
   115          1
   117          0
   119          0
   121          2
   122          1
   123        184
   124         23
   125          5
   126          0
   127          1
   128          0
   129          0
   131          0
   133         10
   134          3
   135          7
   136          3
   137         33
   138        974
   139        110
   140          6
   145          0
   147          2
   148          2
   149          0
   150          1
   151          0
   153          0
   155          0
   157          0
   159          0
   160          0
   161         13
   163          9
   165          1
   167          0
   169          0
   171          0
   181          0
   183          3
   185          2
   187          0
   189          1
   192          0
   197          0
   201          0
   203          1
   224          0
   229          1
   231          1
   237          7
   238          1
   239          5
   240          0
   241          2
   243          0
   256          0
   257          2
   259          1
   272         42
   273          4
   274         32
   275          3
   276          6