##TITLE=Library Entry 15426
##JCAMP-DX=Revision 4.10 
##DATA TYPE=MASS SPECTRUM
##SAMPLE DESCRIPTION=Div. of Experiment Therapeutics WRAIR, WRAMC, Washingto
n DC 20307
##NAMES=HP
##CAS NAME=6-Amino-3-.beta.-d-ribofuranosyl-s-triazolo[3,4-f]-as-triazin-8-o
ne
##MOLFORM=C9H12N6O5
##CAS REGISTRY NO=103959-83-7
##MP= -300
##BP= -300
##MW= 284
##$RETENTION INDEX=0
##$CONDENSED SPECTRUM=NO
##NPOINTS= 209
##XYDATA=(XY..XY) 1 
    42        503
    43        729
    44        999
    45         79
    46         15
    47         13
    48          2
    49         18
    50         24
    51         29
    52         54
    53         69
    54        158
    55        120
    56         53
    57        108
    58         45
    59         21
    60         69
    61         36
    62          3
    63          4
    64         16
    65          7
    66         14
    67         26
    68         89
    69        114
    70        148
    71         35
    72         12
    73         58
    74         12
    75          3
    76          6
    77          7
    78          6
    79         10
    80         15
    81         16
    82         49
    83         65
    84         98
    85         35
    86         44
    87          4
    88          2
    89          1
    90          1
    91          6
    92          3
    93         14
    94         35
    95         33
    96         82
    97         30
    98        245
    99         62
   100          9
   101          5
   102          4
   103          2
   104          2
   105          4
   106          6
   107          5
   108         16
   109         24
   110         81
   111         50
   112        236
   113         40
   114          8
   115          1
   116          0
   117          0
   118          1
   119          3
   120          7
   121          7
   122         15
   123         13
   124         58
   125         28
   126         53
   127         47
   128         11
   129          1
   131          1
   132          1
   133          3
   134          7
   135         32
   136         31
   137         11
   138         35
   139          7
   140          6
   141         14
   142          4
   143          3
   144          0
   145          0
   146          2
   147          3
   148          4
   149          6
   150         17
   151         22
   152         24
   153        103
   154         18
   155         17
   156          8
   157          0
   158          0
   159          0
   160          1
   161          2
   162         12
   163          6
   164          9
   165         28
   166         65
   167          9
   168          1
   169         14
   170         18
   171          4
   172          1
   174          2
   175          1
   176          2
   177          4
   178          5
   179         19
   180          9
   181        404
   182         60
   183          8
   184          2
   185          2
   186          0
   187          1
   188          0
   189          2
   190          2
   191          3
   192          4
   193         50
   194         26
   195        720
   196         53
   197          2
   198          0
   199          2
   200          0
   201         10
   202          4
   203          5
   204          1
   205          3
   206          1
   207         22
   208          3
   209          5
   210          1
   211          6
   212          0
   213          0
   216          0
   217          2
   218         37
   219         18
   220          2
   221          3
   222          0
   223          1
   224          2
   225          7
   226          0
   227          0
   228          0
   229          0
   230          0
   231          4
   232          3
   233          4
   234          0
   235         11
   236          0
   237          4
   238          0
   241          0
   242          0
   245          0
   247          3
   248          7
   249          7
   250          0
   253          7
   254          1
   255          0
   266          0
   267          2
   268          0
   283          0
   284          3
   285          0