##TITLE=Library Entry 87621
##JCAMP-DX=Revision 4.10 
##DATA TYPE=MASS SPECTRUM
##SAMPLE DESCRIPTION=Japan AIST/NIMC Database- Spectrum MS-NW-4250
##NAMES=HP
##CAS NAME=Hydroquinone bis(2-hydroxyethyl)ether
##MOLFORM=C10H14O4
##CAS REGISTRY NO=104-38-1
##MP= -300
##BP= -300
##MW= 198
##$RETENTION INDEX=0
##$CONDENSED SPECTRUM=NO
##NPOINTS= 111
##XYDATA=(XY..XY) 1 
    14          5
    15         14
    16          4
    17          7
    18         24
    26         14
    27         67
    28         22
    29         37
    30          3
    31         25
    32         10
    37          2
    38         10
    39         41
    40          4
    41          5
    42          6
    43         42
    44         11
    45        263
    46          7
    49          1
    50         18
    51         16
    52          9
    53         22
    54         13
    55         16
    56          2
    57          2
    58          1
    59          1
    61          3
    62          9
    63         26
    64         29
    65         91
    66         13
    67          6
    68          2
    69          2
    71          1
    73          3
    74          5
    75          8
    76         18
    77         18
    78          8
    79          6
    80          3
    81         58
    82         27
    83          2
    86          1
    87          1
    88          1
    89          4
    90          1
    91          9
    92          7
    93         42
    94         15
    95         20
    96          1
    97          1
   102          1
   103          2
   104          1
   105          4
   106          3
   107          8
   108          4
   109        123
   110        999
   111         72
   112          7
   115          2
   116          1
   119          2
   120          1
   121          4
   122          2
   123         32
   124          3
   125          2
   134          1
   135          5
   136          5
   137          9
   138          2
   143          1
   144          3
   149          2
   151          2
   152          7
   153         11
   154        142
   155         14
   156          2
   162          1
   165          1
   166          2
   167         13
   168          2
   179          6
   180          1
   196          6
   198        294
   199         34
   200          4