##TITLE=Library Entry 65206
##JCAMP-DX=Revision 4.10 
##DATA TYPE=MASS SPECTRUM
##SAMPLE DESCRIPTION=Japan AIST/NIMC Database- Spectrum MS-NW-1016
##NAMES=HP
##CAS NAME=Benzene, decyl-
##MOLFORM=C16H26
##CAS REGISTRY NO=104-72-3
##MP= -300
##BP= -300
##MW= 218
##$RETENTION INDEX=1675
##$CONDENSED SPECTRUM=NO
##NPOINTS= 97
##XYDATA=(XY..XY) 1 
    26          1
    27         34
    28          3
    29         59
    30          1
    38          1
    39         31
    40          3
    41         99
    42         18
    43        158
    44          5
    50          3
    51         12
    52          4
    53          8
    54          4
    55         46
    56         16
    57         73
    58          3
    62          1
    63          5
    64          2
    65         38
    66          3
    67          7
    68          3
    69         13
    70         11
    71         48
    72          3
    74          3
    75          1
    76          1
    77         26
    78         42
    79         24
    80          7
    81          3
    82         16
    83         24
    84          7
    85         24
    86          2
    87          2
    89          5
    90          4
    91        635
    92        999
    93         77
    94          8
    95          2
    96          2
    97          6
    98          3
   101          1
   102          2
   103         11
   104         39
   105         87
   106         18
   107          9
   108          1
   111          2
   112          1
   115          7
   116          2
   117         16
   118          7
   119         24
   120         15
   121         13
   122          2
   124          1
   126          2
   128          1
   129          1
   131          2
   132          2
   133         65
   134         19
   135          2
   147          9
   148          3
   152          1
   161          4
   162          1
   164          2
   175          5
   176          1
   189          1
   190          1
   216          1
   218        190
   219         32
   220          3