##TITLE=Library Entry 109659
##JCAMP-DX=Revision 4.10 
##DATA TYPE=MASS SPECTRUM
##SAMPLE DESCRIPTION=Japan AIST/NIMC Database- Spectrum MS-NW-4806
##NAMES=HP
##CAS NAME=Benzene, 1-chloro-4-(chloromethyl)-
##MOLFORM=C7H6Cl2
##CAS REGISTRY NO=104-83-6
##MP= -300
##BP= -300
##MW= 160
##$RETENTION INDEX=1166
##$CONDENSED SPECTRUM=NO
##NPOINTS= 62
##XYDATA=(XY..XY) 1 
    26          3
    27          4
    28          2
    35          4
    36         10
    37          9
    38         15
    39         42
    40          4
    41          1
    43         15
    44         33
    45          4
    47          2
    48          2
    49          8
    50         26
    51         23
    52          3
    60          3
    61         14
    62         60
    63         78
    64         14
    65          9
    72          3
    73         23
    74          7
    75         14
    76          2
    77          2
    79          1
    80          2
    81          1
    84          3
    85          7
    86          8
    87          8
    88          4
    89        137
    90         45
    91          6
    97          6
    99         43
   100          3
   101         13
   102          1
   123          9
   124          5
   125        999
   126         78
   127        315
   128         25
   133          2
   135          1
   159         16
   160        192
   161         26
   162        124
   163         10
   164         20
   165          2