##TITLE=Library Entry 81173
##JCAMP-DX=Revision 4.10 
##DATA TYPE=MASS SPECTRUM
##SAMPLE DESCRIPTION=Exported from NIST MS Search
##NAMES=HP
##CAS NAME=Benzene, 1-(chloromethyl)-4-methyl-
##MOLFORM=C8H9Cl
##CAS REGISTRY NO=104-82-5
##MP= -300
##BP= -300
##MW= 140
##$RETENTION INDEX=1108
##$CONDENSED SPECTRUM=NO
##NPOINTS= 78
##XYDATA=(XY..XY) 1 
    15          1
    26          3
    27         29
    28          2
    29          1
    35          1
    36          1
    37          4
    38         12
    39         46
    40          5
    41          5
    43          2
    44          2
    49          5
    50         36
    51        129
    52         27
    53         15
    54          1
    55          1
    57          1
    58          1
    60          1
    61          6
    62         15
    63         36
    64          8
    65         19
    66          3
    68          3
    69         40
    70         13
    73          6
    74         12
    75         12
    76         10
    77        122
    78         42
    79         98
    80          6
    81          1
    84          1
    85          2
    86          3
    87          4
    88          1
    89         16
    90          5
    91         32
    92          4
    97          1
    98          2
    99          3
   101          4
   102         13
   103         97
   104         43
   105        999
   106         91
   107          4
   111          1
   112          1
   115          2
   117          5
   118          7
   119          5
   120          3
   125         26
   126          2
   127          9
   128          1
   138          4
   139         20
   140        254
   141         30
   142         76
   143          7