##TITLE=Library Entry 89360
##JCAMP-DX=Revision 4.10 
##DATA TYPE=MASS SPECTRUM
##SAMPLE DESCRIPTION=RADIAN CORP
##NAMES=HP
##CAS NAME=Piperidine, 5-ethyl-2-methyl-
##MOLFORM=C8H17N
##CAS REGISTRY NO=104-89-2
##MP= -300
##BP= -300
##MW= 127
##$RETENTION INDEX=0
##$CONDENSED SPECTRUM=NO
##NPOINTS= 61
##XYDATA=(XY..XY) 1 
    15          5
    18          9
    26          4
    27         68
    28        115
    29         85
    30        157
    31          3
    32         11
    38          3
    39         82
    40         17
    41        188
    42        123
    43         67
    44        234
    45          7
    47          1
    50          3
    51          9
    52          6
    53         34
    54         34
    55        148
    56        349
    57        169
    58        137
    59          5
    63          1
    65          7
    66          2
    67         30
    68         29
    69         58
    70        138
    71         36
    72          9
    77          5
    78          1
    79          8
    80         13
    81         17
    82         39
    83         14
    84        137
    85         10
    91          1
    93          4
    94          6
    95         24
    96         12
    97          4
    98        152
    99         13
   110          4
   112        999
   113         82
   114          3
   126         60
   127         70
   128          8