##TITLE=Library Entry 17450
##JCAMP-DX=Revision 4.10 
##DATA TYPE=MASS SPECTRUM
##SAMPLE DESCRIPTION=Exported from NIST MS Search
##NAMES=HP
##CAS NAME=Ethanol, 2-(2-phenoxyethoxy)-
##MOLFORM=C10H14O3
##CAS REGISTRY NO=104-68-7
##MP= -300
##BP= -300
##MW= 182
##$RETENTION INDEX=2072
##$CONDENSED SPECTRUM=NO
##NPOINTS= 82
##XYDATA=(XY..XY) 1 
    15         10
    17          4
    18         23
    19         22
    26          3
    27         42
    28         86
    29         26
    30          3
    31         35
    32         20
    37          2
    38         11
    39         70
    40         10
    41          6
    42          4
    43         40
    44         77
    45        999
    46         23
    47          2
    50         18
    51         81
    52          8
    53          5
    55         10
    57          5
    58          8
    59         24
    60          2
    61          5
    62          5
    63         18
    64         10
    65        110
    66         41
    67          3
    70          3
    71          4
    73         16
    74          7
    75         25
    76          9
    77        321
    78         39
    79         30
    80          2
    86          6
    87          4
    88         57
    89         94
    90          5
    91         31
    92          7
    93         45
    94        551
    95         64
    96          5
   103         17
   104          2
   105          2
   107         42
   108         20
   109          2
   112          4
   119          7
   120         39
   121        137
   122         12
   128          2
   133          7
   138         13
   139          1
   151         22
   152          4
   164         10
   165          2
   180          2
   182        261
   183         30
   184          4