##TITLE=Library Entry 47235
##JCAMP-DX=Revision 4.10 
##DATA TYPE=MASS SPECTRUM
##SAMPLE DESCRIPTION=Japan AIST/NIMC Database- Spectrum MS-NW-2384
##NAMES=HP
##CAS NAME=Benzene, 1,1'-[1,2-ethanediylbis(oxy)]bis-
##MOLFORM=C14H14O2
##CAS REGISTRY NO=104-66-5
##MP= -300
##BP= -300
##MW= 214
##$RETENTION INDEX=1811
##$CONDENSED SPECTRUM=NO
##NPOINTS= 77
##XYDATA=(XY..XY) 1 
    14          1
    15          3
    16          1
    18          1
    26          6
    27         24
    28          2
    29          1
    37          5
    38         24
    39        166
    40         15
    41          6
    42          1
    43         35
    44          3
    49          1
    50         29
    51        163
    52         10
    53          6
    55         15
    61          3
    62          9
    63         36
    64         18
    65        246
    66         45
    67          4
    68          2
    71          1
    73          1
    74          7
    75          7
    76         12
    77        999
    78         77
    79         57
    80          4
    81          1
    89          3
    90          4
    91        195
    92         45
    93        207
    94        164
    95         14
    96          1
   102          2
   103         65
   104          6
   105          2
   106          1
   107        115
   108          8
   115          8
   116          1
   118          2
   119         55
   120        493
   121        831
   122         71
   123          5
   127          1
   128          2
   129          2
   139          1
   141          9
   142          1
   152          2
   157          1
   168          1
   169          2
   170          2
   214        610
   215         92
   216          9