##TITLE=Library Entry 37751
##JCAMP-DX=Revision 4.10 
##DATA TYPE=MASS SPECTRUM
##SAMPLE DESCRIPTION=Japan AIST/NIMC Database- Spectrum MS-NW-6662
##NAMES=HP
##CAS NAME=1-Piperazineethanamine, N,N,4-trimethyl-
##MOLFORM=C9H21N3
##CAS REGISTRY NO=104-19-8
##MP= -300
##BP= -300
##MW= 171
##$RETENTION INDEX=0
##$CONDENSED SPECTRUM=NO
##NPOINTS= 78
##XYDATA=(XY..XY) 1 
    14          1
    15         40
    26          5
    27         22
    28         46
    29         25
    30         45
    31          1
    36          1
    39          4
    40          4
    41         29
    42        209
    43         84
    44         44
    45          6
    46          1
    52          2
    53          3
    54         17
    55         27
    56         78
    57         34
    58        595
    59         24
    63          1
    67          2
    68          6
    69          6
    70        999
    71        125
    72        112
    73          7
    75          1
    80          4
    81          2
    82         16
    83         42
    84         19
    85         16
    86          4
    87         15
    88         80
    89         30
    90          1
    94          1
    95          4
    96          4
    97         45
    98        101
    99         72
   100         39
   101         61
   102          5
   103          1
   109          1
   110          2
   111         22
   112         19
   113        765
   114         88
   115         35
   116          3
   124          1
   125          5
   126         15
   127         29
   128         16
   129          2
   140         48
   141         13
   142          2
   154          2
   156          3
   168          1
   169          2
   170          1
   171          3