##TITLE=Library Entry 83006
##JCAMP-DX=Revision 4.10 
##DATA TYPE=MASS SPECTRUM
##SAMPLE DESCRIPTION=Japan AIST/NIMC Database- Spectrum MS-NW-6065
##NAMES=HP
##CAS NAME=Benzenemethanamine, 4-chloro-
##MOLFORM=C7H8ClN
##CAS REGISTRY NO=104-86-9
##MP= -300
##BP= -300
##MW= 141
##$RETENTION INDEX=1400
##$CONDENSED SPECTRUM=NO
##NPOINTS= 101
##XYDATA=(XY..XY) 1 
    14          1
    15          1
    26          6
    27         15
    28        280
    29        108
    30        397
    31          7
    35          2
    36          9
    37         14
    38         18
    39         36
    40          4
    41          6
    42          9
    43          6
    44         17
    45          1
    47          2
    48          1
    49         10
    50         82
    51         98
    52         65
    53         12
    54          8
    55          1
    57          1
    58          2
    59          1
    60          3
    61         12
    62         20
    63         48
    64          8
    65          8
    66          3
    67          2
    68          1
    69          3
    70         10
    71          4
    72          3
    73         23
    74         38
    75         74
    76         25
    77        292
    78         49
    79         99
    80          9
    81          1
    82          1
    84          5
    85         11
    86          8
    87          7
    88          3
    89         90
    90         23
    91          9
    92          1
    95          2
    96          1
    97          3
    98          1
    99         23
   100          3
   101          9
   102         13
   103          5
   104         31
   105         17
   106        999
   107         82
   108          4
   110          2
   111         27
   112         38
   113         70
   114         19
   115         24
   116          3
   117          1
   120         11
   121          1
   123          5
   124          8
   125        227
   126         25
   127         74
   128          8
   137         11
   138         26
   139          9
   140        479
   141        107
   142        163
   143         35
   144          2