##TITLE=Library Entry 62975
##JCAMP-DX=Revision 4.10 
##DATA TYPE=MASS SPECTRUM
##SAMPLE DESCRIPTION=Japan AIST/NIMC Database- Spectrum MS-NW-2794
##NAMES=HP
##CAS NAME=Benzenesulfonic acid, 4-methyl-
##MOLFORM=C7H8O3S
##CAS REGISTRY NO=104-15-4
##MP= -300
##BP= -300
##MW= 172
##$RETENTION INDEX=0
##$CONDENSED SPECTRUM=NO
##NPOINTS= 78
##XYDATA=(XY..XY) 1 
    15          1
    17          1
    18          2
    26          4
    27         22
    28         12
    29          1
    32          1
    34          1
    36          1
    37          6
    38         18
    39        141
    40         11
    41         39
    42          1
    43          4
    44          5
    45          5
    48          6
    49          3
    50         38
    51         66
    52         19
    53         23
    54          1
    55          4
    60          1
    61          9
    62         29
    63         96
    64         29
    65        317
    66         18
    67          2
    68          1
    69          5
    71          1
    73          1
    74          9
    75          9
    76          5
    77        147
    78         20
    79        155
    80         34
    81          6
    84          1
    85          3
    86          6
    87          5
    88          2
    89        103
    90        107
    91        999
    92         84
    93          3
   105          3
   106          2
   107        405
   108        277
   109         21
   110          1
   111          1
   121          2
   123          1
   124          2
   139          3
   140          1
   155         46
   156          5
   157          2
   170          1
   171          4
   172        743
   173         63
   174         37
   175          2