##TITLE=Library Entry 23435
##JCAMP-DX=Revision 4.10 
##DATA TYPE=MASS SPECTRUM
##SAMPLE DESCRIPTION=Exported from NIST MS Search
##NAMES=HP
##CAS NAME=1-Hexanol, 2-ethyl-
##MOLFORM=C8H18O
##CAS REGISTRY NO=104-76-7
##MP= -300
##BP= -300
##MW= 130
##$RETENTION INDEX=1030
##$CONDENSED SPECTRUM=NO
##NPOINTS= 67
##XYDATA=(XY..XY) 1 
    13          1
    14          4
    15         28
    16          2
    17          1
    18          4
    19          5
    25          1
    26         16
    27        229
    28         52
    29        279
    30         10
    31        154
    32          2
    33          2
    37          3
    38          8
    39        130
    40         24
    41        402
    42         86
    43        381
    44         21
    45         19
    46          1
    50          5
    51         10
    52          5
    53         30
    54         20
    55        254
    56        206
    57        999
    58         46
    59         12
    60          1
    62          2
    63          3
    65          4
    66          2
    67         13
    68         16
    69         99
    70        183
    71         42
    72          9
    73          2
    77          2
    78          1
    79          2
    81          4
    82         21
    83        169
    84         63
    85          6
    86          1
    87          1
    95          1
    97          8
    98         61
    99         13
   100          2
   101          1
   111          1
   112         29
   113          3