##TITLE=Library Entry 60437
##JCAMP-DX=Revision 4.10 
##DATA TYPE=MASS SPECTRUM
##SAMPLE DESCRIPTION=Japan AIST/NIMC Database- Spectrum MS-NW-8492
##NAMES=HP
##CAS NAME=Formic acid, phenylmethyl ester
##MOLFORM=C8H8O2
##CAS REGISTRY NO=104-57-4
##MP= -300
##BP= -300
##MW= 136
##$RETENTION INDEX=1080
##$CONDENSED SPECTRUM=NO
##NPOINTS= 64
##XYDATA=(XY..XY) 1 
    15          1
    17          1
    18          4
    26         10
    27         55
    28         23
    29         91
    30          6
    31         30
    36          1
    37         16
    38         45
    39        208
    40         16
    41         36
    42          2
    43          7
    44         11
    45          6
    46          4
    49          9
    50        111
    51        256
    52         68
    53         32
    54          2
    55          4
    60          1
    61         15
    62         45
    63        119
    64         35
    65        277
    66         16
    73          6
    74         25
    75         16
    76         16
    77        328
    78         69
    79        416
    80         48
    81          3
    84          1
    85          5
    86          8
    87          6
    88          4
    89        218
    90        761
    91        999
    92         82
    93          3
   105         31
   106          6
   107        309
   108        387
   109         29
   110          2
   118          3
   135          1
   136        485
   137         42
   138          3