##TITLE=Library Entry 84558
##JCAMP-DX=Revision 4.10 
##DATA TYPE=MASS SPECTRUM
##SAMPLE DESCRIPTION=Japan AIST/NIMC Database- Spectrum MS-IW- 528
##NAMES=HP
##CAS NAME=Phenol, 4-dodecyl-
##MOLFORM=C18H30O
##CAS REGISTRY NO=104-43-8
##MP= -300
##BP= -300
##MW= 262
##$RETENTION INDEX=2213
##$CONDENSED SPECTRUM=NO
##NPOINTS= 44
##XYDATA=(XY..XY) 1 
    18          4
    27          6
    28          2
    29         13
    39          6
    41         24
    42          2
    43         24
    51          1
    52          1
    53          3
    55         12
    56          2
    57          8
    65          3
    67          1
    69          4
    71          1
    77         21
    78          5
    79          6
    81          1
    91          6
    92          1
    93          1
    94         10
    95          2
    96          2
   103          3
   105          2
   106          1
   107        999
   108         94
   109          7
   119          1
   120         14
   121          7
   122          2
   133          7
   134          2
   135          1
   262        235
   263         47
   264          5