##TITLE=Library Entry 941
##JCAMP-DX=Revision 4.10 
##DATA TYPE=MASS SPECTRUM
##SAMPLE DESCRIPTION=NIST Mass Spectrometry Data Center, 1998.
##NAMES=HP
##CAS NAME=1-Hexanamine, 2-ethyl-
##MOLFORM=C8H19N
##CAS REGISTRY NO=104-75-6
##MP= -300
##BP= -300
##MW= 129
##$RETENTION INDEX=0
##$CONDENSED SPECTRUM=NO
##NPOINTS= 62
##XYDATA=(XY..XY) 1 
    15          2
    26          4
    27         61
    28         34
    29         80
    30        999
    31         26
    32         44
    33          1
    37          1
    38          3
    39         71
    40         12
    41        198
    42         53
    43         67
    44         21
    45          1
    50          3
    51          7
    52          4
    53         25
    54         20
    55        119
    56        143
    57         56
    58         20
    59          1
    63          1
    65          4
    66          2
    67         11
    68          8
    69         43
    70         47
    71          6
    72         23
    73         32
    74          2
    77          2
    78          1
    79          2
    80          1
    81          2
    82          6
    83         21
    84         14
    85          1
    86          7
    87          2
    96          1
    97          3
    98          7
    99          1
   100         23
   101          2
   112         84
   113          7
   114          4
   128          4
   129         32
   130          7