##TITLE=Library Entry 65165
##JCAMP-DX=Revision 4.10 
##DATA TYPE=MASS SPECTRUM
##SAMPLE DESCRIPTION=Japan AIST/NIMC Database- Spectrum MS-NW-1701
##NAMES=HP
##CAS NAME=2-Propen-1-ol, 3-phenyl-
##MOLFORM=C9H10O
##CAS REGISTRY NO=104-54-1
##MP= -300
##BP= -300
##MW= 134
##$RETENTION INDEX=1313
##$CONDENSED SPECTRUM=NO
##NPOINTS= 98
##XYDATA=(XY..XY) 1 
    14          2
    15          7
    16          2
    17          5
    18         18
    25          1
    26         18
    27        163
    28         56
    29         91
    30         13
    31         76
    32          8
    36          1
    37         21
    38         49
    39        238
    40         20
    41         27
    42          4
    43         43
    44         15
    45          3
    46          2
    49         12
    50        166
    51        413
    52         98
    53         41
    54          6
    55        249
    56         62
    57         54
    58         18
    59          3
    60          2
    61         20
    62         61
    63        165
    64         30
    65        119
    66         38
    67         16
    68          3
    69          1
    73         10
    74         62
    75         58
    76         62
    77        540
    78        626
    79        290
    80         17
    81          2
    83          2
    84          1
    85          7
    86         11
    87         17
    88          9
    89         89
    90         27
    91        756
    92        999
    93         74
    94          5
    97          1
    98          7
    99          3
   100          1
   101         10
   102         77
   103        285
   104         88
   105        511
   106         71
   107         33
   108          3
   109          1
   110          1
   113          6
   114          9
   115        451
   116        209
   117        160
   118         29
   119         12
   120          1
   127          1
   128          3
   129          9
   130          2
   131        145
   132         98
   133        188
   134        600
   135         60
   136          5