##TITLE=Library Entry 54557
##JCAMP-DX=Revision 4.10 
##DATA TYPE=MASS SPECTRUM
##SAMPLE DESCRIPTION=Exported from NIST MS Search
##NAMES=HP
##CAS NAME=2(3H)-Furanone, 5-heptyldihydro-
##MOLFORM=C11H20O2
##CAS REGISTRY NO=104-67-6
##MP= -300
##BP= -300
##MW= 184
##$RETENTION INDEX=1574
##$CONDENSED SPECTRUM=NO
##NPOINTS= 77
##XYDATA=(XY..XY) 1 
    15          1
    26          3
    27         70
    28         54
    29        165
    30          4
    31          2
    39         36
    40          8
    41        137
    42         36
    43         94
    44          3
    45          3
    52          2
    53         12
    54         19
    55        115
    56        100
    57         93
    58         11
    59          3
    60          8
    65          3
    67         24
    68         26
    69         62
    70         33
    71         16
    72         19
    73         16
    74          3
    79          3
    81         18
    82         27
    83         26
    84         55
    85        999
    86         48
    87         11
    95         14
    96         22
    97         14
    98         16
    99          8
   100         49
   101         20
   109          8
   110         18
   111          9
   112          6
   113          9
   114         33
   115          4
   116          3
   119          5
   122         16
   123         11
   124         25
   125         20
   126          3
   127         23
   128        104
   129         11
   133          2
   137          7
   138          3
   141          4
   142          4
   148          9
   151          2
   155          3
   156          1
   166         11
   167          2
   183          1
   184          2