##TITLE=Library Entry 97406
##JCAMP-DX=Revision 4.10 
##DATA TYPE=MASS SPECTRUM
##SAMPLE DESCRIPTION=Japan AIST/NIMC Database- Spectrum MS-NW- 881
##NAMES=HP
##CAS NAME=Benzonitrile, 4-methyl-
##MOLFORM=C8H7N
##CAS REGISTRY NO=104-85-8
##MP= -300
##BP= -300
##MW= 117
##$RETENTION INDEX=1073
##$CONDENSED SPECTRUM=NO
##NPOINTS= 56
##XYDATA=(XY..XY) 1 
    15          2
    26          9
    27         26
    28          4
    29          4
    31          1
    36          2
    37         25
    38         35
    39        103
    40          9
    41         10
    42          1
    43          3
    44          2
    45          5
    48          1
    49          8
    50         51
    51         55
    52         19
    53          5
    58          8
    59          1
    60          3
    61         24
    62         47
    63        105
    64         52
    65         25
    66          6
    67          1
    73          3
    74         12
    75         25
    76         22
    77         10
    78          4
    83          1
    85          1
    86          2
    87         15
    88         26
    89        194
    90        300
    91         48
    92          2
    99          3
   102          4
   103          1
   114         10
   115         15
   116        576
   117        999
   118         91
   119          4