##TITLE=Library Entry 54561
##JCAMP-DX=Revision 4.10 
##DATA TYPE=MASS SPECTRUM
##SAMPLE DESCRIPTION=Chemical Concepts
##NAMES=HP
##CAS NAME=2(3H)-Furanone, 5-butyldihydro-
##MOLFORM=C8H14O2
##CAS REGISTRY NO=104-50-7
##MP= -300
##BP= -300
##MW= 142
##$RETENTION INDEX=1261
##$CONDENSED SPECTRUM=NO
##NPOINTS= 60
##XYDATA=(XY..XY) 1 
    26         12
    27        113
    28         88
    29        216
    30          8
    31          8
    38          6
    39         70
    40         12
    41        132
    42         71
    43         63
    44         34
    45          9
    50          3
    51          6
    52          3
    53         16
    54         17
    55        102
    56        151
    57        123
    58         23
    59          3
    60          5
    65          3
    67         11
    68          7
    69         44
    70         48
    71          8
    72         31
    73          6
    74          3
    79          2
    81         11
    82         18
    83         15
    84         20
    85        999
    86         72
    87         32
    88          2
    95          6
    96         20
    97          4
    98          7
    99          4
   100         99
   101         10
   113          7
   114         37
   115          3
   123          3
   124         39
   125          5
   127          2
   141          5
   142         29
   143          4