##TITLE=Library Entry 61649
##JCAMP-DX=Revision 4.10 
##DATA TYPE=MASS SPECTRUM
##SAMPLE DESCRIPTION=Japan AIST/NIMC Database- Spectrum MS-NW-8339
##NAMES=HP
##CAS NAME=Benzaldehyde, 4-methyl-
##MOLFORM=C8H8O
##CAS REGISTRY NO=104-87-0
##MP= -300
##BP= -300
##MW= 120
##$RETENTION INDEX=1079
##$CONDENSED SPECTRUM=NO
##NPOINTS= 57
##XYDATA=(XY..XY) 1 
    15          1
    18          1
    26          6
    27         23
    28          9
    29         17
    36          1
    37         15
    38         34
    39        193
    40         17
    41         38
    42          2
    43          9
    44          2
    45          8
    46          1
    49          8
    50         66
    51        100
    52         17
    53         11
    59          9
    60          3
    61         23
    62         55
    63        136
    64         32
    65        296
    66         19
    69          1
    73          4
    74         19
    75         12
    76          7
    77         13
    78          2
    84          2
    85          8
    86         13
    87         10
    88          3
    89         83
    90         41
    91        999
    92        110
    93          5
    98          1
   102          1
   103          1
   105          5
   106          1
   118          8
   119        960
   120        909
   121         80
   122          4