##TITLE=Library Entry 82878
##JCAMP-DX=Revision 4.10 
##DATA TYPE=MASS SPECTRUM
##SAMPLE DESCRIPTION=Chuck Anderson, Aldrich Chemical Co.
##NAMES=HP
##CAS NAME=4-Dodecylaniline
##MOLFORM=C18H31N
##CAS REGISTRY NO=104-42-7
##MP= -300
##BP= -300
##MW= 261
##$RETENTION INDEX=0
##$CONDENSED SPECTRUM=NO
##NPOINTS= 36
##XYDATA=(XY..XY) 1 
    18          0
    27          8
    28          4
    29         17
    36          5
    39          5
    41         25
    42          3
    43         21
    53          3
    55         10
    57          5
    65          5
    69          0
    77         19
    78         10
    79         10
    80          1
    91          6
    92          6
    93          8
    94          4
   103          1
   104          4
   105          3
   106        999
   107         80
   108          3
   117          1
   118          6
   119         19
   120          9
   132         10
   133          1
   261         80
   262         14