##TITLE=Library Entry 77527
##JCAMP-DX=Revision 4.10 
##DATA TYPE=MASS SPECTRUM
##SAMPLE DESCRIPTION=Japan AIST/NIMC Database- Spectrum MS-NW-5855
##NAMES=HP
##CAS NAME=Benzenemethanamine, 4-methyl-
##MOLFORM=C8H11N
##CAS REGISTRY NO=104-84-7
##MP= -300
##BP= -300
##MW= 121
##$RETENTION INDEX=0
##$CONDENSED SPECTRUM=NO
##NPOINTS= 79
##XYDATA=(XY..XY) 1 
    15          5
    16          1
    26          4
    27         40
    28        187
    29         38
    30        262
    31          4
    37          7
    38         19
    39        100
    40         11
    41         30
    42          9
    43          4
    44          7
    45          5
    46         11
    47          2
    49          4
    50         37
    51         78
    52         27
    53         27
    54         11
    55          2
    56          1
    57          2
    58         20
    59         78
    60         10
    61          8
    62         21
    63         56
    64         15
    65        107
    66         14
    67          5
    68          2
    72          2
    73          3
    74         10
    75          9
    76         10
    77        238
    78         63
    79        159
    80         18
    81          1
    83          1
    85          3
    86          6
    87          6
    88          2
    89         33
    90         17
    91        311
    92         77
    93        355
    94         30
    95          1
    98          1
    99          1
   101          2
   102         10
   103         64
   104        999
   105        290
   106        539
   107         57
   108          3
   116          7
   117         13
   118         43
   119         27
   120        774
   121        339
   122         41
   123          3