##TITLE=Library Entry 93750
##JCAMP-DX=Revision 4.10 
##DATA TYPE=MASS SPECTRUM
##SAMPLE DESCRIPTION=Exported from NIST MS Search
##NAMES=HP
##CAS NAME=2-Propen-1-ol, 3-phenyl-, formate
##MOLFORM=C10H10O2
##CAS REGISTRY NO=104-65-4
##MP= -300
##BP= -300
##MW= 162
##$RETENTION INDEX=1330
##$CONDENSED SPECTRUM=NO
##NPOINTS= 68
##XYDATA=(XY..XY) 1 
    27        212
    28        146
    29        532
    30         26
    31         94
    37         30
    38         79
    39        353
    40         26
    41         30
    42          5
    43         48
    44         19
    45         10
    49         14
    50        189
    51        392
    52         89
    53         40
    55        119
    56         33
    57         36
    58         23
    61         25
    62         63
    63        205
    64         41
    65        130
    66         23
    73         10
    74         68
    75         67
    76         61
    77        404
    78        400
    79        163
    80         11
    85          8
    86         18
    87         25
    88         13
    89        101
    90         34
    91        604
    92        598
    93         44
   101         13
   102         91
   103        179
   104         52
   105        408
   106         54
   107         20
   113         21
   114         61
   115        999
   116        616
   117        757
   118         94
   119         11
   131         48
   132         21
   133        324
   134        165
   135         16
   162        539
   163         60
   164          5