##TITLE=Library Entry 54554
##JCAMP-DX=Revision 4.10 
##DATA TYPE=MASS SPECTRUM
##SAMPLE DESCRIPTION=Japan AIST/NIMC Database- Spectrum MS-NW-3674
##NAMES=HP
##CAS NAME=2(3H)-Furanone, dihydro-5-pentyl-
##MOLFORM=C9H16O2
##CAS REGISTRY NO=104-61-0
##MP= -300
##BP= -300
##MW= 156
##$RETENTION INDEX=1363
##$CONDENSED SPECTRUM=NO
##NPOINTS= 79
##XYDATA=(XY..XY) 1 
    14          1
    15          6
    18          3
    26          8
    27         90
    28         49
    29        196
    30          5
    31          5
    32          1
    38          3
    39         49
    40          9
    41        115
    42         60
    43         97
    44         11
    45          5
    50          2
    51          4
    52          2
    53         11
    54         17
    55         90
    56         78
    57         58
    58          9
    59          4
    60          7
    65          2
    66          1
    67         14
    68         11
    69         29
    70         39
    71         46
    72         21
    73          7
    77          2
    79          4
    80          1
    81         14
    82          7
    83         21
    84         17
    85        999
    86         48
    87          8
    88          2
    91          1
    93          3
    94          4
    95          9
    96         15
    97         12
    98          4
    99         84
   100         49
   101         15
   102          1
   107          1
   109          5
   110          4
   111          2
   112          2
   113          5
   114         24
   115          2
   120          2
   123          2
   125          3
   127          5
   128         14
   129          1
   137          1
   138         10
   139          3
   155          1
   156          2