##TITLE=Library Entry 56017
##JCAMP-DX=Revision 4.10 
##DATA TYPE=MASS SPECTRUM
##SAMPLE DESCRIPTION=Japan AIST/NIMC Database- Spectrum MS-NW-3924
##NAMES=HP
##CAS NAME=1,2-Ethanediamine, N,N-diethyl-N'-methyl-
##MOLFORM=C7H18N2
##CAS REGISTRY NO=104-79-0
##MP= -300
##BP= -300
##MW= 130
##$RETENTION INDEX=0
##$CONDENSED SPECTRUM=NO
##NPOINTS= 37
##XYDATA=(XY..XY) 1 
    15         11
    26          3
    27         25
    28         42
    29         47
    30        167
    31          3
    32          1
    39          2
    40          2
    41         10
    42         47
    43         15
    44         89
    45          2
    54          4
    55          3
    56         39
    57         17
    58        222
    59          9
    68          1
    69          1
    70          8
    71          7
    72         43
    73          3
    83          1
    84          6
    85          6
    86        999
    87         73
    88          2
    98          1
    99          4
   130         14
   131          1