##TITLE=Library Entry 77010
##JCAMP-DX=Revision 4.10 
##DATA TYPE=MASS SPECTRUM
##SAMPLE DESCRIPTION=E.M.EMERY COLGATE-PALMOLIVE CO., JERSEY CITY, N.J., USA
##NAMES=HP
##CAS NAME=Formic acid, 2-phenylethyl ester
##MOLFORM=C9H10O2
##CAS REGISTRY NO=104-62-1
##MP= -300
##BP= -300
##MW= 150
##$RETENTION INDEX=1178
##$CONDENSED SPECTRUM=NO
##NPOINTS= 38
##XYDATA=(XY..XY) 1 
    27         59
    28         20
    29        159
    30          7
    31        137
    37          7
    38         25
    39        146
    40         12
    41         29
    43         11
    50         57
    51        127
    52         32
    53         13
    61          6
    62         21
    63         63
    64         16
    65        165
    66         11
    74         14
    75         11
    76         10
    77        100
    78         77
    79         34
    89         29
    90         15
    91        677
    92        127
    93          9
   102         11
   103         74
   104        999
   105        124
   106          6
   122         30