##TITLE=Library Entry 60653
##JCAMP-DX=Revision 4.10 
##DATA TYPE=MASS SPECTRUM
##SAMPLE DESCRIPTION=Chuck Anderson, Aldrich Chemical Co.
##NAMES=HP
##CAS NAME=Benzene, (3-chloropropyl)-
##MOLFORM=C9H11Cl
##CAS REGISTRY NO=104-52-9
##MP= -300
##BP= -300
##MW= 154
##$RETENTION INDEX=1175
##$CONDENSED SPECTRUM=NO
##NPOINTS= 69
##XYDATA=(XY..XY) 1 
    15          0
    26          5
    27         45
    28          3
    29          0
    35          0
    36          0
    37          3
    38         12
    39         87
    40          5
    41         26
    42          0
    49          8
    50         15
    51         39
    52          9
    53          2
    57         10
    58          3
    61          2
    62          8
    63         27
    64          5
    65         73
    66          4
    73          1
    74          5
    75          5
    76          4
    77         33
    78         25
    79         15
    80          0
    85          0
    86          2
    87          3
    88          0
    89         34
    90          8
    91        999
    92        400
    93         26
    94          0
    98          0
    99          0
   101          1
   102          7
   103         30
   104          9
   105         70
   106          5
   113          0
   114          0
   115         42
   116          7
   117         70
   118         33
   119         26
   120          2
   125          3
   126         53
   127          4
   128         16
   129          1
   154        269
   155         23
   156         89
   157          7