##TITLE=Library Entry 97838
##JCAMP-DX=Revision 4.10 
##DATA TYPE=MASS SPECTRUM
##SAMPLE DESCRIPTION=Chemical Concepts
##NAMES=HP
##CAS NAME=Amithiozone
##MOLFORM=C10H12N4OS
##CAS REGISTRY NO=104-06-3
##MP= -300
##BP= -300
##MW= 236
##$RETENTION INDEX=2038
##$CONDENSED SPECTRUM=NO
##NPOINTS= 144
##XYDATA=(XY..XY) 1 
    26          7
    27         26
    29          6
    30          5
    31          3
    33          6
    34          6
    36          2
    37         10
    38         27
    39         73
    40         13
    41         27
    42         36
    43        912
    44         21
    45          7
    46          3
    47          4
    48          6
    49          2
    50         43
    51         87
    52         58
    53         22
    54         14
    55         12
    56          4
    57         13
    58         12
    59        101
    60        170
    61         13
    62         29
    63         93
    64         93
    65        199
    66         31
    67         13
    68          3
    69          8
    70          4
    71          8
    73          4
    74         14
    75         27
    76        223
    77        184
    78         81
    79         30
    80         50
    81         15
    82          3
    83          6
    84          3
    85          4
    86          2
    87          5
    88          7
    89         22
    90         86
    91        110
    92        279
    93        217
    94         32
    95          5
    96          2
    97          5
    98          2
    99          1
   101          2
   102         61
   103         12
   104        145
   105         68
   106         80
   107         58
   108         22
   109          5
   111          2
   115          2
   116          8
   117         50
   118        999
   119        528
   120        135
   121         36
   122          6
   124          2
   125          2
   129          2
   131          8
   132         14
   133         23
   134        251
   135        277
   136         34
   137         11
   138          7
   139          2
   143          3
   144          5
   145          9
   146          5
   147         11
   148          5
   149          6
   150          6
   151          9
   152          3
   159          2
   160        173
   161        194
   162         42
   163         33
   164          4
   165          3
   174          1
   176         96
   177        272
   178         33
   179         14
   180         14
   181          4
   188          3
   192          4
   193         10
   194          3
   202          6
   203         14
   204          3
   205         13
   206          2
   218          3
   219        470
   220         62
   221         25
   222          3
   234          4
   235         25
   236        824
   237        121
   238         27
   239          5