##TITLE=Library Entry 60577
##JCAMP-DX=Revision 4.10 
##DATA TYPE=MASS SPECTRUM
##SAMPLE DESCRIPTION=NIST Mass Spectrometry Data Center, 1990.
##NAMES=HP
##CAS NAME=Benzenepropanal
##MOLFORM=C9H10O
##CAS REGISTRY NO=104-53-0
##MP= -300
##BP= -300
##MW= 134
##$RETENTION INDEX=1162
##$CONDENSED SPECTRUM=NO
##NPOINTS= 72
##XYDATA=(XY..XY) 1 
    13          1
    14          8
    15         19
    17          2
    18          2
    26         18
    27        115
    28         26
    29         77
    30          2
    31          2
    37         17
    38         38
    39        200
    40         14
    41         24
    42          9
    43         10
    44          2
    50        135
    51        283
    52         66
    53         30
    54          2
    55         56
    56         31
    57          9
    58          1
    61         12
    62         37
    63        111
    64         25
    65        220
    66         17
    67          2
    73          8
    74         46
    75         28
    76         42
    77        357
    78        518
    79        251
    80         16
    85          4
    86          8
    87          7
    88          4
    89         48
    90          4
    91        999
    92        821
    93         55
    94          4
    98          3
    99          1
   101          4
   102         32
   103        154
   104         57
   105        310
   106         36
   107         14
   115         64
   116         53
   117         15
   118          3
   119          4
   131          7
   133         95
   134        496
   135         47
   136          4