##TITLE=Library Entry 1326
##JCAMP-DX=Revision 4.10 
##DATA TYPE=MASS SPECTRUM
##SAMPLE DESCRIPTION=RA-14
##NAMES=HP
##CAS NAME=Octopamine
##MOLFORM=C8H11NO2
##CAS REGISTRY NO=104-14-3
##MP= -300
##BP= -300
##MW= 153
##$RETENTION INDEX=0
##$CONDENSED SPECTRUM=NO
##NPOINTS= 105
##XYDATA=(XY..XY) 1 
    12          5
    14         17
    15         22
    16        140
    25          2
    26         12
    27         52
    28         68
    29         60
    30        999
    31         98
    32         34
    33         10
    39        120
    40         27
    41         61
    42         17
    43         27
    44         26
    45         16
    46          3
    47          1
    49          2
    50         25
    51         57
    52         18
    53         30
    54          6
    55         23
    56          5
    57          8
    58          6
    59          5
    60          4
    61          7
    62         13
    63         29
    64         12
    65         84
    66         30
    67         37
    68          8
    69          4
    70          2
    71          5
    72          1
    73          4
    74          7
    75          6
    76          6
    77        290
    78         41
    79         17
    80          7
    81          6
    82          2
    83          3
    84          1
    85          3
    86          1
    87          2
    88          1
    89          6
    90          6
    91         21
    92          5
    93         28
    94         27
    95        250
    96         21
    97          3
    98          2
   102          1
   103          2
   104          4
   105         10
   106         10
   107         49
   108         39
   109          6
   110          1
   111          1
   112          1
   115          2
   116          5
   117          6
   118          5
   119          5
   120         13
   121         78
   122         26
   123        689
   124         73
   125          8
   129          1
   132          1
   133          4
   134         12
   135         22
   136          8
   137          6
   138          3
   151          3
   153         26
   154          4