##TITLE=Library Entry 68839
##JCAMP-DX=Revision 4.10 
##DATA TYPE=MASS SPECTRUM
##SAMPLE DESCRIPTION=Japan AIST/NIMC Database- Spectrum MS-IW-5854
##NAMES=HP
##CAS NAME=3-Methylthiophene-2,4-disulfonamide
##MOLFORM=C5H8N2O4S3
##CAS REGISTRY NO=104096-86-8
##MP= -300
##BP= -300
##MW= 256
##$RETENTION INDEX=0
##$CONDENSED SPECTRUM=NO
##NPOINTS= 184
##XYDATA=(XY..XY) 1 
    12          1
    14          1
    15          2
    16          6
    23          1
    24          1
    25          2
    26         16
    27         51
    28         82
    29          4
    30         26
    31          1
    32         25
    33          9
    34         28
    35          1
    36          3
    37          9
    38         15
    39         66
    40          7
    41         12
    42          9
    43         19
    44         38
    45        156
    46        100
    47         15
    48         68
    49          8
    50         40
    51        104
    52         75
    53         24
    54         32
    55          6
    56          5
    57         12
    58         31
    59         48
    60         29
    61          9
    62          8
    63         45
    64        228
    65         42
    66         22
    67         34
    68         41
    69        128
    70         95
    71         47
    72         16
    73         12
    74          3
    75          3
    76         44
    77         12
    78         15
    79          9
    80         24
    81         28
    82         35
    83         60
    84         64
    85         51
    86          9
    87          7
    88          4
    89          6
    90          4
    91          3
    92          4
    93         25
    94         25
    95        999
    96        201
    97         82
    98         16
    99          9
   100         28
   101          6
   102          4
   103          9
   104          1
   105          1
   107          1
   108          1
   109         28
   110        115
   111        727
   112        167
   113         54
   114         12
   115         14
   116          8
   117          3
   118          1
   119          1
   120          2
   121          1
   122          1
   123          2
   124          7
   125          4
   126          5
   127         14
   128         39
   129         11
   130         10
   131          9
   132          2
   133          2
   135          1
   137          1
   138          1
   139          1
   140         29
   141         33
   142         18
   143          9
   144          5
   145          3
   146          2
   147          3
   148          1
   153          3
   154          9
   155          6
   156         10
   157          9
   158         36
   159         16
   160          6
   161          3
   162          1
   164          1
   169          2
   170          1
   171          1
   172          3
   173         14
   174         10
   175        815
   176         80
   177         82
   178          7
   179          3
   186          1
   187          1
   188          1
   189          1
   190          1
   191         15
   192         74
   193          8
   194          7
   195          1
   196          1
   202          4
   203          1
   204          2
   205          2
   207          1
   209          4
   220          5
   221          1
   222          2
   223          9
   224          5
   225          1
   226          1
   238          3
   239         17
   240         89
   241          9
   242         12
   243          1
   256        314
   257         30
   258         46
   259          4
   260          2