##TITLE=Library Entry 90239
##JCAMP-DX=Revision 4.10 
##DATA TYPE=MASS SPECTRUM
##SAMPLE DESCRIPTION=Chemical Concepts
##NAMES=HP
##CAS NAME=2,5-Piperazinedione, 2-(2-methylthio)ethyl-6-benzyl-
##MOLFORM=C14H18N2O2S
##CAS REGISTRY NO=104011-96-3
##MP= -300
##BP= -300
##MW= 278
##$RETENTION INDEX=0
##$CONDENSED SPECTRUM=NO
##NPOINTS= 147
##XYDATA=(XY..XY) 1 
    20          3
    26          5
    27         61
    28        253
    29         54
    30         59
    31          4
    32         24
    35         34
    36          4
    39         51
    40          9
    41         88
    42         41
    43         38
    44         32
    45         30
    46         11
    47         37
    48         18
    49         11
    50          6
    51         32
    52         10
    53         10
    54         24
    55         64
    56        140
    57        120
    58         32
    59         16
    60          9
    61        480
    62         32
    63         37
    64          8
    65         84
    66          9
    67          7
    68         17
    69         26
    70         13
    71         11
    72          5
    73         10
    74         11
    75         56
    76          9
    77         71
    78         24
    79         10
    80          3
    81          7
    82         12
    83         24
    84         20
    85        125
    86         17
    87          9
    88         28
    89         22
    90         17
    91        548
    92         77
    93         13
    95         11
    96          5
    97         50
    98         13
    99          5
   100          3
   101          4
   102         17
   103         64
   104         45
   105         16
   106          4
   107          3
   109          3
   110          5
   111         80
   112         54
   113        999
   114         56
   115         11
   116         12
   117         16
   118         19
   119         15
   120         95
   121         11
   123          4
   125          9
   126         11
   127          4
   128         20
   129          6
   130          9
   131         43
   132         11
   134          4
   135          5
   137          4
   138          3
   139         69
   140          5
   141          4
   143          5
   144          6
   146          9
   147          5
   149          9
   150          7
   151          7
   152          4
   153          4
   158          3
   159         96
   160         14
   161         12
   165          5
   166          3
   167          5
   169          4
   170          6
   172          3
   173          3
   175          9
   178          4
   186          3
   187        135
   188         14
   189         56
   190          7
   203          5
   204        470
   205         59
   206          6
   216          8
   217        155
   218         22
   230          7
   231          5
   278        319
   279         57
   280         20
   281          3