##TITLE=Library Entry 12619
##JCAMP-DX=Revision 4.10 
##DATA TYPE=MASS SPECTRUM
##SAMPLE DESCRIPTION=Institute of Organic Chemistry, Novosibirsk, USSR 1988
##NAMES=HP
##CAS NAME=Methyl 2,3,4,6,7-penta-O-acetyl-.beta.-glycero-D-glucoheptopyrano
side
##MOLFORM=C18H26O12
##CAS REGISTRY NO=104012-36-4
##MP= -300
##BP= -300
##MW= 434
##$RETENTION INDEX=0
##$CONDENSED SPECTRUM=NO
##NPOINTS= 84
##XYDATA=(XY..XY) 1 
    43        999
    44        153
    45        138
    55         53
    57         61
    59         46
    60         69
    61         84
    69        438
    71        115
    73        200
    74        199
    81        369
    82        284
    83        130
    85        292
    86        107
    87        299
    88         69
    97        338
    98         84
   100        161
   101        130
   102        499
   103        492
   109        107
   110        476
   111        707
   112         84
   113         84
   115        707
   126         92
   127        299
   128        392
   129        276
   139        276
   141        192
   142        361
   143         84
   144        253
   145        269
   152        392
   153        999
   154        107
   157        476
   158        107
   169        422
   170        384
   171        215
   175         38
   181         53
   184        176
   185         38
   187         76
   195         92
   196         69
   197         23
   199         69
   200         23
   201         15
   212        169
   213        338
   214         46
   217        130
   223         17
   229         46
   230         22
   241         25
   243         13
   254         49
   255         49
   272        115
   273         26
   283          9
   287         12
   289         36
   301          6
   315        338
   331         11
   361          2
   374         32
   375         11
   403         22
   434          2