##TITLE=Library Entry 78640
##JCAMP-DX=Revision 4.10 
##DATA TYPE=MASS SPECTRUM
##SAMPLE DESCRIPTION=NIST Mass Spectrometry Data Center, 1992
##NAMES=HP
##CAS NAME=2-Bromoisobutyrophenone
##MOLFORM=C10H11BrO
##CAS REGISTRY NO=10409-54-8
##MP= -300
##BP= -300
##MW= 226
##$RETENTION INDEX=0
##$CONDENSED SPECTRUM=NO
##NPOINTS= 94
##XYDATA=(XY..XY) 1 
    12          0
    13          0
    14          0
    15          4
    16          0
    17          1
    18          5
    26          4
    27         22
    28         10
    29          0
    32          1
    37          3
    38         12
    39         62
    40         14
    41        105
    42         38
    43          5
    45          0
    50         60
    51        157
    52         13
    53          5
    54          0
    55          3
    58          1
    59          0
    61          1
    62          6
    63          8
    64          3
    65          4
    66          2
    67          0
    69          7
    70         10
    71          0
    73          3
    74         18
    75         12
    76          0
    77        354
    78         30
    79          8
    80          0
    81          0
    85          1
    86          1
    87          1
    88          1
    89          2
    91         53
    92          4
    93          0
    95          0
    98          0
   101          0
   102          2
   103          7
   104          0
   105        999
   106         82
   107          5
   113          0
   114          0
   115          6
   116          0
   117          3
   118          7
   119         26
   120          2
   121          3
   123          2
   126          0
   127          2
   128          4
   129          7
   130          1
   131          5
   132          2
   133          1
   134          0
   145          1
   146          5
   147          2
   148          4
   149          0
   157          0
   185          0
   226          8
   227          1
   228          8
   229          0