##TITLE=Library Entry 1621
##JCAMP-DX=Revision 4.10 
##DATA TYPE=MASS SPECTRUM
##SAMPLE DESCRIPTION=Exported from NIST MS Search
##NAMES=HP
##CAS NAME=Difluoramine
##MOLFORM=F2HN
##CAS REGISTRY NO=10405-27-3
##MP= -300
##BP= -300
##MW= 53
##$RETENTION INDEX=0
##$CONDENSED SPECTRUM=NO
##NPOINTS= 10
##XYDATA=(XY..XY) 1 
    14        194
    15        105
    19         69
    20         20
    33        344
    34        999
    35          5
    52         15
    53        670
    54          2