##TITLE=Library Entry 2708
##JCAMP-DX=Revision 4.10 
##DATA TYPE=MASS SPECTRUM
##SAMPLE DESCRIPTION=R.T.HOLMAN,UNIVERSITY OF MINNESOTA
##NAMES=HP
##CAS NAME=Cyclopropanepentanoic acid, 2-undecyl-, methyl ester
##MOLFORM=C20H38O2
##CAS REGISTRY NO=10406-55-0
##MP= -300
##BP= -300
##MW= 310
##$RETENTION INDEX=0
##$CONDENSED SPECTRUM=NO
##NPOINTS= 162
##XYDATA=(XY..XY) 1 
    39        180
    40         38
    41        999
    42        170
    43        820
    44         34
    45         38
    51         11
    52         11
    53        110
    54        230
    55        930
    56        240
    57        400
    58         27
    59        220
    60         15
    61          8
    65         27
    66         27
    67        410
    68        410
    69        580
    70        180
    71        160
    72         19
    73         53
    74         71
    75         95
    76          8
    77         34
    78         15
    79         98
    80         68
    81        330
    82        280
    83        490
    84        400
    85        140
    86         11
    87        400
    88         45
    91         30
    92         11
    93         61
    94         61
    95        310
    96        440
    97        440
    98        320
    99         53
   100         19
   101         83
   102         11
   105         15
   106          8
   107         30
   108         34
   109        150
   110        310
   111        300
   112         83
   113         45
   114         61
   115         95
   116         15
   119         34
   120         11
   121         38
   122         19
   123        140
   124        120
   125        110
   126         30
   127         49
   128        270
   129        120
   130         27
   133         23
   134         27
   135         30
   136         11
   137        100
   138        110
   139         64
   140         19
   141         80
   142         53
   143         98
   144         15
   147         19
   148         19
   149         23
   150         11
   151         61
   152         64
   153         38
   154         15
   155         30
   156         30
   157         30
   158          8
   161         11
   162          8
   163         11
   164          8
   165         34
   166         38
   167         23
   168         11
   169         30
   170         15
   171         23
   172          8
   175          8
   177          8
   178         11
   179         23
   180         53
   181         23
   182          8
   183         30
   184          8
   185         15
   193         15
   194        130
   195         45
   196         15
   197         19
   199         11
   207         19
   208         23
   209          8
   210          8
   211          8
   213         11
   214          8
   221         15
   222         15
   224         11
   228         11
   229         15
   234         68
   235         38
   236        200
   237         53
   238          8
   241          8
   242          8
   249         23
   250         27
   260         30
   261         23
   267         23
   268          8
   278        500
   279        200
   280         30
   281          8
   292          8
   310        160
   311         38