##TITLE=Library Entry 95733
##JCAMP-DX=Revision 4.10 
##DATA TYPE=MASS SPECTRUM
##SAMPLE DESCRIPTION=A.A.Kutin, Moscow, Russia
##NAMES=HP
##CAS NAME=Acetic acid, 2-(1-naphthylthio)-
##MOLFORM=C12H10O2S
##CAS REGISTRY NO=10404-24-7
##MP= -300
##BP= -300
##MW= 218
##$RETENTION INDEX=0
##$CONDENSED SPECTRUM=NO
##NPOINTS= 99
##XYDATA=(XY..XY) 1 
    37          6
    38         20
    39         83
    40         69
    41         50
    42         72
    43         65
    44        129
    45        517
    46         51
    47         26
    50         71
    51         98
    52         19
    53         10
    55         27
    56         10
    57         25
    59         33
    61         27
    62         54
    63        113
    64         20
    65         50
    66          5
    67         11
    69         76
    70         15
    71         17
    72         20
    73         24
    74         94
    75        107
    76         53
    77        114
    78         19
    79         31
    80         19
    81         17
    82         25
    83         14
    85         62
    86         86
    87         47
    88         32
    89         94
    90          6
    91         12
    93         38
    95         14
    97         16
    98         30
    99         20
   100         22
   101         64
   102         26
   105          5
   106          5
   107          6
   108         13
   109         22
   111         11
   113         75
   114        153
   115        999
   116        104
   117         16
   119         10
   121          6
   124          6
   125         21
   126        145
   127        195
   128        254
   129        244
   130         25
   134         13
   139         21
   141         25
   144         20
   145         10
   147         10
   149          4
   157         25
   158        115
   159        688
   160        121
   161         38
   170         22
   171        176
   172         82
   173        400
   174         60
   175         23
   185         16
   218        968
   219        141
   220         59
   221          4