##TITLE=Library Entry 79707
##JCAMP-DX=Revision 4.10 
##DATA TYPE=MASS SPECTRUM
##SAMPLE DESCRIPTION=Exported from NIST MS Search
##NAMES=HP
##CAS NAME=Methanone, phenyl(3-phenyl-2H-azirin-2-yl)-
##MOLFORM=C15H11NO
##CAS REGISTRY NO=10403-54-0
##MP= -300
##BP= -300
##MW= 221
##$RETENTION INDEX=0
##$CONDENSED SPECTRUM=NO
##NPOINTS= 53
##XYDATA=(XY..XY) 1 
    26         36
    27         45
    32         18
    38         36
    39        136
    40         18
    41         18
    50        136
    51        409
    52         36
    61         18
    62         58
    63        200
    64         55
    65         36
    74         45
    75         45
    76         82
    77        836
    78         69
    83         55
    87         18
    88         36
    89        355
    90        145
    91         33
   102         27
   103         27
   105        999
   106        109
   111         27
   115         18
   116        227
   117         33
   122         18
   139         18
   144        131
   145         15
   149         18
   163         18
   164         33
   165        355
   166        227
   167         36
   189         18
   191         18
   192         36
   193        109
   194         27
   220        100
   221        791
   222        136
   223         18