##TITLE=Library Entry 79776
##JCAMP-DX=Revision 4.10 
##DATA TYPE=MASS SPECTRUM
##SAMPLE DESCRIPTION=Chemical Concepts
##NAMES=HP
##CAS NAME=3-Benzoyl-2-t-butyl-4-isopropyloxazolidin-5-one
##MOLFORM=C17H23NO3
##CAS REGISTRY NO=104057-68-3
##MP= -300
##BP= -300
##MW= 289
##$RETENTION INDEX=0
##$CONDENSED SPECTRUM=NO
##NPOINTS= 176
##XYDATA=(XY..XY) 1 
    26          0
    27         10
    28          5
    29         20
    30          1
    31          0
    37          0
    38          1
    39         11
    40          1
    41         30
    42          4
    43          9
    44          1
    45          0
    46          0
    47          0
    48          0
    49          0
    50          8
    51         36
    52          4
    53          2
    54          1
    55         16
    56          5
    57         25
    58          1
    59          0
    60          0
    61          0
    62          0
    63          0
    64          0
    65          1
    66          0
    67          0
    68          2
    69          7
    70          2
    71          1
    72          2
    73          1
    74          2
    75          2
    76          8
    77        201
    78         17
    79          1
    80          0
    81          0
    82          3
    83          3
    84          1
    85          1
    86          0
    87          0
    88          0
    89          0
    90          0
    91          1
    92          0
    93          0
    94          0
    95          0
    96          0
    97          1
    98          0
    99          0
   100          1
   101          0
   102          0
   103          0
   104          7
   105        999
   106         81
   107          5
   108          0
   109          0
   110          0
   111          0
   112          0
   113          0
   115          0
   116          0
   117          0
   118          0
   119          0
   120          0
   121          0
   122         17
   123          1
   124          0
   125          0
   126          0
   127          0
   128          0
   129          0
   130          0
   131          0
   132          0
   133          1
   134          0
   135          0
   136          0
   137          0
   138          0
   139          0
   140          3
   141          0
   142          0
   143          0
   144          0
   145          0
   146          0
   147          0
   148          0
   149          1
   150          0
   151          0
   152          0
   153          0
   154          0
   155          0
   156          0
   157          0
   158          0
   159          0
   160          0
   161          1
   162          0
   163          0
   167          0
   168          0
   169          0
   170          0
   172          0
   173          0
   174          0
   175          0
   176          2
   177          0
   178          0
   179          0
   180          0
   181          0
   184          0
   185          0
   187          0
   188          0
   189          0
   190          0
   191          0
   192          0
   201          0
   202          0
   203          0
   204          2
   205          0
   206          0
   207          0
   223          0
   230          0
   231          0
   232         99
   233         15
   234          1
   235          0
   246          0
   247          0
   274          1
   275          0
   276          0
   288          0
   289          0
   290          0