##TITLE=Library Entry 58875
##JCAMP-DX=Revision 4.10 
##DATA TYPE=MASS SPECTRUM
##SAMPLE DESCRIPTION=NIST Mass Spectrometry Data Center, 1994
##NAMES=HP
##CAS NAME=2-Bromo-5-nitroaniline
##MOLFORM=C6H5BrN2O2
##CAS REGISTRY NO=10403-47-1
##MP= -300
##BP= -300
##MW= 216
##$RETENTION INDEX=0
##$CONDENSED SPECTRUM=NO
##NPOINTS= 116
##XYDATA=(XY..XY) 1 
     5          2
     9          2
    11          1
    12          4
    16          9
    17          3
    18          3
    24          2
    25          7
    26          6
    27          1
    28         79
    29          1
    30        202
    35          2
    36         11
    37        101
    38        169
    39        115
    40         47
    41        127
    42          6
    44         10
    45         17
    46         70
    48          3
    49         24
    50         57
    51        108
    52        521
    53         54
    54         10
    55          2
    60         20
    61        143
    62        240
    63        551
    64        297
    65        138
    66         19
    67          4
    68          3
    73         13
    74         27
    75         27
    76         24
    77         11
    78         76
    79         66
    80         18
    81         14
    82          9
    86         10
    87         17
    88         25
    89         61
    90        999
    91        597
    92         43
    93          9
    94          2
    95          4
   103          1
   104          5
   105          9
   106         20
   107         60
   108         11
   109         25
   110          2
   115          2
   116          6
   117         33
   118          8
   119         37
   120          8
   121          8
   122          1
   128          2
   130          4
   131         10
   132          8
   133          9
   134          2
   137         12
   140          1
   141          4
   143        154
   144         18
   145        144
   146         11
   155          2
   156          2
   158        230
   159         21
   160        238
   161         14
   170        324
   171         46
   172        328
   173         24
   174          2
   184          1
   186        108
   187          9
   188        102
   189          8
   190          5
   200          6
   201          1
   202          7
   216        605
   217         51
   218        552
   219         38
   220          4