##TITLE=Library Entry 84523
##JCAMP-DX=Revision 4.10 
##DATA TYPE=MASS SPECTRUM
##SAMPLE DESCRIPTION=Japan AIST/NIMC Database- Spectrum MS-IW-4474
##NAMES=HP
##CAS NAME=2-Pyridinecarbaldehyde 4-isobutylthiosemicarbazone
##MOLFORM=C11H16N4S
##CAS REGISTRY NO=104036-89-7
##MP= -300
##BP= -300
##MW= 236
##$RETENTION INDEX=0
##$CONDENSED SPECTRUM=NO
##NPOINTS= 165
##XYDATA=(XY..XY) 1 
    15          2
    16          1
    17          1
    26          6
    27         42
    28         62
    29        118
    30         77
    31          2
    32          7
    33          4
    34         11
    36          1
    37          3
    38          9
    39         70
    40          9
    41        153
    42         15
    43         74
    44          6
    45          9
    46          4
    47          4
    48          2
    49          2
    50         20
    51         75
    52         78
    53         26
    54          7
    55        131
    56         70
    57        167
    58         13
    59          8
    60         59
    61          9
    62          9
    63         13
    64         17
    65        208
    66         35
    67         14
    68          3
    69          4
    70         13
    71         11
    72        175
    73         20
    74          6
    75         11
    76         15
    77         40
    78        142
    79        295
    80         74
    81          7
    82          3
    83          4
    84          3
    85          3
    86          2
    87          5
    88          9
    89          8
    90          5
    91         16
    92        454
    93         95
    94         22
    95          4
    96          2
    97         12
    98          6
    99          5
   100          2
   101          7
   102         59
   103          5
   104         52
   105         90
   106         98
   107        999
   108        103
   109          6
   110          2
   111          5
   112          1
   113          1
   114          3
   115         76
   116         11
   117          6
   118          5
   119         45
   120        448
   121         66
   122         20
   123          4
   124         52
   125        294
   126         25
   127         13
   128          1
   129          7
   130         13
   131         29
   132         11
   133          4
   134         15
   135          9
   136         13
   137          9
   138          5
   139          2
   142          1
   144          4
   145          3
   146          1
   147          7
   148          2
   149          7
   150          4
   151          3
   152          5
   153          1
   156          1
   157          2
   158         54
   159          8
   160          4
   161         61
   162          8
   163          4
   164         42
   165         18
   166          4
   167          1
   175          9
   176          6
   177          1
   178          9
   179         28
   180          4
   181          1
   187          1
   191          3
   192          1
   193         59
   194          6
   195          3
   203         59
   204          9
   205          2
   207          2
   219          1
   220          1
   221          1
   234          4
   235          5
   236        795
   237        133
   238         46
   239          6