##TITLE=Library Entry 6755
##JCAMP-DX=Revision 4.10 
##DATA TYPE=MASS SPECTRUM
##SAMPLE DESCRIPTION=A.A.Kutin, Moscow, Russia
##NAMES=HP
##CAS NAME=Acetamide, N-[2-(4-chlorophenoxy)ethyl)-
##MOLFORM=C10H12ClNO2
##CAS REGISTRY NO=104053-89-6
##MP= -300
##BP= -300
##MW= 213
##$RETENTION INDEX=0
##$CONDENSED SPECTRUM=NO
##NPOINTS= 117
##XYDATA=(XY..XY) 1 
    33          2
    34          2
    35         12
    36         13
    37         35
    38         66
    39        107
    40         59
    41        110
    42        185
    43        999
    44        722
    45         16
    47          8
    48          1
    49         13
    50         94
    51         49
    52         10
    53         16
    55         55
    56         22
    57         36
    58          3
    60          8
    61         31
    62         46
    63        124
    64         30
    65         51
    66          8
    67          6
    68          4
    69         14
    70         22
    71         13
    72         24
    73         87
    74         38
    75        166
    76         30
    77         34
    78         10
    79          6
    80          1
    81          3
    82          3
    83          9
    84         14
    86        618
    87         32
    88          2
    89          3
    91         39
    92          9
    93          6
    94          1
    95          2
    96          0
    97          7
    99         81
   100         15
   101         23
   102          7
   103          0
   104          2
   105          4
   106          7
   107          2
   108          0
   109          1
   110          2
   111         98
   112         13
   113         44
   115          7
   116          0
   118          0
   119          8
   120         12
   121          0
   123          0
   125         14
   126          4
   127         18
   128         48
   129         10
   130         13
   131          2
   133          0
   134          3
   135         13
   136          0
   138          0
   139          1
   140          5
   141         14
   142          2
   143          3
   151          0
   152          1
   153          1
   154         16
   155          3
   156          4
   157          0
   169          1
   170          0
   171          8
   175          0
   181          0
   198          0
   199          0
   212          0
   213          3
   214          0
   215          0