##TITLE=Library Entry 37490
##JCAMP-DX=Revision 4.10 
##DATA TYPE=MASS SPECTRUM
##SAMPLE DESCRIPTION=F. TURECEK,HEYROVSKY INST PHYS CHEM & ELECTROCHEM,PRAGU
E,CZECH
##NAMES=HP
##CAS NAME=6-exo-Vinyl-5-endo-norbornenol
##MOLFORM=C9H12O
##CAS REGISTRY NO=104013-08-3
##MP= -300
##BP= -300
##MW= 136
##$RETENTION INDEX=0
##$CONDENSED SPECTRUM=NO
##NPOINTS= 58
##XYDATA=(XY..XY) 1 
    26          6
    27         62
    28         42
    29         29
    31         13
    37          6
    38         15
    39        144
    40         54
    41        130
    42        105
    43         24
    44          8
    50         17
    51         42
    52         16
    53         32
    54          6
    55         36
    56          4
    57         15
    62          7
    63         19
    64          5
    65         86
    66        372
    67        266
    68         22
    69        176
    70        999
    71         58
    77         73
    78         28
    79         84
    80         17
    81         10
    82          6
    83          4
    89          5
    91         63
    92         13
    93         11
    94          6
    95         21
   103         17
   104          4
   105         51
   106          6
   107         21
   108          6
   115         11
   117         32
   118          9
   119          8
   121          5
   134          2
   135          2
   136          4