##TITLE=Library Entry 82533
##JCAMP-DX=Revision 4.10 
##DATA TYPE=MASS SPECTRUM
##SAMPLE DESCRIPTION=Japan AIST/NIMC Database- Spectrum MS-IW-3411
##NAMES=HP
##CAS NAME=3-Pyridinecarbonyl chloride
##MOLFORM=C6H4ClNO
##CAS REGISTRY NO=10400-19-8
##MP= -300
##BP= -300
##MW= 141
##$RETENTION INDEX=0
##$CONDENSED SPECTRUM=NO
##NPOINTS= 53
##XYDATA=(XY..XY) 1 
    24          1
    25          7
    26         18
    27         13
    28         24
    29          1
    35          8
    36         59
    37          3
    38         29
    39         58
    40          4
    41          1
    43          1
    44          1
    47          1
    48          7
    49         42
    50        176
    51        368
    52         45
    53         58
    54          1
    60          5
    61          6
    62          7
    63          9
    64          2
    65          2
    72          2
    74          3
    75         19
    76         25
    77         32
    78        611
    79         35
    80          1
    85          3
    86          2
    87          1
    91         11
    92          9
   104          1
   105          8
   106        999
   107         76
   108          4
   112          1
   113          2
   141        165
   142         10
   143         53
   144          3