##TITLE=Library Entry 97924
##JCAMP-DX=Revision 4.10 
##DATA TYPE=MASS SPECTRUM
##SAMPLE DESCRIPTION=NIST Mass Spectrometry Data Center, 1994
##NAMES=HP
##CAS NAME=3-Hydroxyphenylacetylene
##MOLFORM=C8H6O
##CAS REGISTRY NO=10401-11-3
##MP= -300
##BP= -300
##MW= 118
##$RETENTION INDEX=0
##$CONDENSED SPECTRUM=NO
##NPOINTS= 63
##XYDATA=(XY..XY) 1 
    12          0
    14          1
    19          1
    24          1
    25          7
    26         24
    27         35
    36          7
    37         56
    38         88
    39        176
    40         29
    41          4
    42         14
    43         24
    44          8
    45          9
    46          3
    48          5
    49         38
    50        124
    51         93
    52          7
    53         42
    54          3
    55         28
    56          1
    57          0
    58          0
    59         52
    60         11
    61         68
    62        143
    63        279
    64        100
    65         11
    66         11
    67          5
    68          9
    72          2
    73         15
    74         55
    75         29
    76          5
    77         13
    78          3
    79         15
    80          0
    84          4
    85         17
    86         26
    87         21
    88          0
    89        523
    90        132
    91         12
    92         11
    93          0
   100          2
   101          1
   118        999
   119         88
   120          3