##TITLE=Library Entry 90951
##JCAMP-DX=Revision 4.10 
##DATA TYPE=MASS SPECTRUM
##SAMPLE DESCRIPTION=Dennis Rohrbaugh, CBDCOM/ERDEC, Edgewood, MD
##NAMES=HP
##CAS NAME=1,2-Bis-(2-diisopropylaminoethyl) ethane
##MOLFORM=C14H32N2
##CAS REGISTRY NO=104017-39-2
##MP= -300
##BP= -300
##MW= 228
##$RETENTION INDEX=0
##$CONDENSED SPECTRUM=NO
##NPOINTS= 21
##XYDATA=(XY..XY) 1 
    39         34
    41        191
    42        125
    43        253
    44        133
    56         97
    58         30
    70        102
    71         23
    72        386
    84         36
    85         13
    86         27
    98         12
   112          9
   114        999
   115         78
   128         31
   155          7
   169          5
   228          8