##TITLE=Library Entry 21581
##JCAMP-DX=Revision 4.10 
##DATA TYPE=MASS SPECTRUM
##SAMPLE DESCRIPTION=Chemical Concepts
##NAMES=HP
##CAS NAME=Cyclohexanepropanoic acid, 2-oxo-, methyl ester
##MOLFORM=C10H16O3
##CAS REGISTRY NO=10407-33-7
##MP= -300
##BP= -300
##MW= 184
##$RETENTION INDEX=0
##$CONDENSED SPECTRUM=NO
##NPOINTS= 111
##XYDATA=(XY..XY) 1 
    26         32
    27        291
    28         34
    29        177
    30          7
    31         29
    33          7
    38         23
    39        334
    40         75
    41        574
    42        393
    43        325
    44         26
    45         50
    46          7
    47          8
    48          9
    50         16
    51         40
    52         21
    53        126
    54        170
    55        999
    56        130
    57         62
    58         15
    59        157
    60          9
    61          8
    62         10
    63         13
    65         32
    66         28
    67        241
    68        144
    69        325
    70        304
    71         82
    72         24
    73         21
    74        468
    75         37
    76          8
    77         42
    78         15
    79         96
    80        230
    81        223
    82        197
    83        249
    84        101
    85         58
    86         11
    87        157
    88         27
    91         37
    92         38
    93         59
    94         17
    95        108
    96        212
    97        289
    98        816
    99        107
   100         37
   101         20
   105         13
   106         21
   107         49
   108         23
   109         63
   110        159
   111        337
   112         31
   113        113
   114         44
   115         12
   116          6
   117         11
   118         26
   119          9
   121         12
   122         11
   123         53
   124        469
   125        235
   126         28
   127         15
   128         14
   133          7
   134         22
   135         36
   136         14
   137         26
   138          8
   139          9
   140         32
   141         73
   142         10
   149         27
   150         12
   151         26
   152        910
   153        436
   154         55
   155         11
   156          9
   184        293
   185         37
   186          7