##TITLE=Library Entry 78962
##JCAMP-DX=Revision 4.10 
##DATA TYPE=MASS SPECTRUM
##SAMPLE DESCRIPTION=Chemical Concepts
##NAMES=HP
##CAS NAME=5-Oxazolidinone, 3-benzoyl-2-(1,1-dimethylethyl)-4-(1-methylethyl
)-4-(phenylmethyl)-, (2R-cis)-
##MOLFORM=C24H29NO3
##CAS REGISTRY NO=104057-77-4
##MP= -300
##BP= -300
##MW= 379
##$RETENTION INDEX=0
##$CONDENSED SPECTRUM=NO
##NPOINTS= 109
##XYDATA=(XY..XY) 1 
    26          1
    27         13
    28          6
    29         25
    30          1
    31          1
    38          1
    39         14
    40          2
    41         42
    42          7
    43         33
    44          1
    45          1
    50          5
    51         25
    52          3
    53          4
    54          2
    55         12
    56          4
    57         41
    58          2
    59          1
    63          3
    65         15
    66          1
    67          2
    68          2
    69          5
    70         11
    71          5
    75          1
    76          7
    77        219
    78         21
    79          3
    81          1
    82          3
    83          2
    84          1
    85          2
    87          2
    89          4
    90          3
    91        141
    92         13
    96          1
    97          1
   102          1
   103          5
   104          8
   105        999
   106         82
   107          5
   115          4
   116          3
   117          8
   118          3
   119          1
   122          1
   124          9
   125          1
   127          1
   128          4
   129          5
   130          5
   131          5
   132          1
   139          3
   141          1
   143          1
   144          2
   145          6
   146          1
   157          0
   158          1
   159          1
   160          1
   162          4
   163          0
   165          0
   171          1
   172          2
   173          2
   174          2
   175          1
   176          1
   187          2
   188          2
   189          1
   190          2
   197          1
   202          1
   204          0
   228          0
   229          2
   230          2
   235          1
   243          0
   277          1
   288          7
   289          1
   294          1
   322         20
   323          4
   336          2
   337          0
   364          0