##TITLE=Library Entry 79972
##JCAMP-DX=Revision 4.10 
##DATA TYPE=MASS SPECTRUM
##SAMPLE DESCRIPTION=Chemical Concepts
##NAMES=HP
##CAS NAME=5-Oxazolidinone, 3-benzoyl-2-(1,1-dimethylethyl)-4-(phenylmethyl)
-, (2S-cis)-
##MOLFORM=C21H23NO3
##CAS REGISTRY NO=104057-67-2
##MP= -300
##BP= -300
##MW= 337
##$RETENTION INDEX=0
##$CONDENSED SPECTRUM=NO
##NPOINTS= 97
##XYDATA=(XY..XY) 1 
    27          4
    28          2
    29         12
    31          1
    39          6
    40          0
    41         19
    42          2
    43          6
    44          0
    45          1
    50          7
    51         21
    52          2
    53          1
    54          1
    55          8
    56          2
    57         21
    58          1
    60          0
    63          1
    64          0
    65          8
    66          0
    67          1
    68          1
    69          7
    70          2
    71          3
    72          0
    73          0
    74          3
    75          1
    76          6
    77        160
    78         15
    79          1
    80          0
    81          2
    82          2
    83          2
    84          0
    85          2
    89          2
    90          1
    91         39
    92          4
    93          0
    95          1
    96          1
    97          2
    99          0
   102          1
   103          8
   104          8
   105        999
   106         78
   107          5
   109          1
   111          1
   117          1
   118          1
   119          1
   120          2
   121          1
   123          0
   125          0
   128          1
   130          1
   131          4
   132          1
   133          2
   137          0
   146          0
   147          0
   148          1
   149          4
   150          1
   152          0
   165          0
   178          0
   179          0
   188          2
   189          0
   195          0
   206          0
   223          0
   224          2
   225          0
   246          1
   252          3
   280        115
   281         23
   282          2
   322          1
   337          1