##TITLE=Library Entry 66091
##JCAMP-DX=Revision 4.10 
##DATA TYPE=MASS SPECTRUM
##SAMPLE DESCRIPTION=G. Lange, Inst. Org. Chem., Univ. Wurzburg, Germany
##NAMES=HP
##CAS NAME=1(2H)-Naphthalenone, 3,4,4a,7,8,8a-hexahydro-2-hydroxy-8-methyl-,
 (2.alpha.,4a.beta.,8.beta.,8a.beta.)-
##MOLFORM=C11H16O2
##CAS REGISTRY NO=104132-25-4
##MP= -300
##BP= -300
##MW= 180
##$RETENTION INDEX=0
##$CONDENSED SPECTRUM=NO
##NPOINTS= 117
##XYDATA=(XY..XY) 1 
    37         20
    38         29
    39        708
    40        149
    41        838
    42         78
    43        209
    44        185
    45         23
    46         10
    47         19
    50         37
    51        179
    52        102
    53        320
    54         71
    55        262
    56         36
    57        321
    58         57
    59          8
    60         12
    62         20
    63         72
    64         48
    65        265
    66        158
    67        318
    68        100
    69        224
    70         71
    71         68
    73         14
    74          5
    75         45
    76         27
    77        668
    78        207
    79        850
    80        215
    81        178
    82         67
    83         74
    84         26
    85          6
    86         47
    87          8
    88         18
    89         78
    90         41
    91        784
    92        245
    93        999
    94        194
    95        296
    96         98
    97         32
    98         15
    99         10
   100         28
   101          9
   102         14
   103         46
   104         33
   105        368
   106        499
   107        252
   108        257
   109        120
   110         54
   111         32
   112        581
   113         52
   114          8
   115         28
   116         24
   117         45
   118         78
   119        240
   120        103
   121        168
   122         23
   123         51
   124         53
   125         20
   126         99
   127         22
   128         20
   129         61
   130         13
   131         53
   132         20
   133        163
   134        185
   135         40
   136         86
   137         29
   138         12
   139          5
   143          8
   144         85
   145         19
   146         23
   147        115
   148         13
   149         13
   150         55
   151        107
   152         44
   161         17
   162        224
   163         32
   165         22
   178          5
   180        377
   181         53
   182          6