##TITLE=Library Entry 48970
##JCAMP-DX=Revision 4.10 
##DATA TYPE=MASS SPECTRUM
##SAMPLE DESCRIPTION=NIST Mass Spectrometry Data Center
##NAMES=HP
##CAS NAME=cis-5,8,11,14,17-Eicosapentaenoic acid
##MOLFORM=C20H30O2
##CAS REGISTRY NO=10417-94-4
##MP= -300
##BP= -300
##MW= 302
##$RETENTION INDEX=2334
##$CONDENSED SPECTRUM=NO
##NPOINTS= 234
##XYDATA=(XY..XY) 1 
    15          1
    26          2
    27         48
    28          8
    29         78
    30          2
    31          3
    36          1
    37          1
    38          4
    39        120
    40         22
    41        551
    42         50
    43        163
    44          5
    45         45
    46          1
    47          2
    49          1
    50          7
    51         36
    52         25
    53        157
    54        100
    55        546
    56         78
    57        100
    58         11
    59         19
    60        119
    61          9
    62          3
    63         12
    64          5
    65        158
    66        134
    67        599
    68         91
    69        202
    70         58
    71         61
    72          5
    73         54
    74         10
    75         10
    77        366
    78        192
    79        999
    80        355
    81        255
    82         89
    83        123
    84         56
    85         43
    86          5
    87         17
    88         13
    89          7
    91        773
    92        211
    93        493
    94        154
    95        186
    96         65
    97         99
    98         46
    99         17
   100          9
   101         16
   102         10
   103         43
   104         83
   105        399
   106        227
   107        170
   108        208
   109         76
   110         38
   111         46
   112         17
   113         14
   114         15
   115         63
   116         25
   117        189
   118         54
   119        314
   120        101
   121         79
   122         56
   123         35
   124         18
   125         23
   126         13
   127         24
   128         29
   129         61
   130         31
   131        134
   132         38
   133        161
   134         52
   135         49
   136         21
   137         18
   138         14
   139         13
   140          9
   141         16
   142          8
   143         21
   144         10
   145         74
   146         28
   147         77
   148         45
   149         24
   150         10
   151         13
   152         15
   153         11
   154          5
   155          9
   156          3
   157         17
   158          6
   159         40
   160         16
   161         36
   162         21
   163          9
   164          4
   165         12
   166         67
   167         15
   168          5
   169          9
   170          3
   171         14
   172          3
   173         28
   174         11
   175         32
   176          7
   177          7
   178          6
   179         10
   180         17
   181          7
   182          3
   183          6
   184          2
   185          6
   186          3
   187         14
   188          8
   189          5
   190          2
   191          6
   192          6
   193         10
   194          8
   195          4
   196          2
   197          5
   198          1
   199          4
   200          2
   201         12
   202          4
   203          3
   204          2
   205          6
   206         18
   207          7
   208          5
   209          2
   210          1
   211          1
   212          1
   213          3
   214          1
   215         11
   216          2
   217          4
   218          2
   219          5
   220          9
   221          6
   222          5
   223          3
   224          1
   225          1
   227          2
   228          1
   229          2
   230          1
   231          2
   232          2
   233          9
   234          4
   235          4
   236          3
   237          2
   241          2
   242          1
   243          1
   245          3
   246          2
   247          1
   248          7
   249          4
   250          4
   251          1
   255          1
   256          1
   259          3
   260          1
   261          1
   263          2
   264          3
   265          1
   273          5
   274          2
   275          1
   278          1
   280          1
   287          1
   292         12
   293          3
   294          1
   302          1
   304          1