##TITLE=Library Entry 76777
##JCAMP-DX=Revision 4.10 
##DATA TYPE=MASS SPECTRUM
##SAMPLE DESCRIPTION=Chemical Concepts
##NAMES=HP
##CAS NAME=2-Pyrrolidinone, 3-hydroxy-3-methyl-4-phenyl-, (3R-cis)-
##MOLFORM=C11H13NO2
##CAS REGISTRY NO=104194-16-3
##MP= -300
##BP= -300
##MW= 191
##$RETENTION INDEX=0
##$CONDENSED SPECTRUM=NO
##NPOINTS= 138
##XYDATA=(XY..XY) 1 
    26          3
    27         25
    28         17
    29         14
    30         82
    31         16
    37          1
    38          5
    39         41
    40          7
    41         29
    42         12
    43        231
    44         20
    45         13
    46          3
    50         16
    51         49
    52         15
    53         12
    54          5
    55         20
    56          5
    57         11
    58          9
    59          9
    60          4
    61          3
    62          8
    63         26
    64         14
    65         37
    66          8
    67         10
    68          3
    69          7
    70          5
    71         16
    72          9
    73          5
    74         10
    75          8
    76          8
    77         74
    78         62
    79         32
    80          8
    81          9
    82          5
    83          4
    84          2
    85          3
    86         16
    87         30
    88          7
    89         22
    90         13
    91        156
    92         30
    93         12
    94          3
    95          4
    96          2
    97          7
    98          4
   100          6
   101          4
   102         14
   103         95
   104        999
   105        203
   106         27
   107          5
   108         18
   109          6
   110          3
   111          2
   112          1
   113          2
   114          3
   115         37
   116         17
   117         16
   118         17
   119         28
   120         36
   121         10
   122          3
   123          2
   124          1
   125          2
   126          1
   127          3
   128          7
   129          8
   130          5
   131         21
   132          6
   133         17
   134        180
   135         37
   136          4
   137          2
   138          1
   139          2
   140          6
   141          2
   142          1
   143          1
   144          3
   145          4
   146         11
   147          7
   148         19
   149         18
   150          6
   151          1
   152          2
   153          1
   154          1
   158          1
   160          2
   161          2
   162          1
   163          3
   164          1
   169          3
   170          1
   172          1
   173          1
   174          3
   175          2
   176          7
   177          2
   187          1
   191        138
   192         44
   193          6