##TITLE=Library Entry 17313
##JCAMP-DX=Revision 4.10 
##DATA TYPE=MASS SPECTRUM
##SAMPLE DESCRIPTION=H. Fales, LC, NHLBI, NIH, Bethesda, MD 20892
##NAMES=HP
##CAS NAME=Pregnane-3,11,20-triol, (3.alpha., 11.beta., 20.beta.)-
##MOLFORM=C21H36O3
##CAS REGISTRY NO=10417-85-3
##MP= -300
##BP= -300
##MW= 336
##$RETENTION INDEX=0
##$CONDENSED SPECTRUM=NO
##NPOINTS= 232
##XYDATA=(XY..XY) 1 
    41        160
    42         19
    43        245
    44         56
    45        999
    46         15
    47          6
    51          3
    52          5
    53         65
    54         16
    55        301
    56         21
    57        164
    58         18
    59         10
    65         36
    66         21
    67        307
    68         67
    69        198
    70         58
    71        100
    72          7
    73          4
    77        150
    78         44
    79        445
    80        112
    81        522
    82         83
    83        155
    84         44
    85         50
    86          7
    87         45
    88          3
    89          5
    91        424
    92        108
    93        473
    94        239
    95        500
    96         88
    97        142
    98         29
    99         15
   100          8
   101          4
   103         25
   104         25
   105        429
   106        322
   107        484
   108        245
   109        383
   110        109
   111         69
   112         20
   113         11
   114          3
   115         36
   116         20
   117        128
   118        260
   119        351
   120        200
   121        284
   122        152
   123        147
   124        219
   125         98
   126         24
   127         17
   128         31
   129         58
   130         34
   131        234
   132        118
   133        366
   134        176
   135        232
   136         69
   137         63
   138         58
   139         27
   140         39
   141         23
   142         16
   143         83
   144         49
   145        260
   146        109
   147        279
   148        179
   149        308
   150         66
   151         84
   152         31
   153         12
   154          5
   155         20
   156         12
   157        121
   158         62
   159        236
   160        107
   161        172
   162         90
   163         88
   164         26
   165         37
   166          7
   167          8
   168          4
   169         35
   170         13
   171         93
   172         53
   173        149
   174        315
   175        161
   176         61
   177         81
   178         31
   179         27
   180          9
   181          5
   182          3
   183         15
   184          8
   185         64
   186         53
   187         84
   188         90
   189         57
   190         33
   191         26
   192         48
   193         25
   194          7
   195         11
   196          5
   197         21
   198          9
   199        102
   200         38
   201         50
   202         23
   203         27
   204         16
   205         21
   206         45
   207          9
   208         26
   209          5
   210          3
   211         33
   212         15
   213        167
   214         80
   215         85
   216         23
   217         81
   218         28
   219         11
   220          5
   221         20
   222          7
   225         20
   226         13
   227         84
   228         97
   229         87
   230         50
   231         51
   232        346
   233         66
   234         10
   235          4
   239         12
   240          7
   241         69
   242         34
   243         23
   244         10
   245         34
   246         58
   247         39
   248         16
   249        109
   250         50
   251          9
   253         20
   254          8
   255         73
   256         40
   257         23
   258         12
   259         35
   260         10
   261          6
   262          7
   263          5
   264          3
   267         76
   268         17
   269          4
   271         33
   272         13
   273         32
   274         36
   275         12
   276          4
   282         28
   283         11
   285         84
   286         19
   289          7
   300        353
   301         85
   302          9
   303         79
   304         18
   305          3
   316          3
   318        186
   319         40
   320          6
   334          3
   336         13
   337          3