##TITLE=Library Entry 60107
##JCAMP-DX=Revision 4.10 
##DATA TYPE=MASS SPECTRUM
##SAMPLE DESCRIPTION=NIST Mass Spectrometry Data Center, 1994
##NAMES=HP
##CAS NAME=.beta.-Phenylethylmethylethylcarbinol
##MOLFORM=C12H18O
##CAS REGISTRY NO=10415-87-9
##MP= -300
##BP= -300
##MW= 178
##$RETENTION INDEX=0
##$CONDENSED SPECTRUM=NO
##NPOINTS= 83
##XYDATA=(XY..XY) 1 
    14          4
    15         37
    16          0
    19          7
    27        167
    28          9
    29        154
    30          7
    31         44
    37          1
    39        108
    40         14
    41         65
    42          1
    43        260
    44         11
    45         66
    46          1
    50         30
    51         87
    52         21
    53         24
    54          1
    55        188
    56         12
    57         43
    58         51
    59          4
    61          1
    62          9
    63         39
    64          1
    65        158
    66         10
    67          4
    68          1
    69          7
    71         18
    73        503
    74         32
    75         11
    76          1
    77        106
    78         69
    79         52
    80          3
    82          2
    85          2
    86          1
    87          2
    89         30
    91        999
    92         81
    93          3
   102         11
   103         44
   104         56
   105         63
   106         24
   107          4
   115         15
   116          8
   117         13
   118          4
   119          3
   127          4
   128          9
   129         13
   130          3
   131        366
   132         42
   133          6
   143          1
   145         34
   146          4
   147          1
   148          1
   149        101
   150         12
   160        225
   161         30
   163         29
   164          4