##TITLE=Library Entry 7218
##JCAMP-DX=Revision 4.10 
##DATA TYPE=MASS SPECTRUM
##SAMPLE DESCRIPTION=R.T.HOLMAN,UNIVERSITY OF MINNESOTA
##NAMES=HP
##CAS NAME=Oxiranepentanoic acid, 3-undecyl-, methyl ester, cis-
##MOLFORM=C19H36O3
##CAS REGISTRY NO=1041-25-4
##MP= -300
##BP= -300
##MW= 312
##$RETENTION INDEX=0
##$CONDENSED SPECTRUM=NO
##NPOINTS= 260
##XYDATA=(XY..XY) 1 
    30         14
    31         40
    32         86
    33          5
    34          1
    35          2
    36          9
    37          3
    38          7
    39        126
    40         29
    41        838
    42        197
    43        999
    44         77
    45         62
    46          2
    47          3
    48          4
    49          7
    50          5
    51         11
    52          9
    53         75
    54        131
    55        999
    56        241
    57        886
    58        280
    59        352
    60         24
    61         10
    62          5
    63          8
    64          5
    65         32
    66         45
    67        453
    68        194
    69        694
    70        212
    71        597
    72         66
    73        145
    74        334
    75         47
    76          7
    77         76
    78         53
    79        282
    80        356
    81        423
    82        304
    83        498
    84        262
    85        335
    86         36
    87        532
    88         52
    89          9
    90          4
    91         80
    92         26
    93        226
    94        191
    95        408
    96        303
    97        552
    98        537
    99        137
   100         69
   101        173
   102         46
   103         10
   104          7
   105         28
   106         26
   107        119
   108         82
   109        208
   110        114
   111        486
   112        341
   113        176
   114        132
   115        786
   116         83
   117         22
   118          6
   119         16
   120         10
   121         89
   122         77
   123        113
   124         74
   125        385
   126        561
   127        126
   128         55
   129        164
   130        161
   131         27
   132          7
   133         13
   134          7
   135        107
   136         64
   137         60
   138        122
   139         82
   140        594
   141        238
   142         41
   143        232
   144         36
   145         26
   146          6
   147          9
   148          6
   149         63
   150         46
   151         34
   152         57
   153         91
   154        267
   155        102
   156         33
   157        434
   158        777
   159         83
   160         11
   161          7
   162          3
   163         29
   164         26
   165         30
   166         33
   167         31
   168         32
   169         35
   170         14
   171         59
   172        659
   173         78
   174         11
   175          5
   176          2
   177         14
   178         27
   179         37
   180         55
   181         27
   182         16
   183        230
   184         34
   185         78
   186         11
   187          4
   188          1
   189          3
   190          1
   191          8
   192          7
   193         11
   194         16
   195         18
   196         16
   197        149
   198        334
   199         86
   200         13
   201          3
   202          1
   203          1
   204          1
   205         26
   206         11
   207          7
   208          4
   209         12
   210          7
   211         34
   212         84
   213         17
   214          5
   215          2
   216          1
   217          1
   218          4
   219          7
   220        235
   221         44
   222          7
   223          8
   224          3
   225         17
   226          5
   227          8
   228          4
   229          3
   230          1
   231          1
   232          1
   233          8
   234         19
   235         23
   236         10
   237          7
   238          8
   239         48
   240         10
   241         51
   242          9
   243          3
   244          2
   245         21
   246          7
   247          5
   248          2
   249          1
   250          1
   251         10
   252         59
   253         21
   254          4
   255         12
   256          5
   257          1
   258          1
   259          1
   260          3
   261          4
   262         49
   263         63
   264         16
   265          5
   266          2
   267          5
   268          2
   269          4
   270          1
   279         10
   280         18
   281        131
   282         26
   283          7
   284        142
   285         28
   286          3
   293          1
   294        179
   295         39
   296          7
   297          1
   298          1
   309          1
   310          1
   311          2
   312         39
   313          9