##TITLE=Library Entry 6146
##JCAMP-DX=Revision 4.10 
##DATA TYPE=MASS SPECTRUM
##SAMPLE DESCRIPTION=Japan AIST/NIMC Database- Spectrum MS-NW-9367
##NAMES=HP
##CAS NAME=5-Oxohexanenitrile
##MOLFORM=C6H9NO
##CAS REGISTRY NO=10412-98-3
##MP= -300
##BP= -300
##MW= 111
##$RETENTION INDEX=0
##$CONDENSED SPECTRUM=NO
##NPOINTS= 52
##XYDATA=(XY..XY) 1 
    14          7
    15         48
    17          1
    18          3
    26         10
    27         37
    28         29
    29          6
    30          1
    31          1
    37          5
    38          9
    39         37
    40         14
    41        182
    42         47
    43        999
    44         23
    45          3
    50          2
    51          5
    52          9
    53          6
    54          9
    55         24
    56          1
    57          2
    58         47
    59          2
    63          1
    64          4
    65          1
    66          7
    67          3
    68         66
    69          8
    70          2
    71         12
    80          1
    82          1
    83         16
    84          3
    94          4
    95          3
    96         33
    97          2
    99          3
   108          1
   109          1
   110         28
   111         21
   112          4