##TITLE=Library Entry 10997
##JCAMP-DX=Revision 4.10 
##DATA TYPE=MASS SPECTRUM
##SAMPLE DESCRIPTION=J. Little, T. Huret Eastman Chemical Co.
##NAMES=HP
##CAS NAME=cis-Cyclohexane-1,4-dimethanol, diacetate
##MOLFORM=C12H20O4
##CAS REGISTRY NO=10412-77-8
##MP= -300
##BP= -300
##MW= 228
##$RETENTION INDEX=0
##$CONDENSED SPECTRUM=NO
##NPOINTS= 82
##XYDATA=(XY..XY) 1 
    29         12
    30          1
    31          7
    39         44
    40          7
    41         81
    42         38
    43        999
    44         21
    45          5
    50          1
    51          3
    52          3
    53         27
    54         47
    55         65
    56          4
    57         15
    58          4
    59          3
    60          1
    61         27
    62          1
    64          1
    65         23
    66        156
    67        292
    68         74
    69         22
    70         11
    71         13
    72          6
    73         42
    74          9
    75          2
    76          3
    77         46
    78        110
    79        553
    80        354
    81        144
    82         17
    83         11
    84          7
    85          1
    86          2
    89          1
    90          3
    91         58
    92         35
    93        550
    94         65
    95        214
    96         36
    97          9
    98          2
   103          3
   104          1
   105         10
   106         14
   107         84
   108        687
   109         98
   110          6
   111          2
   112          1
   113          2
   114          1
   120          1
   122          1
   123          3
   124          1
   125          9
   126         15
   127          2
   135          1
   137          1
   138         12
   139          2
   140          1
   150          1
   168          2