##TITLE=Library Entry 50692
##JCAMP-DX=Revision 4.10 
##DATA TYPE=MASS SPECTRUM
##SAMPLE DESCRIPTION=Chemical Concepts
##NAMES=HP
##CAS NAME=Bicyclo[2.2.1]heptane-2-carboxylic acid, 2-propyl-
##MOLFORM=C11H18O2
##CAS REGISTRY NO=104178-45-2
##MP= -300
##BP= -300
##MW= 182
##$RETENTION INDEX=0
##$CONDENSED SPECTRUM=NO
##NPOINTS= 101
##XYDATA=(XY..XY) 1 
    26          4
    27        155
    28          6
    29        117
    30          2
    31          7
    38          4
    39        157
    40         36
    41        342
    42         24
    43         61
    45         73
    46          3
    50          5
    51         24
    52         16
    53        119
    54         40
    55        168
    56          9
    57         35
    58          4
    59         27
    60          4
    62          3
    63          7
    65         70
    66         71
    67        603
    68        318
    69        153
    70         11
    71         15
    73         61
    74          4
    77         89
    78         23
    79        160
    80         63
    81        999
    82        105
    83         26
    84          3
    85         17
    86         10
    87         25
    88          8
    91         60
    92         15
    93         75
    94         25
    95        426
    96         38
    97         35
    98          7
    99         15
   100          3
   101         41
   102         25
   103          5
   105          7
   106          2
   107         65
   108         19
   109         84
   110         46
   111         73
   112          9
   113          6
   114          6
   115        935
   116         70
   117         24
   120          3
   121         13
   122         71
   123         17
   124          3
   125         26
   126          7
   127          4
   128          2
   135        107
   136         27
   137        746
   138         83
   139         52
   140        448
   141         45
   142          4
   149          4
   151          5
   153        204
   154         25
   164         40
   165          6
   167          6
   182        204
   183         24
   184          2