##TITLE=Library Entry 64811
##JCAMP-DX=Revision 4.10 
##DATA TYPE=MASS SPECTRUM
##SAMPLE DESCRIPTION=Chemical Concepts
##NAMES=HP
##CAS NAME=Carbamic acid, [2-[[(diphenoxyphosphinyl)methyl]amino]-1-methyl-2
-oxoethyl]-, phenylmethyl ester, (S)-
##MOLFORM=C24H25N2O6P
##CAS REGISTRY NO=104173-21-9
##MP= -300
##BP= -300
##MW= 468
##$RETENTION INDEX=0
##$CONDENSED SPECTRUM=NO
##NPOINTS= 208
##XYDATA=(XY..XY) 1 
    25          2
    26         12
    27         29
    28         29
    29         17
    30         75
    31          7
    36          2
    37         16
    38         34
    39        119
    40         42
    41         32
    42         34
    43         25
    44        111
    45         17
    46          2
    47         15
    49          5
    50         35
    51         68
    52         13
    53         13
    54          5
    55         38
    56         61
    57         17
    58         12
    60          4
    61          8
    62         15
    63         39
    64         15
    65        176
    66        106
    67         13
    68         10
    69          9
    70         43
    71          8
    73          5
    74         11
    75          7
    76         12
    77        144
    78         22
    79         73
    80          7
    81          6
    82          4
    83          7
    84          7
    85          8
    86          2
    88         18
    89         21
    90         27
    91        999
    92         93
    93         23
    94        297
    95         32
    96          4
    97          6
    98          3
    99         49
   100          4
   104          5
   105         15
   106         15
   107        154
   108         49
   109          7
   111          3
   112          2
   115          5
   116          5
   117         15
   118          7
   119          5
   120         40
   121         10
   122          3
   123         20
   124          3
   125          3
   126          2
   127         21
   128          6
   129          3
   130          6
   131          2
   132         10
   133          3
   134        127
   135         15
   136          2
   137          5
   139         10
   140         51
   141         24
   142          4
   147          2
   148          9
   149         19
   150          3
   151          3
   152         13
   153         23
   154          4
   155          5
   160          2
   165          7
   166          9
   167         20
   168         10
   169         39
   170         16
   171         12
   172         14
   173          6
   175          3
   176          3
   177         17
   178         43
   179          8
   180          7
   181          5
   182          2
   183          9
   184          3
   185          4
   187          2
   188          2
   189          2
   191        183
   192         13
   193          3
   197          5
   198         90
   199         11
   205          2
   206          3
   213          3
   214          4
   215         12
   216          2
   217         14
   218          3
   224          2
   225          6
   226         38
   227          6
   230          3
   233          6
   234          3
   235         22
   236          3
   238          3
   239         57
   240          8
   241          3
   245          4
   246          3
   247         20
   248         34
   249          8
   260          7
   261          4
   262          2
   263          9
   264          7
   265          3
   266          4
   267        193
   268         27
   269          4
   270          3
   274          5
   281         13
   282          2
   283          6
   286          7
   288         52
   289         13
   290         98
   291         17
   292          3
   297          3
   315          2
   319          4
   331         11
   332          2
   333          2
   338          1
   357          3
   360          3
   361         12
   362          2
   374         25
   375        463
   376        107
   377         14
   378          2
   425          2
   467          4
   468          4