##TITLE=Library Entry 5145
##JCAMP-DX=Revision 4.10 
##DATA TYPE=MASS SPECTRUM
##SAMPLE DESCRIPTION=A.A.Kutin, Moscow, Russia
##NAMES=HP
##CAS NAME=Carbamic acid, N-(1-methylcyclopropyl)-, methyl ester
##MOLFORM=C6H11NO2
##CAS REGISTRY NO=104131-52-4
##MP= -300
##BP= -300
##MW= 129
##$RETENTION INDEX=0
##$CONDENSED SPECTRUM=NO
##NPOINTS= 74
##XYDATA=(XY..XY) 1 
    33         21
    34          0
    35          1
    36          5
    37          7
    38         20
    39        111
    40         56
    41        203
    42        999
    43        138
    44         40
    45         17
    46          0
    47          1
    49          3
    50         12
    51         21
    52         20
    53         65
    54        130
    55        249
    56        257
    57         28
    58         36
    59        224
    60          7
    62          0
    63          1
    64          0
    65          1
    66          1
    67          3
    68         21
    69         53
    70        454
    71         60
    72         12
    73          1
    74          1
    75          0
    76         10
    77          3
    78          0
    79          0
    80          0
    82         30
    84         59
    85         17
    86         12
    87          4
    88         28
    89          1
    91          2
    92          0
    93          0
    96         42
    97         94
    98         54
    99          7
   100          8
   101          3
   102         12
   103          0
   105          1
   114        467
   115         23
   116          2
   119          0
   120          0
   128         35
   129        279
   130         21
   131          1