##TITLE=Library Entry 89291
##JCAMP-DX=Revision 4.10 
##DATA TYPE=MASS SPECTRUM
##SAMPLE DESCRIPTION=Chemical Concepts
##NAMES=HP
##CAS NAME=p-Menthane-1,2,3-triol
##MOLFORM=C10H20O3
##CAS REGISTRY NO=104153-60-8
##MP= -300
##BP= -300
##MW= 188
##$RETENTION INDEX=0
##$CONDENSED SPECTRUM=NO
##NPOINTS= 134
##XYDATA=(XY..XY) 1 
    26          4
    27        117
    28         22
    29        131
    30          7
    31         48
    38          3
    39         97
    40         21
    41        355
    42         57
    43        991
    44         40
    45         52
    46          2
    47         17
    48          2
    49          1
    50          4
    51         14
    52          6
    53         72
    54         19
    55        226
    56        108
    57        268
    58        176
    59         99
    60         33
    61         44
    62          3
    63          4
    64          2
    65         19
    66         11
    67        157
    68         58
    69        216
    70         90
    71        551
    72        196
    73         28
    74         49
    75         10
    76          2
    77         30
    78          7
    79         68
    80         16
    81        586
    82        154
    83        193
    84        509
    85        175
    86         39
    87         44
    88          6
    89          4
    91         22
    92          8
    93         50
    94         38
    95        123
    96         43
    97        211
    98         39
    99        146
   100         76
   101         58
   102          9
   103         20
   104          3
   105         11
   106          7
   107         46
   108         29
   109        259
   110         93
   111         42
   112        999
   113        183
   114         24
   115         23
   116          4
   117          4
   119         18
   120          3
   121         30
   122         17
   123         34
   124         12
   125         21
   126         26
   127        288
   128         71
   129          8
   130          4
   131          3
   132          2
   133          4
   134         11
   135         22
   136          6
   137         90
   138         17
   139         44
   140         14
   141         10
   142          7
   143          3
   149          8
   150         13
   151          7
   152         32
   153         30
   154          7
   155        382
   156         45
   157          8
   158          4
   159          2
   167          2
   168         22
   169          5
   170         54
   171         16
   172          3
   173         16
   174          3
   176          2
   186          3
   187          1
   188          1
   189          1