##TITLE=Library Entry 10866
##JCAMP-DX=Revision 4.10 
##DATA TYPE=MASS SPECTRUM
##SAMPLE DESCRIPTION=Chemical Concepts
##NAMES=HP
##CAS NAME=1,3-Dioxolan-4-one, 2-(1,1-dimethylethyl)-5-methyl-5-(2-nitro-1-p
henylethyl)-, [2s-[2.alpha.,5.beta.(s*)]]-
##MOLFORM=C16H21NO5
##CAS REGISTRY NO=104194-04-9
##MP= -300
##BP= -300
##MW= 307
##$RETENTION INDEX=0
##$CONDENSED SPECTRUM=NO
##NPOINTS= 89
##XYDATA=(XY..XY) 1 
    27         28
    28         26
    29         38
    30          4
    39         28
    40          3
    41         78
    42         10
    43        999
    44         42
    45          9
    50          5
    51         20
    52          6
    53         12
    54          2
    55         21
    56          7
    57        132
    58          6
    63          7
    64          2
    65         11
    67          2
    68          2
    69         50
    70         15
    71         59
    72         10
    75          2
    76          5
    77         39
    78         32
    79         12
    83          3
    85         30
    86          5
    87        425
    88         25
    89          7
    90          3
    91         68
    92          6
    97          2
   100          9
   101          3
   102          9
   103         45
   104        597
   105         76
   106          5
   107          4
   115         27
   116         12
   117         12
   118          4
   119         17
   120          2
   121          5
   127          5
   128         10
   129        152
   130         15
   131         11
   132          3
   133          6
   134         12
   135          6
   137          7
   141          2
   145          3
   146          2
   147        203
   148         22
   149         24
   150          3
   157         64
   158         41
   159          6
   163          2
   175          4
   176          1
   191          1
   194          4
   204          7
   205          2
   222          3
   250          3
   307          1