##TITLE=Library Entry 87308
##JCAMP-DX=Revision 4.10 
##DATA TYPE=MASS SPECTRUM
##SAMPLE DESCRIPTION=NIST Mass Spectrometry Data Center
##NAMES=HP
##CAS NAME=(1aR,1bS,2aS,5S,5aS,7aS)-2,2,5,7a-Tetramethyldecahydrocyclopenta[
2',3']cyclobuta[1',2':3,4]benzo[1,2-b]oxirene
##MOLFORM=C15H24O
##CAS REGISTRY NO=104188-24-1
##MP= -300
##BP= -300
##MW= 220
##$RETENTION INDEX=1549
##$CONDENSED SPECTRUM=NO
##NPOINTS= 92
##XYDATA=(XY..XY) 1 
    26          6
    39         86
    41        257
    43        263
    51         42
    52         13
    53        109
    55        237
    56         28
    63         25
    65        103
    66         26
    67        131
    69         51
    73         18
    76          8
    77        277
    78         47
    79        135
    80         43
    81         40
    82        217
    90          6
    91        381
    92         60
    93        336
    94         54
    95        533
    96        477
    97         73
   102         22
   103         19
   105        384
   106         97
   107        381
   108        109
   109        346
   110        999
   115         50
   116         16
   117         76
   119        185
   120        197
   121        371
   122        153
   123        356
   124        233
   125        132
   129         12
   131         55
   132         22
   133        170
   135        342
   136        211
   137        127
   138        192
   139         54
   144         16
   145         49
   146         29
   147        331
   148         13
   149        366
   150        132
   151         73
   156         12
   159        118
   161        139
   162        218
   163        201
   164        174
   171          7
   172          4
   173         21
   175         15
   176         14
   177        168
   186          6
   187         67
   188         18
   189         80
   190         11
   191         49
   192         52
   203         25
   204         13
   205        520
   206         74
   207         17
   219          9
   220        387
   221        103