##TITLE=Library Entry 81112
##JCAMP-DX=Revision 4.10 
##DATA TYPE=MASS SPECTRUM
##SAMPLE DESCRIPTION=Chemical Concepts
##NAMES=HP
##CAS NAME=2-Pyrrolidinone, 3-hydroxy-4-methyl-3-phenyl-, (3S-cis)-
##MOLFORM=C11H13NO2
##CAS REGISTRY NO=104194-17-4
##MP= -300
##BP= -300
##MW= 191
##$RETENTION INDEX=0
##$CONDENSED SPECTRUM=NO
##NPOINTS= 135
##XYDATA=(XY..XY) 1 
    26          8
    27        105
    28         76
    29         43
    30        284
    31         10
    34          1
    35          4
    36          1
    37          3
    38         13
    39         97
    40         15
    41        110
    42         65
    43         74
    44         26
    45          5
    46          3
    47         10
    48          5
    49         65
    50         70
    51        239
    52         49
    53         25
    54          8
    55        289
    56         73
    57         51
    58        133
    59          7
    60          5
    61          4
    62         15
    63         43
    64         28
    65         41
    66         46
    67          9
    68          5
    69         37
    70         25
    71         16
    72          6
    73         12
    74         22
    75         24
    76         38
    77        581
    78        123
    79        114
    80          9
    81          5
    82          5
    83         10
    84         42
    85          7
    86         56
    87          8
    88          5
    89         24
    90          9
    91        115
    92         25
    93         16
    94          3
    95          3
    96          4
    97          5
    98          2
    99          2
   100          8
   101          4
   102         19
   103         37
   104         27
   105        999
   106        107
   107        130
   108         12
   109          3
   110          4
   111          4
   112          2
   113          4
   114          9
   115        117
   116         33
   117         59
   118         50
   119         14
   120         15
   121         12
   122          8
   123          2
   125          2
   127          8
   128         15
   129         34
   130         23
   131         51
   132         27
   133        455
   134        624
   135         69
   136          5
   137          1
   138          4
   143          2
   144         38
   145         39
   146        120
   147        140
   148        170
   149         21
   150          2
   158          6
   159          2
   160          3
   161          2
   162         20
   163        551
   164         69
   165          5
   172          3
   173          2
   174          5
   175          6
   176          5
   177          1
   190          2
   191        262
   192         38
   193          4