##TITLE=Library Entry 22890
##JCAMP-DX=Revision 4.10 
##DATA TYPE=MASS SPECTRUM
##SAMPLE DESCRIPTION=A. Brossi, LC, NIDDK, NIH, Bethesda, MD 20892
##NAMES=HP
##CAS NAME=1,2,3,6-Tetrahydropyridine, 1-isopropyl-4-phenyl-
##MOLFORM=C14H19N
##CAS REGISTRY NO=104163-68-0
##MP= -300
##BP= -300
##MW= 201
##$RETENTION INDEX=0
##$CONDENSED SPECTRUM=NO
##NPOINTS= 128
##XYDATA=(XY..XY) 1 
    41        353
    42        199
    43        293
    44         25
    45         12
    46          1
    47          4
    48          1
    49         15
    50         34
    51        105
    52         37
    53         59
    54         68
    55         64
    56        999
    57         50
    58         14
    59          1
    60          1
    61          1
    62         11
    63         50
    64         13
    65         59
    66         10
    67         16
    68         23
    69         20
    70        101
    71         19
    72          8
    73          3
    74         15
    75         22
    76         34
    77        144
    78         70
    79         22
    80         40
    81         11
    82         59
    83         12
    84         13
    85          7
    86         10
    87          9
    88          6
    89         38
    90          8
    91        230
    92         24
    93         44
    94         10
    95          5
    96          3
    97          5
    98          7
    99          4
   100          1
   101         10
   102         74
   103         93
   104         21
   105         13
   106          6
   107          1
   108         12
   109          1
   110         15
   111          4
   113          7
   114          7
   115        355
   116         71
   117         63
   118          9
   120          1
   121          1
   122         10
   123          4
   124         93
   125          9
   126         11
   127         68
   128        191
   129        232
   130        119
   131         44
   132          6
   139          5
   140          4
   141         31
   142         15
   143         51
   144         15
   145         13
   146          1
   148          6
   149         25
   150         12
   153          1
   154         13
   155         13
   156         54
   157         15
   158         85
   159         11
   167          1
   168          1
   169          2
   170          5
   171          1
   172         18
   173          1
   182          3
   184          6
   185          9
   186        832
   187        120
   188          8
   196          4
   198          6
   199          1
   200        103
   201        488
   202         76
   203          6