##TITLE=Library Entry 40103
##JCAMP-DX=Revision 4.10 
##DATA TYPE=MASS SPECTRUM
##SAMPLE DESCRIPTION=A.A.Kutin, Moscow, Russia
##NAMES=HP
##CAS NAME=Thiocarbamic acid, N,N-diethyl-, S-benzimidazol-2-yl ester
##MOLFORM=C12H15N3OS
##CAS REGISTRY NO=104273-39-4
##MP= -300
##BP= -300
##MW= 249
##$RETENTION INDEX=0
##$CONDENSED SPECTRUM=NO
##NPOINTS= 123
##XYDATA=(XY..XY) 1 
    33          2
    34          3
    35          0
    36          2
    37          9
    38         26
    39         75
    40         23
    41         27
    42        100
    44        422
    45         44
    46          2
    47          2
    48          0
    50         17
    51         35
    52         32
    53          6
    54          7
    56         62
    57          8
    58         16
    59          6
    60          7
    61          7
    62         16
    63         71
    64         56
    65         35
    66          3
    67          1
    68          1
    69         11
    70         39
    72        999
    73         31
    74          6
    75          6
    76          9
    77         16
    78         34
    79          4
    80          1
    81          1
    82          2
    83          3
    84          3
    85          0
    86          1
    87          1
    88          5
    90         52
    91         35
    92         11
    93          3
    94          4
    95         15
    96         17
    97          2
   100        838
   101         46
   102          3
   103          2
   104          4
   105         13
   106          9
   107          1
   108          1
   109          1
   110          0
   116          8
   117          3
   118         17
   119          6
   120          3
   122        155
   123         17
   124          7
   125          0
   127          0
   128          0
   129          0
   131          0
   132          0
   133          0
   134          1
   135          0
   136          0
   143          0
   144          1
   145         11
   146          1
   147          2
   149         92
   150         68
   151         12
   152          3
   153          0
   161          0
   162          0
   163          4
   164          0
   165          0
   166          0
   175          0
   176          1
   177          6
   178          1
   179          0
   183          0
   190          0
   205          1
   206          0
   213          0
   216        102
   217         13
   218          1
   246          0
   249         67
   250         10
   251          3
   252          0