##TITLE=Library Entry 45383
##JCAMP-DX=Revision 4.10 
##DATA TYPE=MASS SPECTRUM
##SAMPLE DESCRIPTION=NIST Mass Spectrometry Data Center
##NAMES=HP
##CAS NAME=5.beta.-Androstan-3.beta.-ol-17-one, TMS derivative
##MOLFORM=C22H38O2Si
##CAS REGISTRY NO=10426-96-7
##MP= -300
##BP= -300
##MW= 362
##$RETENTION INDEX=2575
##$CONDENSED SPECTRUM=NO
##NPOINTS= 271
##XYDATA=(XY..XY) 1 
    15          1
    26          1
    27         13
    28          7
    29         36
    30          1
    31          2
    38          1
    39         30
    40          8
    41        178
    42         15
    43         67
    44         13
    45         83
    46          5
    47         44
    48          2
    49          1
    50          1
    51          5
    52          5
    53         76
    54         23
    55        281
    56         21
    57         24
    58         10
    59         69
    60         15
    61         71
    62          6
    63          4
    64          2
    65         45
    66         20
    67        328
    68         49
    69         85
    70         10
    71         12
    72         21
    73        671
    74         82
    75        999
    76         75
    77        193
    78         39
    79        400
    80         66
    81        361
    82         49
    83         72
    84          7
    85         18
    86          4
    87          8
    88          4
    89         28
    91        402
    92         80
    93        442
    94        153
    95        311
    96         44
    97        161
    98         16
    99         20
   100          4
   101         79
   102         13
   103         41
   104         27
   105        399
   106        164
   107        397
   108        426
   109        215
   110         64
   111         33
   112          4
   113         21
   114          4
   115         58
   116         30
   117        113
   118         73
   119        290
   120        115
   121        223
   122         83
   123         96
   124         29
   125         16
   126          3
   127         27
   128         27
   129        290
   130        121
   131        197
   132         50
   133        186
   134        108
   135        141
   136         97
   137         53
   138         76
   140          2
   141         21
   142        131
   143        103
   144         82
   145        278
   146         71
   147        301
   148        116
   149        107
   150         88
   151         38
   152          5
   153          8
   154          8
   155        233
   156         44
   157         72
   158         87
   159        203
   160         70
   161        235
   162        126
   163         75
   164         65
   165         22
   166         11
   167         11
   168          6
   169         24
   170          8
   171         60
   172         27
   173        127
   174        101
   175         88
   176        219
   177         61
   178         14
   179          5
   180          2
   181          9
   182          8
   183         27
   184          8
   185         45
   186         40
   187         77
   188         32
   189         48
   190         45
   191         20
   192          3
   193          2
   194          1
   195          5
   196          5
   197         30
   198         13
   199         96
   200         33
   201        148
   202         42
   203         37
   204         18
   205          7
   206          1
   207          2
   208          1
   209          4
   210          1
   211         17
   212         12
   213         80
   214         44
   215        217
   216        133
   217        116
   218         96
   219         15
   220          2
   221          2
   222          1
   223          3
   224          2
   225          8
   226         14
   227         23
   228         49
   229        101
   230         59
   231         31
   232         12
   233         19
   234          4
   235          3
   236          1
   237          3
   238          1
   239         71
   240         15
   241          4
   242          2
   243         23
   244        495
   245         93
   246         11
   247          1
   249          1
   250          1
   251          2
   252          1
   253         25
   254         43
   255        127
   256         29
   257        403
   258         79
   259          8
   260          1
   261          1
   262          1
   263          2
   264          1
   265          2
   266          1
   267          1
   269          1
   270          3
   271         34
   272        635
   273        128
   274         15
   275          2
   276          1
   277          1
   280          1
   287          2
   288          1
   289          1
   291          6
   292          1
   293          2
   294          1
   303          2
   304          1
   305          7
   306          6
   307          1
   311          1
   318          1
   329          1
   331          2
   333          1
   347         94
   348         26
   349         10
   350          1
   360          1
   361          5
   362         49
   363         15
   364          4
   365          1