##TITLE=Library Entry 42284
##JCAMP-DX=Revision 4.10 
##DATA TYPE=MASS SPECTRUM
##SAMPLE DESCRIPTION=NIST Mass Spectrometry Data Center
##NAMES=HP
##CAS NAME=Androstane-3,17-diol, (3.alpha.,5.alpha.,17.beta.)-, 2TMS derivat
ive
##MOLFORM=C25H48O2Si2
##CAS REGISTRY NO=10426-36-5
##MP= -300
##BP= -300
##MW= 436
##$RETENTION INDEX=2578
##$CONDENSED SPECTRUM=NO
##NPOINTS= 274
##XYDATA=(XY..XY) 1 
    15          1
    26          1
    27          3
    29         13
    31          1
    38          1
    39          8
    40          2
    41         69
    42          5
    43         44
    44         11
    45         76
    46          5
    47         33
    48          2
    49          1
    50          1
    51          2
    52          1
    53         29
    54          8
    55        171
    56          9
    57         18
    58          9
    59         67
    60         16
    61         76
    62          5
    63          3
    65         14
    67        174
    68         28
    69         57
    70          7
    71          8
    73        999
    74        103
    75        833
    76         60
    77         87
    78         14
    79        199
    80         33
    81        250
    82         23
    83         41
    84          5
    85         22
    86          3
    87         12
    88          5
    89         31
    91        213
    92         45
    93        269
    94         86
    95        208
    96         26
    97         31
    98          4
    99         21
   101        127
   102         14
   103         34
   104         14
   105        201
   106        113
   107        283
   108         86
   109        113
   110         14
   111         13
   112          2
   113         18
   115        127
   116        144
   117        136
   118         36
   119        129
   120         74
   121        147
   122         51
   123         54
   124          8
   125          7
   126          2
   127         15
   129        837
   130        265
   131        157
   132         39
   133        145
   134         68
   135        136
   136         28
   137         13
   138          3
   139          4
   140          2
   141         15
   142         34
   143         47
   144         20
   145        130
   146         58
   147        205
   148        261
   149        202
   150         33
   151         13
   152          2
   153          4
   154          1
   155         42
   156         19
   157         29
   158         17
   159         96
   160         62
   161        129
   162         94
   163         42
   164          7
   165          7
   166          1
   167          8
   168          7
   169         24
   170          7
   171         22
   172         10
   173         67
   174         39
   175         56
   176         18
   177          6
   178          2
   179          3
   180          2
   181         17
   182         19
   183         31
   184          8
   185         54
   186         17
   187         49
   188         22
   189         15
   190          8
   191         10
   192          2
   193          3
   194          2
   195         12
   196         27
   197         12
   198          5
   199         72
   200         26
   201        113
   202         45
   203         45
   205          2
   207          2
   208          2
   209         23
   210          8
   211          5
   212          1
   213         93
   214         39
   215        359
   216         96
   217        205
   218         35
   219          4
   220          1
   221          4
   222          2
   223          8
   224          3
   225          4
   226          2
   227         26
   228         58
   229         29
   230         50
   231          9
   232          1
   233          1
   235          3
   236          3
   237         13
   238         16
   239         11
   241        597
   242        118
   243         14
   244          2
   245          1
   247          3
   248          1
   249          2
   250          3
   251          3
   252          1
   253          2
   255        151
   256        341
   257         75
   258          8
   261          2
   262          1
   263          4
   264          3
   265          1
   266          1
   271          1
   272          1
   273          1
   276          1
   277          4
   278          2
   279          1
   287          2
   289         14
   290          4
   291          7
   292         10
   293          2
   294          1
   303          3
   304         17
   305         19
   306          8
   307          3
   308          1
   313          1
   314          1
   315          1
   317          3
   318         31
   319         14
   320          6
   321          2
   329          1
   331        192
   332         54
   333         16
   334          3
   345         52
   346        163
   347         47
   348         12
   349          1
   351          1
   379          9
   380          3
   381          1
   408          1
   419          1
   421         88
   422         33
   423         12
   424          2
   425          1
   434          1
   436        128
   437         49
   438         18
   439          4
   440          1