##TITLE=Library Entry 76178
##JCAMP-DX=Revision 4.10 
##DATA TYPE=MASS SPECTRUM
##SAMPLE DESCRIPTION=Chemical Concepts
##NAMES=HP
##CAS NAME=Bicyclo[4.2.0]octa-1,3,5-triene, 7-bromo-8-iodo-
##MOLFORM=C8H6BrI
##CAS REGISTRY NO=104253-95-4
##MP= -300
##BP= -300
##MW= 308
##$RETENTION INDEX=0
##$CONDENSED SPECTRUM=NO
##NPOINTS= 91
##XYDATA=(XY..XY) 1 
    25          2
    26         11
    27          9
    29          4
    33          1
    34          0
    36          1
    37         19
    38         35
    39         53
    40          1
    41          6
    42          4
    43          9
    45          1
    49         14
    50        189
    51        151
    52         66
    53          4
    56          0
    57          1
    58          0
    60          5
    61         21
    62         55
    63         90
    64          6
    65          3
    69          3
    70          1
    73         15
    74        138
    75        136
    76        198
    77         10
    78          2
    79          3
    80          1
    81          6
    82          1
    84          1
    85          1
    86          5
    87         15
    88          2
    90          1
    91          0
    92          2
    94          1
    95          1
    97          5
    98         18
    99         13
   100          6
   101         94
   102        999
   103         89
   104          5
   105          2
   107          1
   118          1
   122          1
   127         47
   128          5
   135          1
   139          2
   142          1
   145          1
   155          2
   165          1
   167          2
   180          2
   181        602
   182         65
   183        593
   184         50
   185          3
   191          1
   205          2
   206          1
   207          0
   228          3
   229         11
   230          1
   262          1
   264          1
   281          1
   308         15
   309          2
   310         14