##TITLE=Library Entry 97713
##JCAMP-DX=Revision 4.10 
##DATA TYPE=MASS SPECTRUM
##SAMPLE DESCRIPTION=NIST Mass Spectrometry Data Center, 1994
##NAMES=HP
##CAS NAME=5-Chloro-4-fluoro-2-nitroaniline
##MOLFORM=C6H4ClFN2O2
##CAS REGISTRY NO=104222-34-6
##MP= -300
##BP= -300
##MW= 190
##$RETENTION INDEX=0
##$CONDENSED SPECTRUM=NO
##NPOINTS= 126
##XYDATA=(XY..XY) 1 
    12          7
    16          9
    17         16
    18         17
    20          5
    25          8
    28         25
    30        412
    31         44
    33         16
    35         20
    36         28
    37         83
    38         69
    39         36
    40         18
    41          6
    44         41
    45         13
    46         95
    47         21
    48         15
    49         48
    50         76
    51         92
    52        318
    53         44
    54          6
    55         36
    56        134
    57        150
    58         15
    59         13
    60         35
    61        154
    62        181
    63        111
    64         50
    65         51
    66         13
    67         94
    68         38
    69         84
    70         47
    71         17
    72         33
    73         33
    74         13
    75         56
    76        128
    77         19
    78         21
    79         24
    80         91
    81        596
    82        258
    83         42
    84         19
    85         28
    86         27
    87         29
    88         40
    89         66
    90         21
    91        155
    92         31
    93         75
    94         29
    95         32
    96        114
    97         73
    98         19
    99         19
   100          8
   101         16
   103          5
   104         10
   105         46
   106         31
   107         64
   108        330
   109        244
   110         38
   111          7
   112         17
   114          5
   115         21
   116         85
   117        999
   118         94
   119        316
   120         20
   121         31
   123         14
   124         17
   125          7
   126          5
   128          3
   129         14
   130         25
   131          3
   132        279
   133         26
   134         99
   135          4
   142         37
   143         79
   144        641
   145         71
   146        203
   147         15
   155          6
   156          5
   160        350
   161         28
   162        112
   163          8
   172          6
   173         47
   174         28
   175         20
   176          7
   190        929
   191         76
   192        293
   193         20