##TITLE=Library Entry 11297
##JCAMP-DX=Revision 4.10 
##DATA TYPE=MASS SPECTRUM
##SAMPLE DESCRIPTION=Japan AIST/NIMC Database- Spectrum MS-IW-2184
##NAMES=HP
##CAS NAME=Dimethyl acetylsuccinate
##MOLFORM=C8H12O5
##CAS REGISTRY NO=10420-33-4
##MP= -300
##BP= -300
##MW= 188
##$RETENTION INDEX=0
##$CONDENSED SPECTRUM=NO
##NPOINTS= 87
##XYDATA=(XY..XY) 1 
    14          6
    15        148
    16          2
    25          1
    26         17
    27         86
    28         23
    29         28
    30          5
    31         25
    32          7
    33          1
    37          1
    38          3
    39         16
    40          4
    41         18
    42         45
    43        999
    44         36
    45         23
    47          2
    50          3
    51          4
    52          2
    53         18
    54         13
    55        481
    56         21
    57          6
    58         21
    59        127
    60          4
    61          1
    67          1
    68          7
    69         17
    70          8
    71          6
    74          1
    75         14
    77          3
    81          2
    82         18
    83          5
    84          2
    85         44
    86         46
    87        203
    88          9
    89          3
    96          5
    97        129
    98         15
    99         21
   100          2
   101          6
   102          1
   105          4
   112          1
   113        155
   114        809
   115        129
   116         11
   117          5
   122          3
   124         48
   125         43
   126          4
   127          2
   128          5
   129        314
   130         21
   131          6
   140          1
   141          8
   143          1
   145         15
   146        531
   147         36
   148          5
   156         32
   157         94
   158          8
   159          1
   188         10
   189          1