##TITLE=Library Entry 114339
##JCAMP-DX=Revision 4.10 
##DATA TYPE=MASS SPECTRUM
##SAMPLE DESCRIPTION=Exported from NIST MS Search
##NAMES=HP
##CAS NAME=Androstane-3,17-diol, (3.alpha.,5.alpha.,17.alpha.)-, 2TMS deriva
tive
##MOLFORM=C25H48O2Si2
##CAS REGISTRY NO=10426-35-4
##MP= -300
##BP= -300
##MW= 436
##$RETENTION INDEX=2489
##$CONDENSED SPECTRUM=NO
##NPOINTS= 140
##XYDATA=(XY..XY) 1 
   101        138
   102          8
   103         38
   104         20
   105        191
   106        132
   107        335
   108        120
   109        261
   110         20
   111         23
   113         23
   115        179
   116        202
   117         38
   118         35
   119        126
   120         88
   121        197
   122         73
   123         88
   124          5
   125          5
   127         20
   128          5
   129        999
   130        323
   131        185
   132         58
   133        158
   134         82
   135        202
   136        270
   137        155
   138         61
   141         29
   142         17
   143         52
   144         23
   145        155
   146         82
   147        238
   148        338
   149        288
   150         52
   151         23
   155         55
   156         20
   157         67
   158         23
   159        102
   160         64
   161        150
   162        123
   163         50
   167          5
   169         23
   170          8
   171         23
   173         82
   174         52
   175         64
   176         23
   180         20
   181         20
   182          5
   183          5
   184         38
   185         20
   186         50
   187         20
   189          5
   190         26
   195          2
   196         29
   197         23
   198          8
   199         82
   200         20
   201        120
   202         52
   203         50
   204          5
   210          5
   211          5
   213        114
   214         38
   215        432
   216        120
   217        332
   218         64
   219         14
   223          5
   225          5
   226          5
   227         20
   228         58
   229         38
   230         82
   231         20
   237         20
   238         20
   239         20
   240          5
   241        614
   242        141
   243         23
   254          8
   255         52
   256        361
   257        111
   258         23
   274          8
   281          8
   282         26
   289         23
   291          5
   292          8
   305         55
   306          5
   307          5
   315          5
   318         41
   319         20
   330          8
   331        302
   332         82
   333         23
   344          5
   345         61
   346        300
   347         61
   348         23
   421        132
   422         44
   423         23
   436        244
   437         88
   438         38
   439          5