##TITLE=Library Entry 93699
##JCAMP-DX=Revision 4.10 
##DATA TYPE=MASS SPECTRUM
##SAMPLE DESCRIPTION=V.Zaikin,Topchiev Inst.Petrochem.Synth.,Moscow
##NAMES=HP
##CAS NAME=Chloroacetic acid, 3-phenylprop-2-enyl ester
##MOLFORM=C11H11ClO2
##CAS REGISTRY NO=104221-85-4
##MP= -300
##BP= -300
##MW= 210
##$RETENTION INDEX=0
##$CONDENSED SPECTRUM=NO
##NPOINTS= 146
##XYDATA=(XY..XY) 1 
    25          1
    26         10
    27         29
    28          5
    29         20
    30          4
    31          5
    35          8
    36         53
    37          3
    38         17
    39         72
    40          9
    41         25
    42         29
    43         30
    44        108
    45         24
    46          2
    47          4
    48          6
    49         69
    50         63
    51         93
    52         40
    53         12
    54          5
    55         28
    56          7
    57         58
    58         26
    59         10
    60          9
    61          7
    62         26
    63         72
    64         14
    65         60
    66         14
    67         10
    68          5
    69         10
    70          6
    71          6
    73         10
    74         24
    75         26
    76         27
    77        182
    78         89
    79         87
    80         13
    81          6
    82         14
    83          6
    84          3
    85          5
    86         10
    87         14
    88         10
    89         75
    90         12
    91        206
    92        134
    93         39
    94          6
    95          2
    96          6
    97         11
    98          3
    99          4
   101          6
   102         54
   103        110
   104         54
   105        507
   106         48
   107          7
   108          8
   109          3
   110          8
   111          2
   112          2
   113         12
   114         17
   115        999
   116        787
   117        703
   118        110
   119          9
   120          2
   121          1
   122          2
   123          1
   126          1
   127          8
   128          7
   129         16
   130          8
   131         70
   132         36
   133        472
   134        164
   135         18
   136          2
   137          4
   139          2
   141          2
   142          1
   143          2
   144          2
   145          5
   146          2
   147          2
   149          1
   151          2
   152          3
   153          1
   154          2
   156          1
   157          2
   160          1
   161          6
   162          2
   163          1
   165          1
   168         32
   169          3
   170         10
   171          1
   174          2
   175         10
   176          3
   177          1
   179          1
   181         23
   182          3
   183          7
   189          4
   191          2
   193          4
   210        312
   211         38
   212        105
   213         13
   215          2