##TITLE=Library Entry 73725
##JCAMP-DX=Revision 4.10 
##DATA TYPE=MASS SPECTRUM
##SAMPLE DESCRIPTION=I.Roling ET AL.J.Agr.Food Chem.,46,668(1998)
##NAMES=HP
##CAS NAME=5-Butyldihydro-2(3H)thiophenone
##MOLFORM=C8H14OS
##CAS REGISTRY NO=104223-43-0
##MP= -300
##BP= -300
##MW= 158
##$RETENTION INDEX=1312
##$CONDENSED SPECTRUM=NO
##NPOINTS= 54
##XYDATA=(XY..XY) 1 
    41        933
    42        211
    43        201
    44        130
    45        863
    46         25
    47         77
    50         18
    51         21
    52          7
    53         95
    54         42
    55        426
    56        176
    57         81
    58        123
    59        190
    60        123
    61         49
    63          7
    65         10
    67         74
    68         25
    69        246
    70        109
    71         56
    72         39
    73        194
    74         77
    75         46
    77         10
    79         14
    81         32
    82         14
    83         32
    85         25
    86         10
    87        127
    88         53
    89        134
    96         10
    97         18
    99         18
   101        999
   102         56
   103         67
   114        616
   115         74
   116         56
   121         10
   130         25
   131          7
   133         21
   158         39