##TITLE=Library Entry 42076
##JCAMP-DX=Revision 4.10 
##DATA TYPE=MASS SPECTRUM
##SAMPLE DESCRIPTION=W.E. COLEMAN, US ENVIRON. PROT. AGENCY, CINCINNATI, OHI
O, USA
##NAMES=HP
##CAS NAME=Adipic acid, 2TBDMS derivative
##MOLFORM=C18H38O4Si2
##CAS REGISTRY NO=104255-94-9
##MP= -300
##BP= -300
##MW= 374
##$RETENTION INDEX=1966
##$CONDENSED SPECTRUM=NO
##NPOINTS= 100
##XYDATA=(XY..XY) 1 
    27          4
    28          5
    29         16
    39         10
    40          3
    41         35
    42          4
    43          9
    44          2
    45         26
    46          2
    47         22
    53          5
    55         75
    56         18
    57         23
    58         23
    59         47
    60         12
    61         19
    67         11
    68          3
    69          4
    71          2
    73        999
    74         96
    75        604
    76         42
    77         27
    78          2
    81          7
    83         73
    84          4
    85         19
    86         24
    87          8
    88          4
    95          2
    97          4
    98          4
    99         18
   100          4
   101         13
   102          3
   103          6
   109         10
   111        664
   112         42
   113          5
   114          4
   115         75
   116         28
   117         27
   118          5
   119          5
   125          2
   129        122
   130         79
   131         20
   132         11
   133         40
   134          7
   135          7
   141        288
   142         39
   143          9
   147        122
   148         18
   149         54
   150          7
   151          4
   157         15
   158          3
   159          2
   171          2
   173          3
   176          3
   183          3
   185         56
   186          8
   187          2
   189         11
   190          7
   191          2
   201          3
   203          8
   204          2
   215          4
   227          8
   228          2
   243          6
   275          3
   289          6
   301          3
   317        280
   318         57
   319         29
   320          3
   359         15
   360          5