##TITLE=Library Entry 25512
##JCAMP-DX=Revision 4.10 
##DATA TYPE=MASS SPECTRUM
##SAMPLE DESCRIPTION=NIST Mass Spectrometry Data Center
##NAMES=HP
##CAS NAME=3-(Icosyloxy)propane-1,2-diol
##MOLFORM=C23H48O3
##CAS REGISTRY NO=10431-04-6
##MP= -300
##BP= -300
##MW= 372
##$RETENTION INDEX=2818
##$CONDENSED SPECTRUM=NO
##NPOINTS= 136
##XYDATA=(XY..XY) 1 
    19          1
    27          7
    29         42
    30          2
    31         14
    33          1
    39         16
    40          5
    41        203
    42         55
    43        452
    44        103
    45         87
    46          2
    47          2
    53          9
    54         36
    55        420
    56        143
    57        999
    58         87
    59          7
    60         26
    61        125
    62          7
    63          6
    66          9
    67         79
    68         89
    69        357
    70        134
    71        848
    72         49
    73         19
    74        163
    75        179
    76          7
    77         23
    80         10
    81         35
    82        171
    83        382
    84         85
    85        561
    86         35
    87         29
    91          9
    93        374
    94         12
    95         45
    96        102
    97        366
    98         61
    99        212
   100         18
   105         17
   109         28
   110         45
   111        237
   112         43
   113        155
   114         14
   117         18
   123         23
   124         34
   125        121
   126         27
   127        103
   128         11
   137         10
   138         25
   139         51
   140         17
   141         69
   142          9
   151          7
   152         10
   153         25
   154         13
   155         52
   156          5
   165          6
   166          9
   167         20
   168          6
   169         38
   170          6
   180          7
   181         11
   182          5
   183         33
   184          5
   193          5
   194          6
   195          6
   197         30
   198          5
   208          9
   209          6
   211         22
   212          4
   221          7
   222          8
   223          4
   225         11
   235          6
   236          9
   237          3
   239          5
   241          4
   249          5
   250          7
   251          5
   252         13
   254          4
   263          6
   264          5
   268          4
   278         35
   279          8
   280         60
   281        100
   282         21
   292          8
   293          3
   295          2
   297         10
   298          3
   309         37
   310         10
   311        111
   312         27
   313          4
   341         19
   342          4
   354          3