##TITLE=Library Entry 17651
##JCAMP-DX=Revision 4.10 
##DATA TYPE=MASS SPECTRUM
##SAMPLE DESCRIPTION=Japan AIST/NIMC Database- Spectrum MS-IW-2731
##NAMES=HP
##CAS NAME=Bis(hexanamido)methane
##MOLFORM=C13H26N2O2
##CAS REGISTRY NO=10436-10-9
##MP= -300
##BP= -300
##MW= 242
##$RETENTION INDEX=0
##$CONDENSED SPECTRUM=NO
##NPOINTS= 104
##XYDATA=(XY..XY) 1 
    15          3
    26          3
    27         60
    28         38
    29        112
    30        355
    31          7
    38          1
    39         34
    40          7
    41        136
    42         52
    43        498
    44         57
    45        999
    46         27
    51          2
    53          9
    54          9
    55         95
    56         29
    57         23
    58         12
    59        208
    60         35
    61          1
    65          2
    66          1
    67          5
    68          6
    69         32
    70         33
    71        224
    72         99
    73         28
    74          6
    78          3
    79          1
    80          4
    81          6
    82          3
    83          8
    84         25
    85         12
    86         87
    87         27
    88         13
    89          1
    92          1
    95          2
    96          4
    97         11
    98         82
    99        401
   100         52
   101         35
   102          3
   109          1
   110          4
   111          2
   112          9
   113          7
   114         54
   115         90
   116        530
   117         36
   118          2
   125          3
   126          8
   127         74
   128        284
   129         34
   130         37
   131          2
   140          2
   141          2
   142          7
   143        951
   144         90
   145          6
   149          1
   154          1
   155          1
   156          3
   157         54
   158          5
   169          1
   170          3
   171          8
   172          1
   182          1
   184          6
   185          1
   186        576
   187         61
   188          5
   196          1
   199         14
   200          5
   213          9
   214          4
   242         56
   243          9
   244          1