##TITLE=Library Entry 29933
##JCAMP-DX=Revision 4.10 
##DATA TYPE=MASS SPECTRUM
##SAMPLE DESCRIPTION=Japan AIST/NIMC Database- Spectrum MS-IW-2737
##NAMES=HP
##CAS NAME=Bis(cis-13-docosenamido)methane
##MOLFORM=C45H86N2O2
##CAS REGISTRY NO=10436-19-8
##MP= -300
##BP= -300
##MW= 686
##$RETENTION INDEX=0
##$CONDENSED SPECTRUM=NO
##NPOINTS= 246
##XYDATA=(XY..XY) 1 
    26          3
    27         51
    28         24
    29        139
    30        109
    31          4
    32         30
    39         53
    40         10
    41        479
    42         89
    43        472
    44        103
    45         58
    46          3
    51          3
    52          3
    53         44
    54        148
    55        791
    56        170
    57        331
    58         37
    59        999
    60        193
    61          7
    65         12
    66         12
    67        279
    68        139
    69        516
    70        109
    71        128
    72        737
    73        191
    74         15
    77         13
    78          6
    79         52
    80         37
    81        259
    82        156
    83        384
    84        113
    85         74
    86        160
    87         29
    88          3
    91         14
    92          5
    93         34
    94         32
    95        237
    96        146
    97        270
    98        160
    99         48
   100         89
   101         33
   102          3
   105          9
   106          3
   107         30
   108         23
   109        142
   110         93
   111        119
   112        133
   113         50
   114        122
   115         42
   116          4
   117          2
   119          9
   120          5
   121         40
   122         36
   123         92
   124         61
   125         52
   126        151
   127         39
   128        118
   129         18
   130          3
   131          2
   133         11
   134          9
   135         38
   136         33
   137         57
   138         51
   139         30
   140         68
   141         38
   142         56
   143          9
   147         10
   148          7
   149         28
   150         22
   151         38
   152         44
   153         22
   154         60
   155         18
   156         42
   157          9
   161          8
   162          4
   163         15
   164         15
   165         25
   166         36
   167         21
   168         40
   169         12
   170         40
   171          9
   175          7
   176          3
   177          9
   178         13
   179         18
   180         29
   181         15
   182         34
   183         10
   184         40
   185          8
   189          4
   190          2
   191          7
   192         11
   193         14
   194         25
   195         12
   196         31
   197         10
   198         36
   199          8
   203          3
   205          6
   206         11
   207         14
   208         27
   209         14
   210         38
   211         15
   212         29
   213          7
   217          2
   219          6
   220         10
   221         16
   222         41
   223         18
   224         29
   225         14
   226         27
   227          6
   233          5
   234         10
   235         15
   236         72
   237         24
   238         24
   239          9
   240         30
   241          7
   247          5
   248          8
   249         15
   250         95
   251         38
   252         25
   253          8
   254         22
   255          7
   261          3
   262          6
   263         16
   264         48
   265         18
   266         15
   267          7
   268         11
   269          4
   275          2
   276         12
   277         16
   278         39
   279         12
   280         14
   281          5
   282          9
   283          2
   290          7
   291         11
   292         31
   293         12
   294         31
   295         13
   296          9
   302          4
   303          7
   304          9
   305          3
   306         31
   307          9
   308         22
   309          8
   310          4
   311          4
   312          3
   317          2
   318          6
   319         27
   320        139
   321        274
   322         67
   323         25
   324          6
   332          5
   333          2
   334          9
   335          8
   336         16
   337        306
   338        119
   339         29
   340          8
   347          3
   348         11
   349        116
   350         44
   351         33
   352         11
   353          3
   365         18
   366          6
   367          5
   408          6
   658          3
   659          2
   686         79