##TITLE=Library Entry 54143
##JCAMP-DX=Revision 4.10 
##DATA TYPE=MASS SPECTRUM
##SAMPLE DESCRIPTION=W. SCHUNACK, INST. PHARM., FREIE UNIV. BERLIN, BERLIN,
 W. GER.
##NAMES=HP
##CAS NAME=2-(4-Chlorophenylamino)-5-[3-[3-(piperidinomethyl)phenoxy]propyla
mino]-1,3,4-oxadiazole
##MOLFORM=C23H28ClN5O2
##CAS REGISTRY NO=104379-27-3
##MP= -300
##BP= -300
##MW= 441
##$RETENTION INDEX=0
##$CONDENSED SPECTRUM=NO
##NPOINTS= 23
##XYDATA=(XY..XY) 1 
    41        270
    42        230
    56        350
    63        190
    65        150
    76        230
    77        270
    84        999
    90        230
    91        230
    98        540
   107        350
   111        180
   127        420
   152        150
   153        150
   190        150
   191        230
   251         80
   273        120
   274        120
   320        120
   441         40