##TITLE=Library Entry 30134
##JCAMP-DX=Revision 4.10 
##DATA TYPE=MASS SPECTRUM
##SAMPLE DESCRIPTION=Japan AIST/NIMC Database- Spectrum MS-IW-4255
##NAMES=HP
##CAS NAME=cis-11-Eicosenamide
##MOLFORM=C20H39NO
##CAS REGISTRY NO=10436-08-5
##MP= -300
##BP= -300
##MW= 309
##$RETENTION INDEX=0
##$CONDENSED SPECTRUM=NO
##NPOINTS= 266
##XYDATA=(XY..XY) 1 
    15          2
    16          2
    26          7
    27         59
    28         31
    29        148
    30         15
    31          3
    32          2
    36          4
    37          1
    38          3
    39         63
    40         13
    41        487
    42         96
    43        446
    44        126
    45          8
    46          2
    50          2
    51          6
    52          6
    53         49
    54        153
    55        779
    56        221
    57        332
    58         34
    59        999
    60        269
    61         11
    62          1
    63          1
    64          1
    65         17
    66         15
    67        261
    68        119
    69        542
    70        207
    71        137
    72        919
    73        129
    74          8
    75          1
    76          2
    77         20
    78          9
    79         84
    80         57
    81        245
    82        186
    83        410
    84        185
    85         75
    86        141
    87         27
    88          3
    89          3
    91         37
    92         10
    93         62
    94         68
    95        202
    96        201
    97        359
    98        248
    99         57
   100         97
   101         42
   102          4
   103          3
   104          4
   105         27
   106         11
   107         48
   108         64
   109        118
   110        157
   111        171
   112        241
   113         63
   114        134
   115         57
   116          6
   117          7
   118          4
   119         28
   120         19
   121         54
   122        248
   123        127
   124        118
   125         87
   126        271
   127         52
   128        119
   129         23
   130          4
   131          7
   132          4
   133         30
   134         41
   135         48
   136        213
   137        108
   138        100
   139         54
   140         86
   141         29
   142         54
   143         12
   144          3
   145          5
   146          3
   147         27
   148         32
   149         36
   150        100
   151         75
   152         94
   153         40
   154         76
   155         21
   156         49
   157         17
   158          4
   159          4
   160          2
   161         18
   162         16
   163         19
   164         73
   165         48
   166         67
   167         31
   168         41
   169         13
   170         41
   171         13
   172          3
   173          3
   174          2
   175         14
   176         11
   177         12
   178         65
   179         34
   180         48
   181         18
   182         32
   183         15
   184         35
   185          9
   186          3
   187          2
   188          1
   189          9
   190          9
   191          9
   192         58
   193         31
   194         43
   195         18
   196         20
   197         10
   198         29
   199          8
   200          5
   201          2
   202          2
   203          5
   204          6
   205          6
   206         52
   207         32
   208         47
   209         17
   210         20
   211          9
   212         55
   213         13
   214          2
   215          1
   216          1
   217          3
   218          4
   219          5
   220         47
   221         33
   222         24
   223          9
   224         18
   225          8
   226         38
   227         12
   228          3
   229          1
   230          1
   231          3
   232          4
   233          3
   234         57
   235         39
   236         24
   237          9
   238         13
   239          5
   240         11
   241          5
   242          1
   244          1
   245          2
   246          4
   247          2
   248         85
   249         50
   250         49
   251         10
   252         14
   253          5
   254         13
   255          3
   256          1
   258          1
   259          1
   260          3
   261          2
   262         45
   263         32
   264         11
   265          4
   266         51
   267         11
   268          9
   269          2
   273          1
   274          9
   275          2
   276         11
   277          7
   278          3
   279          1
   280         19
   281          5
   282          2
   283          1
   285          2
   287          2
   288          1
   289         11
   290         16
   291        108
   292        146
   293         31
   294          7
   295          1
   305          1
   306          1
   307          9
   308          7
   309        232
   310         70
   311         14
   312          2