##TITLE=Library Entry 35880
##JCAMP-DX=Revision 4.10 
##DATA TYPE=MASS SPECTRUM
##SAMPLE DESCRIPTION=Chemical Concepts
##NAMES=HP
##CAS NAME=Oxazole, 2-ethyl-4,5-dihydro-
##MOLFORM=C5H9NO
##CAS REGISTRY NO=10431-98-8
##MP= -300
##BP= -300
##MW= 99
##$RETENTION INDEX=759
##$CONDENSED SPECTRUM=NO
##NPOINTS= 31
##XYDATA=(XY..XY) 1 
    26         61
    27        199
    28         41
    29        170
    30         16
    37         12
    38         19
    39         72
    40         47
    41        261
    42        131
    43         67
    44         69
    51          9
    52         26
    53         11
    54        450
    55        114
    56         50
    57         41
    58          7
    67         27
    68        123
    69        999
    70        116
    71          8
    72          8
    97         22
    98        545
    99        751
   100         44