##TITLE=Library Entry 6804
##JCAMP-DX=Revision 4.10 
##DATA TYPE=MASS SPECTRUM
##SAMPLE DESCRIPTION=A.A.Kutin, Moscow, Russia
##NAMES=HP
##CAS NAME=Pyrazole, 3-pentafluoroethyl-4-trifluoroethyl-1-methyl-5-(2,2-dim
ethylhyydrazino)-
##MOLFORM=C9H10F8N4
##CAS REGISTRY NO=104315-30-2
##MP= -300
##BP= -300
##MW= 326
##$RETENTION INDEX=0
##$CONDENSED SPECTRUM=NO
##NPOINTS= 130
##XYDATA=(XY..XY) 1 
    33          4
    34          7
    39         33
    40         68
    41         99
    42        402
    43        999
    44        877
    45         86
    46         34
    50          4
    51         23
    52          3
    55         31
    56         47
    57         52
    58        253
    59         96
    60          3
    65          7
    69        175
    70         23
    71          4
    72         35
    73         15
    74          7
    75          3
    77         19
    78          6
    81          7
    82          4
    84         10
    86          2
    89         23
    91         34
    93         27
    94         35
    95          7
    98          4
   100         25
   101         25
   102         14
   103         15
   104         15
   106          3
   108         18
   110          9
   112          6
   113          7
   114         21
   115         27
   116          3
   119         22
   120         43
   121          3
   124         18
   126          6
   127          2
   128         75
   129         47
   131         12
   135          8
   138         17
   140          2
   142          3
   143         62
   144         47
   151          5
   152          4
   155         24
   158          3
   159         20
   160          3
   161         16
   162          4
   164         17
   168          3
   170         85
   171          6
   174         26
   180          3
   183          2
   184         48
   185         52
   188          4
   193          3
   194          7
   198         32
   199         46
   200          6
   208          3
   209          6
   211          2
   212         26
   213         31
   214         30
   220         16
   226          4
   229         23
   238          5
   240        242
   241         12
   244          2
   245         39
   249         59
   254         18
   255        173
   256         15
   259        106
   260         18
   263          8
   264         82
   265          3
   269          2
   279          7
   281          2
   282         59
   283         11
   291          6
   292          2
   298         11
   301          3
   306          6
   307         23
   308          5
   310         22
   311         32
   325         38
   326        413
   327         39