##TITLE=Library Entry 75981
##JCAMP-DX=Revision 4.10 
##DATA TYPE=MASS SPECTRUM
##SAMPLE DESCRIPTION=CARL DJERASSI DEPT OF CHEM STANFORD UNIV STANFORD CALIF
 94305
##NAMES=HP
##CAS NAME=Phenethylamine, TMS derivative
##MOLFORM=C11H19NSi
##CAS REGISTRY NO=10433-33-7
##MP= -300
##BP= -300
##MW= 193
##$RETENTION INDEX=1280
##$CONDENSED SPECTRUM=NO
##NPOINTS= 58
##XYDATA=(XY..XY) 1 
    41         30
    42         20
    43        110
    44         60
    45        130
    46         20
    47         10
    50         10
    51         30
    52         10
    53         10
    55         10
    56         20
    57         20
    58         60
    59        110
    60         10
    63         20
    65         50
    66         10
    72         30
    73        700
    74         80
    75         40
    77         30
    78         10
    79         10
    86         40
    87         20
    89         20
    90         10
    91        110
    92         20
   101         10
   102        999
   103        120
   104         50
   105         20
   117         10
   119         10
   121         20
   131         10
   133         10
   135         10
   145         10
   147         70
   148         10
   149         20
   160         10
   161         10
   162         10
   178        120
   179         20
   191          1
   192          6
   193          2
   194          7
   195          3