##TITLE=Library Entry 37380
##JCAMP-DX=Revision 4.10 
##DATA TYPE=MASS SPECTRUM
##SAMPLE DESCRIPTION=P. Vainiotalo, Dep. Chem., Univ. Joensuu, Joensuu, Finl
and
##NAMES=HP
##CAS NAME=Bicyclo[2.2.1]heptane-2-carboxylic acid, 3-amino-, endo,endo-
##MOLFORM=C8H13NO2
##CAS REGISTRY NO=104308-53-4
##MP= -300
##BP= -300
##MW= 155
##$RETENTION INDEX=0
##$CONDENSED SPECTRUM=NO
##NPOINTS= 83
##XYDATA=(XY..XY) 1 
    14         12
    15         39
    16          6
    17         62
    26         16
    27        116
    29         60
    30        543
    31         16
    38         12
    39        149
    41        202
    42         83
    43        336
    44         98
    45         24
    46         22
    50          9
    51         27
    52         21
    53         81
    54         64
    55         51
    56        726
    57         77
    60         16
    61          5
    62          5
    63          8
    65         52
    66        123
    67        216
    68         82
    69        324
    70        999
    71         88
    72         17
    73         13
    77         44
    78         22
    79         50
    80         83
    81        122
    82        366
    83         46
    84         14
    86         10
    87        161
    88         86
    89        325
    90         27
    91         44
    92         26
    93         97
    94         46
    95         92
    96         90
    97         25
   100         39
   101         10
   106          6
   107         10
   108         51
   109         64
   110        233
   111         21
   112         10
   113          8
   114         18
   120         12
   125         11
   126        205
   127        364
   128         28
   129          4
   136          9
   137         16
   138         78
   139          8
   154         10
   155        306
   156         38
   157          4