##TITLE=Library Entry 70775
##JCAMP-DX=Revision 4.10 
##DATA TYPE=MASS SPECTRUM
##SAMPLE DESCRIPTION=Japan AIST/NIMC Database- Spectrum MS-IW-2795
##NAMES=HP
##CAS NAME=2-Isopropyl-1,3-oxazol-2-ine
##MOLFORM=C6H11NO
##CAS REGISTRY NO=10431-99-9
##MP= -300
##BP= -300
##MW= 113
##$RETENTION INDEX=802
##$CONDENSED SPECTRUM=NO
##NPOINTS= 55
##XYDATA=(XY..XY) 1 
    14          3
    15         23
    26         10
    27         79
    28         62
    29         14
    30          7
    31          2
    37          4
    38          9
    39         71
    40         23
    41        491
    42         91
    43        170
    44        104
    45          9
    48          1
    50          2
    51          4
    52          7
    53          9
    54         22
    55        203
    56         40
    57          5
    58          2
    64          1
    65          2
    66          4
    67         16
    68         82
    69         61
    70         36
    71         10
    72          9
    73          1
    80          1
    81          3
    82         40
    83        279
    84         35
    85         39
    86          2
    88          4
    96          3
    97          1
    98        999
    99         61
   100          4
   111          1
   112        218
   113        223
   114         15
   115          1