##TITLE=Library Entry 37699
##JCAMP-DX=Revision 4.10 
##DATA TYPE=MASS SPECTRUM
##SAMPLE DESCRIPTION=A.C.MOFFAT, BAYLOR UNIVERSITY, HOUSTON, TEXAS, USA
##NAMES=HP
##CAS NAME=Benzeneethanamine, N-(1-methylethylidene)-
##MOLFORM=C11H15N
##CAS REGISTRY NO=10433-34-8
##MP= -300
##BP= -300
##MW= 161
##$RETENTION INDEX=0
##$CONDENSED SPECTRUM=NO
##NPOINTS= 58
##XYDATA=(XY..XY) 1 
    28         22
    29          3
    30         44
    38          3
    39         35
    40          5
    41         47
    42         40
    43          6
    50          7
    51         27
    52          6
    53          4
    54          9
    55         24
    56          3
    58          2
    62          2
    63          9
    64          2
    65         25
    66          2
    68          3
    69          4
    70        999
    71         50
    72          1
    73          5
    74          2
    75          2
    76          3
    77         49
    78         15
    79         26
    80          1
    89          5
    90          2
    91         41
    92          3
   102          4
   103         25
   104         27
   105        117
   106         11
   115          1
   116          1
   117          1
   118          3
   119          0
   128          1
   133          2
   144          2
   145          1
   146         49
   147          5
   160          3
   161          8
   162          1