##TITLE=Library Entry 63403
##JCAMP-DX=Revision 4.10 
##DATA TYPE=MASS SPECTRUM
##SAMPLE DESCRIPTION=Humboldt-Universitat zu Berlin, Department of Chemistry
, Analytical Group
##NAMES=HP
##CAS NAME=1H-1,2,4-Triazole, 1,3,5-triphenyl-
##MOLFORM=C20H15N3
##CAS REGISTRY NO=1043-46-5
##MP= -300
##BP= -300
##MW= 297
##$RETENTION INDEX=0
##$CONDENSED SPECTRUM=NO
##NPOINTS= 73
##XYDATA=(XY..XY) 1 
    14          5
    16          8
    17          9
    18          7
    27         21
    28         16
    29          8
    37          5
    38         21
    39         74
    40         15
    41         57
    42          5
    43         11
    45          5
    50         38
    51        124
    52         38
    53          5
    55          5
    57          5
    62         19
    63        108
    64        263
    65         62
    66          5
    74          7
    75         15
    76         74
    77        112
    78          8
    87          8
    88          8
    89         66
    90         24
    91        999
    92         77
   102          8
   103        101
   104         42
   105          5
   113          5
   139          6
   140          6
   149         13
   150          2
   151          5
   152          2
   163          5
   164          8
   165         12
   166         11
   167         28
   168          5
   177          3
   178          7
   179          2
   180          2
   190          2
   191          2
   192          7
   193         39
   194        617
   195         96
   196          7
   270          1
   294          0
   295          3
   296          8
   297        521
   298        117
   299         12
   300          0