##TITLE=Library Entry 15917
##JCAMP-DX=Revision 4.10 
##DATA TYPE=MASS SPECTRUM
##SAMPLE DESCRIPTION=Chemical Concepts
##NAMES=HP
##CAS NAME=2-Nonenoic acid, 9-(dimethylamino)-7-hydroxy-2-methyl-9-oxo-, met
hyl ester, (E)-
##MOLFORM=C13H23NO4
##CAS REGISTRY NO=104336-05-2
##MP= -300
##BP= -300
##MW= 257
##$RETENTION INDEX=0
##$CONDENSED SPECTRUM=NO
##NPOINTS= 141
##XYDATA=(XY..XY) 1 
    26          8
    27         61
    28         35
    29         52
    30         82
    31         44
    38          6
    39         63
    40         23
    41        135
    42        180
    43        630
    44        999
    45        638
    46        176
    47         11
    48          9
    49         44
    50          7
    51         16
    52          8
    53         47
    54         29
    55        126
    56         32
    57         40
    58         72
    59         49
    60        147
    61         14
    65         15
    66         20
    67        107
    68         36
    69         61
    70         22
    71         46
    72        540
    73         45
    74         19
    75         22
    77         22
    78          5
    79         29
    80          7
    81         53
    82         62
    83         74
    84        131
    85         41
    86         23
    87        853
    88         75
    89          8
    91         41
    92         11
    93         39
    94         24
    95        121
    96         59
    97         29
    98         32
    99         24
   100         26
   101         32
   102          6
   104          6
   105         16
   106         23
   107         29
   108         12
   109         26
   110         54
   111        111
   112         24
   113         34
   114         73
   115         13
   116        289
   117         33
   119          6
   120          7
   121         12
   122          8
   123          9
   124         20
   125         41
   126        116
   127        131
   128         17
   129        100
   130         42
   131          8
   134         24
   135         36
   136          9
   137          8
   138        112
   139         39
   140         18
   141         15
   142         67
   143         11
   144         11
   151          8
   152         15
   153          9
   154         10
   155          8
   156          8
   157          7
   162         92
   163         28
   164         12
   166          7
   168          7
   169          8
   170         36
   171          6
   176          3
   177          4
   178         17
   179         71
   180         31
   181          8
   182          5
   189          8
   196          9
   197         21
   198          8
   207         99
   208         33
   209          5
   212          5
   215          2
   225         22
   226         14
   239         16
   240          4
   257         37
   258         10