##TITLE=Library Entry 38615
##JCAMP-DX=Revision 4.10 
##DATA TYPE=MASS SPECTRUM
##SAMPLE DESCRIPTION=D.MODERHACK,INST. PHARM. CHEM.,TECH. UNIV. BRAUNSCHWEIG
,W. GER
##NAMES=HP
##CAS NAME=2-(tert-Butylaminooxy)-3,3-dimethylbutyranilide
##MOLFORM=C16H26N2O2
##CAS REGISTRY NO=104351-13-5
##MP= -300
##BP= -300
##MW= 278
##$RETENTION INDEX=0
##$CONDENSED SPECTRUM=NO
##NPOINTS= 15
##XYDATA=(XY..XY) 1 
    43        870
    56        600
    57        640
    71        999
    83        380
    93        610
   120        760
   134        460
   142        430
   150        190
   162        300
   176        680
   190        680
   263        540
   278        680