##TITLE=Library Entry 19453
##JCAMP-DX=Revision 4.10 
##DATA TYPE=MASS SPECTRUM
##SAMPLE DESCRIPTION=Chemical Concepts
##NAMES=HP
##CAS NAME=3-Butyl-2-nitrohept-1-ene
##MOLFORM=C11H21NO2
##CAS REGISTRY NO=104313-56-6
##MP= -300
##BP= -300
##MW= 199
##$RETENTION INDEX=0
##$CONDENSED SPECTRUM=NO
##NPOINTS= 106
##XYDATA=(XY..XY) 1 
    26         14
    27        243
    28         41
    29        421
    30         40
    31         12
    37          2
    38          6
    39        185
    40         33
    41        750
    42         72
    43        335
    44         13
    45         11
    46          3
    48          2
    51         26
    52         22
    54        430
    55        999
    56        128
    57        410
    58         20
    59         25
    60          7
    61          2
    63          5
    65         42
    66         22
    67        327
    68        290
    69        420
    70         41
    71        107
    72         13
    73         66
    74          5
    76          2
    77         40
    78          8
    79         58
    80         19
    81        303
    82         44
    83        134
    84         27
    85         54
    86         17
    87         11
    88          4
    89         15
    91         18
    92          3
    93         30
    94         12
    95        500
    96         72
    97        158
    98         24
    99          8
   100         57
   101         12
   102         12
   103          4
   105          2
   107          6
   108         18
   109        109
   110         43
   111         35
   112         28
   113         10
   114         19
   115          8
   116          6
   117          3
   121          4
   122          3
   123         18
   124          9
   125          9
   126         55
   127         14
   128         12
   129          4
   137          6
   138          4
   140          5
   141          5
   142         29
   143         53
   144         70
   145         14
   150          4
   151         35
   152         10
   153          3
   155          2
   156         21
   157          3
   169         11
   170          7
   182         44
   183          5
   200          3