##TITLE=Library Entry 98531
##JCAMP-DX=Revision 4.10 
##DATA TYPE=MASS SPECTRUM
##SAMPLE DESCRIPTION=V.Zaikin,Inst.Petrochem.Synth.,RAS,Moscow
##NAMES=HP
##CAS NAME=4-Methoxybenzoic acid, 3-phenylpropyl ester
##MOLFORM=C17H18O3
##CAS REGISTRY NO=104330-37-2
##MP= -300
##BP= -300
##MW= 270
##$RETENTION INDEX=0
##$CONDENSED SPECTRUM=NO
##NPOINTS= 82
##XYDATA=(XY..XY) 1 
    26          7
    27         18
    28          2
    29         17
    30          2
    39         49
    40         11
    41         27
    42          3
    43          9
    50         38
    51         46
    52         13
    53         15
    54          2
    55          7
    56          2
    57          4
    61          4
    62         18
    63         54
    64         60
    65         51
    66         12
    67          2
    69          4
    70          4
    71          3
    73          4
    74         12
    75         16
    76         22
    77        163
    78         35
    79         24
    81         12
    82          4
    85          9
    89          8
    90          4
    91        151
    92        128
    93         10
    94          5
    95          3
    96          3
    97          2
    98          3
   102          5
   103         22
   104         17
   105         16
   106          4
   107         44
   108          8
   109          9
   113          3
   114          3
   115         24
   116         71
   117        317
   118        999
   119         97
   120          9
   121          4
   122          2
   124          3
   131          5
   133          2
   134         11
   135        409
   136         37
   137          5
   139          2
   142          4
   147          4
   149          3
   150          2
   152        167
   153         27
   154          2
   179          3