##TITLE=Library Entry 85041
##JCAMP-DX=Revision 4.10 
##DATA TYPE=MASS SPECTRUM
##SAMPLE DESCRIPTION=Chemical Concepts
##NAMES=HP
##CAS NAME=4-Aza-5-thiatricyclo[5.2.1.0(3,7)]dec-3-ene-5,5-dioxide, (7S)-10,
10-dimethyl-
##MOLFORM=C10H15NO2S
##CAS REGISTRY NO=104319-35-9
##MP= -300
##BP= -300
##MW= 213
##$RETENTION INDEX=0
##$CONDENSED SPECTRUM=NO
##NPOINTS= 97
##XYDATA=(XY..XY) 1 
    26          9
    27        110
    29         48
    30          5
    37          2
    38         10
    39        185
    41        222
    42         48
    43         55
    44          1
    45          2
    46          0
    48         19
    49          1
    50         11
    51         45
    52         31
    53        107
    54         50
    55        112
    56         14
    57          5
    58          0
    59          1
    61          0
    62          3
    63         12
    64         30
    65         59
    66         31
    67        281
    68         45
    69         45
    70          9
    71          0
    74          1
    75          2
    76          3
    77        119
    78         29
    79        165
    80         47
    81         82
    82        181
    83         29
    84          1
    87          0
    88          1
    89          4
    90          3
    91        110
    92         33
    93        464
    94        109
    95         31
    96          3
    97          0
   102          2
   103          4
   104          6
   105         26
   106         84
   107        119
   108        999
   109        396
   110         26
   111          1
   115          3
   116          3
   117         30
   118          9
   119          9
   120         42
   121         40
   122          7
   123          1
   129          0
   130          1
   131          7
   132         16
   133          6
   134        271
   135         25
   136          1
   145          1
   146          2
   147          1
   148         52
   149         42
   150          5
   166          0
   170          1
   171          1
   198          1
   213          7
   214          3