##TITLE=Library Entry 54086
##JCAMP-DX=Revision 4.10 
##DATA TYPE=MASS SPECTRUM
##SAMPLE DESCRIPTION=W. SCHUNACK, INST. PHARM., FREIE UNIV. BERLIN, BERLIN,
 W. GER.
##NAMES=HP
##CAS NAME=2-(Benzylamino)-5-[3-[3-(piperidinomethyl)phenoxy]propylamino]-1,
3,4-oxadiazole
##MOLFORM=C24H31N5O2
##CAS REGISTRY NO=104379-14-8
##MP= -300
##BP= -300
##MW= 421
##$RETENTION INDEX=0
##$CONDENSED SPECTRUM=NO
##NPOINTS= 26
##XYDATA=(XY..XY) 1 
    41        150
    42        120
    51        150
    56        210
    58        150
    65        120
    77        260
    78        180
    79        150
    84        999
    91        740
    98        350
   105        240
   106        260
   107        240
   108        120
   133        240
   190        120
   191        210
   231         20
   247         30
   248         30
   273         90
   274         90
   338         10
   421          1