##TITLE=Library Entry 9451
##JCAMP-DX=Revision 4.10 
##DATA TYPE=MASS SPECTRUM
##SAMPLE DESCRIPTION=Chemical Concepts
##NAMES=HP
##CAS NAME=3-Cyclohexen-1-ol, acetate
##MOLFORM=C8H12O2
##CAS REGISTRY NO=10437-78-2
##MP= -300
##BP= -300
##MW= 140
##$RETENTION INDEX=1010
##$CONDENSED SPECTRUM=NO
##NPOINTS= 65
##XYDATA=(XY..XY) 1 
    25          0
    26          8
    27         97
    29         16
    30          0
    31          5
    33          0
    37          3
    38          9
    39        124
    40         19
    41        131
    42         16
    43        999
    44         36
    45          3
    49          1
    50         15
    51         30
    52         21
    53         66
    54         75
    55         21
    56          3
    57          9
    58          6
    59          0
    60          1
    61          7
    62          1
    63          4
    64          0
    65         18
    66          9
    67         26
    68          6
    69         13
    70          9
    71          1
    73          0
    74          2
    75          2
    76          2
    77         53
    78         25
    79        448
    80        973
    81        112
    82          7
    83         12
    84          2
    85          0
    86         10
    87          0
    91          0
    93          0
    94          0
    95          3
    96          2
    97         15
    98          5
    99          0
   107          0
   111          0
   112          1