##TITLE=Library Entry 97671
##JCAMP-DX=Revision 4.10 
##DATA TYPE=MASS SPECTRUM
##SAMPLE DESCRIPTION=N.Klyuev, Institute of Ecology & Evolution, RAS, Moscow
##NAMES=HP
##CAS NAME=6-Phenyl-1,2,4-triazine-5-amine, 4-oxide
##MOLFORM=C9H8N4O
##CAS REGISTRY NO=104405-61-0
##MP= -300
##BP= -300
##MW= 188
##$RETENTION INDEX=0
##$CONDENSED SPECTRUM=NO
##NPOINTS= 57
##XYDATA=(XY..XY) 1 
    50         17
    51         23
    52         10
    53          3
    54          1
    57          2
    58         83
    59          9
    62         14
    63         24
    64         11
    65          8
    75        117
    76        287
    77        428
    78         83
    79         13
    87         52
    88        153
    89        613
    90        386
    91          7
   102         44
   103        328
   104        297
   105        325
   106         34
   107          7
   110          3
   111          5
   112          4
   113          3
   114         38
   115        164
   116        234
   117        999
   118        202
   131        163
   132         22
   141        142
   142        135
   143         55
   144         25
   145          6
   146          2
   160         15
   161         47
   162          8
   170        236
   171        653
   172        913
   173        222
   174         14
   187         24
   188        371
   189         46
   190          4