##TITLE=Library Entry 93589
##JCAMP-DX=Revision 4.10 
##DATA TYPE=MASS SPECTRUM
##SAMPLE DESCRIPTION=Chemical Concepts
##NAMES=HP
##CAS NAME=2-Pyrrolidinethione, 1-methyl-
##MOLFORM=C5H9NS
##CAS REGISTRY NO=10441-57-3
##MP= -300
##BP= -300
##MW= 115
##$RETENTION INDEX=0
##$CONDENSED SPECTRUM=NO
##NPOINTS= 82
##XYDATA=(XY..XY) 1 
    25          0
    26         12
    27         47
    28          5
    29         12
    30        363
    31          4
    33          1
    34          0
    35          0
    37          3
    38          7
    39         61
    40         33
    41        139
    42        165
    43         39
    44         80
    45        105
    46         33
    47         21
    48          1
    49          1
    50          2
    51          4
    52          7
    53         17
    54         93
    55        108
    56         51
    57         24
    58        108
    59         55
    60         16
    61          4
    62          0
    63          0
    64          1
    65          1
    66          2
    67         10
    68         49
    69         11
    70         76
    71         69
    72         77
    73        225
    74         70
    75         12
    76          3
    77          0
    78          2
    79          0
    80         21
    81         91
    82        241
    83         14
    84          8
    85         68
    86         53
    87        104
    88          9
    89          5
    91          0
    95          0
    96          1
    97          1
    98          5
    99          5
   100         35
   101          2
   102          1
   110          0
   111          0
   112          3
   113          2
   114        395
   115        999
   116        135
   117         85
   118          5
   119          0