##TITLE=Library Entry 54112
##JCAMP-DX=Revision 4.10 
##DATA TYPE=MASS SPECTRUM
##SAMPLE DESCRIPTION=Japan AIST/NIMC Database- Spectrum MS-IW-4668
##NAMES=HP
##CAS NAME=2-Imidazoline, 2-undecyl-
##MOLFORM=C14H28N2
##CAS REGISTRY NO=10443-61-5
##MP= -300
##BP= -300
##MW= 224
##$RETENTION INDEX=0
##$CONDENSED SPECTRUM=NO
##NPOINTS= 124
##XYDATA=(XY..XY) 1 
    15          3
    16          1
    26          1
    27         17
    28         19
    29         37
    30         91
    31          3
    32         17
    39         10
    40          2
    41         79
    42         38
    43        213
    44        153
    45          8
    46          1
    52          1
    53          6
    54         25
    55         77
    56         18
    57         38
    58         21
    59         16
    60          5
    61          5
    65          1
    66          1
    67         15
    68         13
    69         22
    70          9
    71         13
    72          9
    73        161
    74          8
    77          1
    79          2
    80          2
    81         12
    82         40
    83         15
    84        999
    85         74
    86        151
    87         23
    88          4
    93          1
    94          2
    95         24
    96         11
    97        425
    98        146
    99          9
   100         32
   101          5
   102         43
   103          2
   107          1
   108          2
   109          9
   110          8
   111         61
   112         12
   113          1
   114          6
   115         17
   116          2
   121          1
   122          1
   123         11
   124          8
   125         45
   126         12
   127          1
   128         21
   129          9
   130          2
   137          8
   138          2
   139        127
   140         16
   141          1
   142         26
   143          5
   151          3
   152          2
   153         49
   154          9
   155          1
   156          8
   157          4
   165          2
   166          3
   167         30
   168          6
   170         18
   171          5
   172          3
   179          2
   181         26
   182          7
   183          7
   184         11
   185          4
   193          2
   194          2
   195         33
   196          8
   197          1
   198          2
   199          6
   200         71
   201          9
   209          9
   210          3
   221          1
   222          3
   223         58
   224         79
   225         25
   226          3
   227          1