##TITLE=Library Entry 65991
##JCAMP-DX=Revision 4.10 
##DATA TYPE=MASS SPECTRUM
##SAMPLE DESCRIPTION=Chemical Concepts
##NAMES=HP
##CAS NAME=3,7-Nonadienamide, 4,8-dimethyl-N-phenyl-, (E)-
##MOLFORM=C17H23NO
##CAS REGISTRY NO=104476-99-5
##MP= -300
##BP= -300
##MW= 257
##$RETENTION INDEX=0
##$CONDENSED SPECTRUM=NO
##NPOINTS= 200
##XYDATA=(XY..XY) 1 
    25          0
    26          2
    27         74
    28         17
    29         54
    30          1
    31          0
    33          0
    34          0
    36          0
    37          1
    38          8
    39        137
    40         37
    41        587
    42         41
    43         41
    44          3
    45          0
    46          0
    49          0
    50         11
    51         67
    52         17
    53        104
    54         16
    55         82
    56          8
    57          8
    58          1
    59          0
    61          0
    62          2
    63         17
    64         21
    65        112
    66         57
    67        170
    68         78
    69        588
    70        227
    71         12
    72          0
    74          1
    75          2
    76          5
    77        286
    78         29
    79         45
    80         14
    81         87
    82         25
    83         14
    84          1
    85          0
    88          0
    89          1
    90          1
    91         64
    92        256
    93        999
    94        149
    95        190
    96        131
    97         23
    98          2
   101          1
   102          1
   103          5
   104         15
   105         15
   106         20
   107         78
   108         13
   109         30
   110          4
   111          2
   112          1
   113          1
   114          0
   115          4
   116          2
   117         10
   118         12
   119         54
   120        220
   121         59
   122        116
   123        131
   124         14
   125          1
   126          1
   127          1
   128          3
   129          2
   130         11
   131          9
   132         10
   133          8
   134         67
   135        433
   136         59
   137         24
   138          8
   139          1
   140          0
   141          0
   142          0
   143          2
   144          7
   145          6
   146         37
   147         13
   148         22
   149         16
   150          2
   151          0
   152          0
   153          0
   154          1
   155          1
   156          2
   157          2
   158          5
   159          5
   160          8
   161          4
   162          4
   163         55
   164         21
   165         11
   166          2
   167          1
   168          1
   169          0
   170          5
   171          2
   172         16
   173          8
   174         38
   175         16
   176          4
   177          4
   178          0
   179          0
   180          0
   182          1
   183          0
   184          3
   185          2
   186         13
   187          0
   188        428
   189         98
   190         11
   194          0
   196          0
   197          0
   198          2
   199          2
   200          4
   201          4
   202          9
   203          2
   204          0
   206          0
   211          0
   212          1
   213          2
   214        107
   215         22
   216          6
   217          1
   218          0
   222          0
   224          1
   226          3
   227          0
   228          2
   229          1
   230          0
   231          0
   232          0
   238          0
   239          3
   240          3
   241          5
   242         17
   243          5
   244          1
   245          0
   246          0
   248          0
   252          1
   255          5
   256          7
   257        319
   258         59
   259         14
   260          2