##TITLE=Library Entry 80052
##JCAMP-DX=Revision 4.10 
##DATA TYPE=MASS SPECTRUM
##SAMPLE DESCRIPTION=LAC, NIDDK, NIH, Bethesda, MD 20892
##NAMES=HP
##CAS NAME=Diethylamino, N-benzoyl-2,2'-di-[isoindole-1,3-dione-2-yl]-
##MOLFORM=C27H21N3O5
##CAS REGISTRY NO=104435-61-2
##MP= -300
##BP= -300
##MW= 467
##$RETENTION INDEX=0
##$CONDENSED SPECTRUM=NO
##NPOINTS= 97
##XYDATA=(XY..XY) 1 
    41          0
    42         25
    43          3
    44          3
    47          1
    49          2
    50         14
    51         30
    52          1
    54          3
    55          8
    56          3
    57          5
    63          1
    64          0
    65          1
    68          0
    69          0
    70          0
    73          1
    74          3
    75          7
    76         37
    77        255
    78         17
    79          0
    83          3
    84          1
    85          1
    86          0
    89          2
    90          2
    91          4
    92          0
   102          8
   103          0
   104         26
   105        999
   106         75
   107          4
   116          1
   117          3
   118          1
   119          0
   122          3
   127          0
   129          3
   130         22
   131          2
   132         12
   133         19
   134          7
   137          0
   144          1
   145          2
   146          4
   147         13
   148          2
   149          0
   150          2
   152          1
   157          2
   160        106
   161         13
   162          1
   165          1
   171          4
   173         53
   174         20
   175          2
   189          4
   201          2
   202          1
   203          3
   215          1
   277          1
   278          1
   289          0
   292          2
   293         39
   294         16
   295          4
   307        218
   308         44
   309          5
   319          6
   320         11
   321          2
   346          7
   347          1
   362         89
   363         19
   364          3
   466          4
   467         40
   468         12
   469          2