##TITLE=Library Entry 52697
##JCAMP-DX=Revision 4.10 
##DATA TYPE=MASS SPECTRUM
##SAMPLE DESCRIPTION=Chemical Concepts
##NAMES=HP
##CAS NAME=7-Hydroxy-2,4,6-trimethyl-8-oxazol-5-yloct-2-enoic acid, methyl e
ster
##MOLFORM=C15H23NO4
##CAS REGISTRY NO=104418-91-9
##MP= -300
##BP= -300
##MW= 281
##$RETENTION INDEX=0
##$CONDENSED SPECTRUM=NO
##NPOINTS= 126
##XYDATA=(XY..XY) 1 
    27         43
    28         46
    29         63
    30          6
    31         18
    38         48
    39         37
    40         35
    41        174
    42         26
    43        128
    44         10
    45         32
    51          6
    52          5
    53         51
    54         41
    55        144
    56         23
    57         75
    58         15
    59         59
    60          3
    61          2
    65         17
    66         10
    67        125
    68         34
    69        295
    70         30
    71         36
    72         12
    73         27
    74          5
    75          2
    77         17
    78          4
    79         27
    80          8
    81         63
    82        100
    83        999
    84         82
    85         37
    86          3
    87          4
    88         10
    89          2
    91         12
    92          4
    93         21
    94          7
    95         99
    96         42
    97         32
    98          9
    99         19
   100          2
   101         20
   103          3
   104          2
   105         10
   106          3
   107         16
   108          9
   109         96
   110         18
   111        136
   112         44
   113         16
   114          4
   115          4
   116          3
   119          4
   120          4
   121         76
   122         17
   123         22
   124         13
   125         16
   126         12
   127         56
   128         36
   129          7
   130          3
   131          2
   133          2
   135          7
   136         15
   137         16
   138         11
   139         87
   140         27
   141         19
   142          2
   143          5
   148          2
   149         16
   150          2
   151          3
   152         64
   153          9
   154          3
   155          2
   162          2
   163          2
   165          3
   166          5
   167        215
   168         26
   169         11
   172          2
   180          7
   181          7
   194          3
   196          3
   199         53
   200          6
   201          3
   204          5
   222          6
   223          2
   249          6
   250          7
   263          3
   281          9