##TITLE=Library Entry 96813
##JCAMP-DX=Revision 4.10 
##DATA TYPE=MASS SPECTRUM
##SAMPLE DESCRIPTION=Chemical Concepts
##NAMES=HP
##CAS NAME=Vanadium, (.eta.5-2,4-cyclopentadien-1-yl)[(1,2,3,4,4a,8a-.eta.)-
naphthalene]-
##MOLFORM=C15H13V
##CAS REGISTRY NO=104439-12-5
##MP= -300
##BP= -300
##MW= 244
##$RETENTION INDEX=0
##$CONDENSED SPECTRUM=NO
##NPOINTS= 127
##XYDATA=(XY..XY) 1 
    25          0
    26          3
    27          4
    28          3
    29          1
    31          0
    36          0
    37          3
    38          5
    39         24
    40          2
    41          1
    43          0
    44          0
    49          0
    50         11
    51        103
    52          4
    53          0
    55          0
    56          0
    57          0
    58          0
    60          0
    61          2
    62          6
    63         13
    64          7
    65          6
    66          2
    67          0
    73          0
    74         10
    75         11
    76         29
    77         12
    78          8
    79          0
    85          0
    86          2
    87          3
    88         13
    89         36
    90        113
    91          3
    98          2
    99          1
   100          8
   101          6
   102         24
   103          2
   104          0
   106          0
   112          2
   113          4
   114          7
   115          7
   116        999
   117         53
   118          1
   119          0
   121          0
   122         15
   123          0
   124          1
   125          2
   126         16
   127         30
   128        169
   129         19
   130          1
   132          0
   136          0
   137          1
   138          2
   139          3
   140          3
   141          1
   149          5
   150          1
   151          2
   152          7
   153          2
   154          0
   155          1
   161          0
   162          0
   163          1
   164          5
   165          4
   166          4
   167          0
   175          0
   176          0
   177          4
   178          1
   179          1
   180          0
   181         20
   182          2
   187          0
   188          1
   189          2
   190          3
   191          2
   192          0
   201          0
   203          0
   204          0
   212          0
   213          0
   214          3
   215          1
   216          4
   217          1
   230          0
   232          1
   238          0
   239          0
   240          3
   241          1
   242          2
   243          4
   244        233
   245         34
   246          3
   247          0