##TITLE=Library Entry 39368
##JCAMP-DX=Revision 4.10 
##DATA TYPE=MASS SPECTRUM
##SAMPLE DESCRIPTION=F. TURECEK,HEYROVSKY INST PHYS CHEM & ELECTROCHEM,PRAGU
E,CZECH
##NAMES=HP
##CAS NAME=2-Dimethylamino-4-phenyl-(4H)-1,3-oxazine-5-carboxaldehyde
##MOLFORM=C13H14N2O2
##CAS REGISTRY NO=104409-69-0
##MP= -300
##BP= -300
##MW= 230
##$RETENTION INDEX=0
##$CONDENSED SPECTRUM=NO
##NPOINTS= 100
##XYDATA=(XY..XY) 1 
    26         29
    27        120
    29         65
    39        110
    40         26
    41        110
    42        250
    43        120
    44        190
    45         14
    50         90
    51        250
    52         65
    53         72
    54         29
    55         87
    56         43
    57         87
    58         10
    62         26
    63         72
    64         19
    65         40
    66         11
    67         29
    68         13
    69        380
    70        190
    71        999
    72        190
    73         19
    74         40
    75         54
    76         80
    77        450
    78        220
    79         33
    80         10
    81         29
    82         48
    83         32
    84         11
    85         29
    89         43
    91         59
    92         15
    93         14
    94         10
    95         32
    96         13
    97         80
    98         84
    99         43
   101         22
   102         83
   103        310
   104        220
   105         43
   106         22
   107         10
   111         13
   114         11
   115         86
   116         29
   117         22
   118         22
   119         20
   125         16
   126         10
   128         21
   129         33
   130         29
   131        870
   132        370
   133         43
   139         43
   143         12
   144         10
   145          9
   152         12
   153        440
   154         32
   157         14
   158         30
   159         58
   160        160
   161         29
   173         72
   174         14
   185         17
   186         25
   187        100
   188         12
   201        230
   202         72
   203         10
   215         10
   229         87
   230        510
   231         87