##TITLE=Library Entry 5435
##JCAMP-DX=Revision 4.10 
##DATA TYPE=MASS SPECTRUM
##SAMPLE DESCRIPTION=Chemical Concepts
##NAMES=HP
##CAS NAME=Bromperidol
##MOLFORM=C21H23BrFNO2
##CAS REGISTRY NO=10457-90-6
##MP= -300
##BP= -300
##MW= 419
##$RETENTION INDEX=3023
##$CONDENSED SPECTRUM=NO
##NPOINTS= 168
##XYDATA=(XY..XY) 1 
    27         16
    28         53
    29          8
    30         99
    31          8
    39          5
    40         12
    41         63
    42        999
    43         19
    44         11
    45         10
    46          1
    48          0
    49          0
    50          6
    51         10
    52          2
    53          6
    54         22
    55         39
    56        308
    58         22
    60         41
    62          0
    63          3
    64          1
    65          6
    66          0
    68         46
    70        154
    71         46
    72          2
    75         29
    76         22
    77         25
    78          8
    82         49
    83        201
    84        220
    86         65
    89          5
    90         11
    91         13
    92          0
    94          2
    95        125
    96         13
    98        105
   101          2
   102         25
   103         12
   104         20
   105          3
   106          0
   108          4
   112         80
   114          0
   115         28
   116         10
   117          7
   118          4
   121          0
   122          1
   123        368
   124         26
   128         14
   129         34
   130         54
   131         16
   132         24
   133         10
   135          3
   138         12
   142         11
   143          9
   144         16
   145          0
   146          2
   154          0
   155         15
   156          3
   157         23
   158          1
   160          1
   162          0
   163          3
   164          5
   165        141
   166         15
   169         13
   170          5
   171         25
   172          2
   174          0
   176          2
   180          0
   181         22
   182          3
   183         61
   184          6
   185         38
   186          3
   188          0
   189         33
   190          6
   192          1
   193          0
   194          3
   196          0
   198          3
   200          2
   202         12
   203          1
   204          1
   206          3
   210          0
   211          5
   212          2
   213          5
   214          0
   217          0
   220          2
   226          7
   228          7
   229          0
   234          1
   236          8
   237          0
   238         10
   240          8
   242          4
   246          0
   248          0
   249          0
   250        140
   251         18
   252        135
   253         24
   254         19
   255         11
   256         15
   257          2
   262          0
   263         16
   264         14
   265         17
   266         25
   268        646
   269         86
   270        641
   271         87
   272          5
   280          1
   281        595
   282         73
   283        590
   284         84
   285          5
   294          1
   400          0
   402          0
   404          1
   418          1
   419         11
   420          5
   421         11
   422          3