##TITLE=Library Entry 27784
##JCAMP-DX=Revision 4.10 
##DATA TYPE=MASS SPECTRUM
##SAMPLE DESCRIPTION=V.I. TYVORSKII, BELORUSS. STATE UNIV. V.I. LENIN, MINSK
, USSR
##NAMES=HP
##CAS NAME=2(5H)-Furanone, 3-bromo-5-((dimethylamino)methyl)-4,5-dimethyl-
##MOLFORM=C9H14BrNO2
##CAS REGISTRY NO=104502-47-8
##MP= -300
##BP= -300
##MW= 247
##$RETENTION INDEX=0
##$CONDENSED SPECTRUM=NO
##NPOINTS= 19
##XYDATA=(XY..XY) 1 
    42        420
    43        400
    44        220
    57        320
    58        999
    59        360
    65        100
    67        250
    96         80
   100        100
   108         60
   124        150
   149         60
   187         30
   189         30
   203         50
   205         40
   247         30
   249         30