##TITLE=Library Entry 4008
##JCAMP-DX=Revision 4.10 
##DATA TYPE=MASS SPECTRUM
##SAMPLE DESCRIPTION=Chemical Concepts
##NAMES=HP
##CAS NAME=Chrysanthemic acid
##MOLFORM=C10H16O2
##CAS REGISTRY NO=10453-89-1
##MP= -300
##BP= -300
##MW= 168
##$RETENTION INDEX=1283
##$CONDENSED SPECTRUM=NO
##NPOINTS= 95
##XYDATA=(XY..XY) 1 
    14          3
    15         35
    16          1
    17          2
    18          8
    27        720
    28        255
    29        381
    31         25
    37         17
    39        824
    40        135
    41        999
    43        695
    45        117
    47          1
    50         38
    51        115
    52         55
    53        266
    54         43
    55        346
    56         85
    57         84
    58          7
    59         50
    60          6
    61          3
    62          9
    63         28
    65        127
    66         52
    67        389
    68         92
    69        351
    70         21
    71         18
    72          7
    73         11
    74          3
    75          2
    77        159
    78         37
    79        334
    80         79
    81        796
    82         50
    83         40
    84         10
    85         19
    86          1
    89          1
    91        163
    92         26
    93        139
    94         29
    95        162
    96        105
    97         86
    98         17
    99          7
   100         35
   101          4
   103          3
   105         41
   107        331
   108         78
   109        127
   110         19
   111        105
   112         34
   113         36
   114          2
   115          1
   117          1
   119          1
   121         27
   123        850
   124        116
   125        335
   126         34
   127          2
   135         23
   136          1
   137          1
   139          3
   140          1
   150         19
   151          8
   153        259
   154         20
   155          1
   168        374
   169         43
   170          3