##TITLE=Library Entry 107150
##JCAMP-DX=Revision 4.10 
##DATA TYPE=MASS SPECTRUM
##SAMPLE DESCRIPTION=J. SHAW, BORRISTON RESEARCH, ROCKVILLE, MD, USA
##NAMES=HP
##CAS NAME=Resmethrin
##MOLFORM=C22H26O3
##CAS REGISTRY NO=10453-86-8
##MP= -300
##BP= -300
##MW= 338
##$RETENTION INDEX=2394
##$CONDENSED SPECTRUM=NO
##NPOINTS= 146
##XYDATA=(XY..XY) 1 
    12          2
    13          1
    14          3
    15         21
    16          5
    17          7
    18         18
    27        146
    28         26
    29        145
    30          3
    31          4
    37          2
    39        217
    40         44
    41        373
    42         30
    43        339
    44         15
    45          4
    50         18
    51         58
    52         26
    53        105
    54         14
    55        142
    56         12
    57         41
    58          3
    59          6
    61          1
    62          5
    63         25
    65        130
    66         38
    67         94
    68         12
    69         74
    70          6
    71          7
    74          3
    75          5
    77         92
    78         28
    79         89
    81        340
    82         27
    83         43
    84          3
    85          8
    86          2
    87          2
    88          2
    89         16
    91        238
    92         24
    93         64
    94         16
    95         61
    96          8
    97          6
   101          2
   102         11
   103         14
   104         11
   105         23
   107         52
   108         19
   109         32
   110         27
   111          6
   113          3
   115        141
   116         18
   117         38
   118          5
   119          3
   121         36
   123        999
   124         92
   125          9
   127         77
   128        302
   129         48
   130          4
   131          2
   133          2
   135          2
   136          1
   137          2
   139         19
   141        120
   143        377
   144         37
   145          4
   147          5
   149          7
   151         39
   152         10
   153         13
   154          2
   155          1
   157          4
   158          1
   159          1
   161          3
   162          3
   163          1
   166         78
   167         13
   168          3
   171        498
   172        106
   173         11
   174          1
   175          1
   185          2
   186          1
   187          2
   188          2
   199          1
   201          2
   203          4
   211          1
   212          4
   213          3
   219          1
   223          1
   225          2
   228          4
   238          6
   239         16
   247         12
   248          1
   251          3
   252          1
   256          1
   261          3
   279          2
   280          3
   294          9
   295          1
   323          5
   338         44
   339          4
   341          7