##TITLE=Library Entry 10705
##JCAMP-DX=Revision 4.10 
##DATA TYPE=MASS SPECTRUM
##SAMPLE DESCRIPTION=Chemical Concepts
##NAMES=HP
##CAS NAME=5-Hydroxypentanehydroxylamine, N,O,O-triacetyl-
##MOLFORM=C11H19NO5
##CAS REGISTRY NO=104556-13-0
##MP= -300
##BP= -300
##MW= 245
##$RETENTION INDEX=0
##$CONDENSED SPECTRUM=NO
##NPOINTS= 69
##XYDATA=(XY..XY) 1 
    26          2
    27         12
    28        158
    29         12
    30         45
    31          3
    38          1
    39         12
    41         33
    42         12
    43        999
    44         14
    45          3
    46        105
    47          1
    53          4
    54          4
    55         23
    56         29
    57         11
    58          3
    59          3
    60         14
    61         14
    67          9
    68         22
    69         20
    70          7
    71          4
    72         19
    73          9
    75          1
    76         10
    82          7
    83          9
    84         18
    85         11
    86         11
    87          1
    88         34
    89          1
    95          1
    97          1
    98          5
    99          3
   100         12
   101        246
   102         14
   103          1
   113          6
   114          1
   115          1
   118          1
   119          1
   125         16
   126          4
   127          1
   130          1
   141          1
   142          2
   143         64
   144         18
   145          1
   161          6
   185          2
   186          3
   203         22
   204          3
   246          1