##TITLE=Library Entry 51909
##JCAMP-DX=Revision 4.10 
##DATA TYPE=MASS SPECTRUM
##SAMPLE DESCRIPTION=NIST Mass Spectrometry Data Center
##NAMES=HP
##CAS NAME=Bis(2,2,2-trifluoroethyl) itaconate
##MOLFORM=C9H8F6O4
##CAS REGISTRY NO=104534-96-5
##MP= -300
##BP= -300
##MW= 294
##$RETENTION INDEX=0
##$CONDENSED SPECTRUM=NO
##NPOINTS= 121
##XYDATA=(XY..XY) 1 
    12          1
    14          4
    15          1
    17          2
    18          3
    20          1
    25          3
    26         13
    27         10
    28         38
    29         76
    30         23
    31         42
    32         11
    33        186
    34         10
    36          1
    37         19
    38         59
    39        316
    40        212
    41        110
    42         47
    43         12
    44          9
    45          8
    46          1
    47          8
    48          7
    49          3
    50         10
    51         23
    53         21
    54          9
    55         22
    56         22
    57         24
    59         87
    60          4
    61         24
    63         37
    64         47
    65          5
    66          8
    67         74
    68         89
    69        161
    70          5
    71         17
    72          3
    73          1
    77         12
    78          1
    79          2
    80          3
    81          5
    83        999
    84         22
    85          4
    87          8
    88          6
    89          1
    91         41
    92          2
    95         17
    97         31
    98          3
    99          6
   100          2
   102          3
   103          9
   104          3
   107          1
   109          2
   111          4
   113         14
   119          8
   121          1
   122          4
   123          6
   127         82
   128          4
   131          1
   137          1
   139         87
   140          6
   142          1
   147         62
   148          5
   149          6
   150          1
   151          2
   153          3
   163          1
   166         52
   167        276
   168         20
   169          3
   175         13
   176          1
   181          3
   183         20
   184          1
   194        144
   195        306
   196         22
   197          3
   211         54
   212          4
   224          1
   232          1
   235          3
   247         26
   248          2
   249          9
   250          1
   266         49
   267          3
   275          2
   294         37
   295          4