##TITLE=Library Entry 48341
##JCAMP-DX=Revision 4.10 
##DATA TYPE=MASS SPECTRUM
##SAMPLE DESCRIPTION=D. Rasala, Inst. Chem., Pedagogical Univ., Kielce, Pola
nd
##NAMES=HP
##CAS NAME=4-Pyridinamine, N-methyl-N,3-dinitro-
##MOLFORM=C6H6N4O4
##CAS REGISTRY NO=104503-82-4
##MP= -300
##BP= -300
##MW= 198
##$RETENTION INDEX=0
##$CONDENSED SPECTRUM=NO
##NPOINTS= 33
##XYDATA=(XY..XY) 1 
    50        290
    51        470
    52        340
    53        390
    54         90
    55         40
    63         50
    64        160
    65        400
    66        200
    67        100
    68         90
    76         60
    77         50
    78        999
    79        470
    80        730
    81         50
    92        130
    93         60
    94         50
    95         50
   105        130
   106        230
   107        120
   108         60
   120         60
   135        220
   136          8
   152         10
   153        810
   154        100
   168          2