##TITLE=Library Entry 22391
##JCAMP-DX=Revision 4.10 
##DATA TYPE=MASS SPECTRUM
##SAMPLE DESCRIPTION=A.Pleshkova, Nesmeyanov Inst.Org.Elem.Cpds, Moscow
##NAMES=HP
##CAS NAME=3,3-Dimethyl-1,5-diazabicyclo[3.1.0]hexane
##MOLFORM=C6H12N2
##CAS REGISTRY NO=104518-71-0
##MP= -300
##BP= -300
##MW= 112
##$RETENTION INDEX=0
##$CONDENSED SPECTRUM=NO
##NPOINTS= 29
##XYDATA=(XY..XY) 1 
    38         45
    39         26
    41        413
    42        451
    43         39
    44         13
    53         11
    54         12
    55        313
    56        999
    57        832
    58         44
    59          6
    67         15
    68         45
    69         36
    70        214
    71         22
    81         41
    82         79
    83         66
    84         41
    85          5
    97         62
    98          6
   111         99
   112        239
   113         42
   114          6