##TITLE=Library Entry 17871
##JCAMP-DX=Revision 4.10 
##DATA TYPE=MASS SPECTRUM
##SAMPLE DESCRIPTION=Chemical Concepts
##NAMES=HP
##CAS NAME=1-Hexanamine, 6,N-dihydroxy-
##MOLFORM=C5H13NO2
##CAS REGISTRY NO=104556-12-9
##MP= -300
##BP= -300
##MW= 119
##$RETENTION INDEX=0
##$CONDENSED SPECTRUM=NO
##NPOINTS= 52
##XYDATA=(XY..XY) 1 
    26         20
    27        131
    28        237
    29        114
    30        191
    31        221
    33         16
    34          4
    37          4
    38         11
    39         97
    40         23
    41        256
    42         74
    43        101
    44         30
    45         35
    46        999
    47         18
    48          2
    50          5
    51          8
    52          5
    53         17
    54         19
    55         73
    56        118
    57         31
    58          5
    59         34
    60          6
    61          2
    65          3
    66          2
    67         21
    68         30
    69         51
    70         12
    71          7
    72         28
    73          9
    80          2
    81          2
    82          8
    83          7
    84         16
    85         12
    86         16
   100          8
   101         36
   102          5
   120          2