##TITLE=Library Entry 88242
##JCAMP-DX=Revision 4.10 
##DATA TYPE=MASS SPECTRUM
##SAMPLE DESCRIPTION=A.Pleshkova, Nesmeyanov Inst.Org.Elem.Cpds, Moscow
##NAMES=HP
##CAS NAME=6,6-Dimethyl-1,5-diazabicyclo[3.1.0]hexane
##MOLFORM=C6H12N2
##CAS REGISTRY NO=104518-69-6
##MP= -300
##BP= -300
##MW= 112
##$RETENTION INDEX=0
##$CONDENSED SPECTRUM=NO
##NPOINTS= 30
##XYDATA=(XY..XY) 1 
    27        102
    28        178
    29         35
    30         51
    38         18
    39        162
    40         58
    41        258
    42        571
    43         76
    44         56
    45          4
    54         79
    55        147
    56        402
    57         33
    58          3
    68        100
    69        245
    70        164
    71         85
    72          7
    82         49
    83        765
    84        137
    85         16
   111        999
   112        349
   113         24
   114          6