##TITLE=Library Entry 26064
##JCAMP-DX=Revision 4.10 
##DATA TYPE=MASS SPECTRUM
##SAMPLE DESCRIPTION=LAC, NIDDK, NIH, Bethesda, MD 20892
##NAMES=HP
##CAS NAME=5,16-Pregnenolone oxime
##MOLFORM=C21H31NO2
##CAS REGISTRY NO=1045-71-2
##MP= -300
##BP= -300
##MW= 329
##$RETENTION INDEX=0
##$CONDENSED SPECTRUM=NO
##NPOINTS= 104
##XYDATA=(XY..XY) 1 
    41        662
    42        572
    43        509
    44        310
    45         37
    51         55
    52         28
    53        289
    55        558
    57        999
    58        115
    60         38
    65        173
    66         28
    67        299
    68         27
    69         87
    70         34
    71         37
    77        387
    78        123
    79        489
    80         94
    81        255
    82         53
    83         16
    84         49
    86         21
    91        713
    92         79
    93        259
    94         69
    95         89
    96         40
    97         19
    98         18
   103         71
   104         31
   105        450
   106         36
   107        316
   108         87
   109         45
   110         40
   115        156
   116         31
   117        262
   118        102
   119        148
   120        117
   121         72
   122         48
   124         48
   128         76
   129        103
   130         20
   131        237
   132        157
   133        144
   134        168
   135         26
   136         84
   138         38
   141         56
   142         26
   143        114
   144         56
   145        140
   146         57
   147         63
   148         95
   150        158
   151         50
   152         20
   155         20
   157         95
   158         52
   159        141
   160         20
   162         17
   169         16
   171         41
   172         18
   173         18
   174         23
   185         19
   188         25
   190         23
   195         21
   202         16
   218        108
   244         45
   253         28
   271        103
   294         92
   296        173
   297         17
   311         18
   312        428
   313         85
   314        548
   315         79
   329        544
   330        124