##TITLE=Library Entry 83896
##JCAMP-DX=Revision 4.10 
##DATA TYPE=MASS SPECTRUM
##SAMPLE DESCRIPTION=P.A. SZCZEPANIK, ARGONNE NATIONAL LABORATORY, USA
##NAMES=HP
##CAS NAME=Cholan-24-oic acid, 3-(acetyloxy)-7-oxo-, methyl ester, (3.alpha.
,5.beta.)-
##MOLFORM=C27H42O5
##CAS REGISTRY NO=10452-65-0
##MP= -300
##BP= -300
##MW= 446
##$RETENTION INDEX=0
##$CONDENSED SPECTRUM=NO
##NPOINTS= 219
##XYDATA=(XY..XY) 1 
   100         70
   101        126
   102         33
   103        163
   104         74
   105        933
   106        271
   107        999
   108        411
   109        921
   110        167
   111        150
   112         75
   113         72
   114         63
   115        404
   116        107
   117        394
   118        190
   119        736
   120        245
   121        794
   122        362
   123        306
   124        140
   125        151
   126         34
   127         83
   128        126
   129        276
   130        655
   131        238
   132        692
   134        386
   135        788
   136        252
   137        213
   138        111
   139         40
   140         23
   141        275
   142        148
   143        326
   144        141
   145        530
   146        586
   147        421
   148        494
   149        366
   150        195
   151         84
   152         85
   154        156
   155        234
   156         87
   157        394
   158        160
   159        606
   160        262
   161        657
   162        228
   163        420
   164        130
   165        130
   166         55
   167         81
   168         39
   169        155
   170         89
   171        297
   172        150
   173        340
   174        282
   175        391
   176        387
   177        336
   178        111
   179         98
   180         55
   181         72
   182         40
   183        180
   184         84
   185        242
   186        108
   187        302
   188        114
   189        342
   190        123
   191         99
   192         43
   193         61
   194         24
   195        125
   196         47
   197        249
   198        106
   199        251
   200        107
   201        270
   202        101
   203        114
   204         50
   205         68
   206         23
   207         70
   208         95
   209        179
   210         59
   211        393
   212        139
   213        145
   214         83
   215        185
   216        108
   217        189
   218         59
   219         98
   220         41
   221         78
   222         34
   223         92
   224         64
   225         99
   226        123
   227        146
   228         74
   229        373
   230        203
   231        207
   232         94
   233         35
   234         28
   235         52
   236        147
   237         58
   238         51
   239        127
   240         70
   241         59
   242        200
   243        158
   244         99
   246         43
   247         69
   248        162
   249         57
   251        106
   252         55
   253        731
   254        175
   255        116
   256         42
   257         84
   259         51
   260         78
   261         72
   263         29
   264         52
   265         29
   268         25
   269        125
   271        579
   272        144
   273         63
   274         56
   275         39
   277         71
   278         33
   279         49
   280         27
   281         99
   282         37
   285         25
   286         21
   288         45
   290         94
   292        167
   293         56
   294         75
   297         41
   298         43
   299         49
   302         31
   303         54
   311         40
   313        269
   314        147
   315         29
   316         24
   319         31
   321         82
   323         18
   325         30
   326         30
   327         34
   329         54
   331         89
   332         55
   333         24
   335         27
   337        112
   339         77
   341         31
   343         35
   354        168
   355         31
   358         21
   368        147
   369         81
   371         55
   373         35
   380         14
   384         36
   386        288
   397         30
   414         35
   428         20
   446         59