##TITLE=Library Entry 11983
##JCAMP-DX=Revision 4.10 
##DATA TYPE=MASS SPECTRUM
##SAMPLE DESCRIPTION=V.A.Korolev, Moscow, Russia
##NAMES=HP
##CAS NAME=2-Methyl-5-(4-methyl-2-nitrophenyl)furan
##MOLFORM=C12H11NO3
##CAS REGISTRY NO=1045704-64-0
##MP= -300
##BP= -300
##MW= 217
##$RETENTION INDEX=0
##$CONDENSED SPECTRUM=NO
##NPOINTS= 117
##XYDATA=(XY..XY) 1 
    29         34
    30        194
    37         19
    38         47
    39        209
    40         52
    41         51
    43        999
    44         63
    45         10
    46          8
    50        134
    51        272
    52         92
    53        149
    54         13
    55         19
    57         32
    59          3
    61         21
    62         81
    63        197
    64         97
    65         97
    66         16
    67          7
    69         39
    70         22
    71         21
    72          7
    74         60
    75         81
    76         53
    77        194
    78        104
    79         28
    80          6
    81          4
    84         11
    85         47
    86         27
    87         36
    88         16
    89        133
    90         92
    91        335
    92         38
    93         12
    94          2
    97         35
    98         12
    99          6
   100          3
   101         31
   102         94
   103        211
   104        139
   105         56
   106         20
   107          4
   109         17
   113          7
   115        200
   116         84
   117         22
   118        116
   119         40
   120          4
   126         34
   127        110
   128        269
   129         60
   130        419
   131         96
   132         32
   133         21
   134          9
   135         14
   139         13
   140          7
   141         72
   142         24
   143         17
   144         54
   145         12
   146         86
   147         14
   148         13
   149          2
   152          2
   155         10
   156          7
   157         16
   158        323
   159         80
   160         16
   169          6
   170          6
   172         14
   173          1
   174          7
   175        170
   176         17
   177          2
   184         16
   185          1
   186          4
   187         14
   188          1
   200         11
   202        333
   203         43
   204          5
   216         10
   217        229
   218         30
   219          3