##TITLE=Library Entry 73091
##JCAMP-DX=Revision 4.10 
##DATA TYPE=MASS SPECTRUM
##SAMPLE DESCRIPTION=V.I. TYVORSKII, BELORUSS. STATE UNIV. V.I. LENIN, MINSK
, USSR
##NAMES=HP
##CAS NAME=3-Chloro-2,5-dihydro-4,5-dimethyl-5-[(4-morpholino)methyl]-2-fura
none
##MOLFORM=C11H16ClNO3
##CAS REGISTRY NO=104502-46-7
##MP= -300
##BP= -300
##MW= 245
##$RETENTION INDEX=0
##$CONDENSED SPECTRUM=NO
##NPOINTS= 22
##XYDATA=(XY..XY) 1 
    41        370
    42        460
    43        450
    44        270
    57        530
    58        250
    59        500
    60         90
    70        410
    72        370
    78         80
    98        430
    99         70
   100        999
   101        450
   102         80
   145         80
   146         40
   147         40
   149         60
   245         30
   247         10