##TITLE=Library Entry 43369
##JCAMP-DX=Revision 4.10 
##DATA TYPE=MASS SPECTRUM
##SAMPLE DESCRIPTION=NIST Mass Spectrometry Data Center, 2010
##NAMES=HP
##CAS NAME=Uridine, 3TMS derivative
##MOLFORM=C18H36N2O6Si3
##CAS REGISTRY NO=10457-16-6
##MP= -300
##BP= -300
##MW= 460
##$RETENTION INDEX=2469
##$CONDENSED SPECTRUM=NO
##NPOINTS= 261
##XYDATA=(XY..XY) 1 
    15          1
    26          1
    27          2
    28          6
    29          3
    31          2
    36          1
    39          3
    40          3
    41          9
    42          4
    43         14
    44         15
    45         80
    46          5
    47         10
    51          1
    52          2
    53         10
    54         11
    55         23
    56          5
    57          5
    58          8
    59         42
    60          4
    61         10
    62          1
    63          1
    65          1
    66          3
    67          4
    68          6
    69         21
    70          7
    71          5
    72         21
    73        999
    74         86
    75        110
    76          7
    77          6
    78          1
    79          2
    80          3
    81          8
    82          6
    83          4
    84          3
    85         10
    86          3
    87          6
    88          3
    89         17
    90          2
    91          1
    93          1
    94          2
    95          6
    96          8
    97         10
    98          6
    99         53
   100         15
   101         32
   102          8
   103        217
   104         20
   105         11
   106          1
   108          2
   109          2
   110          3
   111          8
   112          7
   113         24
   114          5
   115         56
   116         17
   117         40
   118          5
   119         11
   120          2
   121          1
   122          2
   123          1
   124          7
   125          6
   126         10
   127         11
   128          5
   129        100
   130         14
   131         37
   132          6
   133         88
   134         13
   135         11
   136          3
   137          4
   138          5
   139          2
   140          7
   141         10
   142         11
   143         35
   144          6
   145         12
   146          2
   147        273
   148         65
   149         49
   150          7
   151          4
   152          2
   153         10
   154          8
   155         10
   156          6
   157         22
   158          4
   159          7
   160          2
   161          2
   162          1
   163          8
   164          1
   165          2
   166          1
   167          4
   168         17
   169        213
   170         32
   171         21
   172          3
   173          5
   174          4
   175          5
   176          1
   177          5
   178          1
   179          1
   181          1
   182          1
   183         20
   184          6
   185         42
   186          6
   187          4
   188          1
   189         30
   190          6
   191         61
   192         10
   193          4
   194          1
   195          1
   196          2
   197          1
   198          2
   199          1
   200          1
   201          2
   202          1
   203         12
   204         16
   205          6
   206          2
   207          2
   208          1
   209          1
   211         16
   212          3
   213         41
   214          7
   215         23
   216          8
   217        685
   218        168
   219         73
   220         11
   221          4
   222          2
   223          1
   224          1
   225          1
   226         10
   227          7
   228          2
   229          7
   230         31
   231         27
   232          7
   233          2
   234          1
   235          1
   237          1
   239          5
   240          1
   241          8
   242          2
   243         73
   244         14
   245         32
   246          7
   247          3
   248          1
   251          3
   252          1
   255          1
   257         10
   258          7
   259        140
   260         30
   261         13
   262          2
   263          1
   265         17
   266          3
   267         13
   268          2
   269          1
   271          4
   272          1
   280          3
   281          1
   283          1
   285          1
   299         37
   300          9
   301          3
   302          1
   313          1
   315         22
   316          6
   317          6
   318          2
   319          3
   320          2
   321          1
   325          1
   327          1
   329          2
   330          1
   331          1
   333          3
   334          1
   342          1
   348          7
   349          7
   350          3
   351          1
   355          1
   357          2
   370          2
   371          1
   387          1
   445         10
   446          3
   447          2
   460          1