##TITLE=Library Entry 39571
##JCAMP-DX=Revision 4.10 
##DATA TYPE=MASS SPECTRUM
##SAMPLE DESCRIPTION=Japan AIST/NIMC Database- Spectrum MS-IW-1532
##NAMES=HP
##CAS NAME=Diamide
##MOLFORM=C6H12N4O2
##CAS REGISTRY NO=10465-78-8
##MP= -300
##BP= -300
##MW= 172
##$RETENTION INDEX=0
##$CONDENSED SPECTRUM=NO
##NPOINTS= 37
##XYDATA=(XY..XY) 1 
    14          2
    15        140
    16          2
    17          1
    27          9
    28         65
    29          6
    30          3
    38          1
    39          1
    40          7
    41         12
    42        121
    43         42
    44         75
    45          9
    46          4
    53          1
    55          1
    56         57
    57          3
    58          4
    69          7
    70          3
    71          1
    72        999
    73         47
    74          3
    85          1
    87          2
    88          1
   116          3
   129         10
   130          1
   144          1
   172          3
   173          2