##TITLE=Library Entry 97222
##JCAMP-DX=Revision 4.10 
##DATA TYPE=MASS SPECTRUM
##SAMPLE DESCRIPTION=Exported from NIST MS Search
##NAMES=HP
##CAS NAME=Benzene, 1-isocyano-2-methyl-
##MOLFORM=C8H7N
##CAS REGISTRY NO=10468-64-1
##MP= -300
##BP= -300
##MW= 117
##$RETENTION INDEX=0
##$CONDENSED SPECTRUM=NO
##NPOINTS= 25
##XYDATA=(XY..XY) 1 
    50         65
    51         85
    52         24
    62         65
    63        141
    64         61
    65         44
    75         30
    76         24
    77         44
    86         10
    87         16
    88         24
    89        384
    90        622
    91         91
    92         10
    93         10
   103         20
   114         10
   115         20
   116        576
   117        999
   118         97
   119          6