##TITLE=Library Entry 39607
##JCAMP-DX=Revision 4.10 
##DATA TYPE=MASS SPECTRUM
##SAMPLE DESCRIPTION=Japan AIST/NIMC Database- Spectrum MS-IW-2203
##NAMES=HP
##CAS NAME=N-(2-Methoxyethyl)isopropylamine
##MOLFORM=C6H15NO
##CAS REGISTRY NO=104678-18-4
##MP= -300
##BP= -300
##MW= 117
##$RETENTION INDEX=0
##$CONDENSED SPECTRUM=NO
##NPOINTS= 49
##XYDATA=(XY..XY) 1 
    14          1
    15         38
    17          1
    18          1
    26          4
    27         53
    28         94
    29         60
    30        888
    31         55
    32          2
    33          3
    38          2
    39         24
    40          7
    41         95
    42        106
    43        179
    44        142
    45         48
    46          1
    50          1
    51          1
    52          1
    53          1
    54          6
    55          4
    56         39
    57          9
    58         27
    59        103
    60          4
    68          8
    69          4
    70        198
    71         18
    72        999
    73         51
    74         15
    84         16
    85          2
    86          6
    87          2
   100          1
   102        181
   103          9
   116         12
   117         50
   118          6