##TITLE=Library Entry 15742
##JCAMP-DX=Revision 4.10 
##DATA TYPE=MASS SPECTRUM
##SAMPLE DESCRIPTION=T. Kawai and Y. Ishida, J. Agric. Food Chem. 1989, 37,
 1026-1031
##NAMES=HP
##CAS NAME=2,4-dimethyl-6-(propan-2-yl)-1,3,5-dithiazinane
##MOLFORM=C8H17NS2
##CAS REGISTRY NO=104691-41-0
##MP= -300
##BP= -300
##MW= 191
##$RETENTION INDEX=1332
##$CONDENSED SPECTRUM=NO
##NPOINTS= 17
##XYDATA=(XY..XY) 1 
    41         19
    42         38
    44        999
    55         73
    56        182
    57         46
    59         58
    60        118
    72        759
    84        260
    87         13
    88         66
    97         31
    98        211
    99        143
   131         99
   191        147