##TITLE=Library Entry 47981
##JCAMP-DX=Revision 4.10 
##DATA TYPE=MASS SPECTRUM
##SAMPLE DESCRIPTION=K. BOGDANOWICZ-SZWED,FAC. CHEM.,JAGIELLONIAN UNIV.,KRAK
OW,POL.
##NAMES=HP
##CAS NAME=2,3,5,6,7,8,9-Heptahydro-1-phenyl-5-(p-chlorophenylimino)-1H-benz
o[e][1,4]thiazepine
##MOLFORM=C21H21ClN2S
##CAS REGISTRY NO=104672-83-5
##MP= -300
##BP= -300
##MW= 368
##$RETENTION INDEX=0
##$CONDENSED SPECTRUM=NO
##NPOINTS= 277
##XYDATA=(XY..XY) 1 
    18         33
    26         31
    27        114
    28         63
    29         88
    31         23
    35         20
    38         24
    39        137
    40         26
    41        141
    42         33
    43         34
    44         23
    45        114
    47         17
    50         66
    51        306
    52         63
    53         50
    54         28
    55         46
    56         21
    57         91
    58         51
    59        105
    60         75
    61         80
    62         23
    63         47
    64         34
    65         84
    66         51
    67         73
    68         17
    69         33
    70         28
    71         47
    72         24
    73         34
    74         23
    75        170
    76         73
    77        999
    78        105
    79         46
    80         20
    84         23
    85         34
    86         17
    87         27
    88         44
    89         50
    90         34
    91         63
    92         37
    93         43
    94         17
    95         17
    96         17
    97         31
    99         33
   100         23
   101         40
   102         41
   103         74
   104         68
   105         20
   106         21
   108         27
   109         26
   110         17
   111        239
   112         48
   113         91
   114         43
   115         68
   116         40
   117        171
   118         51
   119         43
   120         17
   123         17
   125         46
   126         28
   127         43
   128         66
   129         46
   130        142
   131         33
   132         19
   135         36
   136         34
   137         46
   138         70
   139         40
   140         60
   141         38
   142         51
   143        108
   144         46
   145         28
   146         23
   149         28
   150         20
   151         64
   152         51
   153         56
   154         50
   155         57
   156         33
   158         21
   159         28
   160         24
   161         20
   162         50
   163         43
   164         68
   165         33
   166         57
   167         81
   168         61
   169         47
   170        138
   171         43
   172         24
   173         37
   174         33
   175         34
   176         23
   177         43
   178         24
   179         34
   180         58
   181         37
   182         46
   183         23
   184         47
   185         28
   186         34
   187         24
   188         57
   189         40
   190         37
   191         27
   192         23
   193         21
   194         31
   195         27
   196         38
   197         58
   198         34
   199         28
   200         37
   201         38
   202         61
   203         40
   204         51
   205         23
   206         23
   207         21
   208         21
   209         41
   210         21
   211         24
   212         34
   213         66
   214         74
   215         54
   216         40
   217         33
   218         28
   219         17
   220         21
   221         19
   222         57
   223         23
   224         37
   225         23
   226         17
   227         24
   228         28
   229         51
   230         34
   231         44
   232         23
   233         21
   234         23
   235         23
   236         28
   237         20
   238         21
   239         17
   240         20
   241         23
   242        177
   243         88
   244         74
   245         34
   246         23
   247         21
   248         34
   249         46
   250         34
   251         33
   252         34
   253         34
   254         24
   255         24
   256         21
   257         28
   258         17
   262         17
   263         34
   264         28
   265         33
   266         17
   267         17
   269         19
   270         16
   271         63
   272         60
   273         31
   274         21
   275         28
   276        123
   277         56
   278         63
   279         56
   280         46
   281        107
   282         36
   283         40
   284         23
   291         56
   292         26
   293         34
   294         20
   305         44
   306         40
   307        114
   308         46
   309         46
   310         24
   311         57
   312         23
   313         37
   314         23
   315         21
   321         33
   322         28
   323         23
   324         17
   325         27
   326         21
   327         20
   333         20
   334         26
   335         54
   336         23
   337         26
   338         44
   339        177
   340        575
   341        188
   342        232
   343         66
   344         23
   353         34
   355         20
   366         23
   367         85
   368        423
   369        137
   370        177
   371         54
   372         21