##TITLE=Library Entry 100436
##JCAMP-DX=Revision 4.10 
##DATA TYPE=MASS SPECTRUM
##SAMPLE DESCRIPTION=Div. of Experiment Therapeutics WRAIR, WRAMC, Washingto
n DC 20307
##NAMES=HP
##CAS NAME=.alpha.-[4-Chlorophenyl]-2-nitrocinnamic acid
##MOLFORM=C15H10ClNO4
##CAS REGISTRY NO=10465-92-6
##MP= -300
##BP= -300
##MW= 303
##$RETENTION INDEX=0
##$CONDENSED SPECTRUM=NO
##NPOINTS= 177
##XYDATA=(XY..XY) 1 
    41         36
    43         10
    44          9
    45         74
    46          5
    47          3
    49         21
    50         81
    51        144
    52         37
    53         16
    55         10
    56          3
    57          2
    58          5
    59          2
    61         12
    62         54
    63        150
    64        167
    65         79
    66          6
    67          4
    68          1
    69         54
    72          1
    73         22
    74         60
    75        171
    76        124
    77        136
    78         25
    79         11
    80          5
    82        219
    84         19
    85         10
    86         32
    87         69
    88        125
    89         99
    91        290
    92        929
    93         79
    94          6
    95         10
    96         15
    97         25
    98         27
    99         44
   100         16
   101         31
   102         22
   104        130
   105         38
   106          6
   107         12
   108          1
   109          2
   111        273
   113        123
   114         20
   115         35
   116          3
   117          6
   118          6
   119        999
   120         85
   121         18
   122         11
   123         25
   124          7
   125         33
   126         37
   127         17
   128         20
   130         15
   131          1
   133          2
   134         37
   136         18
   137         22
   139        971
   141        393
   142         21
   143          7
   146         41
   147          6
   149         30
   150         71
   151         82
   152         66
   153         14
   154          4
   155          1
   160          7
   161          6
   162         12
   163         64
   164         54
   165        186
   166         33
   167         71
   168          9
   169         17
   171          8
   173         10
   174         32
   175         43
   176        199
   177         65
   178         59
   179         25
   180          6
   181          9
   184          5
   186         10
   187          1
   188          6
   190          7
   191          4
   192          1
   193          4
   194         21
   195         57
   196          9
   198          3
   199         33
   201         20
   202          5
   203          2
   205          3
   206          5
   207         15
   208          4
   210          8
   211         16
   212         20
   213         73
   214         38
   215         28
   216         12
   221          2
   222          5
   225          1
   226          7
   227          1
   228         15
   229          5
   230        183
   232         85
   233          8
   234          1
   239          4
   240         45
   241          6
   242         93
   243          6
   244         26
   245          4
   256          3
   257         25
   258         96
   259         16
   260         32
   261          6
   274          0
   276          0
   277          0
   278          0
   286         15
   287          1
   288          5
   303         56
   304          3
   305         18
   306          1