##TITLE=Library Entry 55044
##JCAMP-DX=Revision 4.10 
##DATA TYPE=MASS SPECTRUM
##SAMPLE DESCRIPTION=NIST Mass Spectrometry Data Center, 2009
##NAMES=HP
##CAS NAME=3-Buten-2-ol, 2,3-dimethyl-
##MOLFORM=C6H12O
##CAS REGISTRY NO=10473-13-9
##MP= -300
##BP= -300
##MW= 100
##$RETENTION INDEX=746
##$CONDENSED SPECTRUM=NO
##NPOINTS= 40
##XYDATA=(XY..XY) 1 
    14          2
    15         25
    18          1
    19          1
    26          6
    27         51
    28         10
    29         89
    30          3
    31        102
    36          1
    37         10
    38         34
    39        300
    40         34
    41        442
    42         92
    43        709
    44         11
    45         24
    50         15
    51         25
    52          9
    53         32
    54         13
    55        126
    56         13
    57        477
    58        120
    59        892
    63         11
    64          1
    65         27
    67        117
    69         24
    84         44
    85        999
    86         66
    99          2
   100         29