##TITLE=Library Entry 8718
##JCAMP-DX=Revision 4.10 
##DATA TYPE=MASS SPECTRUM
##SAMPLE DESCRIPTION=Japan AIST/NIMC Database- Spectrum MS-IW-2232
##NAMES=HP
##CAS NAME=2-Propene-1,1-diol, 2-methyl-, diacetate
##MOLFORM=C8H12O4
##CAS REGISTRY NO=10476-95-6
##MP= -300
##BP= -300
##MW= 172
##$RETENTION INDEX=0
##$CONDENSED SPECTRUM=NO
##NPOINTS= 89
##XYDATA=(XY..XY) 1 
    12          1
    13          3
    14          9
    15         57
    16          4
    17          2
    18          6
    25          1
    26          4
    27         17
    28         17
    29         26
    30          1
    31          7
    37          3
    38          8
    39         82
    40         15
    41        160
    42         78
    43        999
    44         44
    45        147
    46          5
    47          1
    50          2
    51          2
    52          1
    53          6
    54          1
    55         10
    56          3
    57          5
    58          4
    59          2
    60        116
    61         99
    62          3
    67          1
    68          4
    69        197
    70        220
    71         94
    72          5
    73          3
    74          1
    75          1
    77          1
    81          1
    82          1
    83          2
    84          5
    85          5
    86          6
    87         17
    88          6
    89          2
    91          1
    95          2
    96          1
    97          5
    98          2
    99          7
   100          1
   101          2
   103         36
   104          2
   105          1
   107          1
   109          2
   110          1
   111          3
   112         90
   113        111
   114          8
   115          5
   116          3
   117          1
   123          2
   124          1
   125          1
   126          1
   127          1
   128          1
   129         16
   130        200
   131         14
   132          1
   143          1