##TITLE=Library Entry 96836
##JCAMP-DX=Revision 4.10 
##DATA TYPE=MASS SPECTRUM
##SAMPLE DESCRIPTION=H. ADLERCREUTZ, UNIV. OF HELSINKI, FINLAND
##NAMES=HP
##CAS NAME=5.beta.-Pregnane-3.alpha.,17.alpha.-diol-20-one-methyloxime
##MOLFORM=C22H37NO3
##CAS REGISTRY NO=1047996-14-4
##MP= -300
##BP= -300
##MW= 363
##$RETENTION INDEX=0
##$CONDENSED SPECTRUM=NO
##NPOINTS= 206
##XYDATA=(XY..XY) 1 
    61         19
    67         72
    69         56
    70        262
    71         45
    72         29
    73         26
    74         62
    79         62
    80         20
    81        171
    82         38
    83         69
    84         59
    85         25
    86        478
    87        124
    88         41
    91         63
    92         23
    93        151
    94         74
    95        176
    96         55
    97         71
    98         99
    99         27
   100        159
   101         28
   103         64
   105        145
   106         58
   107        249
   108        132
   109        114
   110         67
   111         44
   112         44
   113         18
   114         23
   115        118
   116        999
   117         91
   118         33
   119        163
   120         80
   121        159
   122         73
   123         69
   124         40
   125         25
   126         27
   128         23
   129         32
   131         92
   132         52
   133        137
   134        119
   135        150
   136         65
   137         44
   138         35
   140         18
   141         16
   142         53
   143         51
   144         35
   145        146
   146         55
   147        229
   148         80
   149         99
   150         78
   151         38
   152         24
   155         19
   157         65
   158         43
   159        169
   160         69
   161        180
   162         69
   163         50
   164         59
   165         52
   166         23
   169         26
   170         20
   171         91
   172         39
   173        118
   174         81
   175         74
   176         69
   177         35
   178         36
   183         32
   184         19
   185         64
   186         38
   187         95
   188         57
   189         39
   190         33
   191         19
   195         19
   197         61
   198         23
   199         76
   200         35
   201         97
   202         50
   203         28
   204         27
   209         27
   211         33
   212         23
   213        104
   214         52
   215        173
   216         91
   217         48
   218         49
   219         20
   223         55
   225         48
   226         31
   227        133
   228         80
   229        165
   230         82
   231         42
   232         19
   233         19
   237         63
   238         22
   239         81
   240         33
   241        173
   242         42
   243         21
   244        101
   245         29
   246         55
   247         18
   248         17
   251         23
   253         80
   254         51
   255        161
   256         46
   257         90
   258         26
   259         71
   260         21
   263         17
   264         18
   265         19
   266         27
   267         21
   268         97
   269         42
   270         59
   271        114
   272        107
   273         73
   274         29
   275         19
   278         17
   279        233
   280         90
   281         50
   282         29
   286         50
   287         26
   288         43
   289         69
   290        112
   291         21
   292         87
   293         26
   295         21
   296        760
   297        304
   298         95
   299         34
   300         23
   303         23
   304         65
   305         21
   312        161
   313         61
   314        858
   315        227
   316         56
   327         26
   328         23
   330        328
   331        103
   332        891
   333        220
   334         44
   345        268
   346         84
   363        178
   364         48