##TITLE=Library Entry 63424
##JCAMP-DX=Revision 4.10 
##DATA TYPE=MASS SPECTRUM
##SAMPLE DESCRIPTION=NIST Mass Spectrometry Data Center, 2010
##NAMES=HP
##CAS NAME=Benzoic acid, 3,5-dinitro-, phenylmethyl ester
##MOLFORM=C14H10N2O6
##CAS REGISTRY NO=10478-07-6
##MP= -300
##BP= -300
##MW= 302
##$RETENTION INDEX=2357
##$CONDENSED SPECTRUM=NO
##NPOINTS= 98
##XYDATA=(XY..XY) 1 
    26          1
    27          3
    28          2
    29          2
    30         16
    37          2
    38          5
    39         28
    40          3
    41          9
    46          4
    50         15
    51         36
    52         11
    53          6
    61          4
    62         16
    63         45
    64         14
    65        141
    66          9
    67          1
    73          5
    74         81
    75        193
    76         21
    77        102
    78         19
    79        300
    80         20
    81          1
    82          1
    86          1
    87          2
    89        143
    90        537
    91        999
    92         81
    93          3
   101          1
   102          4
   103         40
   104          7
   105         86
   106         30
   107        136
   108         11
   109          1
   115          1
   119          8
   120         13
   121          3
   126          1
   128          1
   134          1
   136          4
   137          2
   139          3
   140          1
   141          1
   149        161
   150         22
   151          5
   152          7
   153          4
   162          1
   163          5
   164          3
   165         11
   166        117
   167         13
   168          3
   169          1
   179        152
   180         19
   181          5
   182          1
   192          1
   195        650
   196        864
   197         77
   198         12
   199          1
   209          2
   210          1
   238          2
   239         10
   240          2
   256          6
   257          2
   272          2
   285          2
   286          3
   287          1
   302        808
   303        128
   304         20
   305          2