##TITLE=Library Entry 20950
##JCAMP-DX=Revision 4.10 
##DATA TYPE=MASS SPECTRUM
##SAMPLE DESCRIPTION=Japan AIST/NIMC Database- Spectrum MS-NW-3047
##NAMES=HP
##CAS NAME=Cyclopentanecarboxylic acid, 2-oxo-, methyl ester
##MOLFORM=C7H10O3
##CAS REGISTRY NO=10472-24-9
##MP= -300
##BP= -300
##MW= 142
##$RETENTION INDEX=0
##$CONDENSED SPECTRUM=NO
##NPOINTS= 96
##XYDATA=(XY..XY) 1 
    12          1
    13          2
    14          9
    15        135
    16          2
    17          1
    18          3
    25          5
    26         70
    27        275
    28        142
    29        107
    30         11
    31        114
    32         71
    33          3
    35          1
    36          4
    37         10
    38         19
    39        158
    40         29
    41        152
    42         64
    43         79
    44         39
    45         10
    49          6
    50         22
    51         26
    52         16
    53         86
    54        138
    55        999
    56        110
    57         20
    58         12
    59        149
    60          5
    61          4
    62          2
    63          3
    64          1
    65          8
    66          4
    67          9
    68        139
    69         76
    70          8
    71         21
    72         60
    73         14
    74         96
    75          4
    77          1
    79          3
    80          4
    81         41
    82        211
    83        167
    84         29
    85         19
    86          8
    87        629
    88         30
    89          3
    93          1
    94          1
    95          1
    96          2
    97         11
    98          2
    99         28
   100          6
   101         35
   102          3
   107          1
   108          2
   109         35
   110        493
   111        443
   112         32
   113         34
   114        621
   115         48
   116          4
   124          1
   125          1
   126          5
   127          7
   128          1
   140          4
   141          2
   142        158
   143         35
   144          3