##TITLE=Library Entry 27178
##JCAMP-DX=Revision 4.10 
##DATA TYPE=MASS SPECTRUM
##SAMPLE DESCRIPTION=Chemical Concepts
##NAMES=HP
##CAS NAME=2-(E)-Pentenoic acid, (4S)-4-[(t-butoxycarbonyl)amino]-, ethyl es
ter
##MOLFORM=C12H21NO4
##CAS REGISTRY NO=104700-37-0
##MP= -300
##BP= -300
##MW= 243
##$RETENTION INDEX=0
##$CONDENSED SPECTRUM=NO
##NPOINTS= 136
##XYDATA=(XY..XY) 1 
    24          0
    25          0
    26          9
    27         87
    28         10
    29        222
    30         13
    31         16
    33          0
    35          0
    38          2
    39         55
    41        203
    42         43
    43         54
    44         49
    45         12
    46          1
    47          4
    48          0
    49          0
    50          1
    51          2
    52          6
    53         37
    54         30
    55         33
    56         38
    57        999
    58         48
    59         72
    60          1
    61          2
    62          1
    66          0
    67          2
    68         19
    69         19
    70        111
    71         26
    72          3
    73          5
    74          2
    75          0
    76          0
    77          0
    78          1
    79          0
    80          2
    81         20
    82         52
    83          6
    84          1
    85          0
    86          1
    87          1
    88         11
    89          2
    90          0
    91          0
    92          0
    93          0
    94          0
    95          3
    96         85
    97         92
    98        143
    99         65
   100         16
   101          2
   102          0
   104          0
   107          0
   109          0
   110          0
   111          0
   112          1
   113          4
   114        213
   115         16
   116          1
   117          9
   118          1
   119          0
   120          0
   122          0
   123          5
   124         61
   125          4
   126          6
   127         23
   128        118
   129          9
   130          0
   131          0
   132          0
   140          2
   141         79
   142         63
   143         70
   144          9
   145          1
   146          0
   148          0
   149          0
   152          0
   154          0
   155          0
   156          1
   157          1
   158          7
   159          0
   164          0
   168          0
   169          1
   170         95
   171          9
   172         31
   173          2
   174          0
   184          1
   185          0
   186          2
   187        234
   188         19
   189          2
   190          0
   197          0
   198          0
   199          0
   200          5
   201          0
   202          0
   228          8
   229          0
   230          0