##TITLE=Library Entry 60836
##JCAMP-DX=Revision 4.10 
##DATA TYPE=MASS SPECTRUM
##SAMPLE DESCRIPTION=NIST Mass Spectrometry Data Center, 1994
##NAMES=HP
##CAS NAME=8-Phenyl-1-octanol
##MOLFORM=C14H22O
##CAS REGISTRY NO=10472-97-6
##MP= -300
##BP= -300
##MW= 206
##$RETENTION INDEX=0
##$CONDENSED SPECTRUM=NO
##NPOINTS= 84
##XYDATA=(XY..XY) 1 
    15         10
    17          1
    18          4
    19          9
    26          9
    27        113
    29        145
    31        361
    37          1
    39        137
    40         20
    41        241
    42         30
    43         78
    44         14
    45         11
    50         15
    51         59
    52         17
    53         28
    54         18
    55        263
    56         22
    57         23
    58          2
    62          4
    63         28
    64          8
    65        162
    66         14
    67         30
    68         14
    69         36
    70          3
    71          2
    74          1
    75          4
    76          6
    77         76
    78         61
    79         55
    80          7
    81         16
    82          6
    83          2
    87          1
    89         23
    91        999
    92        399
    93         33
    94         14
    95          6
    96          6
    97         17
    98          2
   101          1
   102          7
   104        664
   105        129
   106         16
   107          5
   110          3
   115         24
   117        163
   118         46
   119         12
   120          2
   127          1
   128          4
   129          3
   131         33
   132         14
   133         11
   134          4
   135          1
   145         12
   146          3
   147          1
   159          3
   160          3
   188         16
   189          2
   206         47
   207          7