##TITLE=Library Entry 86970
##JCAMP-DX=Revision 4.10 
##DATA TYPE=MASS SPECTRUM
##SAMPLE DESCRIPTION=Exported from NIST MS Search
##NAMES=HP
##CAS NAME=5,6-Secocholestan-6-oic acid, 3-(acetyloxy)-5-oxo-, (3.beta.)-
##MOLFORM=C29H48O5
##CAS REGISTRY NO=10473-42-4
##MP= -300
##BP= -300
##MW= 476
##$RETENTION INDEX=0
##$CONDENSED SPECTRUM=NO
##NPOINTS= 22
##XYDATA=(XY..XY) 1 
    41         76
    42        100
    43        193
    45        188
    60        188
    79         39
    81         80
    83         38
   105         53
   107         61
   108         50
   109         80
   110        999
   111        137
   119         24
   121         24
   122         12
   247         30
   331         14
   357         19
   370         11
   398          8