##TITLE=Library Entry 25158
##JCAMP-DX=Revision 4.10 
##DATA TYPE=MASS SPECTRUM
##SAMPLE DESCRIPTION=Chemical Concepts
##NAMES=HP
##CAS NAME=2-(Z)-Hexen-1-ol, 4-(4S)-[(tert.butyloxycarbonyl)amino]-5-methyl-
##MOLFORM=C12H23NO3
##CAS REGISTRY NO=104700-44-9
##MP= -300
##BP= -300
##MW= 229
##$RETENTION INDEX=0
##$CONDENSED SPECTRUM=NO
##NPOINTS= 101
##XYDATA=(XY..XY) 1 
    26          1
    27         59
    28         47
    29        155
    30         26
    31         34
    39         48
    40         14
    41        321
    42         29
    43         70
    44         10
    52          0
    53         21
    54         14
    55         82
    56        109
    57        999
    58         53
    59         81
    60          3
    61          4
    62        405
    66          3
    67         46
    68         83
    69        614
    70         41
    71          5
    72         55
    73         10
    74          5
    77          2
    78          0
    79         17
    80          5
    81         20
    82          7
    83         12
    84         17
    85          4
    86        303
    87         15
    88          5
    90          1
    93          1
    94         23
    95        134
    96         30
    97         55
    98         22
    99          2
   100         11
   101          3
   102          1
   110         15
   111         33
   112         53
   113         17
   114          7
   115          1
   116        102
   117          7
   120          0
   122          1
   124          1
   126          1
   128          3
   129          9
   130        604
   131         41
   132          6
   137          0
   140         28
   141          2
   142         22
   143         15
   144          2
   154          2
   155         98
   156         25
   157          2
   158          1
   160          0
   164          2
   166          0
   170          2
   171          0
   172          8
   173         52
   174          6
   185          2
   186        102
   187         13
   188          1
   198          1
   200          0
   211          8
   212          1
   214          1
   229          1