##TITLE=Library Entry 18948
##JCAMP-DX=Revision 4.10 
##DATA TYPE=MASS SPECTRUM
##SAMPLE DESCRIPTION=NIST Mass Spectrometry Data Center
##NAMES=HP
##CAS NAME=2-Propenoic acid, 2-propynyl ester
##MOLFORM=C6H6O2
##CAS REGISTRY NO=10477-47-1
##MP= -300
##BP= -300
##MW= 110
##$RETENTION INDEX=0
##$CONDENSED SPECTRUM=NO
##NPOINTS= 40
##XYDATA=(XY..XY) 1 
    13          1
    15          1
    24          2
    25         14
    26         74
    27        263
    29         23
    30          1
    31          1
    36          3
    37         40
    38         81
    39        304
    40         27
    41          3
    42          3
    43          7
    44          5
    45          6
    50          3
    51          4
    52          6
    53         45
    54         90
    55        999
    56         41
    57          3
    63          2
    64          3
    65         26
    66          9
    68         15
    69          2
    81         44
    82         43
    83          2
    84          1
    92          6
    95          1
   109          1