##TITLE=Library Entry 71706
##JCAMP-DX=Revision 4.10 
##DATA TYPE=MASS SPECTRUM
##SAMPLE DESCRIPTION=Japan AIST/NIMC Database- Spectrum MS-NW-7833
##NAMES=HP
##CAS NAME=Dodecanedioic acid, diethyl ester
##MOLFORM=C16H30O4
##CAS REGISTRY NO=10471-28-0
##MP= -300
##BP= -300
##MW= 286
##$RETENTION INDEX=0
##$CONDENSED SPECTRUM=NO
##NPOINTS= 208
##XYDATA=(XY..XY) 1 
    17          4
    18         16
    19          3
    26         11
    27        115
    28         67
    29        473
    30         13
    31         22
    38          2
    39         60
    40         17
    41        401
    42        100
    43        215
    44          9
    45        130
    46          4
    47          5
    48          3
    51          4
    52          3
    53         33
    54         49
    55        522
    56         84
    57        108
    58         21
    59         45
    60        212
    61        181
    62          8
    63          3
    64          2
    65          6
    66          7
    67        117
    68         54
    69        468
    70        183
    71         82
    72          7
    73        160
    74         27
    75          7
    77          7
    78          6
    79         41
    80         31
    81        141
    82         45
    83        286
    84        379
    85         50
    86          8
    87         44
    88        458
    89         52
    90          5
    91         16
    92         11
    93         54
    94         26
    95         84
    96         76
    97        239
    98        999
    99         82
   100          9
   101        280
   102         31
   103          4
   104          3
   105         10
   106         10
   107         52
   108         36
   109         69
   110         52
   111        217
   112        371
   113         40
   114         10
   115         78
   116         20
   117          6
   118          4
   119         11
   120          7
   121         25
   122         15
   123         42
   124         37
   125         88
   126         44
   127         13
   128         12
   129         73
   130         31
   131          7
   132          4
   133         17
   134         42
   135        203
   136         26
   137         20
   138         47
   139         24
   140          9
   141          8
   142         23
   143         86
   144         29
   145          4
   146          2
   147         20
   148         24
   149        102
   150         24
   151         27
   152        138
   153        420
   154         52
   155         17
   156         32
   157        153
   158         29
   159         13
   160          3
   161          2
   162          2
   163          2
   164          5
   165         18
   166        100
   167         79
   168         14
   169          7
   170          5
   171         24
   172          9
   173          2
   174          1
   175         10
   176         21
   177         17
   178          4
   179          3
   180          3
   181          3
   182          2
   183          5
   184         80
   185         25
   186         58
   187          8
   188          2
   189          2
   190          1
   191          2
   192          4
   193         14
   194        109
   195         52
   196         12
   197          9
   198         70
   199        819
   200        116
   201         12
   202          2
   203          2
   205          1
   207          1
   209          1
   210          2
   211          5
   212         14
   213         23
   214         68
   215         11
   216          1
   220          2
   221          1
   222          9
   223          3
   224          3
   227          3
   229          2
   230          2
   235          1
   236          2
   238          3
   239          7
   240         47
   241        855
   242        134
   243         18
   244          2
   248          2
   249          1
   257          1
   269          1
   284          1
   285          1
   286         27
   287         16
   288          4