##TITLE=Library Entry 85432
##JCAMP-DX=Revision 4.10 
##DATA TYPE=MASS SPECTRUM
##SAMPLE DESCRIPTION=A.A.Kutin, Moscow, Russia
##NAMES=HP
##CAS NAME=Phenol, 2-(4-methylpyrid-2-ylamino)methyl-
##MOLFORM=C13H14N2O
##CAS REGISTRY NO=104768-35-6
##MP= -300
##BP= -300
##MW= 214
##$RETENTION INDEX=0
##$CONDENSED SPECTRUM=NO
##NPOINTS= 131
##XYDATA=(XY..XY) 1 
    37         19
    38         51
    39        163
    40         30
    41         45
    42          9
    43          6
    44          0
    45          0
    47          0
    48          0
    50         87
    51        155
    52        112
    53        130
    54         19
    55         10
    56          1
    57          0
    59          0
    60          5
    61         10
    62         27
    63         55
    64         50
    65        176
    66        124
    67         31
    68         19
    69          2
    70          1
    72          1
    73          4
    74         12
    75         17
    77        284
    78        137
    79         78
    80        233
    81        257
    82         12
    83          2
    84          4
    85          5
    86          1
    87          2
    88          2
    89          7
    91         47
    92        201
    93        185
    94         53
    95         53
    96          9
    98          9
    99          1
   100          0
   101          0
   102          9
   103          5
   104         10
   105         26
   106         26
   107        178
   108        999
   109         68
   110          5
   111          0
   114          1
   115          6
   116          2
   117          5
   118          6
   119         68
   120         29
   121        122
   122        319
   123         23
   124          0
   126          0
   127          2
   128          5
   129          2
   130          4
   131          7
   132          4
   133          3
   134          0
   135          0
   139          0
   140          2
   141          2
   142          3
   143          4
   144          4
   145          3
   146          0
   152          1
   153          2
   154          6
   155          2
   156          5
   157          8
   158          5
   159          1
   166          0
   167          6
   168         29
   169         20
   170          6
   171          4
   172          1
   180          1
   182         15
   183         11
   184         15
   185         14
   186          7
   187          0
   188          0
   194          3
   195         19
   196         27
   197        197
   198         38
   199          5
   211          9
   213        164
   214        704
   215         82
   216          8