##TITLE=Library Entry 59880
##JCAMP-DX=Revision 4.10 
##DATA TYPE=MASS SPECTRUM
##SAMPLE DESCRIPTION=NIST Mass Spectrometry Data Center, 1994
##NAMES=HP
##CAS NAME=Ethylbenzylamine
##MOLFORM=C16H19N
##CAS REGISTRY NO=10479-25-1
##MP= -300
##BP= -300
##MW= 225
##$RETENTION INDEX=0
##$CONDENSED SPECTRUM=NO
##NPOINTS= 72
##XYDATA=(XY..XY) 1 
    15          2
    18          3
    26          0
    27         22
    28         18
    29         17
    30          7
    37          1
    38          6
    39         84
    40          6
    41         27
    42         37
    45          0
    50         17
    51         58
    52         12
    53          3
    54          3
    55          2
    56         20
    57          1
    58          1
    61          0
    62          6
    63         34
    64         13
    65        194
    66         11
    75          3
    76          6
    77         36
    78         14
    79         12
    86          0
    87          1
    89         32
    91        999
    92         87
    93          4
   102          0
   103          3
   104         13
   105          7
   106          8
   107          1
   113          0
   115          1
   116          1
   117          4
   118         12
   119          1
   130          0
   132          4
   134         21
   135          2
   139          0
   146          6
   148         37
   149          4
   152          1
   165          3
   166          2
   167          1
   181         26
   182          4
   210        167
   211         27
   212          2
   224          5
   225         24
   226          4