##TITLE=Library Entry 62402
##JCAMP-DX=Revision 4.10 
##DATA TYPE=MASS SPECTRUM
##SAMPLE DESCRIPTION=A.A.Kutin, Moscow, Russia
##NAMES=HP
##CAS NAME=2,2'-Dithiobis(acetamide), N,N'-dibenzyl-
##MOLFORM=C18H20N2O2S2
##CAS REGISTRY NO=1047-94-5
##MP= -300
##BP= -300
##MW= 360
##$RETENTION INDEX=0
##$CONDENSED SPECTRUM=NO
##NPOINTS= 139
##XYDATA=(XY..XY) 1 
    33          4
    34          2
    35          0
    37          2
    38          7
    39         37
    40         15
    41         16
    42         32
    43         16
    44         22
    45         32
    46         22
    47         40
    48          3
    50         28
    51         53
    52         13
    53          4
    54          4
    55          2
    56          2
    57          2
    58          1
    59          2
    60          1
    61          2
    62          6
    63         23
    65        126
    66          6
    67          0
    68          1
    69          1
    70          1
    71          1
    72          1
    74         11
    75          6
    77         97
    78         40
    79         56
    80          4
    81          1
    82          0
    83          0
    84          0
    85          1
    86          1
    87          1
    89         33
    91        999
    92         66
    93          4
    94          1
    95          0
    96          0
    97          0
    98          0
    99          0
   100          1
   102          5
   103         22
   104         62
   105         94
   106        126
   107        172
   108         22
   109          4
   110          0
   111          0
   112          0
   115          0
   116          1
   117          3
   118         17
   119          6
   120          7
   121          3
   122          3
   123         10
   124          1
   125          0
   126          0
   127          0
   128          1
   130          6
   131          5
   132         11
   133          6
   134          3
   135          5
   136          2
   137          2
   138          2
   139          0
   141          0
   148        680
   149        115
   150         12
   151          1
   152          1
   153          1
   154          1
   155          0
   162          0
   163          0
   166          0
   167          1
   170          0
   171          0
   174          0
   178          1
   179          9
   180         19
   181         55
   182         10
   183          3
   184          0
   186          0
   187          0
   188          0
   189          0
   192          0
   193          1
   194          0
   195          0
   211          0
   212          1
   213          0
   221          0
   223          0
   227          1
   253          1
   328          0
   359          0
   360          6
   361          1
   362          0