##TITLE=Library Entry 5834
##JCAMP-DX=Revision 4.10 
##DATA TYPE=MASS SPECTRUM
##SAMPLE DESCRIPTION=Exported from NIST MS Search
##NAMES=HP
##CAS NAME=3-Buten-2-ol, 3-methyl-
##MOLFORM=C5H10O
##CAS REGISTRY NO=10473-14-0
##MP= -300
##BP= -300
##MW= 86
##$RETENTION INDEX=737
##$CONDENSED SPECTRUM=NO
##NPOINTS= 43
##XYDATA=(XY..XY) 1 
    14         10
    15         87
    18         24
    19         35
    26         33
    27        264
    29        137
    31         61
    32          8
    37         26
    38         66
    39        427
    40         76
    41        599
    42        162
    43        999
    44         72
    45        415
    46         11
    49          7
    50         34
    51         34
    52         11
    53        142
    54         16
    55         33
    57         34
    58        121
    59         17
    62          8
    63          9
    65         12
    66          6
    67         82
    68         28
    69         67
    70         13
    71        112
    72         11
    84         28
    85         29
    86        161
    87          8