##TITLE=Library Entry 39625
##JCAMP-DX=Revision 4.10 
##DATA TYPE=MASS SPECTRUM
##SAMPLE DESCRIPTION=R.E.Ardrey ET AL.Pharmaceutical Mass Spectra,L.,1985
##NAMES=HP
##CAS NAME=4-Hydroxypropranolol
##MOLFORM=C16H21NO3
##CAS REGISTRY NO=10476-53-6
##MP= -300
##BP= -300
##MW= 275
##$RETENTION INDEX=0
##$CONDENSED SPECTRUM=NO
##NPOINTS= 53
##XYDATA=(XY..XY) 1 
    26         10
    27         60
    29         30
    30        870
    31         10
    35         30
    39         40
    40         10
    41        140
    42         60
    43        160
    44         40
    45         30
    50         50
    51         30
    52         10
    53         10
    54         10
    55         10
    56        230
    57         40
    58         30
    60         20
    63         10
    66         10
    70         60
    71         30
    72        999
    73         40
    74         40
    75         20
    76         80
    77         50
    84         30
    98         20
   100         40
   102         60
   103         30
   104         70
   105         30
   114         30
   115         30
   116        250
   117         20
   130         40
   131         30
   132         10
   144         10
   158        110
   159         80
   160        140
   161         10
   202         40