##TITLE=Library Entry 30323
##JCAMP-DX=Revision 4.10 
##DATA TYPE=MASS SPECTRUM
##SAMPLE DESCRIPTION=G.BRAMMER,UNIVERSITY OF TEXAS
##NAMES=HP
##CAS NAME=L-.alpha.-Terpineol
##MOLFORM=C10H18O
##CAS REGISTRY NO=10482-56-1
##MP= -300
##BP= -300
##MW= 154
##$RETENTION INDEX=1190
##$CONDENSED SPECTRUM=NO
##NPOINTS= 112
##XYDATA=(XY..XY) 1 
    25          1
    26          2
    27         41
    29         41
    30          1
    31         48
    33          1
    34          0
    35          0
    36          0
    37          1
    38          5
    39         82
    41        117
    42         14
    43        240
    45         17
    46          0
    47          1
    48          1
    49          1
    50          6
    51         21
    52         15
    53         84
    54         44
    55        117
    56         10
    57         11
    58         13
    59        999
    60         37
    61          6
    62          7
    63         10
    64          2
    65         35
    66         18
    67        143
    68        125
    69         51
    70          3
    71         82
    72          7
    73          1
    74          2
    75          3
    76          2
    77         91
    78         21
    79        127
    80         65
    81        348
    82         30
    83          5
    84          5
    85          7
    86          2
    87          0
    88          1
    89          3
    90          4
    91         62
    92        179
    93        584
    94         81
    95        163
    96         82
    97          9
    98          3
    99          1
   100          0
   101          0
   102          2
   103          2
   104          2
   105         37
   106          7
   107         79
   108         38
   109          9
   110          1
   111          5
   112          1
   113          0
   114          1
   115          3
   116          1
   117          2
   118          1
   119          6
   120          6
   121        576
   122         66
   123         10
   124          2
   125          1
   126          0
   127          0
   128          2
   129          0
   130          0
   131          2
   132          1
   133          1
   134          1
   135          4
   136        524
   137         76
   138          7
   139         81
   140         11