##TITLE=Library Entry 24045
##JCAMP-DX=Revision 4.10 
##DATA TYPE=MASS SPECTRUM
##SAMPLE DESCRIPTION=Exported from NIST MS Search
##NAMES=HP
##CAS NAME=Tridecanal
##MOLFORM=C13H26O
##CAS REGISTRY NO=10486-19-8
##MP= -300
##BP= -300
##MW= 198
##$RETENTION INDEX=1512
##$CONDENSED SPECTRUM=NO
##NPOINTS= 71
##XYDATA=(XY..XY) 1 
    15          7
    18         14
    26         13
    27        181
    28         56
    29        378
    30         10
    31         12
    39        112
    40         23
    41        732
    42        180
    43        932
    44        362
    45        146
    51          5
    53         41
    54        147
    55        666
    56        332
    57        999
    58         72
    59          8
    65          7
    66         77
    67        327
    68        443
    69        389
    70        304
    71        349
    72         84
    73          9
    77          7
    79         18
    80         21
    81        274
    82        700
    83        328
    84        167
    85        170
    86         23
    93          8
    94         15
    95        247
    96        337
    97        197
    98         90
    99         60
   100          7
   108          5
   109        114
   110        127
   111         90
   112         60
   113         20
   123         70
   124         87
   125         47
   126         31
   127          7
   137         32
   138         28
   139          5
   151         11
   152         64
   153          8
   154        117
   155         17
   170         20
   180         30
   181          5