##TITLE=Library Entry 2140
##JCAMP-DX=Revision 4.10 
##DATA TYPE=MASS SPECTRUM
##SAMPLE DESCRIPTION=A.A.Kutin, Moscow, Russia
##NAMES=HP
##CAS NAME=Cyclohexane-1,3-dione, 2-(2-hydroxyethylaminomethylene)-5,5-dimet
hyl-
##MOLFORM=C11H17NO3
##CAS REGISTRY NO=104899-98-1
##MP= -300
##BP= -300
##MW= 211
##$RETENTION INDEX=0
##$CONDENSED SPECTRUM=NO
##NPOINTS= 67
##XYDATA=(XY..XY) 1 
    38         97
    39        913
    40         28
    41        999
    42        406
    43        520
    44         42
    45        221
    46          0
    53        717
    54        180
    55        722
    56        172
    57         43
    59         14
    62          8
    63         25
    64          8
    65         39
    67        104
    68        137
    69        143
    70         91
    71          3
    72          9
    74          3
    75          2
    77         34
    78         21
    79         28
    80         22
    81         37
    82         60
    83         42
    84         23
    85          3
    91          6
    92         15
    93         11
    94         28
    95          6
    96         30
    97         41
    98          4
    99          7
   104          8
   107          5
   108         10
   109         13
   110         24
   111          9
   112          2
   113         13
   114         13
   123          7
   124         32
   125          2
   127          0
   136          6
   137          7
   180         44
   181          6
   182          0
   194         12
   196          1
   211         47
   212          4