##TITLE=Library Entry 35905
##JCAMP-DX=Revision 4.10 
##DATA TYPE=MASS SPECTRUM
##SAMPLE DESCRIPTION=NIST Mass Spectrometry Data Center
##NAMES=HP
##CAS NAME=Methyl pentafluoropropionylacetate
##MOLFORM=C6H5F5O3
##CAS REGISTRY NO=104857-88-7
##MP= -300
##BP= -300
##MW= 220
##$RETENTION INDEX=0
##$CONDENSED SPECTRUM=NO
##NPOINTS= 77
##XYDATA=(XY..XY) 1 
    12          1
    13         10
    14         23
    15         90
    16          3
    17          2
    18          2
    19          3
    25          4
    26          5
    27         17
    28         14
    29        124
    30         16
    31        112
    32         22
    33         24
    37          3
    40         10
    41        118
    42        133
    43         27
    44         17
    45         30
    47          7
    50         26
    51         12
    52          3
    53         12
    55          5
    56          9
    57         38
    59        186
    60          8
    61          5
    63         17
    64          8
    67          4
    69        999
    70         37
    71         18
    72          2
    73          4
    75         25
    76          2
    78          2
    81          8
    82          3
    85          1
    89          4
    91         78
    92          3
    93          8
    94          2
    95          2
    97          2
   101        456
   102         20
   103          4
   109          4
   111          5
   113          4
   119        122
   120          9
   123          2
   131          6
   141         25
   147         32
   153          7
   159          2
   162          2
   169          3
   173          7
   189        145
   190         11
   220         42
   221          3