##TITLE=Library Entry 36195
##JCAMP-DX=Revision 4.10 
##DATA TYPE=MASS SPECTRUM
##SAMPLE DESCRIPTION=Chemical Concepts
##NAMES=HP
##CAS NAME=2,6,10-Dodecatrienoic acid, 3,7,11-trimethyl-, methyl ester
##MOLFORM=C16H26O2
##CAS REGISTRY NO=10485-70-8
##MP= -300
##BP= -300
##MW= 250
##$RETENTION INDEX=1762
##$CONDENSED SPECTRUM=NO
##NPOINTS= 186
##XYDATA=(XY..XY) 1 
    25          2
    27         32
    29         40
    30          1
    31          5
    33          3
    38          3
    39         93
    40         25
    41        513
    42         24
    43         53
    44         17
    45         12
    50          5
    51         10
    52         13
    53         90
    54         41
    55        115
    56          7
    57         24
    58          1
    59         43
    60          3
    61          2
    65         38
    66         14
    67        150
    68         68
    69        999
    70         65
    71         22
    73         13
    74          4
    75          2
    76          3
    77         60
    78         16
    79        135
    80         43
    81        431
    82        123
    83        117
    84          6
    85         24
    87         14
    89          2
    91        112
    92         26
    93        196
    94         29
    95        126
    96         19
    97         14
    98          5
    99         49
   100          8
   101          6
   102          2
   103         13
   104          2
   105         89
   106         34
   107        162
   108         38
   109        290
   110         32
   111         20
   112         14
   113         14
   114        424
   115         41
   116          6
   117         13
   118          3
   119         33
   120         28
   121        541
   122         71
   123        132
   124         30
   125         78
   126         11
   127         80
   128         48
   129         12
   130          6
   131         22
   132          3
   133         32
   134         13
   135         70
   136         92
   137        163
   138         19
   139         35
   140          6
   141          9
   142          4
   143          3
   144          2
   145         16
   146          3
   147        176
   148         28
   149          2
   153         21
   154         10
   155         10
   156          2
   157          8
   158          3
   159          8
   160          2
   161         31
   162         14
   163         16
   164          3
   165         19
   166         17
   167         14
   168          5
   169          9
   170          2
   171          3
   172          4
   173          9
   174          3
   175        111
   176         31
   177          7
   178          3
   179          8
   180         12
   181         87
   182         12
   183          2
   184          2
   185         11
   186          3
   187          2
   188          3
   189         12
   190         13
   191         33
   192          4
   193         10
   194         18
   195          5
   196          6
   197          3
   198          2
   199          2
   200          2
   201          3
   202          2
   203         17
   204          3
   205          7
   206          6
   207        271
   208         41
   209          9
   210          2
   216          2
   217          2
   218         20
   219         15
   220          5
   221          2
   222          1
   223          3
   224          2
   229          2
   230          2
   231          2
   233          2
   235         22
   236          2
   237          3
   249          1
   250        185
   251         27
   252          3
   253          2