##TITLE=Library Entry 48708
##JCAMP-DX=Revision 4.10 
##DATA TYPE=MASS SPECTRUM
##SAMPLE DESCRIPTION=NIST Mass Spectrometry Data Center
##NAMES=HP
##CAS NAME=1,8,11,14-Heptadecatetraene, (Z,Z,Z)-
##MOLFORM=C17H28
##CAS REGISTRY NO=10482-53-8
##MP= -300
##BP= -300
##MW= 232
##$RETENTION INDEX=1664
##$CONDENSED SPECTRUM=NO
##NPOINTS= 107
##XYDATA=(XY..XY) 1 
    26          1
    27         21
    28          3
    29         37
    30          1
    37          1
    38          2
    39        111
    40         16
    41        352
    42         27
    43         44
    44          1
    50          4
    51         20
    52         14
    53         97
    54         71
    55        273
    56         15
    57         20
    58          1
    62          1
    63          7
    64          2
    65         94
    66        101
    67        640
    68         89
    69         94
    70          6
    71          2
    74          1
    75          1
    76          2
    77        222
    78        141
    79        999
    80        472
    81        266
    82         69
    83         31
    84          2
    85          1
    89          3
    90          1
    91        328
    92         89
    93        461
    94        159
    95        307
    96         55
    97         13
    98          1
   102          2
   103         14
   104         10
   105        123
   106         43
   107        173
   108        580
   109         95
   110         22
   111          4
   115         11
   116          3
   117         14
   118          3
   119         74
   120         35
   121        149
   122        115
   123         16
   127          1
   128          2
   129          1
   131          1
   132          1
   133         63
   134         41
   135        111
   136         40
   137          5
   147         47
   148         20
   149         25
   150          9
   151          1
   152          1
   161         24
   162          5
   163          6
   164          3
   165          1
   175         11
   176         39
   177          6
   178         12
   179          1
   189          9
   190          3
   191          2
   203         12
   204          4
   217          2
   232          7
   233          1