##TITLE=Library Entry 63198
##JCAMP-DX=Revision 4.10 
##DATA TYPE=MASS SPECTRUM
##SAMPLE DESCRIPTION=G. PECZAK, DEP. GEN. CHEM., MIL. SCH. MED., LODZ, POLAN
D
##NAMES=HP
##CAS NAME=5-Methyl-5,6,7,8-tetrahydro-2-thioxo-4-quinazolinone
##MOLFORM=C9H12N2OS
##CAS REGISTRY NO=104829-70-1
##MP= -300
##BP= -300
##MW= 196
##$RETENTION INDEX=0
##$CONDENSED SPECTRUM=NO
##NPOINTS= 15
##XYDATA=(XY..XY) 1 
    41        341
    54        301
    55        421
    65        208
    91        999
    99        176
   101        274
   107        230
   122        818
   153        182
   155        267
   162        155
   181        878
   182        136
   196        770