##TITLE=Library Entry 34089
##JCAMP-DX=Revision 4.10 
##DATA TYPE=MASS SPECTRUM
##SAMPLE DESCRIPTION=Japan AIST/NIMC Database- Spectrum MS-NW-2640
##NAMES=HP
##CAS NAME=2-Butenoyl chloride
##MOLFORM=C4H5ClO
##CAS REGISTRY NO=10487-71-5
##MP= -300
##BP= -300
##MW= 104
##$RETENTION INDEX=796
##$CONDENSED SPECTRUM=NO
##NPOINTS= 57
##XYDATA=(XY..XY) 1 
    12          2
    13          4
    14          5
    15         22
    17          1
    18          3
    24          2
    25          8
    26         34
    27         29
    28          6
    29          5
    32          1
    33          2
    34          3
    35          9
    36         24
    37         49
    38         79
    39        535
    40         76
    41        577
    42         23
    43          2
    44          3
    45          1
    47          2
    48          2
    49          9
    50          5
    51          3
    52          1
    53          9
    54          2
    55          1
    60          1
    61          4
    62          1
    63         16
    65          6
    66          2
    67          2
    68         24
    69        999
    70         43
    71          4
    73          2
    75          6
    76         18
    77         13
    78          7
    79          4
    86          5
    89          1
   105         18
   106          1
   107          7