##TITLE=Library Entry 73299
##JCAMP-DX=Revision 4.10 
##DATA TYPE=MASS SPECTRUM
##SAMPLE DESCRIPTION=H. ADLERCREUTZ, UNIV. OF HELSINKI, FINLAND
##NAMES=HP
##CAS NAME=5.beta.-Pregnane-3.alpha.,6.alpha.-diol-20-one-O-methyloxime
##MOLFORM=C22H37NO3
##CAS REGISTRY NO=1048000-06-1
##MP= -300
##BP= -300
##MW= 363
##$RETENTION INDEX=0
##$CONDENSED SPECTRUM=NO
##NPOINTS= 218
##XYDATA=(XY..XY) 1 
    58         30
    67         12
    68         12
    69         10
    70        247
    71         23
    73          3
    74         57
    75          5
    79         12
    80          4
    81         36
    82         13
    83         27
    84         32
    85          6
    86          4
    87        546
    88        101
    89          7
    91         11
    92          4
    93         24
    94         17
    95         59
    96         19
    97         11
    98          9
    99         39
   100        999
   101         71
   102          4
   105         27
   106         11
   107         33
   108         10
   109         18
   110          6
   111          4
   112          6
   113         60
   114         33
   115         54
   116          5
   117          8
   118          7
   119         24
   120         14
   121         25
   122         11
   123          9
   124          8
   125          4
   126         22
   127         10
   128          3
   129          5
   130          4
   131         27
   132         11
   133         38
   134         16
   135         17
   136         14
   137          7
   141          3
   143         19
   144          7
   145         30
   146         15
   147         29
   148         12
   149         11
   150          6
   151          4
   152          4
   154          4
   155          7
   156          3
   157         22
   158         15
   159         37
   160         14
   161         17
   162          9
   163          8
   164          3
   165          3
   166          4
   168          4
   169         14
   170          5
   171         20
   172         13
   173         27
   174         13
   175         13
   176         11
   177          5
   178          4
   179          4
   181          4
   182          4
   183         19
   184          7
   185         18
   186         10
   187         14
   188          8
   189          8
   190          5
   192          3
   195          6
   196          4
   197         32
   198          9
   199         24
   200         11
   201         10
   202          5
   203          6
   206         15
   209         10
   210          5
   211         16
   212          7
   213         35
   214         13
   215         15
   216          5
   217          6
   218          5
   220         12
   221          7
   222          5
   223         29
   224         10
   225         18
   226          6
   227          7
   228         22
   229         11
   230          3
   231         15
   232          7
   237         20
   238          8
   239         81
   240         27
   241         39
   242         12
   243          9
   244          5
   246         26
   247          7
   251          5
   252          3
   253          6
   254         15
   256         12
   257         30
   258         27
   259         41
   260          9
   262          4
   263          3
   264          6
   265          6
   266          4
   268          5
   269          4
   270          6
   271          4
   272         37
   273         13
   274          5
   275          6
   276          5
   277          4
   279         27
   280         17
   281         10
   282          6
   283          5
   284          5
   285          4
   286          7
   287          4
   288          4
   295          6
   296         71
   297         32
   298         24
   299         15
   300          8
   302          5
   312         34
   313         18
   314        192
   315         47
   316         23
   317          7
   318          6
   326          4
   327         13
   328          8
   329          5
   330         99
   331         30
   332        219
   333         55
   334          9
   344          4
   345         18
   346          6
   348         13
   363         23
   364          9