##TITLE=Library Entry 18002
##JCAMP-DX=Revision 4.10 
##DATA TYPE=MASS SPECTRUM
##SAMPLE DESCRIPTION=Japan AIST/NIMC Database- Spectrum MS-NW-3327
##NAMES=HP
##CAS NAME=dl-Glyceraldehyde diethylacetal
##MOLFORM=C7H16O4
##CAS REGISTRY NO=10487-05-5
##MP= -300
##BP= -300
##MW= 164
##$RETENTION INDEX=0
##$CONDENSED SPECTRUM=NO
##NPOINTS= 78
##XYDATA=(XY..XY) 1 
    13          1
    14          8
    15         59
    16          1
    17          2
    18          8
    25          1
    26         16
    27        122
    28         30
    29        304
    30         24
    31        243
    32          6
    33          2
    36          1
    39          3
    40          1
    41         18
    42         40
    43        143
    44         65
    45        200
    46         17
    47        999
    48         12
    49          9
    53          1
    54          2
    55          6
    56         11
    57         12
    58          5
    59        207
    60        135
    61        296
    62          7
    63          1
    69          4
    71         12
    72          9
    73         59
    74         11
    75        571
    76         23
    77          5
    85          1
    86          2
    87         48
    88         47
    89         56
    90          3
    91         64
    92          3
    93          1
    94          1
    99          1
   100          2
   101         19
   102          3
   103        822
   104         49
   105          6
   107          1
   115          1
   116          1
   117         10
   118          2
   119         70
   120          5
   121          2
   129          6
   131          2
   133          1
   143          2
   145          1
   147          9
   148          1