##TITLE=Library Entry 77611
##JCAMP-DX=Revision 4.10 
##DATA TYPE=MASS SPECTRUM
##SAMPLE DESCRIPTION=V.Zaikin,Inst.Petrochem.Synth.,RAS,Moscow
##NAMES=HP
##CAS NAME=2-Chlorobenzoic acid, 2-phenylethyl ester
##MOLFORM=C15H13ClO2
##CAS REGISTRY NO=104856-44-2
##MP= -300
##BP= -300
##MW= 260
##$RETENTION INDEX=1989
##$CONDENSED SPECTRUM=NO
##NPOINTS= 73
##XYDATA=(XY..XY) 1 
    26          5
    27         19
    28          1
    29          9
    39         40
    40          3
    41         16
    42          2
    43          9
    50         52
    51         59
    52         12
    53          6
    55          6
    61          4
    62          7
    63         19
    64          9
    65         44
    69          4
    70         11
    71          3
    73          7
    74         24
    75         87
    76         37
    77         63
    78         40
    79         26
    80          2
    82          2
    84          8
    85         11
    87          5
    89          9
    90          4
    91         97
    92         12
    93          2
    96          3
    97          2
   101          4
   102         10
   103         44
   104        999
   105        153
   106         10
   107          2
   110          6
   111        156
   112         17
   113         48
   114          4
   118          5
   122          2
   128          2
   130          3
   131          2
   133          2
   135          7
   136          3
   138          3
   139        413
   140         31
   141        134
   142          9
   152          3
   156         20
   157          8
   158          6
   159          2
   165          3
   178          2