##TITLE=Library Entry 77187
##JCAMP-DX=Revision 4.10 
##DATA TYPE=MASS SPECTRUM
##SAMPLE DESCRIPTION=NIST Mass Spectrometry Data Center
##NAMES=HP
##CAS NAME=2-Phenylethyl docosanoate
##MOLFORM=C30H52O2
##CAS REGISTRY NO=104899-74-3
##MP= -300
##BP= -300
##MW= 444
##$RETENTION INDEX=3324
##$CONDENSED SPECTRUM=NO
##NPOINTS= 22
##XYDATA=(XY..XY) 1 
    29          4
    41         11
    43         40
    44          3
    55         24
    57         34
    60          5
    65          5
    71         17
    73          7
    77          7
    78          7
    79          9
    85          9
    91         11
    92          7
    97          6
   103         14
   104        999
   105        335
   106         27
   323          4