##TITLE=Library Entry 55433
##JCAMP-DX=Revision 4.10 
##DATA TYPE=MASS SPECTRUM
##SAMPLE DESCRIPTION=V.Zaikin,Topchiev Inst.Petrochem.Synth.,Moscow
##NAMES=HP
##CAS NAME=Pentanoic acid, 3-phenyl-2-propenyl ester
##MOLFORM=C14H18O2
##CAS REGISTRY NO=10482-65-2
##MP= -300
##BP= -300
##MW= 218
##$RETENTION INDEX=1688
##$CONDENSED SPECTRUM=NO
##NPOINTS= 83
##XYDATA=(XY..XY) 1 
    26          5
    27         23
    28          5
    29         56
    30          1
    31          1
    35          2
    36         13
    38          4
    39         39
    40          4
    41         78
    42          6
    43          7
    44          3
    45          2
    50         11
    51         31
    52         10
    53          5
    54          1
    55         30
    56          8
    57        469
    58         23
    59          1
    60         15
    61          1
    62          5
    63         20
    64          5
    65         26
    66          2
    73          8
    74          6
    75          8
    76          9
    77         61
    78         36
    79         19
    80          4
    81          2
    82          4
    83          2
    84          4
    85        999
    86         55
    87          6
    88          3
    89         25
    90          5
    91        124
    92         55
    93          6
    94          1
   101          3
   102         25
   103         46
   104         33
   105         52
   106          6
   113          2
   114          6
   115        530
   116        247
   117        475
   118         54
   119          3
   128          1
   129          3
   130          1
   131         18
   132          5
   133        210
   134        123
   135         12
   148          2
   176          8
   189          6
   190          2
   218        181
   219         28
   220          3