##TITLE=Library Entry 24038
##JCAMP-DX=Revision 4.10 
##DATA TYPE=MASS SPECTRUM
##SAMPLE DESCRIPTION=Japan AIST/NIMC Database- Spectrum MS-NW-5284
##NAMES=HP
##CAS NAME=Disulfide, diheptyl
##MOLFORM=C14H30S2
##CAS REGISTRY NO=10496-16-9
##MP= -300
##BP= -300
##MW= 262
##$RETENTION INDEX=0
##$CONDENSED SPECTRUM=NO
##NPOINTS= 85
##XYDATA=(XY..XY) 1 
    15          1
    26          1
    27         42
    28          5
    29         97
    30          2
    32          2
    34          1
    35          1
    39         27
    40          4
    41        173
    42         29
    43        273
    44          9
    45         15
    46          7
    47         19
    49          1
    51          1
    53          9
    54          7
    55        170
    56         39
    57        999
    58         45
    59          9
    60         12
    61         12
    62          1
    63          1
    64          3
    65          1
    66          1
    67         10
    68          6
    69         36
    70         19
    71         15
    72          1
    73          9
    74          6
    75          3
    76          1
    77          1
    78          1
    79         16
    81          7
    82          1
    83          5
    84          1
    85          2
    87         39
    88          6
    89          6
    91          2
    92          1
    93          2
    95         10
    96         11
    97         16
    98         14
    99          6
   101         22
   102          2
   103          2
   105          1
   106          1
   115          4
   121          3
   129          9
   130          5
   131         79
   132          9
   133          4
   135          2
   163          1
   164        154
   165         14
   166         14
   167          1
   262        147
   263         26
   264         15
   265          3