##TITLE=Library Entry 61821
##JCAMP-DX=Revision 4.10 
##DATA TYPE=MASS SPECTRUM
##SAMPLE DESCRIPTION=CARL DJERASSI DEPT OF CHEM STANFORD UNIV STANFORD CALIF
 94305
##NAMES=HP
##CAS NAME=Benzenepropanol, 2-methoxy-
##MOLFORM=C10H14O2
##CAS REGISTRY NO=10493-37-5
##MP= -300
##BP= -300
##MW= 166
##$RETENTION INDEX=1454
##$CONDENSED SPECTRUM=NO
##NPOINTS= 61
##XYDATA=(XY..XY) 1 
    41         60
    42         20
    43         30
    44         20
    45         20
    50         70
    51        180
    52         70
    53         50
    54         10
    55         30
    57         20
    58         10
    61         10
    62         30
    63         70
    64         30
    65        190
    66         20
    74         20
    75         20
    76         20
    77        250
    78        130
    79         70
    80         10
    89         40
    90         20
    91        999
    92        110
    93         60
    94         20
   102         20
   103         60
   104         20
   105        130
   106         20
   107         50
   108         80
   109         30
   110         20
   115         40
   116         20
   117         70
   118         20
   119        130
   120         40
   121        630
   122        160
   123         20
   131         20
   133         80
   134         20
   135         50
   136         10
   137         10
   147         40
   148        170
   149         30
   166        300
   167         40