##TITLE=Library Entry 70967
##JCAMP-DX=Revision 4.10 
##DATA TYPE=MASS SPECTRUM
##SAMPLE DESCRIPTION=J.A. ENZELL, RES. DEP., SWED. TOB. CO., STOCKHOLM, SWED
EN
##NAMES=HP
##CAS NAME=2-Cyclopenten-1-one, 2-hydroxy-
##MOLFORM=C5H6O2
##CAS REGISTRY NO=10493-98-8
##MP= -300
##BP= -300
##MW= 98
##$RETENTION INDEX=926
##$CONDENSED SPECTRUM=NO
##NPOINTS= 10
##XYDATA=(XY..XY) 1 
    40        110
    41        340
    42        550
    43        240
    44         50
    55        630
    56         60
    69        310
    70        140
    98        999