##TITLE=Library Entry 85054
##JCAMP-DX=Revision 4.10 
##DATA TYPE=MASS SPECTRUM
##SAMPLE DESCRIPTION=NIST Mass Spectrometry Data Center
##NAMES=HP
##CAS NAME=4-Bromo-1,1,2-trifluorobutene-1
##MOLFORM=C4H4BrF3
##CAS REGISTRY NO=10493-44-4
##MP= -300
##BP= -300
##MW= 188
##$RETENTION INDEX=0
##$CONDENSED SPECTRUM=NO
##NPOINTS= 61
##XYDATA=(XY..XY) 1 
    12          8
    15         10
    18         13
    25         25
    26         85
    27        151
    28         41
    31        328
    32         14
    33        128
    36         19
    37         88
    38        135
    39        723
    40         30
    44         43
    45         90
    46          8
    49         14
    50         51
    51         97
    55         28
    56        106
    57        446
    58         72
    59        387
    60         14
    62         10
    63         16
    64        129
    65         14
    69        628
    70         26
    75        148
    76         26
    77         19
    79         80
    80         21
    81         91
    82         90
    83         13
    87         17
    88         64
    89        469
    90        139
    91         21
    93        135
    95        763
    96         28
   105         11
   106         31
   108        999
   109        625
   110         29
   129         12
   137         13
   139          8
   188        354
   189         18
   190        342
   191         14