##TITLE=Library Entry 2166
##JCAMP-DX=Revision 4.10 
##DATA TYPE=MASS SPECTRUM
##SAMPLE DESCRIPTION=V.G.Zaikin, TIPS, Russian Acad. Sci.
##NAMES=HP
##CAS NAME=.alpha.-Chlorocyclooctanone oxime
##MOLFORM=C8H14ClNO
##CAS REGISTRY NO=10499-33-9
##MP= -300
##BP= -300
##MW= 175
##$RETENTION INDEX=0
##$CONDENSED SPECTRUM=NO
##NPOINTS= 73
##XYDATA=(XY..XY) 1 
    39        830
    40        180
    41        999
    42        240
    43        150
    44        110
    51        200
    52        150
    53        360
    54        270
    55        510
    56         75
    57         60
    59        110
    61         47
    62         63
    63         71
    64         45
    65        150
    66        110
    67        780
    68        120
    69         92
    70         83
    71         41
    72         53
    73         54
    74         38
    75         89
    77        120
    78         50
    79        200
    80        150
    81        360
    82         89
    83         38
    84         68
    85        110
    86         59
    88         41
    89         51
    91         47
    92         47
    93         74
    94        170
    95        120
    96        120
    98        140
    99         90
   105         38
   107        140
   108         45
   109        230
   110         59
   111        150
   112        450
   113        690
   114         66
   120         62
   122        110
   132         60
   134         35
   139         75
   140        470
   141         59
   146         32
   147        410
   158         86
   160         42
   175        230
   176         21
   177         76
   178          7