##TITLE=Library Entry 9953
##JCAMP-DX=Revision 4.10 
##DATA TYPE=MASS SPECTRUM
##SAMPLE DESCRIPTION=Chemical Concepts
##NAMES=HP
##CAS NAME=Disulfide, dihexyl
##MOLFORM=C12H26S2
##CAS REGISTRY NO=10496-15-8
##MP= -300
##BP= -300
##MW= 234
##$RETENTION INDEX=1927
##$CONDENSED SPECTRUM=NO
##NPOINTS= 173
##XYDATA=(XY..XY) 1 
    26          4
    27         89
    29        143
    30          2
    31         11
    33          0
    35          3
    36          0
    37          1
    38          0
    39         46
    40         10
    41        241
    42         34
    43        999
    44         31
    45         30
    46         11
    47         36
    48          1
    49          1
    50          1
    51          3
    52          2
    53         11
    54          7
    55        188
    56         83
    57        163
    58          8
    59         17
    60         23
    61         23
    62          3
    63          1
    64          4
    65          2
    66          1
    67         13
    68          3
    69         39
    70          5
    71          7
    72          0
    73          1
    74         10
    75          9
    76          0
    77          1
    78          1
    79         21
    80          0
    81         26
    82         22
    83         56
    84         26
    85        334
    86         22
    87         35
    88          8
    89          7
    90          1
    92          2
    93          5
    94          0
    95          2
    96          2
    97          0
    98          1
    99          1
   100          0
   101         16
   102          1
   104          0
   105          6
   106          1
   107          2
   108          0
   109          1
   110          0
   111          3
   112          1
   113          2
   114          0
   115         28
   116         24
   117        199
   118         35
   119         10
   120          3
   121          4
   122          0
   123          1
   124          1
   125          2
   126          1
   128          0
   129          2
   130          0
   131          6
   132          1
   133          2
   134          0
   135          1
   136          1
   137          1
   138          0
   139          0
   141          1
   142          1
   143          1
   144          0
   146          0
   147          0
   149          8
   150        278
   151         25
   152         26
   153          2
   154          0
   155          0
   156          0
   157          1
   158          0
   159          1
   160          0
   161          0
   163          0
   165          1
   166          0
   167          0
   168          0
   169          0
   171          0
   173          1
   174          0
   175          0
   176          1
   177          1
   178          1
   181          0
   183          0
   184          0
   185          0
   186          0
   187          1
   188          0
   191          0
   193          0
   195          0
   198          0
   199          0
   200          1
   201          6
   202          1
   203          1
   204          0
   205          1
   210          0
   211          1
   212          0
   214          0
   215          1
   216          0
   217          0
   219          0
   232          0
   233          1
   234        184
   235         30
   236         19
   237          2
   238          0