##TITLE=Library Entry 24125
##JCAMP-DX=Revision 4.10 
##DATA TYPE=MASS SPECTRUM
##SAMPLE DESCRIPTION=Japan AIST/NIMC Database- Spectrum MS-NW-3940
##NAMES=HP
##CAS NAME=Decyl disulfide
##MOLFORM=C20H42S2
##CAS REGISTRY NO=10496-18-1
##MP= -300
##BP= -300
##MW= 346
##$RETENTION INDEX=0
##$CONDENSED SPECTRUM=NO
##NPOINTS= 169
##XYDATA=(XY..XY) 1 
    15          4
    26          6
    27        112
    28         55
    29        234
    30          9
    32         25
    33          2
    34          5
    35          7
    36          1
    37          1
    38          2
    39         77
    40         12
    41        494
    42        126
    43        970
    44         36
    45         35
    46         11
    47         83
    48          3
    49          4
    50          2
    51          5
    52          3
    53         32
    54         38
    55        553
    56        272
    57        999
    58         61
    59         19
    60         42
    61         60
    62          6
    63          4
    64          5
    65          6
    66          5
    67         69
    68         85
    69        329
    70        262
    71        522
    72         30
    73         28
    74         12
    75          8
    76          2
    77          5
    78          2
    79         22
    80          2
    81         46
    82         61
    83        234
    84        125
    85        517
    86         40
    87        138
    88         17
    89         51
    90          4
    91          6
    92          1
    93          7
    94          1
    95         30
    96         36
    97        115
    98         58
    99         53
   100          5
   101         64
   102          8
   103         11
   104          1
   105          2
   106          1
   107          2
   109          7
   110         11
   111         47
   112         54
   113          7
   114          2
   115         32
   116          3
   117          4
   119          1
   121          3
   122          1
   123          2
   124          1
   125          3
   126          1
   127          2
   128          1
   129         26
   130          2
   131          5
   135          3
   136          1
   137          3
   138          7
   139          2
   140         72
   141          9
   142          2
   143         14
   144          2
   145          3
   146          1
   147          1
   149          1
   153          1
   154          1
   155          1
   157          4
   159          1
   163          1
   167          1
   168          3
   169          1
   170          1
   171         25
   172         13
   173        182
   174         75
   175         17
   176          4
   177          1
   178          1
   187          2
   195          2
   197          3
   201          3
   202          1
   204          1
   205          4
   206        224
   207         30
   208         20
   209          4
   210          7
   211          1
   213          5
   214          1
   215          1
   223          1
   229          1
   299          1
   303          1
   306          1
   308          2
   312          3
   313          3
   314          2
   317          1
   318          4
   344          3
   345          3
   346        365
   347         91
   348         43
   349          9
   350          2