##TITLE=Library Entry 28789
##JCAMP-DX=Revision 4.10 
##DATA TYPE=MASS SPECTRUM
##SAMPLE DESCRIPTION=NIST Mass Spectrometry Data Center, 2013
##NAMES=HP
##CAS NAME=3-Fluoromethcathinone
##MOLFORM=C10H12FNO
##CAS REGISTRY NO=1049677-77-1
##MP= -300
##BP= -300
##MW= 181
##$RETENTION INDEX=1345
##$CONDENSED SPECTRUM=NO
##NPOINTS= 88
##XYDATA=(XY..XY) 1 
    15         11
    26          2
    27         13
    28         59
    29         26
    30        118
    31          4
    32          2
    36          1
    37          1
    38          2
    39          6
    40          3
    41         17
    42         66
    43         37
    44          5
    45          2
    47          1
    49          1
    50         19
    51         12
    52          2
    53          2
    54          6
    55          8
    56         89
    57         26
    58        999
    59         39
    60          1
    61          2
    62          3
    63          5
    68          8
    69         15
    70          3
    73          1
    74         12
    75         75
    76          7
    77          4
    81          2
    82          1
    83          2
    85          1
    86          1
    87          1
    89          1
    91          1
    92          1
    93          3
    94         12
    95        119
    96         13
    97          2
   101          2
   102          1
   103          3
   104          1
   105          1
   107          4
   108          1
   109          6
   110          1
   115          1
   120          1
   121          2
   122          2
   123         40
   124          4
   133          3
   134          1
   135          1
   136          1
   137          1
   138          2
   148          1
   149          1
   150          3
   151          4
   152          2
   162          1
   164          1
   165          2
   166          5
   167          1
   180          1