##TITLE=Library Entry 50290
##JCAMP-DX=Revision 4.10 
##DATA TYPE=MASS SPECTRUM
##SAMPLE DESCRIPTION=NIST Mass Spectrometry Data Center, 1994
##NAMES=HP
##CAS NAME=Cyclohexane, 1,2-dichloro-, cis-
##MOLFORM=C6H10Cl2
##CAS REGISTRY NO=10498-35-8
##MP= -300
##BP= -300
##MW= 152
##$RETENTION INDEX=1092
##$CONDENSED SPECTRUM=NO
##NPOINTS= 75
##XYDATA=(XY..XY) 1 
    13          1
    15         54
    16          1
    26         74
    27        293
    28         67
    29         38
    32          1
    35         12
    36         15
    37         26
    38         56
    39        353
    40         49
    41        307
    42         31
    43          3
    47          3
    48          5
    49         49
    50         61
    51        114
    52         41
    53        173
    54        137
    55        150
    56         12
    57          2
    60          4
    61         25
    62         82
    63         32
    64         25
    65         46
    66         16
    67        141
    68          8
    69          3
    72          2
    73         17
    75        127
    76         19
    77         93
    78          2
    79        221
    80        609
    81        999
    82         62
    83          6
    85          4
    86          1
    87          9
    88         56
    89         17
    90         30
    91          5
    92          4
    96          6
    98          3
    99          2
   100          1
   101          9
   102          1
   103          5
   109          4
   110          1
   111          3
   112          1
   116         60
   117          7
   118         20
   119          2
   152         10
   154          6
   156          1