##TITLE=Library Entry 33034
##JCAMP-DX=Revision 4.10 
##DATA TYPE=MASS SPECTRUM
##SAMPLE DESCRIPTION=NIST Mass Spectrometry Data Center, 1990.
##NAMES=HP
##CAS NAME=Ethylidenecycloheptane
##MOLFORM=C9H16
##CAS REGISTRY NO=10494-87-8
##MP= -300
##BP= -300
##MW= 124
##$RETENTION INDEX=0
##$CONDENSED SPECTRUM=NO
##NPOINTS= 46
##XYDATA=(XY..XY) 1 
    15          9
    26         19
    27        157
    28         72
    29         88
    32          7
    39        352
    40         77
    41        423
    42         73
    43         28
    44          7
    50         30
    51         87
    52         52
    53        217
    54        237
    55        393
    56         30
    57         11
    62          9
    63         28
    65         91
    66        113
    67        999
    68        246
    69         87
    70        123
    77        104
    78         25
    79        189
    80         51
    81        372
    82        225
    83         38
    91         51
    92          8
    93         60
    94          8
    95        868
    96        413
    97         29
   109         89
   110          7
   124        376
   125         34