##TITLE=Library Entry 9359
##JCAMP-DX=Revision 4.10 
##DATA TYPE=MASS SPECTRUM
##SAMPLE DESCRIPTION=F. TURECEK,HEYROVSKY INST PHYS CHEM & ELECTROCHEM,PRAGU
E,CZECH
##NAMES=HP
##CAS NAME=1,1-Diacetoxy-9,9-diformylnona-2,4,6,8-tetraene
##MOLFORM=C15H16O6
##CAS REGISTRY NO=104970-92-5
##MP= -300
##BP= -300
##MW= 292
##$RETENTION INDEX=0
##$CONDENSED SPECTRUM=NO
##NPOINTS= 93
##XYDATA=(XY..XY) 1 
    27         70
    29         52
    38         12
    39        101
    40         18
    41         68
    42         25
    43        999
    44         39
    45         66
    50         26
    51         75
    52         28
    53         47
    55         61
    56         11
    57         33
    60         39
    63         37
    64         14
    65         55
    66         40
    67         30
    68         36
    69         44
    70         11
    71         17
    74         11
    75         12
    76         15
    77        119
    78         57
    79         79
    80         13
    81         86
    82         14
    83         14
    89         17
    91         80
    92         19
    93         17
    94         55
    95         33
    97         14
   103         41
   104         17
   105         95
   106         14
   107         33
   109         28
   110         11
   115         94
   116         86
   117         81
   118         17
   119         23
   120         21
   121         17
   122         44
   123         15
   127         15
   128         14
   129         18
   131         22
   132         13
   133         94
   134         22
   135         15
   139         14
   141         13
   143         11
   144         39
   145         39
   146         14
   147         13
   149         13
   151         11
   157         10
   161         52
   162         23
   163         14
   168         19
   172         58
   173         25
   179         81
   190         54
   191         46
   192         14
   208         15
   221         15
   232         10
   250         34
   292         21