##TITLE=Library Entry 56134
##JCAMP-DX=Revision 4.10 
##DATA TYPE=MASS SPECTRUM
##SAMPLE DESCRIPTION=RADIAN CORP
##NAMES=HP
##CAS NAME=2-Propenoic acid, 2-methyl-, 2-(diethylamino)ethyl ester
##MOLFORM=C10H19NO2
##CAS REGISTRY NO=105-16-8
##MP= -300
##BP= -300
##MW= 185
##$RETENTION INDEX=0
##$CONDENSED SPECTRUM=NO
##NPOINTS= 41
##XYDATA=(XY..XY) 1 
    15          2
    18          1
    26          4
    27         22
    28         25
    29         45
    30         68
    31          2
    37          2
    38          6
    39         53
    40         14
    41         92
    42         60
    43         14
    44         31
    45          4
    53          2
    54          8
    55          7
    56         48
    57         17
    58        104
    59          5
    68          5
    69         79
    70         20
    71         20
    72         12
    84         31
    86        999
    87         71
    98          3
    99         59
   100         22
   101          1
   113        104
   114         10
   170          5
   185          2
   186          3