##TITLE=Library Entry 4136
##JCAMP-DX=Revision 4.10 
##DATA TYPE=MASS SPECTRUM
##SAMPLE DESCRIPTION=Japan AIST/NIMC Database- Spectrum MS-NW- 208
##NAMES=HP
##CAS NAME=1-Allyl-3-(2-hydroxyethyl)-2-thiourea
##MOLFORM=C6H12N2OS
##CAS REGISTRY NO=105-81-7
##MP= -300
##BP= -300
##MW= 160
##$RETENTION INDEX=0
##$CONDENSED SPECTRUM=NO
##NPOINTS= 121
##XYDATA=(XY..XY) 1 
    14          4
    15         56
    17          2
    18          6
    25          1
    26         21
    27        125
    28        314
    29         47
    30        590
    31         68
    32         13
    33         10
    34         17
    35          5
    36          2
    37          7
    38         21
    39        316
    40         31
    41        999
    42        157
    43        284
    44        155
    45        182
    46         20
    47         21
    48          3
    49          1
    50          2
    51          4
    52         11
    53          9
    54         77
    55         83
    56        742
    57        506
    58        109
    59         84
    60        299
    61         30
    62         69
    63          4
    64          5
    65          2
    66          7
    67         26
    68         36
    69         70
    70         25
    71         23
    72         73
    73         84
    74         87
    75         24
    76          9
    77         41
    78          3
    79          2
    80          5
    81         21
    82         21
    83        177
    84         22
    85         14
    86        172
    87         31
    88         19
    89          7
    90         14
    91          4
    92          4
    93          1
    95         20
    96          5
    97          9
    98         19
    99         34
   100         98
   101        324
   102         23
   103         31
   104         34
   105          7
   106          2
   107          1
   109         10
   110          2
   111          4
   112          1
   113         24
   114         32
   115        125
   116         31
   117         31
   118          4
   119          5
   125         21
   126         19
   127         83
   128          7
   129         37
   130          7
   131          9
   132          7
   133          1
   137          3
   141         39
   142         49
   143         17
   144          3
   145        800
   146         56
   147         40
   148          3
   149          1
   159         33
   160        971
   161         90
   162         50
   163          4