##TITLE=Library Entry 15134
##JCAMP-DX=Revision 4.10 
##DATA TYPE=MASS SPECTRUM
##SAMPLE DESCRIPTION=NIST Mass Spectrometry Data Center, 1994
##NAMES=HP
##CAS NAME=2-Chloro-N-ethylacetamide
##MOLFORM=C4H8ClNO
##CAS REGISTRY NO=105-35-1
##MP= -300
##BP= -300
##MW= 121
##$RETENTION INDEX=0
##$CONDENSED SPECTRUM=NO
##NPOINTS= 69
##XYDATA=(XY..XY) 1 
    12          8
    13         28
    14        127
    15        210
    16          7
    17          6
    18         62
    19          1
    25          8
    26         73
    27        302
    28        504
    29        754
    30        787
    35         16
    36         12
    37          7
    38         18
    39         23
    40         66
    41        115
    42        300
    43        196
    44        999
    45         13
    46          3
    47         18
    48         42
    49        308
    50         21
    51         97
    52          8
    53          2
    54          4
    55          3
    56         20
    57          8
    58         46
    60          1
    62          2
    63          3
    64          8
    65          1
    66          2
    68          6
    69          2
    70          3
    71          1
    72        735
    73         27
    75          3
    76         29
    77        115
    78         12
    79         37
    80          1
    84          1
    86        473
    87         23
    88          2
    94          5
    96          1
   106         66
   107          3
   108         22
   121         94
   122          9
   123         29
   124          2