##TITLE=Library Entry 35112
##JCAMP-DX=Revision 4.10 
##DATA TYPE=MASS SPECTRUM
##SAMPLE DESCRIPTION=W.Jennings, T.Shibamoto
##NAMES=HP
##CAS NAME=Geranyl propionate
##MOLFORM=C13H22O2
##CAS REGISTRY NO=105-90-8
##MP= -300
##BP= -300
##MW= 210
##$RETENTION INDEX=1475
##$CONDENSED SPECTRUM=NO
##NPOINTS= 46
##XYDATA=(XY..XY) 1 
    24         48
    27         19
    28         19
    29        228
    39          7
    40          7
    41        615
    42         19
    43         48
    47          7
    53         48
    55         39
    56          7
    57        717
    58         28
    64          7
    65          7
    66         39
    67        139
    68        611
    69        999
    70         99
    71          7
    77          7
    79         39
    80        219
    81        109
    82          7
    84         28
    85         48
    91         19
    92        103
    93        322
    94         69
    95         19
   105          7
   107         69
   108         28
   109          7
   121        211
   122         19
   123         28
   136        172
   137         28
   141          7
   154          7