##TITLE=Library Entry 55808
##JCAMP-DX=Revision 4.10 
##DATA TYPE=MASS SPECTRUM
##SAMPLE DESCRIPTION=NIST Mass Spectrometry Data Center, 1994
##NAMES=HP
##CAS NAME=2-Pentanone, 5-(diethylamino)-
##MOLFORM=C9H19NO
##CAS REGISTRY NO=105-14-6
##MP= -300
##BP= -300
##MW= 157
##$RETENTION INDEX=0
##$CONDENSED SPECTRUM=NO
##NPOINTS= 79
##XYDATA=(XY..XY) 1 
    11          0
    12          0
    14         12
    15         91
    16          1
    17          0
    18         10
    19          0
    24          0
    26         24
    27        121
    28         95
    29        157
    30        229
    31          6
    34          0
    37          0
    39         34
    41         91
    42        180
    43        468
    44         42
    45          3
    46          1
    48          1
    49          3
    50          0
    51          1
    52          3
    53          6
    54         17
    55         25
    56         82
    57          0
    58        214
    59          8
    63          2
    65          1
    66          1
    67          3
    68          8
    69         10
    70         26
    71         28
    72         21
    73          1
    74          2
    78          0
    79          0
    80          1
    81          1
    82          4
    84         60
    85        307
    86        999
    87         62
    88          1
    93          0
    94          0
    95          0
    96          1
    98         14
    99         48
   100          4
   101          0
   108          0
   110          0
   112          5
   113          1
   114          4
   115          0
   126          2
   127          1
   128          1
   140          2
   142         16
   143          1
   157         36
   158          3