##TITLE=Library Entry 40036
##JCAMP-DX=Revision 4.10 
##DATA TYPE=MASS SPECTRUM
##SAMPLE DESCRIPTION=Japan AIST/NIMC Database- Spectrum MS-IW-2853
##NAMES=HP
##CAS NAME=N,N',N''-Triethyldiethylenetriamine
##MOLFORM=C10H25N3
##CAS REGISTRY NO=105-93-1
##MP= -300
##BP= -300
##MW= 187
##$RETENTION INDEX=0
##$CONDENSED SPECTRUM=NO
##NPOINTS= 64
##XYDATA=(XY..XY) 1 
    15          3
    26          2
    27         17
    28         35
    29         38
    30         79
    31          1
    39          1
    40          2
    41         11
    42         66
    43         37
    44        185
    45          8
    54          5
    55          5
    56         54
    57         20
    58        226
    59          9
    60          2
    68          4
    69          4
    70         32
    71         37
    72        999
    73         70
    74          2
    81          1
    82          2
    83          3
    84         47
    85         15
    86        468
    87         27
    95          1
    96          2
    97          6
    98          5
    99         10
   100         12
   101          6
   111          3
   112          5
   113          7
   114          2
   115          8
   116          1
   117         19
   118          1
   125          3
   126          1
   127         50
   128          6
   129        431
   130         67
   131          4
   140          3
   141          5
   142         44
   143          5
   155          1
   156          1
   157          1