##TITLE=Library Entry 19476
##JCAMP-DX=Revision 4.10 
##DATA TYPE=MASS SPECTRUM
##SAMPLE DESCRIPTION=NIST Mass Spectrometry Data Center, 1994
##NAMES=HP
##CAS NAME=Ethylene brassylate
##MOLFORM=C15H26O4
##CAS REGISTRY NO=105-95-3
##MP= -300
##BP= -300
##MW= 270
##$RETENTION INDEX=1989
##$CONDENSED SPECTRUM=NO
##NPOINTS= 154
##XYDATA=(XY..XY) 1 
    14          7
    15         32
    18          4
    19          7
    26         20
    27        216
    28        211
    29        345
    30         14
    31         40
    39        187
    41        889
    42        391
    43        428
    44         51
    45        117
    51          9
    53         79
    54        126
    55        999
    56        184
    57        116
    58         61
    59         32
    60         41
    61         33
    65         15
    67        226
    68        102
    69        313
    70         86
    71         88
    72         11
    73         46
    74         12
    77         11
    78          7
    79         80
    80         52
    81        177
    82         80
    83        272
    84        371
    85         92
    86        611
    87        216
    88         12
    91         19
    92          9
    93         59
    94         38
    95         94
    96         80
    97        226
    98        726
    99        415
   100         46
   101         27
   104         27
   105         15
   107         63
   108         21
   109         44
   110         46
   111        117
   112        225
   113         64
   114         11
   115         16
   117         15
   118          3
   119         14
   120          9
   121         37
   122         20
   123         40
   124         45
   125        145
   126         32
   127         22
   128          5
   129         11
   131          6
   133         11
   134          7
   135         16
   136         11
   137         29
   138         21
   139         25
   140          8
   141         35
   142          8
   143         15
   144          6
   145         13
   146          6
   147          9
   148          8
   149         35
   150          8
   151         15
   152         22
   153          8
   154          6
   155        103
   156         15
   159         27
   160          4
   161          7
   162         10
   163         34
   164         11
   165          9
   166         17
   167          9
   168          3
   169         21
   170          4
   171         10
   172          7
   173         51
   174          6
   179          5
   180         27
   181         20
   182          9
   183         10
   185         14
   187        136
   188         16
   189          4
   190          5
   191          3
   197         11
   199          8
   207          3
   208         28
   209         17
   210          3
   211        124
   212         20
   213         10
   224          6
   227        294
   228         46
   229          6
   241         10
   242          9
   252          9
   269          4
   270         27
   271          4
   272          0