##TITLE=Library Entry 54118
##JCAMP-DX=Revision 4.10 
##DATA TYPE=MASS SPECTRUM
##SAMPLE DESCRIPTION=Japan AIST/NIMC Database- Spectrum MS-NW-5614
##NAMES=HP
##CAS NAME=1H-Imidazole, 2-heptadecyl-4,5-dihydro-
##MOLFORM=C20H40N2
##CAS REGISTRY NO=105-28-2
##MP= -300
##BP= -300
##MW= 308
##$RETENTION INDEX=2648
##$CONDENSED SPECTRUM=NO
##NPOINTS= 112
##XYDATA=(XY..XY) 1 
    15          4
    26          1
    27         18
    28         14
    29         45
    30         12
    39         10
    40          3
    41         83
    42         35
    43         97
    44         34
    45          2
    52          1
    53          6
    54         20
    55         66
    56         17
    57         29
    58          2
    65          1
    66          2
    67         14
    68         14
    69         18
    70          9
    71          8
    73          1
    77          1
    79          2
    80          3
    81          9
    82         37
    83         11
    84        999
    85         63
    86          2
    93          1
    94          2
    95         20
    96          9
    97        392
    98        122
    99          8
   107          1
   108          2
   109          8
   110          8
   111         55
   112         12
   113          1
   121          1
   122          2
   123         11
   124          7
   125         33
   126         16
   127          1
   135          1
   137          9
   138          2
   139        100
   140         14
   141          1
   151          5
   152          1
   153         42
   154          9
   155          1
   165          3
   166          1
   167         28
   168          6
   179          3
   180          1
   181         20
   182          4
   193          2
   194          1
   195         23
   196          5
   207          2
   208          1
   209         16
   210          4
   221          2
   222          1
   223         12
   224          3
   235          1
   236          1
   237         11
   238          3
   249          1
   250          1
   251         12
   252          4
   263          2
   265         13
   266          4
   277          1
   278          1
   279         14
   280          8
   281          2
   293          4
   305          2
   306          3
   307         49
   308         45
   309          9
   310          1