##TITLE=Library Entry 34287
##JCAMP-DX=Revision 4.10 
##DATA TYPE=MASS SPECTRUM
##SAMPLE DESCRIPTION=H. Fales, LC, NHLBI, NIH, Bethesda, MD 20892
##NAMES=HP
##CAS NAME=Geranyl formate
##MOLFORM=C11H18O2
##CAS REGISTRY NO=105-86-2
##MP= -300
##BP= -300
##MW= 182
##$RETENTION INDEX=1300
##$CONDENSED SPECTRUM=NO
##NPOINTS= 124
##XYDATA=(XY..XY) 1 
    41        561
    42         39
    43         91
    44         15
    45          8
    46          1
    47          3
    49          1
    50          5
    51         19
    52         11
    53         85
    54         13
    55         71
    56         17
    57         35
    58          7
    59         16
    60          4
    61          1
    62          1
    63          4
    64          1
    65         22
    66          9
    67        123
    68        254
    69        999
    70         72
    71         22
    72          3
    73          4
    74          1
    75          1
    76          1
    77         26
    78          5
    79         34
    80         43
    81         50
    82         15
    83         21
    84         12
    85         21
    86          3
    87          5
    88          1
    89          2
    90          0
    91         22
    92         24
    93        101
    94         23
    95         17
    96         10
    97          9
    98          4
    99          6
   100          2
   101          3
   102          0
   103          2
   104          1
   105          9
   106          2
   107         21
   108          8
   109          9
   110          3
   111          6
   112          4
   113          6
   114          2
   115          3
   116          1
   117          1
   118          1
   119          4
   120          1
   121         54
   122          6
   123         16
   124          3
   125          2
   126          1
   127          2
   128          1
   129          2
   130          0
   131          1
   132          0
   133          1
   134          1
   135          3
   136        111
   137         19
   138          3
   139         12
   140          1
   141          1
   142          1
   143          2
   144          0
   145          1
   146          0
   147          1
   148          0
   149          1
   150          1
   151          1
   152          1
   153          2
   154          0
   155          1
   164          0
   166          0
   167          1
   168          0
   179          0
   180          0
   181          0
   182          1
   183          0
   184          0