##TITLE=Library Entry 23058
##JCAMP-DX=Revision 4.10 
##DATA TYPE=MASS SPECTRUM
##SAMPLE DESCRIPTION=Japan AIST/NIMC Database- Spectrum MS-NW-7692
##NAMES=HP
##CAS NAME=Propanoic acid, ethenyl ester
##MOLFORM=C5H8O2
##CAS REGISTRY NO=105-38-4
##MP= -300
##BP= -300
##MW= 100
##$RETENTION INDEX=649
##$CONDENSED SPECTRUM=NO
##NPOINTS= 33
##XYDATA=(XY..XY) 1 
    13          3
    14         14
    15         39
    16          1
    18          1
    25          5
    26         48
    27        229
    28         63
    29        964
    30         20
    31          4
    32          1
    38          1
    39          4
    41          6
    42         33
    43        119
    44        115
    45          8
    46          1
    53          3
    54          1
    55         16
    56         25
    57        999
    58         34
    59          2
    71          3
    73          6
    74          2
   100         42
   101          3