##TITLE=Library Entry 15129
##JCAMP-DX=Revision 4.10 
##DATA TYPE=MASS SPECTRUM
##SAMPLE DESCRIPTION=Exported from NIST MS Search
##NAMES=HP
##CAS NAME=2-Hexanamine, 4-methyl-
##MOLFORM=C7H17N
##CAS REGISTRY NO=105-41-9
##MP= -300
##BP= -300
##MW= 115
##$RETENTION INDEX=1152
##$CONDENSED SPECTRUM=NO
##NPOINTS= 60
##XYDATA=(XY..XY) 1 
    12          1
    13          1
    14          3
    15         28
    16          3
    17          7
    18          5
    25          1
    26          6
    27         62
    28         38
    29         57
    30         82
    31          5
    37          1
    38          3
    39         33
    40          6
    41         57
    42         48
    43         28
    44        999
    45         29
    46          1
    50          1
    51          2
    52          1
    53          5
    54          3
    55         14
    56         17
    57         23
    58         12
    59          2
    62          1
    63          1
    65          1
    66          1
    67          1
    68          2
    69         11
    70          6
    71          1
    72          1
    73          1
    77          1
    79          1
    80          1
    81          1
    82          1
    83          3
    84          1
    85          1
    86          2
    87          1
    98          2
   100         22
   101          2
   114          3
   115          3