##TITLE=Library Entry 34129
##JCAMP-DX=Revision 4.10 
##DATA TYPE=MASS SPECTRUM
##SAMPLE DESCRIPTION=NIST Mass Spectrometry Data Center, 1998.
##NAMES=HP
##CAS NAME=Geranyl acetate
##MOLFORM=C12H20O2
##CAS REGISTRY NO=105-87-3
##MP= -300
##BP= -300
##MW= 196
##$RETENTION INDEX=1382
##$CONDENSED SPECTRUM=NO
##NPOINTS= 95
##XYDATA=(XY..XY) 1 
    15          7
    26          2
    27         35
    29         26
    30          1
    31          1
    37          1
    38          3
    39         92
    40         25
    41        447
    42         33
    43        447
    44         12
    45          4
    50          6
    51         20
    52         12
    53        104
    54         14
    55         45
    56          9
    57         10
    58          1
    59          2
    60          1
    61          4
    62          1
    63          5
    64          1
    65         30
    66         12
    67        176
    68        391
    69        999
    70         59
    71         11
    72          2
    73          1
    77         35
    78          7
    79         47
    80        122
    81         63
    82         11
    83         15
    84         34
    85         78
    86         15
    87          1
    89          1
    91         39
    92         63
    93        265
    94         56
    95         24
    96          3
    97          6
    98          4
    99          2
   101          6
   102          1
   103          3
   104          1
   105         17
   106          5
   107         55
   108         18
   109         13
   110          3
   111          6
   112          2
   113          1
   114          1
   115          1
   117          1
   119          7
   121        186
   122         20
   123         29
   124          3
   125          1
   126          3
   127         17
   128          2
   135          3
   136        151
   137         24
   138          5
   139          5
   140          1
   153          3
   154         17
   155          2
   196          1