##TITLE=Library Entry 8045
##JCAMP-DX=Revision 4.10 
##DATA TYPE=MASS SPECTRUM
##SAMPLE DESCRIPTION=CONTINENTAL OIL COMPANY, PONCA CITY, OKLAHOMA, USA
##NAMES=HP
##CAS NAME=2-Hexanone, 4-methyl-
##MOLFORM=C7H14O
##CAS REGISTRY NO=105-42-0
##MP= -300
##BP= -300
##MW= 114
##$RETENTION INDEX=848
##$CONDENSED SPECTRUM=NO
##NPOINTS= 64
##XYDATA=(XY..XY) 1 
    13          4
    14         23
    15        139
    16          4
    17          6
    18         18
    24          0
    25          2
    26         22
    27        166
    28         36
    29        151
    30          5
    31          5
    32          4
    36          0
    37          5
    38         12
    39        110
    40         19
    41        153
    42         65
    43        999
    44         26
    45          7
    49          1
    50          7
    51         10
    52          4
    53         15
    54          4
    55         41
    56         48
    57         61
    58        506
    59        153
    60          7
    61          2
    62          2
    63          2
    64          0
    65          2
    66          2
    67         11
    68          2
    69          6
    70          5
    71         66
    72         12
    73          2
    77          1
    79          1
    80          0
    81          3
    82          2
    83          2
    84          0
    85         57
    86          4
    99         18
   100          2
   114         30
   115          3
   116          0