##TITLE=Library Entry 8736
##JCAMP-DX=Revision 4.10 
##DATA TYPE=MASS SPECTRUM
##SAMPLE DESCRIPTION=Exported from NIST MS Search
##NAMES=HP
##CAS NAME=Butanoic acid, propyl ester
##MOLFORM=C7H14O2
##CAS REGISTRY NO=105-66-8
##MP= -300
##BP= -300
##MW= 130
##$RETENTION INDEX=896
##$CONDENSED SPECTRUM=NO
##NPOINTS= 80
##XYDATA=(XY..XY) 1 
    12          2
    13          5
    14         26
    15        103
    16          4
    17          1
    18          1
    19          2
    20          1
    24          1
    25          4
    26         67
    27        564
    28        107
    29        181
    30         18
    31         89
    32          2
    33          1
    36          1
    37         11
    38         24
    39        209
    40         32
    41        392
    42        274
    43        999
    44         38
    45         34
    46          1
    47          3
    48          1
    49          1
    50          2
    51          1
    52          1
    53          4
    54          1
    55         31
    56         17
    57         36
    58          6
    59         57
    60        155
    61         70
    62          2
    63          1
    67          1
    68          1
    69          7
    70         10
    71        937
    72         43
    73         90
    74          4
    75          2
    76          1
    77          1
    78          4
    79          1
    83          1
    84          1
    85          1
    86          1
    87         11
    88         40
    89        504
    90         23
    91          3
    92          1
   100          6
   101         47
   102         37
   103          2
   104          1
   115          3
   116          1
   129          1
   130          1
   131          1