##TITLE=Library Entry 38610
##JCAMP-DX=Revision 4.10 
##DATA TYPE=MASS SPECTRUM
##SAMPLE DESCRIPTION=Japan AIST/NIMC Database- Spectrum MS-NW-5231
##NAMES=HP
##CAS NAME=Ethylene glycol di-n-butyrate
##MOLFORM=C10H18O4
##CAS REGISTRY NO=105-72-6
##MP= -300
##BP= -300
##MW= 202
##$RETENTION INDEX=0
##$CONDENSED SPECTRUM=NO
##NPOINTS= 56
##XYDATA=(XY..XY) 1 
    14          1
    15         11
    17          1
    18          4
    26          5
    27         81
    28          9
    29         12
    30          1
    31          5
    38          2
    39         26
    40          5
    41         85
    42         32
    43        440
    44         15
    45          9
    55         17
    56          1
    57          1
    60          4
    61          1
    68          1
    69          5
    70         21
    71        999
    72         46
    73          5
    74          1
    85          1
    86         40
    87          8
    88          1
    89          8
    99          9
   101          9
   102          3
   103          7
   104          2
   112          1
   113          1
   114         20
   115         90
   116          6
   117          1
   129          3
   133          4
   140          1
   142         10
   143          1
   144         10
   145          1
   159          5
   172          2
   174          1