##TITLE=Library Entry 100094
##JCAMP-DX=Revision 4.10 
##DATA TYPE=MASS SPECTRUM
##SAMPLE DESCRIPTION=Japan AIST/NIMC Database- Spectrum MS-NW-3762
##NAMES=HP
##CAS NAME=Benzene, 1,4-diethyl-
##MOLFORM=C10H14
##CAS REGISTRY NO=105-05-5
##MP= -300
##BP= -300
##MW= 134
##$RETENTION INDEX=1041
##$CONDENSED SPECTRUM=NO
##NPOINTS= 71
##XYDATA=(XY..XY) 1 
    15          6
    26          3
    27         42
    28          4
    29         20
    37          2
    38          6
    39         53
    40          5
    41         55
    42          2
    44          1
    49          1
    50         19
    51         52
    52         14
    53         18
    54          1
    55          3
    57         10
    58          8
    59          3
    61          2
    62          9
    63         28
    64         10
    65         41
    66          5
    67          3
    74          7
    75          8
    76          6
    77         94
    78         39
    79         66
    80          4
    86          2
    87          3
    88          1
    89         17
    90          8
    91        199
    92         17
    93         16
    94          1
    98          1
   101          2
   102         12
   103         67
   104         73
   105        757
   106         72
   107          3
   113          1
   114          1
   115         40
   116         12
   117         80
   118         16
   119        999
   120        105
   121          5
   127          2
   128          4
   129          2
   131          2
   132          2
   133         16
   134        513
   135         59
   136          3