##TITLE=Library Entry 72097
##JCAMP-DX=Revision 4.10 
##DATA TYPE=MASS SPECTRUM
##SAMPLE DESCRIPTION=NIST Mass Spectrometry Data Center, 1990.
##NAMES=HP
##CAS NAME=2-Butenedioic acid (Z)-, dibutyl ester
##MOLFORM=C12H20O4
##CAS REGISTRY NO=105-76-0
##MP= -300
##BP= -300
##MW= 228
##$RETENTION INDEX=1505
##$CONDENSED SPECTRUM=NO
##NPOINTS= 74
##XYDATA=(XY..XY) 1 
    14          4
    15          8
    16          1
    17          0
    18          1
    19          1
    26         66
    27        163
    28         67
    29        291
    30         10
    31         11
    32          0
    39         64
    41        344
    42         23
    43         36
    44          9
    45         21
    50          1
    51          2
    53         34
    54        118
    55        126
    56        223
    57        497
    58         23
    59          3
    67          1
    68          2
    69          3
    71         40
    72         24
    73          8
    75         27
    81         24
    82         73
    83          5
    84          1
    85          2
    86          3
    87          1
    95          1
    97          7
    99        999
   100        191
   101         18
   108          2
   109          7
   112          4
   113          6
   114          1
   117        416
   118         22
   119          4
   126         16
   127         19
   128          2
   130          1
   136          2
   139          7
   142          1
   143          7
   144          1
   153          9
   154         37
   155        163
   156         24
   157          8
   171          8
   173         70
   174          7
   175          1
   199          1