##TITLE=Library Entry 7624
##JCAMP-DX=Revision 4.10 
##DATA TYPE=MASS SPECTRUM
##SAMPLE DESCRIPTION=Leung Pu, NIH, Bethesda, Maryland, U.S.
##NAMES=HP
##CAS NAME=Lauroyl peroxide
##MOLFORM=C24H46O4
##CAS REGISTRY NO=105-74-8
##MP= -300
##BP= -300
##MW= 398
##$RETENTION INDEX=0
##$CONDENSED SPECTRUM=NO
##NPOINTS= 138
##XYDATA=(XY..XY) 1 
    41        860
    42         77
    43        999
    44        400
    45         55
    47          3
    48          0
    49          5
    50          3
    51          9
    52          4
    53         49
    54         70
    55        626
    56        385
    57        933
    58          2
    59         14
    60        239
    61         39
    62          0
    63          2
    64          0
    65          8
    66          1
    67         78
    68         74
    69        461
    70        288
    71        460
    73        294
    74         22
    75          1
    77          8
    78          6
    79         17
    80          1
    81         70
    82         13
    83        410
    84        198
    85        330
    86          6
    87         80
    88          8
    89          2
    91          3
    93         16
    95         65
    96          7
    97        319
    98        132
    99         71
   100          2
   101         68
   102          7
   103          2
   105          1
   107         24
   109         35
   110          3
   111        116
   112         47
   113         20
   115         75
   116          6
   117          1
   119          2
   121         26
   122          0
   123         18
   124          1
   125         64
   126         23
   127          8
   129        121
   130          1
   131         16
   133          0
   135          7
   136          1
   137          5
   138         17
   139         48
   140         18
   141          8
   143         34
   144          3
   145          0
   149          7
   150          1
   151          0
   152          0
   153          3
   154         18
   155          6
   156          1
   157         98
   158          8
   159          0
   160          0
   161          1
   163         66
   164         10
   165          1
   166          0
   167          1
   168          0
   169          3
   171         32
   172          3
   173          0
   179          0
   181         24
   183        240
   184         28
   185          3
   186          0
   196          0
   197          1
   199          0
   200         55
   201         61
   202          7
   203          0
   211          1
   216          0
   219         10
   224          0
   225          0
   228          0
   229          0
   239          0
   253          0
   268          3
   312          2
   356          1
   398          0