##TITLE=Library Entry 7562
##JCAMP-DX=Revision 4.10 
##DATA TYPE=MASS SPECTRUM
##SAMPLE DESCRIPTION=Japan AIST/NIMC Database- Spectrum MS-NW- 58
##NAMES=HP
##CAS NAME=sec-Butyl acetate
##MOLFORM=C6H12O2
##CAS REGISTRY NO=105-46-4
##MP= -300
##BP= -300
##MW= 116
##$RETENTION INDEX=760
##$CONDENSED SPECTRUM=NO
##NPOINTS= 34
##XYDATA=(XY..XY) 1 
    14          4
    15         31
    18          3
    19          1
    26          4
    27         40
    28         14
    29         72
    30          1
    31          9
    39         24
    40          3
    41        116
    42         12
    43        999
    44         23
    45         27
    53          2
    54          1
    55         27
    56        208
    57         68
    58          1
    59          9
    60          3
    61         44
    72          9
    73         52
    74          1
    83          1
    87        175
    88          6
   101         30
   116          1