##TITLE=Library Entry 16899
##JCAMP-DX=Revision 4.10 
##DATA TYPE=MASS SPECTRUM
##SAMPLE DESCRIPTION=Exported from NIST MS Search
##NAMES=HP
##CAS NAME=Propane, 1,1'-[ethylidenebis(oxy)]bis-
##MOLFORM=C8H18O2
##CAS REGISTRY NO=105-82-8
##MP= -300
##BP= -300
##MW= 146
##$RETENTION INDEX=860
##$CONDENSED SPECTRUM=NO
##NPOINTS= 56
##XYDATA=(XY..XY) 1 
    12          1
    13          2
    14         13
    15         78
    16          3
    17          1
    18          2
    19          7
    25          2
    26         32
    27        293
    28         84
    29        158
    30         17
    31         92
    32          2
    33          1
    37          3
    38          7
    39         85
    40         16
    41        196
    42         54
    43        765
    44         46
    45        999
    46         22
    47         31
    53          1
    55          3
    56          2
    57          9
    58         49
    59         22
    60          5
    61         28
    71          6
    72          1
    73          3
    74          1
    75          1
    85          1
    86          5
    87        588
    88         31
    89         55
    90          2
   101          2
   102          1
   103          3
   117          6
   131         74
   132          6
   133          1
   145          2
   146          1