##TITLE=Library Entry 9360
##JCAMP-DX=Revision 4.10 
##DATA TYPE=MASS SPECTRUM
##SAMPLE DESCRIPTION=Insect Chem. Ecol. Lab., USDA, Beltsville, MD 20705
##NAMES=HP
##CAS NAME=ClCH2C(O)OCH(CH3)2
##MOLFORM=C5H9ClO2
##CAS REGISTRY NO=105-48-6
##MP= -300
##BP= -300
##MW= 136
##$RETENTION INDEX=865
##$CONDENSED SPECTRUM=NO
##NPOINTS= 79
##XYDATA=(XY..XY) 1 
    41        421
    42        209
    43        999
    44         46
    45         50
    46          1
    47         19
    48         25
    49        251
    50         13
    51         79
    52          1
    53          1
    54          0
    55          3
    56          1
    57          5
    58          3
    59         60
    60          7
    61          1
    62          0
    63          4
    64          0
    65          2
    66          0
    67          1
    68          0
    69          2
    70          1
    71          1
    72          1
    73          1
    74          0
    75          0
    76         25
    77        611
    78         23
    79        198
    80          5
    81          1
    82          0
    83          1
    84          2
    85          9
    86          1
    87          2
    88          1
    89          0
    91          1
    92          0
    93          1
    94          1
    95         61
    96          3
    97         20
    98          1
    99          0
   100          0
   101          7
   102          1
   103          0
   104          0
   118          0
   119          0
   120          4
   121        290
   122         15
   123         95
   124          4
   125          1
   126          0
   127          0
   135          0
   136          4
   137          0
   138          3
   139          0
   140          1