##TITLE=Library Entry 25166
##JCAMP-DX=Revision 4.10 
##DATA TYPE=MASS SPECTRUM
##SAMPLE DESCRIPTION=Exported from NIST MS Search
##NAMES=HP
##CAS NAME=1-Butanol, 3-methyl-, propanoate
##MOLFORM=C8H16O2
##CAS REGISTRY NO=105-68-0
##MP= -300
##BP= -300
##MW= 144
##$RETENTION INDEX=969
##$CONDENSED SPECTRUM=NO
##NPOINTS= 60
##XYDATA=(XY..XY) 1 
    14          2
    15         12
    16          1
    25          2
    26         22
    27        165
    28         87
    29        425
    30         12
    31         26
    37          2
    38          4
    39         65
    40         12
    41        144
    42        120
    43        284
    44         15
    45         22
    50          2
    51          3
    52          1
    53         12
    54          8
    55        313
    56         57
    57        999
    58         36
    59          5
    60          2
    61          1
    67          2
    68          2
    69         43
    70        488
    71         93
    72         80
    73         11
    74         14
    75        106
    76          4
    77          1
    83          1
    84          1
    85         22
    86          6
    87         60
    88          9
    89          9
    90          1
    97          1
    99          1
   100          1
   101         39
   102          6
   103          1
   114          1
   115          8
   116          1
   129          1