##TITLE=Library Entry 28574
##JCAMP-DX=Revision 4.10 
##DATA TYPE=MASS SPECTRUM
##SAMPLE DESCRIPTION=NIST Mass Spectrometry Data Center
##NAMES=HP
##CAS NAME=Carbamic acid, methyl-, ethyl ester
##MOLFORM=C4H9NO2
##CAS REGISTRY NO=105-40-8
##MP= -300
##BP= -300
##MW= 103
##$RETENTION INDEX=867
##$CONDENSED SPECTRUM=NO
##NPOINTS= 37
##XYDATA=(XY..XY) 1 
    14          2
    15         38
    16          1
    19          2
    25          1
    26         24
    27        132
    28        143
    29        307
    30        256
    31         54
    32         15
    40          1
    41          3
    42         15
    43         36
    44        163
    45        162
    46          9
    47          3
    54          1
    55          3
    56         33
    57         28
    58        999
    59        135
    60         53
    61          1
    74        258
    75        410
    76         68
    77          3
    88         34
    89          1
   103        281
   104         20
   105          1