##TITLE=Library Entry 68020
##JCAMP-DX=Revision 4.10 
##DATA TYPE=MASS SPECTRUM
##SAMPLE DESCRIPTION=NIST Mass Spectrometry Data Center, 1990.
##NAMES=HP
##CAS NAME=1,4-Cyclohexanedimethanol
##MOLFORM=C8H16O2
##CAS REGISTRY NO=105-08-8
##MP= -300
##BP= -300
##MW= 144
##$RETENTION INDEX=0
##$CONDENSED SPECTRUM=NO
##NPOINTS= 54
##XYDATA=(XY..XY) 1 
    15          7
    16          3
    18          7
    26         14
    27        142
    28         62
    29        172
    30          3
    31        236
    32          6
    39        187
    40         38
    41        385
    42         33
    43         78
    44         17
    45         25
    50         10
    51         26
    52         15
    53         99
    54         85
    55        289
    56         22
    57         96
    58          8
    63          6
    65         38
    66         51
    67        502
    68         54
    69        112
    70         24
    71         10
    77         63
    78         40
    79        198
    80        101
    81         85
    82         31
    83         30
    84         10
    91         58
    93        393
    95        999
    96         81
    97         18
    98         15
   107         17
   108        144
   109         16
   111          5
   113         22
   126         25