##TITLE=Library Entry 46376
##JCAMP-DX=Revision 4.10 
##DATA TYPE=MASS SPECTRUM
##SAMPLE DESCRIPTION=Japan AIST/NIMC Database- Spectrum MS-NW-1441
##NAMES=HP
##CAS NAME=p-Dinitrosobenzene
##MOLFORM=C6H4N2O2
##CAS REGISTRY NO=105-12-4
##MP= -300
##BP= -300
##MW= 136
##$RETENTION INDEX=0
##$CONDENSED SPECTRUM=NO
##NPOINTS= 80
##XYDATA=(XY..XY) 1 
    12          2
    13          1
    14          9
    15          5
    16         12
    24          1
    25          4
    26         22
    27         17
    28         18
    29         23
    30        114
    31          2
    32          4
    36          6
    37         57
    38         58
    39         52
    40          8
    41          8
    42          4
    43         17
    44         15
    45          3
    46          4
    48          2
    49         18
    50        324
    51         87
    52         35
    53         12
    54          3
    55          5
    56          2
    57          2
    58          2
    59          2
    60          8
    61         30
    62         41
    63         80
    64         71
    65         28
    66          5
    67          4
    68          7
    69          2
    70          2
    71          3
    72          1
    73         25
    74        146
    75        163
    76        999
    77         77
    78         11
    79          5
    80          4
    81          2
    82          1
    83          2
    86          3
    87          7
    88          7
    89          4
    90         13
    91          3
    92         38
    93          4
   103          2
   105          5
   106        322
   107         26
   108          8
   119          2
   120          1
   136        663
   137         50
   138         22
   139          2