##TITLE=Library Entry 38237
##JCAMP-DX=Revision 4.10 
##DATA TYPE=MASS SPECTRUM
##SAMPLE DESCRIPTION=NIST Mass Spectrometry Data Center, 1990.
##NAMES=HP
##CAS NAME=Butanoic acid, ethyl ester
##MOLFORM=C6H12O2
##CAS REGISTRY NO=105-54-4
##MP= -300
##BP= -300
##MW= 116
##$RETENTION INDEX=802
##$CONDENSED SPECTRUM=NO
##NPOINTS= 45
##XYDATA=(XY..XY) 1 
    13          4
    14         24
    15         71
    16          5
    17          1
    19          7
    26         85
    27        491
    28        120
    29        588
    30         35
    31         23
    32          3
    37         10
    38         23
    39        165
    40         31
    41        356
    42        233
    43        937
    44         58
    45        185
    46         10
    47         11
    55         48
    56          6
    57         13
    58          2
    59          2
    60        232
    61        100
    68          3
    69         17
    70        176
    71        999
    72         56
    73        210
    74          8
    86          5
    88        568
    89        159
    90         11
   101         90
   102          9
   116         34