##TITLE=Library Entry 8790
##JCAMP-DX=Revision 4.10 
##DATA TYPE=MASS SPECTRUM
##SAMPLE DESCRIPTION=Japan AIST/NIMC Database- Spectrum MS-NW- 743
##NAMES=HP
##CAS NAME=1-Pentanol, 2-methyl-
##MOLFORM=C6H14O
##CAS REGISTRY NO=105-30-6
##MP= -300
##BP= -300
##MW= 102
##$RETENTION INDEX=831
##$CONDENSED SPECTRUM=NO
##NPOINTS= 48
##XYDATA=(XY..XY) 1 
    15          8
    17          4
    18         14
    26          9
    27        117
    28         18
    29        165
    30          5
    31        132
    32          5
    33          2
    37          2
    38          7
    39         94
    40         15
    41        296
    42        182
    43        999
    44         33
    45         26
    46          1
    50          4
    51          6
    52          2
    53         17
    54          9
    55        253
    56        179
    57         25
    58         10
    59         20
    60          1
    62          1
    63          1
    65          2
    67          9
    68          3
    69        215
    70        272
    71        338
    72         18
    73          3
    79          1
    81          1
    82          1
    83          6
    84        133
    85         10