##TITLE=Library Entry 554
##JCAMP-DX=Revision 4.10 
##DATA TYPE=MASS SPECTRUM
##SAMPLE DESCRIPTION=Chuck Anderson, Aldrich Chemical Co.
##NAMES=HP
##CAS NAME=Propanoic acid, ethyl ester
##MOLFORM=C5H10O2
##CAS REGISTRY NO=105-37-3
##MP= -300
##BP= -300
##MW= 102
##$RETENTION INDEX=709
##$CONDENSED SPECTRUM=NO
##NPOINTS= 42
##XYDATA=(XY..XY) 1 
    13          0
    14          6
    15         22
    16          0
    17          0
    19          4
    25          1
    26         43
    27        231
    28        147
    29        999
    30         33
    31         35
    32          0
    38          0
    39          1
    40          0
    41          8
    42         16
    43         38
    44          3
    45         69
    46          1
    47          0
    53          1
    55          9
    56         21
    57        596
    58         19
    59          4
    73         52
    74         94
    75         99
    76          3
    83          2
    84         13
    85          0
    87         18
    88          0
   101          0
   102        116
   103          5