##TITLE=Library Entry 54562
##JCAMP-DX=Revision 4.10 
##DATA TYPE=MASS SPECTRUM
##SAMPLE DESCRIPTION=Exported from NIST MS Search
##NAMES=HP
##CAS NAME=2(3H)-Furanone, dihydro-5-propyl-
##MOLFORM=C7H12O2
##CAS REGISTRY NO=105-21-5
##MP= -300
##BP= -300
##MW= 128
##$RETENTION INDEX=1159
##$CONDENSED SPECTRUM=NO
##NPOINTS= 34
##XYDATA=(XY..XY) 1 
    15          9
    26         11
    27        108
    28         55
    29        285
    30          9
    31          8
    39         56
    40          9
    41        127
    42         84
    43        113
    44         29
    53         12
    54         10
    55         96
    56        209
    57        135
    58         11
    67         10
    68         13
    69         33
    70         15
    71         64
    72         19
    73         24
    84         32
    85        999
    86         50
    87         10
    99         30
   100         52
   110         75
   128         29