##TITLE=Library Entry 40568
##JCAMP-DX=Revision 4.10 
##DATA TYPE=MASS SPECTRUM
##SAMPLE DESCRIPTION=Japan AIST/NIMC Database- Spectrum MS-NW-1209
##NAMES=HP
##CAS NAME=2-Pentanone, 4-methyl-, oxime
##MOLFORM=C6H13NO
##CAS REGISTRY NO=105-44-2
##MP= -300
##BP= -300
##MW= 115
##$RETENTION INDEX=946
##$CONDENSED SPECTRUM=NO
##NPOINTS= 68
##XYDATA=(XY..XY) 1 
    14          3
    15         53
    16          1
    18          1
    26          8
    27        113
    28         76
    29         85
    30         16
    31         23
    32         11
    33         42
    34          2
    37          3
    38         11
    39        114
    40         29
    41        302
    42        352
    43        199
    44         10
    45         14
    46          7
    49          1
    50          5
    51          8
    52          7
    53         13
    54         72
    55         70
    56        110
    57        186
    58         51
    59          8
    60         18
    64          1
    65          2
    66          3
    67          9
    68          9
    69         28
    70          5
    71          2
    72          9
    73        999
    74         41
    75          3
    77          1
    79          2
    80          3
    81          3
    82         20
    83         36
    84         30
    85          4
    86          1
    87          1
    94          1
    96          3
    97          9
    98         24
    99          3
   100        122
   101          8
   113          1
   114          8
   115         23
   116          2