##TITLE=Library Entry 16179
##JCAMP-DX=Revision 4.10 
##DATA TYPE=MASS SPECTRUM
##SAMPLE DESCRIPTION=Japan AIST/NIMC Database- Spectrum MS-NW-1999
##NAMES=HP
##CAS NAME=Thiourea, N,N'-diethyl-
##MOLFORM=C5H12N2S
##CAS REGISTRY NO=105-55-5
##MP= -300
##BP= -300
##MW= 132
##$RETENTION INDEX=0
##$CONDENSED SPECTRUM=NO
##NPOINTS= 66
##XYDATA=(XY..XY) 1 
    14          2
    15         17
    17          2
    18         22
    26          7
    27         73
    28         80
    29        106
    30         79
    31          1
    32          3
    33          2
    34          2
    35          1
    39          1
    40          6
    41          9
    42         38
    43        132
    44        999
    45         29
    46          9
    47          3
    48          5
    50          2
    51          3
    52          1
    53          2
    54          6
    55         72
    56         39
    57          3
    58          2
    59         28
    60        216
    61         13
    62         10
    69         15
    70          2
    71        118
    72         11
    73          2
    74          4
    75          2
    76         12
    83         33
    84          2
    85          2
    86          8
    87          7
    88         51
    89         17
    90          8
    97          2
    98         26
    99         50
   100          5
   103         18
   104          2
   105          1
   130          1
   131         35
   132        604
   133         46
   134         29
   135          1