##TITLE=Library Entry 35684
##JCAMP-DX=Revision 4.10 
##DATA TYPE=MASS SPECTRUM
##SAMPLE DESCRIPTION=R. RYHAGE KAROLINSKA INSTITUTET, STOCKHOLM
##NAMES=HP
##CAS NAME=2,6-Octadien-1-ol, 3,7-dimethyl-, propanoate, (Z)-
##MOLFORM=C13H22O2
##CAS REGISTRY NO=105-91-9
##MP= -300
##BP= -300
##MW= 210
##$RETENTION INDEX=1455
##$CONDENSED SPECTRUM=NO
##NPOINTS= 35
##XYDATA=(XY..XY) 1 
    29         37
    41        160
    43         32
    53         20
    55         17
    57        368
    58         11
    66         18
    67         66
    68        447
    69        999
    70         47
    77         11
    79         39
    80        247
    81        110
    82         17
    84         32
    85         26
    91         18
    92        118
    93        526
    94         84
    95         32
    97         12
   105         13
   107         53
   108         26
   109         11
   121        205
   122         21
   123         21
   136         92
   137         26
   154         13