##TITLE=Library Entry 91270
##JCAMP-DX=Revision 4.10 
##DATA TYPE=MASS SPECTRUM
##SAMPLE DESCRIPTION=Japan AIST/NIMC Database- Spectrum MS-NW-4049
##NAMES=HP
##CAS NAME=Pentanedioic acid, 3-oxo-, diethyl ester
##MOLFORM=C9H14O5
##CAS REGISTRY NO=105-50-0
##MP= -300
##BP= -300
##MW= 202
##$RETENTION INDEX=0
##$CONDENSED SPECTRUM=NO
##NPOINTS= 106
##XYDATA=(XY..XY) 1 
    15         47
    18          3
    24          1
    25          5
    26         47
    27        248
    28         46
    29        817
    30         21
    31        234
    32          2
    36          1
    37          4
    38          9
    39         18
    40          9
    41         35
    42        327
    43        564
    44         33
    45        156
    46         33
    47         10
    52          1
    53          6
    54          4
    55         36
    56         49
    57          7
    58         10
    59         10
    60        174
    61         73
    62          2
    66          3
    67          3
    68          5
    69        276
    70         40
    71          7
    72          7
    73         49
    74          3
    75          2
    77          1
    78          1
    81          1
    82          1
    83          3
    84         75
    85         23
    86         19
    87        212
    88        164
    89         12
    90          1
    91          1
    96          1
    97          1
    99          8
   100        115
   101         15
   102         13
   103          1
   105          2
   106          1
   110         12
   111         93
   112          9
   113          4
   114          4
   115        999
   116         60
   117          9
   118          1
   119          1
   127          1
   128        155
   129         46
   130         31
   131          3
   132          1
   133          2
   138          2
   139          2
   140          1
   141          3
   143          2
   145          1
   146          1
   149          1
   152          1
   155          1
   156        241
   157        423
   158         37
   159          5
   161          1
   169          1
   174          6
   175          1
   184         10
   185         21
   186          2
   202         11
   203          1