##TITLE=Library Entry 20685
##JCAMP-DX=Revision 4.10 
##DATA TYPE=MASS SPECTRUM
##SAMPLE DESCRIPTION=Japan AIST/NIMC Database- Spectrum MS-NW-3132
##NAMES=HP
##CAS NAME=1-Hexyn-3-ol
##MOLFORM=C6H10O
##CAS REGISTRY NO=105-31-7
##MP= -300
##BP= -300
##MW= 98
##$RETENTION INDEX=0
##$CONDENSED SPECTRUM=NO
##NPOINTS= 64
##XYDATA=(XY..XY) 1 
    14          2
    15         14
    17          3
    18         10
    25          5
    26         35
    27        256
    28         33
    29         82
    30          3
    31         14
    32          2
    36          1
    37         11
    38         30
    39        147
    40         22
    41        301
    42         72
    43        299
    44         23
    45         15
    49          4
    50         27
    51         41
    52         36
    53         50
    54         22
    55        999
    56        183
    57         48
    58          9
    59          2
    60          4
    61          3
    62          5
    63          8
    64          2
    65         20
    66          4
    67         16
    68         10
    69         99
    70        142
    71         37
    72         11
    73          2
    74          3
    75          1
    77         22
    78          4
    79         93
    80         15
    81          9
    82          1
    83        321
    84         19
    85          2
    91          1
    93          3
    95          2
    97         63
    98          6
    99          1