##TITLE=Library Entry 72035
##JCAMP-DX=Revision 4.10 
##DATA TYPE=MASS SPECTRUM
##SAMPLE DESCRIPTION=Japan AIST/NIMC Database- Spectrum MS-NW- 906
##NAMES=HP
##CAS NAME=Hexanoic acid, 2-methylpropyl ester
##MOLFORM=C10H20O2
##CAS REGISTRY NO=105-79-3
##MP= -300
##BP= -300
##MW= 172
##$RETENTION INDEX=1149
##$CONDENSED SPECTRUM=NO
##NPOINTS= 64
##XYDATA=(XY..XY) 1 
    15          8
    18          1
    26          7
    27        142
    28         48
    29        263
    30          7
    31         17
    32          1
    37          1
    38          4
    39         98
    40         18
    41        364
    42         73
    43        540
    44         18
    45         13
    50          2
    51          3
    52          1
    53         11
    54          7
    55         94
    56        769
    57        480
    58         20
    59          5
    60        194
    61         38
    62          1
    65          1
    67          2
    68          3
    69         27
    70         24
    71        292
    72         16
    73        110
    74         14
    75          7
    80          2
    81          6
    83          8
    85          1
    86         11
    87         61
    88          4
    89         13
    97          9
    98          9
    99        999
   100         67
   101          9
   115          5
   116         57
   117        236
   118         16
   119          1
   129         15
   130          1
   142         11
   143          1
   157          2