##TITLE=Library Entry 30826
##JCAMP-DX=Revision 4.10 
##DATA TYPE=MASS SPECTRUM
##SAMPLE DESCRIPTION=Japan AIST/NIMC Database- Spectrum MS-NW-5127
##NAMES=HP
##CAS NAME=Pentanoic acid, 3-methyl-
##MOLFORM=C6H12O2
##CAS REGISTRY NO=105-43-1
##MP= -300
##BP= -300
##MW= 116
##$RETENTION INDEX=947
##$CONDENSED SPECTRUM=NO
##NPOINTS= 65
##XYDATA=(XY..XY) 1 
    14          3
    15         10
    17          2
    18          7
    26         10
    27        126
    28         20
    29        181
    30          6
    31         17
    32          2
    37          3
    38          8
    39         95
    40         15
    41        272
    42         44
    43        130
    44          6
    45        121
    46          3
    47          2
    49          1
    50          6
    51          8
    52          2
    53         14
    54          5
    55        117
    56        155
    57        237
    58         12
    59         48
    60        999
    61        138
    62          8
    63          2
    65          1
    67          2
    68          6
    69         44
    70         12
    71          7
    72          1
    73         40
    74          7
    82          1
    83         21
    84          1
    85          2
    86          4
    87        168
    88         11
    89          2
    94          1
    95          2
    97          3
    98          9
    99          7
   100          5
   101         13
   102          1
   115          2
   116          1
   117          2