##TITLE=Library Entry 28876
##JCAMP-DX=Revision 4.10 
##DATA TYPE=MASS SPECTRUM
##SAMPLE DESCRIPTION=Japan AIST/NIMC Database- Spectrum MS-NW-8441
##NAMES=HP
##CAS NAME=1,2-Ethanediamine, N,N'-dimethyl-N,N'-bis[2-(methylamino)ethyl]-
##MOLFORM=C10H26N4
##CAS REGISTRY NO=105-78-2
##MP= -300
##BP= -300
##MW= 202
##$RETENTION INDEX=0
##$CONDENSED SPECTRUM=NO
##NPOINTS= 71
##XYDATA=(XY..XY) 1 
    26          1
    27          8
    28         33
    29         14
    30         47
    31          3
    32          1
    39          1
    40          2
    41         10
    42         84
    43         58
    44        148
    45          6
    46          3
    54          4
    55          6
    56         40
    57         52
    58        999
    59         51
    60          1
    68          2
    69          3
    70        118
    71         41
    72        169
    73          8
    81          1
    82          7
    83         25
    84          9
    85         11
    86         10
    87          4
    88          4
    89         18
    95          1
    96          1
    97          8
    98          9
    99         49
   100          9
   101        364
   102         36
   103          7
   111          3
   112          7
   113        111
   114         70
   115         55
   116          5
   125          1
   126          3
   127          9
   128         12
   129          4
   130          1
   131          2
   140          1
   141          3
   142          2
   143          1
   144          1
   146          3
   158         43
   159          4
   170          1
   171          1
   172          1
   203          1