##TITLE=Library Entry 16690
##JCAMP-DX=Revision 4.10 
##DATA TYPE=MASS SPECTRUM
##SAMPLE DESCRIPTION=NIST Mass Spectrometry Data Center, 1990.
##NAMES=HP
##CAS NAME=Diethyl carbonate
##MOLFORM=C5H10O3
##CAS REGISTRY NO=105-58-8
##MP= -300
##BP= -300
##MW= 118
##$RETENTION INDEX=767
##$CONDENSED SPECTRUM=NO
##NPOINTS= 36
##XYDATA=(XY..XY) 1 
    13          4
    14         24
    15         70
    16          2
    17          4
    18          2
    19         29
    26         80
    27        346
    28        176
    29        944
    30         75
    31        593
    32         24
    40          5
    41         47
    42         17
    43         74
    44          5
    45        999
    46         38
    47         31
    56          6
    57          3
    58          5
    59         33
    63        206
    64          3
    73          9
    74          5
    75         28
    89          5
    91        483
    92         17
    93          5
   118          3