##TITLE=Library Entry 17224
##JCAMP-DX=Revision 4.10 
##DATA TYPE=MASS SPECTRUM
##SAMPLE DESCRIPTION=Exported from NIST MS Search
##NAMES=HP
##CAS NAME=Ethane, 1,1-diethoxy-
##MOLFORM=C6H14O2
##CAS REGISTRY NO=105-57-7
##MP= -300
##BP= -300
##MW= 118
##$RETENTION INDEX=726
##$CONDENSED SPECTRUM=NO
##NPOINTS= 46
##XYDATA=(XY..XY) 1 
    12          3
    13          7
    14         33
    15        134
    16          3
    17          3
    18          5
    19         24
    25          3
    27        205
    28         61
    29        276
    30         21
    31         52
    32          3
    33          1
    38          2
    39          3
    40          4
    41         10
    42         20
    43        158
    44         55
    45        999
    46         24
    47        188
    57          1
    58          3
    59         14
    60          1
    61         31
    71          1
    72          9
    73        525
    74         23
    75         51
    76          2
    86          1
    89          4
   101          1
   102          1
   103        137
   104          7
   105          1
   117          4
   118          1