##TITLE=Library Entry 57824
##JCAMP-DX=Revision 4.10 
##DATA TYPE=MASS SPECTRUM
##SAMPLE DESCRIPTION=Japan AIST/NIMC Database- Spectrum MS-IW- 142
##NAMES=HP
##CAS NAME=o-Phenyl 2-(p-chlorophenyl)-4,4-dimethyl-1,3-dithioallophanate
##MOLFORM=C16H15ClN2OS2
##CAS REGISTRY NO=10508-46-0
##MP= -300
##BP= -300
##MW= 350
##$RETENTION INDEX=0
##$CONDENSED SPECTRUM=NO
##NPOINTS= 183
##XYDATA=(XY..XY) 1 
    15          7
    26          1
    27          4
    28          3
    30          3
    32          2
    34          1
    36          2
    37          4
    38          6
    39         19
    40          3
    41          2
    42         37
    43          8
    44         26
    45          9
    46          1
    47         16
    49          3
    50         22
    51         33
    52          3
    53          1
    55          3
    56         17
    57          3
    58          1
    59          1
    60          2
    61         11
    62          5
    63         12
    64          6
    65         20
    66          7
    67          2
    69          3
    70          3
    71          5
    72        399
    73         55
    74         15
    75         70
    76         19
    77        123
    78          9
    79          3
    81          1
    82          2
    83          3
    84         14
    85          7
    86          2
    87          6
    88        999
    89         49
    90         53
    91          7
    92          1
    93          6
    94         34
    95          3
    96          2
    97          2
    98          1
    99          5
   100          1
   101          1
   102          9
   103          1
   104          1
   105          5
   106          1
   107          4
   108          6
   109         15
   110          4
   111        127
   112          9
   113         40
   114          4
   118          1
   120          3
   121          1
   124          1
   125         16
   126          2
   127          9
   128          1
   129          1
   132          1
   133          6
   134         31
   135          5
   136          3
   137         20
   138          4
   139          7
   140          2
   141          1
   142          7
   143          6
   144          3
   145          2
   146          1
   147          2
   148          1
   149          9
   150          1
   151          1
   152          1
   153          4
   154          1
   155          1
   163          3
   164          1
   165          4
   166         16
   167          9
   168          7
   169        354
   170         34
   171        129
   172         12
   173          6
   175          1
   177          1
   178          5
   179          1
   180          1
   181        183
   182         20
   183         35
   184          5
   185          1
   186          1
   187          6
   188          1
   189          2
   194          1
   195          6
   196          1
   197          1
   198          1
   199          1
   202          7
   203          1
   204          2
   207         39
   208          5
   209          2
   212         11
   213          3
   214          5
   215          1
   224          1
   230        119
   231         16
   232         39
   233          6
   239          2
   241        176
   242         22
   243         65
   244          8
   245          3
   257         41
   258          6
   259         17
   260          2
   261          2
   262          1
   273          3
   274          2
   275          1
   276          1
   350        105
   351         19
   352         43
   353          9
   354          4
   355          1