##TITLE=Library Entry 57819
##JCAMP-DX=Revision 4.10 
##DATA TYPE=MASS SPECTRUM
##SAMPLE DESCRIPTION=Japan AIST/NIMC Database- Spectrum MS-IW- 166
##NAMES=HP
##CAS NAME=o-(p-Acetylphenyl) 4,4-dimethyl-2-phenyl-1,3-dithioallophanate
##MOLFORM=C18H18N2O2S2
##CAS REGISTRY NO=10506-44-2
##MP= -300
##BP= -300
##MW= 358
##$RETENTION INDEX=0
##$CONDENSED SPECTRUM=NO
##NPOINTS= 144
##XYDATA=(XY..XY) 1 
    15         10
    17          2
    18          1
    26          1
    27          6
    28          5
    29          1
    30          3
    32          3
    34          1
    37          3
    38          7
    39         12
    40          2
    41          3
    42         34
    43         62
    44         27
    45          9
    46          1
    47         13
    49          2
    50         21
    51         65
    52          6
    53          2
    54          4
    55          1
    56         14
    57          3
    58          2
    59          1
    60          5
    61          9
    62          3
    63         12
    64         11
    65         17
    66          2
    67         12
    68          2
    69          3
    70          2
    71          4
    72        715
    73         56
    74         11
    75          9
    76         56
    77        245
    78         18
    79          4
    81          1
    82          3
    83          2
    84          3
    85          1
    87          4
    88        999
    89         52
    90         49
    91         41
    92          8
    93         18
    94          2
    95          1
    96          1
    97          1
    99          2
   102          1
   103         10
   104          8
   105          2
   106          2
   107          4
   108         18
   109         11
   110          2
   111          1
   117          1
   118          1
   119         32
   120          7
   121         54
   122          4
   123          4
   131          7
   132         37
   133          5
   134          3
   135        385
   136         64
   137         23
   138          2
   139          1
   141          1
   146          1
   147        220
   148         24
   149          3
   150          1
   151          5
   152          2
   153          4
   163          2
   164          3
   166          1
   167          2
   168         14
   169          2
   178          2
   179          6
   180          2
   189          6
   190          4
   193          2
   196          4
   207        215
   208         27
   209         10
   210          2
   211          1
   222          2
   223         89
   224         11
   225          6
   226          1
   228          1
   238        109
   239         22
   240          2
   249         13
   250          2
   251          1
   270          1
   281          1
   282         47
   283          9
   284          1
   298          2
   358        139
   359         30
   360         15
   361          3