##TITLE=Library Entry 57839
##JCAMP-DX=Revision 4.10 
##DATA TYPE=MASS SPECTRUM
##SAMPLE DESCRIPTION=Japan AIST/NIMC Database- Spectrum MS-IW- 152
##NAMES=HP
##CAS NAME=o-Phenyl 4,4-dimethyl-2-(p-tolyl)-1,3-dithioallophanate
##MOLFORM=C17H18N2OS2
##CAS REGISTRY NO=10506-49-7
##MP= -300
##BP= -300
##MW= 330
##$RETENTION INDEX=0
##$CONDENSED SPECTRUM=NO
##NPOINTS= 141
##XYDATA=(XY..XY) 1 
    15          4
    27          3
    28          1
    30          2
    32          1
    34          1
    37          1
    38          3
    39         24
    40          3
    41          4
    42         26
    43          5
    44         21
    45         12
    46          1
    47         12
    49          1
    50          8
    51         24
    52          3
    53          1
    55          1
    56         12
    59          1
    60          1
    61          8
    62          4
    63         13
    64          5
    65         45
    66          7
    69          2
    70          2
    71          3
    72        279
    73         43
    74          6
    75          5
    76         10
    77        110
    78         11
    79          4
    83          1
    86          1
    87          4
    88        999
    89         65
    90         55
    91        141
    92         10
    93          5
    94         26
    95          2
    96          2
    97          1
    99          2
   102          1
   103          1
   104          9
   105         12
   106          2
   107          9
   108          2
   109         13
   110          3
   116         10
   117         16
   118          6
   119          1
   120          3
   121         11
   122          4
   123         11
   124          2
   131          1
   132          5
   133          4
   134          1
   135          1
   136          2
   137          6
   145          4
   146         22
   147          5
   148         78
   149        269
   150         37
   151         14
   152          3
   161        161
   162         18
   163          4
   164          5
   165          7
   166          2
   167         16
   168          2
   169          1
   175          1
   177          2
   178          5
   179          1
   180          2
   181         81
   182         41
   183          9
   184          1
   190          1
   191          1
   192         42
   193         12
   194          2
   195          4
   196          1
   204          3
   207         89
   208         11
   209          5
   210        253
   211         40
   212          4
   221        271
   222         36
   223         14
   224          2
   237         82
   238         11
   239         10
   240          1
   241          1
   242          6
   243          1
   253          5
   254          6
   255          1
   330        268
   331         55
   332         29
   333          5
   334          1