##TITLE=Library Entry 57828
##JCAMP-DX=Revision 4.10 
##DATA TYPE=MASS SPECTRUM
##SAMPLE DESCRIPTION=Japan AIST/NIMC Database- Spectrum MS-IW- 173
##NAMES=HP
##CAS NAME=o-(2-Naphthyl) 2-(p-chlorophenyl)-4,4-dimethyl-1,3-dithioallophan
ate
##MOLFORM=C20H17ClN2OS2
##CAS REGISTRY NO=10508-52-8
##MP= -300
##BP= -300
##MW= 400
##$RETENTION INDEX=0
##$CONDENSED SPECTRUM=NO
##NPOINTS= 149
##XYDATA=(XY..XY) 1 
    15          7
    26          1
    27          2
    28          2
    29          1
    30          2
    31          2
    32          2
    36          1
    37          4
    38          4
    39          9
    40          1
    41          2
    42         28
    43         12
    44         17
    45          7
    46          1
    47         12
    49          3
    50         22
    51         16
    52          2
    55          1
    56         12
    57          2
    58          6
    59          1
    60          2
    61         10
    62          7
    63         18
    64          6
    65          6
    66          3
    67          2
    69          2
    70          2
    71          2
    72        530
    73         54
    74         18
    75         73
    76         18
    77         10
    78          1
    79          2
    81          1
    82          1
    83          2
    84         15
    85          8
    86          3
    87          7
    88        999
    89         61
    90         53
    91          2
    98          1
    99          4
   100          2
   101          6
   102          9
   103          1
   107          3
   108          3
   109          1
   110          1
   111        123
   112          9
   113         42
   114          7
   115         72
   116         14
   117          1
   118          1
   120          2
   124          1
   125         13
   126         11
   127         73
   128         10
   129          1
   133          6
   134         28
   135          3
   136          2
   137         17
   138          2
   139          6
   140          1
   141          1
   142          7
   143          6
   144         83
   145          9
   146          3
   149          3
   153          2
   155          3
   158          1
   159          6
   160          2
   163          1
   165          1
   166         11
   167          2
   168          4
   169        374
   170         33
   171        136
   172         11
   173          5
   174          1
   178          2
   181         57
   182          6
   183         18
   184          2
   187          2
   214          1
   215          1
   217          3
   230          1
   231        189
   232         28
   233         10
   234          1
   241        242
   242         30
   243         89
   244         10
   245          7
   246          4
   247          1
   252          2
   257         13
   258          2
   259          5
   262          1
   280         12
   281          2
   282          4
   324          3
   326          1
   400          7
   401          1
   402          3