##TITLE=Library Entry 91134
##JCAMP-DX=Revision 4.10 
##DATA TYPE=MASS SPECTRUM
##SAMPLE DESCRIPTION=LAC, NIDDK, NIH, Bethesda, MD 20892
##NAMES=HP
##CAS NAME=9-.alpha.-Hydroxysolasodine
##MOLFORM=C27H43NO3
##CAS REGISTRY NO=105001-54-5
##MP= -300
##BP= -300
##MW= 429
##$RETENTION INDEX=0
##$CONDENSED SPECTRUM=NO
##NPOINTS= 232
##XYDATA=(XY..XY) 1 
    41        181
    42         22
    43        280
    44         60
    45         12
    47          2
    51          3
    53         61
    55        374
    56         38
    57         94
    58         16
    59          3
    60          1
    65         24
    67        118
    68         50
    69         58
    70         38
    71         15
    72          7
    73          7
    74          2
    77         59
    79        133
    81         97
    82         38
    83         43
    84         32
    85          8
    86          9
    91        119
    92          8
    93        161
    95        132
    96         59
    97         21
    98         40
    99          3
   103         12
   105        186
   106          9
   107        104
   108         72
   109         30
   110         77
   111         51
   113        586
   114        999
   115         20
   117         39
   118          3
   119         48
   120        126
   121         69
   122         32
   123         21
   124        107
   125        119
   126         22
   128         15
   129         16
   131         37
   132          9
   133         36
   134         23
   135         32
   136         31
   138        636
   139         55
   140         13
   141         11
   142          3
   143         41
   144          4
   145         63
   146          3
   147         35
   148         13
   149         30
   150         16
   151          1
   152         49
   153         11
   155         26
   156          9
   157         28
   158         11
   159         14
   160          6
   161         17
   162         24
   163         22
   164         49
   166         66
   167         12
   168          9
   169          8
   170          3
   171         14
   172          7
   173         13
   174          7
   175         23
   176         17
   177         13
   178         27
   179          6
   180         11
   181          7
   183         13
   185         13
   186          4
   187          9
   188          4
   189          3
   190          3
   191          4
   192         27
   193          9
   195         13
   197         26
   198          3
   199          3
   200          1
   201          2
   202          2
   203          2
   204          3
   205          6
   206          5
   207          3
   208          1
   209          4
   211          9
   212          7
   213          6
   215          6
   216          2
   218          2
   220          5
   221          2
   222          4
   223          5
   225          8
   227          4
   229          2
   230          7
   231          1
   232          1
   234         17
   235          5
   236          3
   237          3
   238          1
   239          3
   241          2
   243          1
   246          2
   248          4
   249          2
   251          8
   252          3
   253          1
   255          2
   256          1
   257          2
   258          1
   262          3
   263          4
   265         28
   266          5
   267          3
   269         14
   270          3
   274          1
   276         11
   277          1
   278          1
   280          6
   281          6
   282          1
   283          8
   284          2
   286          1
   287          1
   290          1
   291          1
   292          2
   296          1
   297          2
   298         38
   299         22
   300          3
   304          3
   308          1
   326          1
   330          5
   340          2
   354          1
   358          2
   368          8
   369          1
   372          2
   373          4
   374          1
   382          1
   383          1
   384          2
   385          1
   386          6
   387          1
   394          5
   395          1
   396          5
   397          1
   400         18
   401         37
   402          9
   403          2
   410          6
   411          2
   412          6
   413          2
   414          7
   415          1
   427          1
   428         16
   429        105
   430         30
   431         10
   432          2