##TITLE=Library Entry 57836
##JCAMP-DX=Revision 4.10 
##DATA TYPE=MASS SPECTRUM
##SAMPLE DESCRIPTION=Japan AIST/NIMC Database- Spectrum MS-IW- 177
##NAMES=HP
##CAS NAME=(4-Biphenylyloxy)(phenylimino)methyl N,N-dimethyldithiocarbamate
##MOLFORM=C22H20N2OS2
##CAS REGISTRY NO=10506-11-3
##MP= -300
##BP= -300
##MW= 392
##$RETENTION INDEX=0
##$CONDENSED SPECTRUM=NO
##NPOINTS= 146
##XYDATA=(XY..XY) 1 
    15          4
    26          1
    27          3
    28          1
    30          1
    32          2
    34          1
    37          2
    38          3
    39          9
    40          1
    41          1
    42         21
    43          4
    44         13
    45          5
    46          1
    47          9
    49          1
    50         14
    51         48
    52          4
    54          2
    55          2
    56          9
    57          1
    58          1
    59          1
    60          1
    61          6
    62          3
    63         12
    64          6
    65          5
    67         11
    68          1
    69          2
    70          2
    71          1
    72        601
    73         48
    74          9
    75          9
    76         24
    77        177
    78         12
    79          1
    82          1
    83          1
    84          4
    85          4
    86          1
    87          4
    88        999
    89         53
    90         48
    91         16
    92          2
    93          1
    99          2
   101          1
   102          4
   103         10
   104          2
   107          1
   108         10
   109          6
   110          1
   113          2
   114          2
   115         25
   116          3
   119          1
   120          1
   121          1
   126          3
   127          4
   128          8
   129          1
   131          3
   132         15
   133          2
   134          3
   135        357
   136         35
   137         17
   138          2
   139          9
   140          2
   141         24
   142          4
   147        104
   148         10
   149          1
   150          3
   151         10
   152         41
   153         37
   154          5
   155          1
   163          1
   164          2
   167          1
   168          1
   169         18
   170         92
   171         12
   172          1
   178          1
   179          2
   180          1
   181          3
   184          4
   185          9
   186          3
   190          1
   197          1
   200          1
   207        422
   208         52
   209         22
   210          2
   223         16
   224          2
   225          1
   239          1
   241          3
   244          6
   245          2
   254          5
   255          1
   256          1
   257        179
   258         32
   259         10
   260          1
   267          1
   272         29
   273          7
   274          1
   316         12
   317          3
   354          1
   392         12
   393          3
   394          1