##TITLE=Library Entry 58186
##JCAMP-DX=Revision 4.10 
##DATA TYPE=MASS SPECTRUM
##SAMPLE DESCRIPTION=Japan AIST/NIMC Database- Spectrum MS-IW- 174
##NAMES=HP
##CAS NAME=o-Phenyl 4,4-dimethyl-2-(2-naphthyl)-1,3-dithioallophanate
##MOLFORM=C20H18N2OS2
##CAS REGISTRY NO=10508-47-1
##MP= -300
##BP= -300
##MW= 366
##$RETENTION INDEX=0
##$CONDENSED SPECTRUM=NO
##NPOINTS= 202
##XYDATA=(XY..XY) 1 
    15          6
    17          1
    27          3
    28          2
    30          1
    32          1
    34          1
    37          1
    38          4
    39         21
    40          5
    41          2
    42         32
    43          6
    44         29
    45          8
    46          1
    47         15
    49          1
    50         13
    51         36
    52          4
    53          2
    55          4
    56         16
    57          1
    58          1
    59          1
    60          1
    61         11
    62          7
    63         18
    64          4
    65         21
    66         13
    67          1
    69          3
    70          2
    71          6
    72        480
    73         60
    74         17
    75         25
    76         19
    77        136
    78         12
    79         21
    80          1
    83          1
    85          1
    86          3
    87          9
    88        999
    89         55
    90         47
    91          7
    92         35
    93          9
    94         84
    95          6
    96          2
    97          1
    98          4
    99          9
   100          5
   101         27
   102          5
   103          1
   105          7
   106          1
   107          1
   108          1
   109         16
   110          3
   111          1
   112          1
   113          9
   114         14
   115         37
   116          4
   120          2
   121          2
   122          1
   124          1
   125          9
   126         69
   127        311
   128         36
   129          2
   132          2
   134          2
   135          1
   136          3
   137          8
   138          1
   139          3
   140         30
   141         50
   142          6
   143          4
   145          1
   146          2
   147          5
   148          1
   151          2
   152         11
   153         82
   154         12
   155          2
   156          2
   157          1
   158         23
   159         33
   160          5
   161          2
   164          1
   165          1
   167          3
   168          1
   169         30
   170          8
   171          5
   172          2
   173          1
   175          2
   176          1
   179          1
   180          2
   181        142
   182         49
   183         13
   184          8
   185        931
   186        130
   187         52
   188          6
   189          1
   191          3
   196          9
   197        142
   198         22
   199         11
   200          8
   201         10
   202         11
   203         20
   204          5
   205          2
   207        346
   208         44
   209         20
   210          3
   212          9
   213          6
   214          8
   215          2
   216          2
   217          9
   218         49
   219          9
   220          1
   225          1
   226          1
   227          3
   228         67
   229         50
   230         10
   231          3
   239          7
   240          3
   241          1
   242          1
   245          3
   246        235
   247         45
   248          6
   249          2
   250          1
   255          1
   257        208
   258         35
   259         12
   260          2
   271         69
   272         70
   273        189
   274         37
   275         18
   276          3
   277         19
   278        100
   279         19
   280          6
   281          1
   289          4
   290          9
   291          2
   366        240
   367         57
   368         28
   369          5
   370          1