##TITLE=Library Entry 57835
##JCAMP-DX=Revision 4.10 
##DATA TYPE=MASS SPECTRUM
##SAMPLE DESCRIPTION=Japan AIST/NIMC Database- Spectrum MS-IW- 156
##NAMES=HP
##CAS NAME=(Phenylimino)(m-tolyloxy)methyl N,N-dimethyldithiocarbamate
##MOLFORM=C17H18N2OS2
##CAS REGISTRY NO=10506-01-1
##MP= -300
##BP= -300
##MW= 330
##$RETENTION INDEX=0
##$CONDENSED SPECTRUM=NO
##NPOINTS= 130
##XYDATA=(XY..XY) 1 
    15          5
    26          1
    27          7
    28          2
    29          1
    30          3
    32          2
    34          1
    37          2
    38          4
    39         16
    40          2
    41          5
    42         28
    43          6
    44         21
    45          8
    46          1
    47         12
    49          1
    50         13
    51         51
    52          6
    53          5
    54          3
    55          1
    56          9
    57          1
    58          1
    59          1
    60          2
    61          7
    62          2
    63          9
    64          7
    65         29
    66          2
    67         12
    68          1
    69          2
    70          1
    71          2
    72        324
    73         42
    74          7
    75          6
    76         16
    77        185
    78         16
    79         10
    80          2
    82          1
    83          1
    84          2
    87          3
    88        999
    89         52
    90         50
    91        124
    92          9
    93          2
    96         20
    97          3
    99          2
   102          1
   103          8
   104          3
   105          3
   106          1
   107         27
   108         32
   109         11
   110          2
   119          7
   120          2
   121          1
   123          8
   124          1
   131          3
   132         15
   133          2
   134          2
   135        266
   136         30
   137         13
   138          1
   147        107
   148         10
   149          2
   150          3
   151          1
   152          1
   153          4
   163          2
   164          3
   165          4
   166          1
   167          4
   178          1
   179          5
   180          1
   181          1
   182         16
   183          2
   190          2
   191          1
   192         30
   193          5
   194          1
   195         76
   196          9
   197          4
   207        323
   208         40
   209         16
   210        128
   211         20
   212          2
   221          4
   223         21
   224          3
   225          2
   239          3
   242          3
   253          1
   254          4
   330        125
   331         26
   332         13
   333          2