##TITLE=Library Entry 57804
##JCAMP-DX=Revision 4.10 
##DATA TYPE=MASS SPECTRUM
##SAMPLE DESCRIPTION=Japan AIST/NIMC Database- Spectrum MS-IW- 147
##NAMES=HP
##CAS NAME=(p-Nitrophenylimino)phenoxymethyl N,N-dimethyldithiocarbamate
##MOLFORM=C16H15N3O3S2
##CAS REGISTRY NO=10506-09-9
##MP= -300
##BP= -300
##MW= 361
##$RETENTION INDEX=0
##$CONDENSED SPECTRUM=NO
##NPOINTS= 165
##XYDATA=(XY..XY) 1 
    15          8
    17          1
    18          2
    26          1
    27          5
    28          2
    29          1
    30          4
    32          2
    34          1
    37          4
    38          7
    39         28
    40          6
    41          2
    42         40
    43          9
    44         45
    45         10
    46          2
    47         17
    48          1
    49          2
    50         28
    51         36
    52          4
    53          2
    54          1
    55          4
    56         15
    57          1
    58          2
    59          2
    60          3
    61         11
    62          5
    63         30
    64         15
    65         34
    66         11
    67          1
    69          5
    70          5
    71          1
    72        477
    73         64
    74         16
    75         22
    76         26
    77        404
    78         31
    79          2
    81          1
    82          2
    83          5
    84          4
    86          1
    87          6
    88        999
    89         50
    90        122
    91         11
    92          3
    93         12
    94         76
    95          7
    96          4
    97          1
    99          1
   102          3
   103          1
   104          1
   105          6
   106          2
   107         27
   108          8
   109         15
   110          3
   111          1
   118          7
   119          2
   120         16
   121          3
   122         30
   123          3
   124          2
   131          2
   132          2
   133         11
   134        100
   135         11
   136          7
   137          5
   138          1
   139          1
   141          1
   145          1
   146         17
   147          4
   148         33
   149          8
   150         43
   151          4
   152          3
   154          1
   162          1
   163          2
   164         12
   165          3
   166          3
   167         19
   168          3
   169          1
   176          1
   177          2
   178          2
   179          1
   180        336
   181        153
   182         30
   183          8
   184          1
   192         83
   193          9
   194          2
   195         15
   196          5
   197          5
   198          1
   199          1
   202          2
   206          1
   207          6
   208          5
   209          2
   210          1
   211          1
   213          1
   214          3
   216          1
   222          4
   223          2
   224          3
   225          2
   226          1
   235          1
   239          1
   241        338
   242         51
   243          6
   252        162
   253         20
   254          9
   255          1
   268         15
   269          2
   270          2
   275          2
   277          1
   284          2
   285          2
   361        126
   362         25
   363         13
   364          2