##TITLE=Library Entry 81892
##JCAMP-DX=Revision 4.10 
##DATA TYPE=MASS SPECTRUM
##SAMPLE DESCRIPTION=NIST Mass Spectrometry Data Center
##NAMES=HP
##CAS NAME=Hippuric acid, TBDMS derivative
##MOLFORM=C15H23NO3Si
##CAS REGISTRY NO=105041-03-0
##MP= -300
##BP= -300
##MW= 293
##$RETENTION INDEX=2104
##$CONDENSED SPECTRUM=NO
##NPOINTS= 119
##XYDATA=(XY..XY) 1 
    27          3
    28          2
    29         10
    30          1
    31          1
    38          1
    39          8
    40          1
    41         23
    42          3
    43         11
    44          2
    45         24
    46          2
    47         17
    48          1
    49          1
    50         12
    51         50
    52          4
    53          2
    54          1
    55          4
    56          7
    57         29
    58         25
    59         31
    60          7
    61         14
    62          1
    63          2
    65          1
    67          1
    69          1
    70          1
    71          1
    72         13
    73        162
    74         24
    75        146
    76         26
    77        273
    78         21
    79          2
    83          1
    84          1
    85          4
    86          9
    87         13
    88         12
    90          2
    91          7
    92          1
    96         11
    99          5
   100          5
   101          5
   102          6
   103          5
   105        999
   106         91
   107          6
   114          1
   115         26
   116         16
   117         17
   118         12
   119          3
   120          1
   121          1
   130          8
   131          3
   132          4
   133          4
   134         27
   135         12
   136          2
   137          2
   143          1
   144          1
   145          1
   146          1
   147          1
   148          2
   149          8
   150          1
   151          1
   161          3
   162         18
   163          9
   164          2
   165          1
   175          1
   176          1
   177          1
   178          6
   179          9
   180          2
   181          1
   190          7
   191          3
   192        136
   193         36
   194          9
   195          1
   206          2
   207          1
   208          1
   234          2
   236        637
   237        120
   238         36
   239          4
   248         38
   249          8
   250          2
   278         17
   279          4
   280          1