##TITLE=Library Entry 58220
##JCAMP-DX=Revision 4.10 
##DATA TYPE=MASS SPECTRUM
##SAMPLE DESCRIPTION=Japan AIST/NIMC Database- Spectrum MS-IW- 155
##NAMES=HP
##CAS NAME=Phenoxy(p-tolylimino)methyl N,N-dimethyldithiocarbamate
##MOLFORM=C17H18N2OS2
##CAS REGISTRY NO=10506-13-5
##MP= -300
##BP= -300
##MW= 330
##$RETENTION INDEX=0
##$CONDENSED SPECTRUM=NO
##NPOINTS= 153
##XYDATA=(XY..XY) 1 
    15          6
    17          1
    26          1
    27          4
    28          2
    29          1
    30          2
    32          1
    34          1
    37          1
    38          4
    39         27
    40          4
    41          5
    42         29
    43          7
    44         25
    45         13
    46          1
    47         13
    49          1
    50          8
    51         28
    52          4
    53          1
    55          2
    56         12
    57          1
    58          2
    59          1
    60          1
    61          9
    62          4
    63         15
    64          6
    65         48
    66          7
    69          2
    70          3
    71          3
    72        334
    73         47
    74          8
    75          5
    76         12
    77        140
    78         14
    79          5
    83          1
    84          1
    86          1
    87          4
    88        999
    89         69
    90         58
    91        144
    92         11
    93          6
    94         31
    95          3
    96          2
    97          1
    99          2
   102          1
   103          1
   104         10
   105         13
   106          2
   107         10
   108          2
   109         13
   110          3
   111          1
   114          1
   115          1
   116         11
   117         18
   118          6
   119          1
   120          4
   121         13
   122          4
   123         10
   124          2
   131          1
   132          7
   133          6
   134          1
   135          1
   136          2
   137          6
   145          4
   146         21
   147          6
   148         86
   149        309
   150         41
   151         16
   152          4
   153          1
   161        155
   162         18
   163          4
   164          5
   165          8
   166          2
   167         18
   168          2
   169          1
   175          1
   176          1
   177          3
   178          5
   179          1
   180          2
   181         90
   182         48
   183          9
   184          1
   190          1
   191          2
   192         52
   193         13
   194          3
   195          6
   196          1
   204          3
   207         88
   208         11
   209          5
   210        368
   211         57
   212          5
   213          1
   221        265
   222         35
   223         13
   224          2
   237         80
   238         11
   239          9
   240          1
   241          1
   242          6
   243          1
   253          5
   254          7
   255          1
   330        264
   331         55
   332         28
   333          5
   334          1