##TITLE=Library Entry 58224
##JCAMP-DX=Revision 4.10 
##DATA TYPE=MASS SPECTRUM
##SAMPLE DESCRIPTION=Japan AIST/NIMC Database- Spectrum MS-IW- 170
##NAMES=HP
##CAS NAME=(p-Tolylimino)(p-tolyloxy)methyl N,N-dimethyldithiocarbamate
##MOLFORM=C18H20N2OS2
##CAS REGISTRY NO=10506-14-6
##MP= -300
##BP= -300
##MW= 344
##$RETENTION INDEX=0
##$CONDENSED SPECTRUM=NO
##NPOINTS= 130
##XYDATA=(XY..XY) 1 
    15          4
    27          5
    28          2
    30          1
    32          1
    37          1
    38          2
    39         20
    40          2
    41          6
    42         21
    43          4
    44         16
    45         11
    46          1
    47          9
    50          6
    51         12
    52          5
    53          4
    54          1
    55          1
    56          9
    59          1
    60          1
    61          8
    62          4
    63         14
    64          5
    65         47
    66          3
    69          1
    70          2
    71          2
    72        347
    73         39
    74          7
    75          4
    76         10
    77         22
    78          7
    79         11
    80          2
    83          1
    86          1
    87          3
    88        999
    89         69
    90         57
    91        203
    92         15
    96         17
    97          3
    99          2
   102          1
   103          1
   104          8
   105          7
   106          1
   107         43
   108         31
   109          3
   110          1
   116         10
   117         16
   118          5
   119          5
   120          2
   121         12
   122          4
   123         15
   124          3
   131          1
   132          2
   133          2
   134          1
   135          1
   136          1
   145          4
   146         18
   147          2
   148         78
   149        287
   150         36
   151         16
   152          2
   161        121
   162         14
   163          2
   164          3
   165          1
   166          1
   167          5
   177          1
   178          4
   179          3
   180          2
   181          6
   182          1
   191          2
   192          1
   193          4
   194          2
   195        111
   196         29
   197          8
   198          1
   204          2
   206         21
   207          4
   208          1
   209          3
   210          1
   221        387
   222         52
   223         20
   224        111
   225         18
   226          2
   237         45
   238          6
   239          4
   253          3
   256          3
   268          7
   269          1
   344        112
   345         24
   346         12
   347          2