##TITLE=Library Entry 58217
##JCAMP-DX=Revision 4.10 
##DATA TYPE=MASS SPECTRUM
##SAMPLE DESCRIPTION=Japan AIST/NIMC Database- Spectrum MS-IW- 141
##NAMES=HP
##CAS NAME=o-(p-Chlorophenyl) 4,4-dimethyl-2-phenyl-1,3-dithioallophanate
##MOLFORM=C16H15ClN2OS2
##CAS REGISTRY NO=10506-39-5
##MP= -300
##BP= -300
##MW= 350
##$RETENTION INDEX=0
##$CONDENSED SPECTRUM=NO
##NPOINTS= 144
##XYDATA=(XY..XY) 1 
    15          5
    27          3
    28          2
    30          2
    32          1
    36          1
    37          2
    38          4
    39          6
    40          1
    41          1
    42         26
    43          5
    44         17
    45          6
    46          1
    47         11
    49          2
    50         13
    51         38
    52          3
    54          1
    56         11
    57          1
    58          1
    59          1
    60          1
    61          8
    62          2
    63          9
    64          7
    65          7
    67          7
    69          2
    70          1
    71          2
    72        281
    73         46
    74          9
    75         20
    76         14
    77        135
    78          9
    82          1
    83          1
    84          2
    85          1
    87          4
    88        999
    89         47
    90         49
    91         14
    92          2
    93          2
    95          1
    96          1
    99         10
   100          2
   101          3
   102          2
   103          5
   104          3
   106          1
   107          1
   108         10
   109         10
   110          1
   111         34
   112          2
   113         10
   114          1
   119          2
   120          1
   125          1
   127          6
   128         14
   129          3
   130          5
   131          3
   132         14
   133          2
   134          2
   135        213
   136         25
   137         10
   138          1
   139          3
   141          1
   143          6
   144          1
   145          2
   147         90
   148          9
   149          1
   150          2
   152          1
   153          4
   163          2
   164          3
   166          2
   167          7
   168          1
   171          1
   177          1
   178          1
   179          4
   180          1
   190          2
   195          5
   196          1
   202          3
   204          1
   207        304
   208         37
   209         15
   210          2
   212          5
   213          1
   214          3
   215         30
   216          4
   217         10
   218          1
   223         26
   224          3
   225          3
   230         71
   231          9
   232         23
   233          3
   239          3
   241          4
   243          1
   262          1
   264          1
   273          1
   274          2
   275          1
   276          1
   350         68
   351         13
   352         28
   353          5
   354          2