##TITLE=Library Entry 57809
##JCAMP-DX=Revision 4.10 
##DATA TYPE=MASS SPECTRUM
##SAMPLE DESCRIPTION=Japan AIST/NIMC Database- Spectrum MS-IW- 136
##NAMES=HP
##CAS NAME=(p-Bromophenoxy)(phenylimino)methyl N,N-dimethyldithiocarbamate
##MOLFORM=C16H15BrN2OS2
##CAS REGISTRY NO=10506-04-4
##MP= -300
##BP= -300
##MW= 394
##$RETENTION INDEX=0
##$CONDENSED SPECTRUM=NO
##NPOINTS= 150
##XYDATA=(XY..XY) 1 
    15          6
    26          1
    27          4
    28          3
    30          3
    32          3
    34          1
    37          3
    38          7
    39          9
    40          1
    41          2
    42         31
    43          6
    44         27
    45          7
    46          2
    47         13
    49          1
    50         22
    51         55
    52          4
    53          1
    54          3
    55          1
    56         13
    57          1
    58          1
    59          1
    60          1
    61          9
    62          4
    63         16
    64         12
    65         13
    66          1
    67         10
    68          1
    69          3
    70          2
    71          2
    72        518
    73         51
    74         11
    75         22
    76         34
    77        206
    78         14
    80          1
    82          2
    83          1
    84          2
    86          1
    87          4
    88        999
    89         50
    90         70
    91         22
    92          3
    93         13
    94          2
    95          1
    96          1
    99          1
   102          1
   103          9
   104          3
   105          1
   106          1
   107          1
   108         17
   109          9
   110          1
   117          2
   119          6
   120          5
   121          1
   131          3
   132         14
   133          2
   134          3
   135        335
   136         34
   137         16
   138          2
   143          6
   145          6
   147         94
   148          9
   149          1
   150          1
   152          1
   153          3
   155         38
   156          2
   157         36
   158          2
   163          1
   164          3
   165          1
   166          2
   167         31
   168          4
   169          1
   171          4
   172         25
   173          5
   174         24
   175          1
   178          1
   179          3
   180          1
   183          2
   185          2
   187          3
   189          3
   190          2
   195         38
   196          6
   207        240
   208         29
   209         12
   210          1
   223         26
   224          3
   225          3
   239          2
   246          1
   248          1
   258          1
   259         35
   260          5
   261         36
   262          4
   263          1
   274        118
   275         17
   276        114
   277         16
   278          1
   285          1
   287          1
   318          4
   319          1
   320          3
   394         35
   395          7
   396         38
   397          7
   398          3