##TITLE=Library Entry 58218
##JCAMP-DX=Revision 4.10 
##DATA TYPE=MASS SPECTRUM
##SAMPLE DESCRIPTION=Japan AIST/NIMC Database- Spectrum MS-IW- 176
##NAMES=HP
##CAS NAME=(1-Naphthyloxy)(phenylimino)methyl N,N-dimethyldithiocarbamate
##MOLFORM=C20H18N2OS2
##CAS REGISTRY NO=10508-51-7
##MP= -300
##BP= -300
##MW= 366
##$RETENTION INDEX=0
##$CONDENSED SPECTRUM=NO
##NPOINTS= 133
##XYDATA=(XY..XY) 1 
    15          4
    27          3
    28          1
    30          2
    32          2
    34          1
    37          2
    38          3
    39          7
    40          1
    41          2
    42         19
    43          4
    44         12
    45          5
    46          1
    47          9
    49          1
    50         11
    51         37
    52          3
    54          2
    56          9
    57          2
    58          3
    59          1
    60          1
    61          6
    62          4
    63         10
    64          5
    65          6
    67          8
    68          1
    69          2
    70          1
    71          2
    72        284
    73         37
    74          8
    75          9
    76         26
    77        142
    78         10
    79          1
    82          1
    83          1
    84          1
    86          1
    87          4
    88        999
    89         56
    90         47
    91         13
    92          1
    93          1
    99          2
   101          4
   102          2
   103         10
   104          2
   106          1
   107          1
   108          9
   109          6
   110          1
   113          3
   114          4
   115         58
   116         18
   117          2
   119          2
   120          1
   121          1
   126          7
   127         38
   128          6
   129          1
   131          4
   132         21
   133          2
   134          2
   135        273
   136         28
   137         13
   138          1
   141          1
   143          6
   144         68
   145          8
   146          1
   147        124
   148         12
   149          1
   153          1
   155          2
   158          1
   159          5
   160          2
   163          1
   164          2
   174          1
   178          1
   179          2
   180          1
   186          2
   187          1
   207        519
   208         65
   209         27
   210          3
   215          1
   217          1
   218          1
   222          1
   223         11
   224          2
   225          1
   228          3
   229          1
   230          1
   231        117
   232         17
   233          7
   234          1
   239          1
   245          1
   246         18
   247          4
   273          1
   290         12
   291          3
   366          3