##TITLE=Library Entry 7288
##JCAMP-DX=Revision 4.10 
##DATA TYPE=MASS SPECTRUM
##SAMPLE DESCRIPTION=LAC, NIDDK, NIH, Bethesda, MD 20892
##NAMES=HP
##CAS NAME=Oxazol-2-thione[4,5-o]ergost-7,22-dien-3-ol, acetate(ester)
##MOLFORM=C31H47NO3S
##CAS REGISTRY NO=105070-28-8
##MP= -300
##BP= -300
##MW= 513
##$RETENTION INDEX=0
##$CONDENSED SPECTRUM=NO
##NPOINTS= 232
##XYDATA=(XY..XY) 1 
    41        173
    43        999
    45          3
    47          5
    49         15
    51          7
    53         34
    55        466
    57         99
    59          8
    60         34
    61         12
    63          2
    64          3
    65         16
    67        133
    69        374
    70         44
    71         28
    77         50
    79        110
    81        204
    83        107
    85          2
    86         10
    91         91
    93        104
    95        113
    97         29
    99          3
   103          8
   104          3
   105         87
   107         78
   109         54
   111          8
   115         20
   117         48
   118         22
   119         51
   121         52
   123         25
   125         24
   127          6
   128         21
   129         43
   130          5
   131         73
   132         44
   133         15
   134         12
   135         25
   137         10
   140          4
   141         26
   142         18
   143         69
   145         70
   146          4
   147         42
   149         14
   150          3
   151          5
   153         18
   154          2
   155         48
   157         71
   158          7
   159         56
   160         13
   161         12
   162          3
   163          7
   165         10
   166         19
   167         23
   169         43
   171         37
   172         22
   174         45
   175          9
   176          4
   178          8
   179         12
   180          8
   181         26
   183         38
   185         29
   186         12
   187          6
   189          3
   190          3
   191          8
   192          9
   193         13
   195         34
   196          8
   197         20
   198         13
   199         15
   200          9
   202          8
   203          3
   205          9
   207         11
   209         26
   211         36
   212          5
   213         14
   214          5
   215          3
   218          3
   219          5
   220          3
   221          8
   223         17
   225         19
   226          6
   227          6
   228          6
   229          4
   230          3
   232          7
   234         20
   235         23
   237         19
   239          7
   241          5
   243          2
   246          3
   249         11
   250         11
   251         34
   253         52
   254          8
   255          6
   256         12
   257          4
   259         10
   261          7
   263          7
   265          5
   266          2
   267          4
   268          3
   269          7
   270          4
   271          4
   272          6
   273          3
   274          3
   277          3
   279          6
   280          3
   282          5
   284         13
   285         21
   286          8
   287          4
   288          3
   289          7
   295          3
   296          3
   297          8
   298          4
   299          7
   301         20
   302          4
   303          3
   305          3
   309          5
   310          5
   311        133
   312         32
   313         21
   314          4
   316          8
   317          2
   319          3
   325          4
   326          4
   328         10
   329         13
   333          4
   335          9
   337          7
   339          6
   340          4
   348          7
   349          3
   354          4
   356          4
   359         98
   360         26
   361         18
   362         17
   363         14
   374         14
   376         12
   377          5
   379          8
   388          3
   389         11
   390          3
   392          4
   393          4
   394          5
   395          3
   397          3
   410          3
   416          5
   421          3
   423          4
   436          7
   438         96
   439         30
   440          9
   452         10
   453          8
   454         21
   455         12
   457          7
   470         12
   471         23
   472          6
   485          4
   498         19
   499          5
   513        281
   514         88
   515         30
   516          6