##TITLE=Library Entry 27598
##JCAMP-DX=Revision 4.10 
##DATA TYPE=MASS SPECTRUM
##SAMPLE DESCRIPTION=Organic Synthesis Lab, MSU, Moscow.TRC 681
##NAMES=HP
##CAS NAME=4',6'-Bis(1,1-dimethylethyl)-1,1':3',1''-terphenyl-2'-ol
##MOLFORM=C26H30O
##CAS REGISTRY NO=105071-79-2
##MP= -300
##BP= -300
##MW= 358
##$RETENTION INDEX=0
##$CONDENSED SPECTRUM=NO
##NPOINTS= 269
##XYDATA=(XY..XY) 1 
    20          0
    26          0
    27          6
    29         83
    30          1
    31          0
    35          0
    36          0
    39          8
    40          6
    41        115
    42          5
    43         12
    44          2
    45          0
    47          2
    48          1
    49          0
    50          0
    51          3
    52          0
    53          4
    54          0
    55         17
    56          3
    57        999
    58         43
    59          0
    60          0
    63          2
    65          4
    66          0
    67          3
    68          0
    69          6
    70          2
    71          2
    73          0
    75          0
    76          1
    77         14
    78          3
    79          3
    80          0
    81          3
    82          0
    83         12
    84          0
    85          7
    87          1
    88          1
    89          4
    90          0
    91         27
    92          2
    93          1
    95          1
    97          1
   101          3
   102          2
   103          8
   104          1
   105          8
   106          0
   107          1
   108          1
   109          1
   111          2
   112          2
   113          5
   114          5
   115         24
   116          4
   117          5
   118          0
   119          2
   120          4
   121          2
   122          2
   123          1
   125          1
   126         15
   127         11
   128         15
   129         18
   130          3
   131          3
   132          9
   133         18
   134          9
   135          8
   136         23
   137          6
   138          4
   139         11
   140          9
   141         21
   142         17
   143         14
   144          2
   145          1
   146          1
   147          3
   148          5
   149         13
   150         21
   151          7
   152          8
   153          5
   154          2
   155          7
   156          5
   157          6
   158          0
   163          1
   164         28
   165         27
   166          6
   167          4
   168          1
   169          2
   170          0
   171          1
   176          2
   177          2
   178         11
   179          8
   180          2
   181          4
   182          1
   183          1
   185          1
   187          0
   188          0
   189          8
   190          3
   191          8
   192          3
   193          3
   194          2
   195          3
   196          1
   197          0
   200          2
   201          1
   202         13
   203          8
   204          3
   205          2
   206          1
   207          2
   208          1
   209          3
   210          0
   211          2
   212          0
   213          4
   214          1
   215         20
   216          6
   217          5
   218          2
   219          2
   220          0
   221          1
   222          0
   223          0
   224          0
   225          1
   226          8
   227          6
   228         15
   229         13
   230          3
   231          3
   232          1
   233          1
   234          0
   235          1
   236          0
   237          1
   238          0
   239         28
   240         13
   241         22
   242         10
   243          7
   244          3
   245          5
   246          3
   247          2
   248          0
   249          0
   250          2
   251          2
   252         31
   253         35
   254         32
   255         25
   256          7
   257         12
   258          6
   259         17
   260          4
   261          1
   262          0
   263          3
   264          2
   265         18
   266         11
   267         14
   268         15
   269         34
   270         12
   271         17
   272         12
   273          7
   274          1
   276          2
   277          3
   278          5
   279         11
   280          7
   281          8
   282          9
   283         17
   284          6
   285          7
   286          4
   287        267
   288         59
   289          7
   290          0
   291          0
   292          1
   293          2
   294          3
   295          7
   296          3
   297          5
   298          2
   299          2
   300          1
   301         12
   302          4
   303          0
   309          1
   310          1
   311          1
   312          0
   313          1
   314          0
   315          5
   316          1
   325          3
   326          0
   327          2
   329          2
   331          0
   341          1
   342          1
   343         43
   344         12
   345          1
   356          2
   358        576
   359        165
   360         23
   361          2