##TITLE=Library Entry 85500
##JCAMP-DX=Revision 4.10 
##DATA TYPE=MASS SPECTRUM
##SAMPLE DESCRIPTION=Japan AIST/NIMC Database- Spectrum MS-IW-4586
##NAMES=HP
##CAS NAME=N-(2,4,6-Trinitrophenyl)-O-phenylenediamine
##MOLFORM=C12H9N5O6
##CAS REGISTRY NO=105049-03-4
##MP= -300
##BP= -300
##MW= 319
##$RETENTION INDEX=0
##$CONDENSED SPECTRUM=NO
##NPOINTS= 218
##XYDATA=(XY..XY) 1 
    15          1
    16          1
    17          1
    26          3
    27         21
    28          2
    30        124
    32          1
    37          5
    38         17
    39         46
    40          4
    41         11
    42          4
    43          3
    44         11
    46          4
    47          7
    48          1
    49          1
    50         52
    51         52
    52         50
    53         21
    54          7
    55          4
    56          2
    57          2
    61          9
    62         26
    63         59
    64         35
    65         83
    66         25
    67          8
    68          4
    69          3
    70          3
    71          2
    73          6
    74         39
    75         55
    76         93
    77         64
    78         66
    79         19
    80         71
    81          6
    82          1
    83          3
    84          3
    85          1
    86          5
    87          9
    88         20
    89         22
    90         45
    91         31
    92         27
    93          5
    94          4
    95          3
    96          5
    97          6
    98          6
    99         11
   100         14
   101         29
   102         93
   103         50
   104         11
   105         13
   106         41
   107          9
   108        999
   109         80
   110          6
   111          2
   112          4
   113         12
   114         18
   115         17
   116         11
   117         12
   118         17
   119          7
   120          4
   121          1
   122          1
   123          2
   124          5
   125         15
   126         28
   127         77
   128         49
   129         26
   130          7
   131          3
   132          1
   133          1
   134          2
   135          3
   136          3
   137          7
   138          9
   139         28
   140         37
   141         18
   142         21
   143         17
   144          9
   145         11
   146          2
   149          2
   150          8
   151         54
   152         59
   153         67
   154         73
   155         27
   156          7
   157          7
   158          1
   159         36
   160          5
   162          1
   163          3
   164         23
   165         37
   166        134
   167         60
   168         41
   169         15
   170          5
   171          2
   176          2
   177         80
   178         94
   179        214
   180        152
   181         67
   182         51
   183         12
   184          3
   185          1
   188          1
   191          2
   192          9
   193         80
   194         97
   195         24
   196         14
   197         10
   198          5
   199          3
   200          3
   201          5
   202          1
   206          2
   207          1
   208         12
   209         24
   210         49
   211         11
   212         29
   213         17
   214          2
   215          1
   216          1
   222          1
   223          1
   224         91
   225        140
   226         45
   227         11
   228          4
   229          3
   230          1
   234          2
   238          5
   239         77
   240        100
   241         16
   242          3
   243          3
   244          2
   245          2
   246          2
   254          5
   255         66
   256         38
   257          7
   258          2
   259         25
   260          3
   261          1
   262          1
   269          4
   270        451
   271         67
   272         17
   273          4
   274          3
   284          8
   285        161
   286         32
   287          6
   289         13
   290          2
   301          2
   302         17
   303          4
   304          1
   318          1
   319        452
   320         69
   321          9
   322          1