##TITLE=Library Entry 57815
##JCAMP-DX=Revision 4.10 
##DATA TYPE=MASS SPECTRUM
##SAMPLE DESCRIPTION=Japan AIST/NIMC Database- Spectrum MS-IW- 165
##NAMES=HP
##CAS NAME=(p-Acetylphenoxy)(phenylimino)methyl N,N-dimethyldithiocarbamate
##MOLFORM=C18H18N2O2S2
##CAS REGISTRY NO=10506-07-7
##MP= -300
##BP= -300
##MW= 358
##$RETENTION INDEX=0
##$CONDENSED SPECTRUM=NO
##NPOINTS= 146
##XYDATA=(XY..XY) 1 
    15         10
    17          2
    18          1
    26          1
    27          6
    28          4
    29          1
    30          3
    32          3
    34          1
    37          3
    38          8
    39         14
    40          2
    41          2
    42         36
    43         76
    44         28
    45          9
    46          1
    47         14
    49          2
    50         25
    51         68
    52          7
    53          2
    54          4
    55          1
    56         17
    57          2
    58          2
    59          2
    60          3
    61          9
    62          4
    63         14
    64         13
    65         17
    66          2
    67         12
    68          2
    69          4
    70          3
    71          3
    72        677
    73         60
    74         11
    75         10
    76         36
    77        240
    78         17
    79          5
    82          4
    83          2
    84          3
    87          5
    88        999
    89         52
    90         49
    91         45
    92          8
    93         16
    94          2
    95          1
    96          1
    99          2
   102          2
   103         10
   104          8
   105          2
   106          2
   107          4
   108         16
   109         11
   110          2
   111          2
   117          1
   118          1
   119         42
   120          8
   121         44
   122          4
   123          4
   131          6
   132         28
   133          5
   134          4
   135        374
   136         58
   137         21
   138          2
   139          1
   146          1
   147        171
   148         18
   149          2
   150          2
   151          4
   152          2
   153          4
   163          2
   164          3
   165          1
   166          1
   167          2
   168         19
   169          5
   171          1
   178          2
   179          6
   180          2
   181          1
   189          4
   190          3
   193          1
   196          5
   197          1
   207        207
   208         26
   209         10
   210          2
   211          1
   222          2
   223         82
   224         11
   225          6
   226          1
   228          1
   238        156
   239         30
   240          3
   241          1
   249         13
   250          2
   251          1
   270          1
   272          1
   281          2
   282         29
   283          6
   284          1
   298          1
   358        125
   359         27
   360         13
   361          2