##TITLE=Library Entry 57831
##JCAMP-DX=Revision 4.10 
##DATA TYPE=MASS SPECTRUM
##SAMPLE DESCRIPTION=Japan AIST/NIMC Database- Spectrum MS-IW- 164
##NAMES=HP
##CAS NAME=o-(p-Tolyl) 4,4-dimethyl-2-(p-nitrophenyl)-1,3-dithioallophanate
##MOLFORM=C17H17N3O3S2
##CAS REGISTRY NO=10506-50-0
##MP= -300
##BP= -300
##MW= 375
##$RETENTION INDEX=0
##$CONDENSED SPECTRUM=NO
##NPOINTS= 148
##XYDATA=(XY..XY) 1 
    15          9
    17          2
    18          1
    26          1
    27          9
    28          2
    29          1
    30          5
    32          3
    34          1
    37          4
    38          6
    39         24
    40          3
    41          5
    42         37
    43         19
    44         25
    45         12
    46          1
    47         16
    49          2
    50         30
    51         18
    52          9
    53          8
    54          2
    55          2
    56         18
    57          3
    58          7
    59          1
    60          4
    61         11
    62          6
    63         35
    64         15
    65         34
    66          3
    67          1
    69          5
    70          5
    71          2
    72        576
    73         60
    74         15
    75         21
    76         22
    77         31
    78         11
    79         19
    80          5
    81          2
    82          2
    83          5
    84          4
    85          1
    86          1
    87          4
    88        999
    89         54
    90        124
    91        119
    92         11
    93          2
    94          1
    95          3
    96         29
    97          4
    99          1
   102          2
   103          1
   104          1
   105          3
   106          3
   107         81
   108         62
   109          6
   110          2
   118          5
   119          6
   120          3
   121          3
   122         31
   123         14
   124          4
   125          1
   131          2
   132          1
   133          9
   134         86
   135         10
   136          6
   137          1
   138          1
   146         16
   147          4
   148          3
   149          5
   150         58
   151          7
   152          3
   162          2
   163          2
   164         10
   165          2
   176          1
   177          2
   178          3
   179          3
   180        283
   181         28
   182         14
   183          1
   192         73
   193          9
   194          2
   195        153
   196         19
   197          8
   198          1
   206          1
   207          1
   208          2
   209          3
   210          1
   211          3
   221          4
   222          5
   223          1
   225          1
   230          1
   235          1
   236          1
   238          1
   252        272
   253         35
   254         15
   255         43
   256          7
   268         10
   269          1
   270          1
   284          1
   375         52
   376         10
   377          6
   378          1