##TITLE=Library Entry 57810
##JCAMP-DX=Revision 4.10 
##DATA TYPE=MASS SPECTRUM
##SAMPLE DESCRIPTION=Japan AIST/NIMC Database- Spectrum MS-IW- 135
##NAMES=HP
##CAS NAME=(m-Bromophenoxy)(phenylimino)methyl N,N-dimethyldithiocarbamate
##MOLFORM=C16H15BrN2OS2
##CAS REGISTRY NO=10506-05-5
##MP= -300
##BP= -300
##MW= 394
##$RETENTION INDEX=0
##$CONDENSED SPECTRUM=NO
##NPOINTS= 162
##XYDATA=(XY..XY) 1 
    15          8
    26          1
    27          5
    28          3
    30          3
    32          1
    37          3
    38          8
    39         11
    40          1
    41          2
    42         39
    43          8
    44         38
    45          8
    46          2
    47         15
    49          2
    50         25
    51         59
    52          4
    53          1
    54          3
    55          1
    56         13
    57          1
    58          2
    59          1
    60          1
    61          9
    62          4
    63         18
    64         15
    65         12
    66          1
    67         16
    68          1
    69          3
    70          2
    71          2
    72        618
    73         60
    74         12
    75         27
    76         45
    77        227
    78         15
    79          1
    80          1
    82          2
    83          2
    84          2
    86          1
    87          5
    88        999
    89         50
    90         78
    91         23
    92          4
    93         14
    94          1
    95          1
    96          1
    99          1
   102          1
   103          9
   104          4
   105          1
   106          1
   107          1
   108         15
   109          9
   110          1
   111          1
   117          2
   119          6
   120          9
   121          1
   122          1
   131          3
   132         16
   133          2
   134          3
   135        364
   136         37
   137         17
   138          1
   143          4
   145          4
   147        121
   148         12
   149          1
   150          2
   152          2
   153          3
   155         59
   156          4
   157         57
   158          4
   163          1
   164          2
   165          1
   166          2
   167         52
   168          7
   169          1
   171          2
   172         21
   173          2
   174         20
   175          1
   177          1
   179          3
   180          1
   183          2
   185          2
   187          2
   189          2
   190          2
   195         58
   196          9
   207        139
   208         17
   209          7
   210          1
   215          1
   217          1
   223         28
   224          4
   225          3
   227          2
   230          2
   232          1
   239          6
   246          1
   248          1
   258          1
   259         28
   260          3
   261         28
   262          3
   263          1
   274        208
   275         30
   276        203
   277         29
   278          2
   285          9
   286          1
   287          9
   288          1
   306          1
   308          1
   318          6
   319          1
   320          5
   321          1
   394         52
   395          9
   396         55
   397          9
   398          5