##TITLE=Library Entry 43433
##JCAMP-DX=Revision 4.10 
##DATA TYPE=MASS SPECTRUM
##SAMPLE DESCRIPTION=O A MAMER, MCGILL UNIVERSITY, MONTRE
##NAMES=HP
##CAS NAME=4-Coumaric acid, 2TMS derivative
##MOLFORM=C15H24O3Si2
##CAS REGISTRY NO=10517-30-3
##MP= -300
##BP= -300
##MW= 308
##$RETENTION INDEX=1949
##$CONDENSED SPECTRUM=NO
##NPOINTS= 74
##XYDATA=(XY..XY) 1 
    15         17
    18         20
    28         34
    29         15
    39         11
    43         57
    44         34
    45        223
    46         17
    47         43
    51         15
    53         14
    55         11
    57         12
    58         14
    59         42
    61         21
    63         15
    65         10
    72         24
    73        999
    74        102
    75        239
    76         34
    77         24
    88         23
    89         28
    90         19
    91         25
   101         26
   102         38
   103         15
   105         14
   115         58
   116         25
   117         21
   118         20
   119         17
   121         11
   131         15
   133         28
   135         31
   139         74
   145         22
   146         17
   147         59
   148         18
   149         35
   159         17
   161         23
   175         55
   177         23
   179        104
   180         18
   190         28
   191         49
   192         39
   203         44
   219        557
   220        119
   221         37
   223         26
   233         24
   249        240
   250         61
   251         25
   279         18
   293        471
   294        127
   295         52
   308        386
   309        107
   310         45
   311          9