##TITLE=Library Entry 70073
##JCAMP-DX=Revision 4.10 
##DATA TYPE=MASS SPECTRUM
##SAMPLE DESCRIPTION=Institute of Organic Chemistry, Novosibirsk, USSR 1988
##NAMES=HP
##CAS NAME=Divinyldimethylsilane
##MOLFORM=C6H12Si
##CAS REGISTRY NO=10519-87-6
##MP= -300
##BP= -300
##MW= 112
##$RETENTION INDEX=647
##$CONDENSED SPECTRUM=NO
##NPOINTS= 34
##XYDATA=(XY..XY) 1 
    27          8
    28        371
    29         27
    30        286
    31         67
    41          8
    42          9
    43        137
    44        109
    45        133
    46          8
    55         62
    56          7
    57         21
    58         93
    59        320
    60         19
    61         10
    69         51
    70         41
    71        460
    72         53
    73         31
    83          8
    84         21
    85        119
    86          9
    95         62
    96          8
    97        999
    98        122
    99         39
   111          9
   112         12