##TITLE=Library Entry 57813
##JCAMP-DX=Revision 4.10 
##DATA TYPE=MASS SPECTRUM
##SAMPLE DESCRIPTION=Japan AIST/NIMC Database- Spectrum MS-IW- 145
##NAMES=HP
##CAS NAME=o-(m-Nitrophenyl) 4,4-dimethyl-2-phenyl-1,3-dithioallophanate
##MOLFORM=C16H15N3O3S2
##CAS REGISTRY NO=10516-30-0
##MP= -300
##BP= -300
##MW= 361
##$RETENTION INDEX=0
##$CONDENSED SPECTRUM=NO
##NPOINTS= 148
##XYDATA=(XY..XY) 1 
    15          6
    17          1
    26          1
    27          4
    28          2
    30          4
    32          2
    34          1
    37          2
    38          6
    39          9
    40          1
    41          2
    42         31
    43          6
    44         24
    45          7
    46          1
    47         12
    49          1
    50         21
    51         53
    52          5
    53          1
    54          2
    55          1
    56         14
    57          1
    58          1
    59          1
    60          3
    61          8
    62          3
    63         13
    64         14
    65          9
    66          1
    67          9
    68          1
    69          3
    70          2
    71          3
    72        469
    73         49
    74          9
    75         16
    76         45
    77        201
    78         15
    79          1
    81          2
    82          1
    83          2
    84          2
    87          6
    88        999
    89         46
    90         49
    91         24
    92         10
    93          7
    94          1
    95          1
    96          2
    99          2
   102          1
   103          8
   104          6
   105          2
   106          2
   107          1
   108         13
   109         12
   110          2
   111          1
   119         11
   120          3
   121          1
   122         16
   123          3
   131          6
   132         33
   133          3
   134          3
   135        316
   136         39
   137         16
   138          2
   139          9
   140          1
   146          1
   147        191
   148         20
   149          2
   150          4
   151          1
   152          1
   153          6
   154          6
   155          1
   163          2
   164          3
   165          1
   166          5
   167          4
   178          1
   179          6
   180          2
   181          1
   182          4
   183          1
   190          4
   192          1
   193          1
   194          2
   195          5
   196          4
   206          1
   207         52
   208          7
   209          3
   210          1
   211          1
   220          1
   222          1
   223         50
   224          7
   225          7
   226         24
   227          4
   228          1
   238          1
   239         10
   240          1
   241        130
   242         19
   243          2
   252         81
   253         10
   254          5
   273          1
   284          6
   285         23
   286          4
   361        171
   362         33
   363         18
   364          3