##TITLE=Library Entry 7095
##JCAMP-DX=Revision 4.10 
##DATA TYPE=MASS SPECTRUM
##SAMPLE DESCRIPTION=T. REICHENBACH
##NAMES=HP
##CAS NAME=3-Decen-2-one
##MOLFORM=C10H18O
##CAS REGISTRY NO=10519-33-2
##MP= -300
##BP= -300
##MW= 154
##$RETENTION INDEX=1233
##$CONDENSED SPECTRUM=NO
##NPOINTS= 90
##XYDATA=(XY..XY) 1 
    13          2
    14         16
    15        135
    16          2
    17          1
    18          3
    25          1
    26         26
    27        323
    28         54
    29        276
    30         62
    31          2
    37          4
    38         15
    39        220
    40         45
    41        346
    42         68
    43        999
    44         25
    45          6
    47          1
    49          0
    50          9
    51         41
    52         21
    53        104
    54         83
    55        720
    56         53
    57         34
    58         23
    59         12
    60          1
    61          2
    62          5
    63         10
    64          2
    65         16
    66         13
    67         66
    68         81
    69        339
    70         25
    71        240
    72         26
    73          2
    74          1
    75          1
    77         13
    78          3
    79         24
    80          4
    81         75
    82         17
    83         40
    84         75
    85         24
    86         19
    87          2
    91          3
    92          1
    93         11
    94         30
    95         30
    96        113
    97        209
    98         23
    99         12
   100          1
   102          1
   105          1
   107          8
   108          2
   109          4
   110          4
   111         47
   112          8
   113          5
   121          5
   125         25
   126          2
   136         11
   137          1
   139        248
   140         24
   141          1
   154         29
   155          4