##TITLE=Library Entry 32847
##JCAMP-DX=Revision 4.10 
##DATA TYPE=MASS SPECTRUM
##SAMPLE DESCRIPTION=NIST Mass Spectrometry Data Center, 2010
##NAMES=HP
##CAS NAME=Cyclopentaneacetic acid, 2-(hydroxymethyl)-3-methyl-, .delta.-lac
tone
##MOLFORM=C9H14O2
##CAS REGISTRY NO=105181-38-2
##MP= -300
##BP= -300
##MW= 154
##$RETENTION INDEX=1444
##$CONDENSED SPECTRUM=NO
##NPOINTS= 48
##XYDATA=(XY..XY) 1 
    26          5
    27         41
    29         44
    38         14
    39        169
    40         41
    41        265
    42         54
    43         46
    51         47
    52         22
    53        124
    54        135
    55        191
    56         45
    57         32
    61          4
    62          5
    65         45
    66         38
    67        999
    68        250
    69        121
    70         21
    71         28
    77         60
    79        106
    80         88
    81        634
    82        493
    83         44
    92         22
    93         43
    94         83
    95        311
    96        194
    97         32
    98         12
    99         46
   108         71
   111         25
   121         20
   123         21
   124         76
   125         40
   136         40
   154        161
   155         12