##TITLE=Library Entry 73311
##JCAMP-DX=Revision 4.10 
##DATA TYPE=MASS SPECTRUM
##SAMPLE DESCRIPTION=E.Dziwinski ET AL. J.Chromatogr.,367,201(1986)
##NAMES=HP
##CAS NAME=Benzyl hexyl maleate
##MOLFORM=C17H22O4
##CAS REGISTRY NO=105113-87-9
##MP= -300
##BP= -300
##MW= 290
##$RETENTION INDEX=0
##$CONDENSED SPECTRUM=NO
##NPOINTS= 49
##XYDATA=(XY..XY) 1 
    39         79
    41        130
    42         37
    43        621
    51         29
    54         46
    55        247
    56        121
    57        445
    63         29
    64         12
    65        113
    69         42
    72         50
    77        105
    78         16
    79         92
    81         16
    82        138
    84         42
    85        197
    89         46
    90        109
    91        819
    92        100
    99        205
   100        999
   101         79
   105         63
   106         37
   107        134
   108         42
   115         25
   116         21
   117         42
   133         16
   144         16
   161        138
   162        113
   163         21
   183         46
   184        176
   185         33
   188         25
   189         50
   245         29
   246         12
   290         25
   291         12