##TITLE=Library Entry 67788
##JCAMP-DX=Revision 4.10 
##DATA TYPE=MASS SPECTRUM
##SAMPLE DESCRIPTION=LAC, NIDDK, NIH, Bethesda, MD 20892
##NAMES=HP
##CAS NAME=Coprostan-3.beta.,16.xi-diol
##MOLFORM=C27H48O2
##CAS REGISTRY NO=105119-53-7
##MP= -300
##BP= -300
##MW= 404
##$RETENTION INDEX=0
##$CONDENSED SPECTRUM=NO
##NPOINTS= 161
##XYDATA=(XY..XY) 1 
    41        434
    43        919
    44         13
    45         33
    53         78
    55        764
    57        561
    58         17
    59          5
    65         27
    67        415
    69        554
    71        420
    72         19
    77         93
    79        299
    81        668
    82        235
    83        207
    84         54
    85         69
    86          5
    91        231
    93        703
    94         27
    95        999
    96        231
    97        161
    99         26
   100         11
   101          5
   103          5
   105        320
   107        668
   108        319
   109        374
   110         80
   111         89
   112         15
   113         21
   115         28
   117         57
   119        188
   121        363
   122        141
   123        197
   124        205
   125         49
   126          8
   127         36
   128         18
   129          7
   130          6
   131        103
   133        219
   135        366
   136          7
   137        169
   138         55
   139         10
   141         19
   142         13
   143         25
   145        140
   147        293
   148         61
   149        195
   150         40
   152        311
   153         37
   155         25
   157         26
   159        101
   161        173
   162         22
   163         99
   165         52
   166         18
   171         18
   173         78
   174         33
   175         80
   176         37
   177         38
   178         19
   180        110
   181         11
   185         24
   187        141
   188         14
   189         53
   190         11
   191         45
   192         19
   193          5
   199         28
   201         75
   202         79
   203         46
   205        123
   206        322
   207         38
   213         83
   215        511
   216        121
   217         87
   219         96
   220        445
   221         51
   227         22
   229         28
   231         62
   232        149
   233        224
   234         59
   235          6
   236         33
   241         27
   242         11
   243         14
   245         17
   246         22
   247         13
   248         25
   249         11
   255         64
   256         11
   257         22
   259         49
   260         46
   261         31
   262          5
   273        106
   274        344
   275        104
   276         10
   277         10
   278         17
   279         18
   283         45
   284          5
   287         22
   289          4
   301         53
   302         39
   316         26
   317         18
   327         14
   329         14
   353         51
   354         13
   368         29
   369         18
   371        105
   372         27
   385          5
   386        673
   387        271
   388         50
   389          6
   404          5