##TITLE=Library Entry 49996
##JCAMP-DX=Revision 4.10 
##DATA TYPE=MASS SPECTRUM
##SAMPLE DESCRIPTION=Japan AIST/NIMC Database- Spectrum MS-IW-7363
##NAMES=HP
##CAS NAME=Ethyl decyne carbonate
##MOLFORM=C13H22O2
##CAS REGISTRY NO=10519-17-2
##MP= -300
##BP= -300
##MW= 210
##$RETENTION INDEX=0
##$CONDENSED SPECTRUM=NO
##NPOINTS= 159
##XYDATA=(XY..XY) 1 
    12          1
    14          5
    15         20
    16          3
    17          7
    18         30
    19          3
    24          1
    25          5
    26         53
    27        435
    28        172
    29        792
    30         25
    31         30
    32         12
    37          8
    38         40
    39        343
    40         66
    41        832
    42        153
    43        742
    44         76
    45         81
    46          7
    47         83
    48          2
    49          1
    50         24
    51         85
    52         78
    53        210
    54        134
    55        993
    56        178
    57        375
    58         20
    59          9
    60         10
    61         22
    62          6
    63         17
    64          9
    65         98
    66        296
    67        806
    68        222
    69        269
    70         90
    71         54
    72          4
    73         36
    74          7
    75          5
    76          3
    77        159
    78         48
    79        748
    80        299
    81        999
    82        164
    83        117
    84        276
    85        100
    86        424
    87         26
    88         36
    89         12
    90          2
    91        112
    92         26
    93        375
    94        227
    95        540
    96         85
    97        286
    98        118
    99        130
   100         34
   101         27
   102         10
   103          8
   104          4
   105         40
   106         10
   107        293
   108        151
   109        128
   110         35
   111        208
   112        150
   113         96
   114        442
   115         44
   116          9
   117         13
   118          4
   119         18
   120         14
   121        221
   122        216
   123         72
   124         14
   125        390
   126        171
   127         99
   128         32
   129          9
   130          3
   131          6
   132          2
   133          9
   134          5
   135        190
   136         76
   137        112
   138         16
   139        244
   140         97
   141         23
   142         24
   143          4
   144          2
   145          6
   146          4
   147          5
   148          2
   149         17
   150          3
   151          9
   152          5
   153        191
   154        119
   155         15
   156          3
   157          1
   161          1
   162          2
   163         40
   164         20
   165        693
   166         87
   167         92
   168         58
   169          8
   170          1
   177          2
   179          2
   181         48
   182         18
   183          9
   184          1
   193          4
   195          3
   209          2
   210          1
   211         12
   212          1