##TITLE=Library Entry 35819
##JCAMP-DX=Revision 4.10 
##DATA TYPE=MASS SPECTRUM
##SAMPLE DESCRIPTION=Japan AIST/NIMC Database- Spectrum MS-IW-2809
##NAMES=HP
##CAS NAME=Ethyl 2-methyl-3-oxocyclopentane-1-carboxylate
##MOLFORM=C9H14O3
##CAS REGISTRY NO=105105-70-2
##MP= -300
##BP= -300
##MW= 170
##$RETENTION INDEX=0
##$CONDENSED SPECTRUM=NO
##NPOINTS= 102
##XYDATA=(XY..XY) 1 
    14          2
    15          9
    17          1
    26         17
    27        143
    28         66
    29        288
    30          9
    31         12
    37          3
    38          9
    39        135
    40         33
    41        326
    42         69
    43         90
    44          8
    45         55
    46          2
    47          2
    48          1
    50          5
    51         10
    52          6
    53         53
    54         46
    55        397
    56         64
    57         23
    58          9
    59          9
    60         54
    61         18
    62          2
    63          3
    64          1
    65          9
    66          6
    67         61
    68        457
    69        999
    70        126
    71        123
    72         11
    73         70
    74          7
    75          1
    77          2
    78          1
    79          7
    80          2
    81         27
    82         14
    83         28
    84          6
    85         33
    86        188
    87        156
    88        239
    89         11
    90          1
    91          1
    94          1
    95         25
    96        173
    97        681
    98         55
    99        178
   100         21
   101         36
   102         10
   103          1
   109          5
   110          2
   111          4
   112          6
   113        142
   114        250
   115         81
   116          9
   117          2
   123          8
   124         21
   125        290
   126         22
   127         30
   128         10
   129          5
   130          6
   139          6
   140          3
   141         40
   142        498
   143         71
   144          7
   155          4
   156          1
   168          3
   169          4
   170        261
   171         28
   172          3