##TITLE=Library Entry 73321
##JCAMP-DX=Revision 4.10 
##DATA TYPE=MASS SPECTRUM
##SAMPLE DESCRIPTION=E.Dziwinski ET AL. J.Chromatogr.,367,201(1986)
##NAMES=HP
##CAS NAME=Benzyl octyl maleate
##MOLFORM=C19H26O4
##CAS REGISTRY NO=105113-89-1
##MP= -300
##BP= -300
##MW= 318
##$RETENTION INDEX=0
##$CONDENSED SPECTRUM=NO
##NPOINTS= 62
##XYDATA=(XY..XY) 1 
    39        110
    41        397
    42        147
    43        528
    51         36
    53         28
    54        118
    55        418
    56        147
    57        536
    58         12
    63          8
    65         98
    66         12
    67         36
    68         57
    69        254
    70        122
    71        336
    77        114
    78         28
    79         90
    81         24
    82        155
    83         69
    84         57
    89         32
    90         98
    91        840
    92        122
    98         16
    99        151
   100        999
   101         61
   105         90
   106         57
   107        151
   108         36
   110         20
   112         16
   113         16
   115         32
   117         45
   129         12
   133         28
   134          8
   143          8
   144         20
   160          8
   161        110
   162         98
   163         12
   188         16
   189         40
   190          8
   211         12
   212        102
   213         24
   273          6
   274          3
   318          8
   319          2