##TITLE=Library Entry 76524
##JCAMP-DX=Revision 4.10 
##DATA TYPE=MASS SPECTRUM
##SAMPLE DESCRIPTION=D. Rasala, Inst. Chem., Pedagogical Univ., Kielce, Pola
nd
##NAMES=HP
##CAS NAME=3-Pyridinecarbonitrile, 2-nitro-
##MOLFORM=C6H3N3O2
##CAS REGISTRY NO=105151-36-8
##MP= -300
##BP= -300
##MW= 149
##$RETENTION INDEX=0
##$CONDENSED SPECTRUM=NO
##NPOINTS= 13
##XYDATA=(XY..XY) 1 
    50         60
    51        100
    52         80
    63         30
    64         60
    75        120
    76        550
    77         80
    91         70
   103        999
   104        100
   119         20
   149         60