##TITLE=Library Entry 20095
##JCAMP-DX=Revision 4.10 
##DATA TYPE=MASS SPECTRUM
##SAMPLE DESCRIPTION=COMPAGNIE FRANCAISE DE RAFFINAGE, FRANCE.
##NAMES=HP
##CAS NAME=1-Butene, 4-chloro-3-methyl-
##MOLFORM=C5H9Cl
##CAS REGISTRY NO=10524-01-3
##MP= -300
##BP= -300
##MW= 104
##$RETENTION INDEX=666
##$CONDENSED SPECTRUM=NO
##NPOINTS= 49
##XYDATA=(XY..XY) 1 
    26         32
    27        200
    28         33
    29        237
    30          5
    31          7
    35          2
    36         14
    37         15
    38         31
    39        226
    40         42
    41        268
    42         57
    43         15
    49         37
    50         32
    51         55
    52         15
    53        198
    54         30
    55        999
    56         51
    57          6
    61         10
    62         10
    63         19
    64          3
    65         18
    66         10
    67         63
    68         70
    69        425
    70         25
    71          3
    75         14
    76         18
    77          5
    78          6
    87          2
    88          1
    89         48
    90          2
    91         14
   102         18
   103          2
   104         46
   105          2
   106         13