##TITLE=Library Entry 32005
##JCAMP-DX=Revision 4.10 
##DATA TYPE=MASS SPECTRUM
##SAMPLE DESCRIPTION=Chemical Concepts
##NAMES=HP
##CAS NAME=Cyclobuta[1,2:3,4]dicyclopentene, 1,3a,3b,4,6a,6b-hexahydro-
##MOLFORM=C10H12
##CAS REGISTRY NO=105226-58-2
##MP= -300
##BP= -300
##MW= 132
##$RETENTION INDEX=0
##$CONDENSED SPECTRUM=NO
##NPOINTS= 75
##XYDATA=(XY..XY) 1 
    24          0
    26          7
    27         55
    29          0
    31          0
    33          0
    35          0
    36          0
    37          7
    38         21
    39        173
    40         74
    41         25
    42          1
    44          0
    49          1
    50         22
    51         54
    52         21
    53         21
    54         22
    55          1
    57          0
    58          1
    60          0
    61          4
    62         11
    63         32
    64         18
    65        108
    66        999
    67        137
    68          4
    73          0
    74          6
    75          5
    76          5
    77         49
    78         63
    79         16
    80          1
    85          0
    86          1
    87          1
    88          0
    89          8
    90          1
    91         77
    92          6
    93          0
    98          1
    99          0
   100          0
   101          1
   102          7
   103         13
   104         15
   105          6
   106          0
   113          0
   114          1
   115         38
   116         16
   117         46
   118          4
   125          0
   126          2
   127          8
   128         15
   129         10
   130          1
   131         15
   132         59
   133          5
   134          0