##TITLE=Library Entry 10175
##JCAMP-DX=Revision 4.10 
##DATA TYPE=MASS SPECTRUM
##SAMPLE DESCRIPTION=Insect Chem. Ecol. Lab., USDA, Beltsville, MD 20705
##NAMES=HP
##CAS NAME=Propanoic acid, 2-methyl-, nonyl ester
##MOLFORM=C13H26O2
##CAS REGISTRY NO=10522-34-6
##MP= -300
##BP= -300
##MW= 214
##$RETENTION INDEX=1427
##$CONDENSED SPECTRUM=NO
##NPOINTS= 79
##XYDATA=(XY..XY) 1 
    41        523
    42        195
    43        999
    44         37
    45          8
    47          7
    48          2
    53         28
    54         42
    55        325
    56        391
    57        278
    58          2
    59         23
    60          1
    65          4
    66          3
    67         39
    68         69
    69        245
    70        334
    71        613
    72         44
    75          3
    77          2
    78          0
    79          4
    81         12
    82         89
    83        216
    84        259
    85        105
    86         21
    88         48
    89        823
    90         33
    91          4
    93          0
    95          4
    96         40
    97        238
    98        175
    99         12
   101         14
   102          0
   103          0
   105          0
   109          0
   110          0
   111         12
   112          3
   113          1
   115          5
   116          1
   117          1
   123          0
   124          2
   125          4
   126        300
   127         30
   129          6
   130          1
   140          1
   141          8
   142          1
   143          7
   144          8
   145          0
   149          0
   153          0
   157          3
   158          0
   170          0
   171         37
   172          3
   213          0
   214          9
   215          3
   216          0