##TITLE=Library Entry 84515
##JCAMP-DX=Revision 4.10 
##DATA TYPE=MASS SPECTRUM
##SAMPLE DESCRIPTION=LAC, NIDDK, NIH, Bethesda, MD 20892
##NAMES=HP
##CAS NAME=1,3-Benzenediamine, 4,4'-[1,3-phenylenebis(azo)]bis-
##MOLFORM=C18H18N8
##CAS REGISTRY NO=1052-38-6
##MP= -300
##BP= -300
##MW= 346
##$RETENTION INDEX=0
##$CONDENSED SPECTRUM=NO
##NPOINTS= 63
##XYDATA=(XY..XY) 1 
    41         52
    42         55
    43         42
    49         10
    51         33
    52         87
    53        118
    54         43
    55         11
    57          4
    63         50
    64         22
    65        101
    66         42
    67         38
    68         29
    69          9
    76         10
    77         23
    78         33
    79         58
    80        343
    81         30
    90         50
    91         34
    92         63
    93         17
    94         25
    95         16
    99         22
   100         12
   105         32
   106         29
   107        999
   108         71
   115         12
   120         13
   121         61
   122         26
   123          6
   127         10
   135        180
   136          5
   137          7
   143         57
   154         13
   169          4
   171         18
   181         28
   182         31
   183         20
   196          5
   197         26
   198         70
   199         39
   212          7
   225          4
   227        406
   228         83
   241         54
   246          4
   346         58
   347         17