##TITLE=Library Entry 60850
##JCAMP-DX=Revision 4.10 
##DATA TYPE=MASS SPECTRUM
##SAMPLE DESCRIPTION=Japan AIST/NIMC Database- Spectrum MS-NW-5589
##NAMES=HP
##CAS NAME=Benzenepentanol
##MOLFORM=C11H16O
##CAS REGISTRY NO=10521-91-2
##MP= -300
##BP= -300
##MW= 164
##$RETENTION INDEX=0
##$CONDENSED SPECTRUM=NO
##NPOINTS= 89
##XYDATA=(XY..XY) 1 
    15          3
    18          2
    26          4
    27         44
    28         13
    29         27
    30          1
    31         85
    32          2
    37          1
    38          5
    39         68
    40          7
    41         51
    42          6
    43         47
    44          8
    45          8
    50         15
    51         51
    52         14
    53         12
    54          2
    55         89
    56          5
    57         11
    58          2
    61          1
    62          6
    63         25
    64          8
    65        124
    66          9
    67         12
    68         46
    69          5
    70          2
    71          6
    73         10
    74          4
    75          5
    76          5
    77         71
    78         65
    79         53
    80          6
    81          1
    85          1
    86          1
    87          1
    89         20
    90         10
    91        999
    92        288
    93         23
    94          3
    95          2
   101          1
   102          7
   103         39
   104        735
   105        186
   106         14
   107          5
   108          1
   115         29
   116          9
   117        478
   118        135
   119         13
   120          4
   121          1
   127          2
   128          6
   129          8
   130          4
   131         60
   132          8
   133          3
   134          1
   143          2
   144          2
   145         23
   146        431
   147         53
   148          3
   162          3
   164         44
   165          5