##TITLE=Library Entry 20089
##JCAMP-DX=Revision 4.10 
##DATA TYPE=MASS SPECTRUM
##SAMPLE DESCRIPTION=COMPAGNIE FRANCAISE DE RAFFINAGE, FRANCE.
##NAMES=HP
##CAS NAME=1-Butene, 4-chloro-2-methyl-
##MOLFORM=C5H9Cl
##CAS REGISTRY NO=10523-96-3
##MP= -300
##BP= -300
##MW= 104
##$RETENTION INDEX=695
##$CONDENSED SPECTRUM=NO
##NPOINTS= 47
##XYDATA=(XY..XY) 1 
    26         40
    27        286
    28         54
    29        329
    30          7
    31         10
    35          6
    36         32
    37         26
    38         63
    39        413
    40        124
    41        556
    42        108
    43         43
    49         39
    50         40
    51         68
    52         21
    53        267
    54         31
    55        999
    56         52
    57         13
    61         14
    62         20
    63         26
    64          5
    65         21
    66         23
    67        158
    68        147
    69        707
    70         46
    71         13
    75         18
    76         19
    77          5
    78          6
    87          2
    88          1
    89         64
    90          3
    91         23
   104        307
   105         18
   106        100