##TITLE=Library Entry 87877
##JCAMP-DX=Revision 4.10 
##DATA TYPE=MASS SPECTRUM
##SAMPLE DESCRIPTION=A.A.Kutin, Moscow, Russia
##NAMES=HP
##CAS NAME=Ethylphosphonic acid, di(2-methylpropyl) ester
##MOLFORM=C10H23O3P
##CAS REGISTRY NO=105263-12-5
##MP= -300
##BP= -300
##MW= 222
##$RETENTION INDEX=0
##$CONDENSED SPECTRUM=NO
##NPOINTS= 96
##XYDATA=(XY..XY) 1 
    41        208
    42         22
    43         99
    45          4
    47         17
    48          7
    49          5
    50          1
    51          2
    53          6
    55         38
    57        174
    58         10
    59          4
    60          0
    61          0
    62          0
    63          0
    65         72
    66          2
    67          1
    68          1
    69          1
    71          1
    72          1
    73          2
    74          0
    76         14
    77         11
    78          3
    79         12
    80          0
    81          2
    82         11
    83          5
    84          0
    85          0
    86          0
    87          0
    89          0
    91          4
    93         87
    94         28
    96         57
    98          0
   101          0
   103          0
   105          3
   106          3
   107          2
   108          4
   111        999
   112         24
   113          6
   114          0
   115          0
   117          0
   119          0
   123          3
   124         29
   125         31
   126          1
   127          0
   131          1
   132          0
   133          0
   134          0
   135          1
   137          5
   138          0
   139          1
   143          0
   145          0
   147          0
   149         37
   151         67
   152          4
   153          0
   154          0
   163          0
   165         10
   167         49
   168          3
   169          0
   173          0
   175          0
   177          0
   179         20
   180          1
   181          0
   188          0
   207          0
   208          0
   209          0
   221          0
   223          2