##TITLE=Library Entry 66354
##JCAMP-DX=Revision 4.10 
##DATA TYPE=MASS SPECTRUM
##SAMPLE DESCRIPTION=D.HENNEBERG, MAX-PLANCK INSTITUTE, MULHEIM, WEST GERMAN
Y
##NAMES=HP
##CAS NAME=Pyridine, 2-nonyl-
##MOLFORM=C14H23N
##CAS REGISTRY NO=10523-35-0
##MP= -300
##BP= -300
##MW= 205
##$RETENTION INDEX=0
##$CONDENSED SPECTRUM=NO
##NPOINTS= 110
##XYDATA=(XY..XY) 1 
    27         66
    28         24
    29         57
    30          2
    32          2
    37          1
    38          4
    39         48
    40          8
    41         84
    42         20
    43         56
    44          4
    47          0
    49          0
    50          6
    51         22
    52         16
    53         15
    54          5
    55         14
    56          3
    57          5
    58          1
    59          0
    61          0
    62          0
    63          4
    64          3
    65         35
    66         22
    67          6
    68          1
    69         13
    70          1
    71          0
    73          0
    74          0
    75          0
    76          1
    77          9
    78         36
    79         26
    80          9
    81          1
    82          0
    83          0
    84          0
    89          1
    90          1
    91          6
    92         38
    93        999
    94         71
    95          3
    97          0
   100          0
   101          0
   102          0
   103          1
   104          5
   105          5
   106        212
   107         49
   108          3
   113          0
   115          0
   116          0
   117         13
   118         21
   119         10
   120        129
   121         12
   122          0
   128          0
   129          0
   130          3
   131          4
   132          7
   133          2
   134         25
   135          5
   136          0
   141          0
   143          0
   144          0
   146          1
   147          0
   148         27
   149          5
   150          0
   151          0
   160          0
   162         26
   163          3
   164          0
   169          1
   174          0
   176         13
   177          3
   178          0
   181          1
   190          4
   191          1
   192          0
   193          0
   204          8
   205         19
   206          3
   207          1