##TITLE=Library Entry 1296
##JCAMP-DX=Revision 4.10 
##DATA TYPE=MASS SPECTRUM
##SAMPLE DESCRIPTION=Japan AIST/NIMC Database- Spectrum MS-NW-2397
##NAMES=HP
##CAS NAME=Glycyl-D-valine
##MOLFORM=C7H14N2O3
##CAS REGISTRY NO=10521-49-0
##MP= -300
##BP= -300
##MW= 174
##$RETENTION INDEX=0
##$CONDENSED SPECTRUM=NO
##NPOINTS= 78
##XYDATA=(XY..XY) 1 
    14          1
    15          5
    16          2
    17          4
    18         10
    26          3
    27         35
    28         96
    29         34
    30        999
    31         81
    32          8
    37          1
    38          3
    39         26
    40          5
    41         46
    42         18
    43         40
    44         11
    45          7
    46          3
    51          1
    52          2
    53          4
    54          7
    55         42
    56         32
    57         52
    58          8
    59         13
    60          1
    67          2
    68          4
    69         16
    70         29
    71          9
    72         94
    73          8
    74          9
    75          9
    81          1
    82          3
    83          5
    84          5
    85         40
    86         12
    87          6
    89          1
    95          1
    96          1
    97          2
    98          9
    99          2
   100          2
   101          5
   102          4
   103          4
   111          2
   112          1
   113         34
   114        177
   115         11
   116          6
   117          1
   118          4
   127          1
   128          7
   129         12
   130          9
   131          7
   132          5
   141          2
   145          1
   156          3
   157          1
   174         14
   175          1