##TITLE=Library Entry 48608
##JCAMP-DX=Revision 4.10 
##DATA TYPE=MASS SPECTRUM
##SAMPLE DESCRIPTION=Japan AIST/NIMC Database- Spectrum MS-IW-7362
##NAMES=HP
##CAS NAME=Methyl 2-undecynoate
##MOLFORM=C12H20O2
##CAS REGISTRY NO=10522-18-6
##MP= -300
##BP= -300
##MW= 196
##$RETENTION INDEX=0
##$CONDENSED SPECTRUM=NO
##NPOINTS= 146
##XYDATA=(XY..XY) 1 
    15        115
    16          4
    25          2
    26         23
    27        328
    28        124
    29        523
    30         22
    31         39
    32         27
    33         44
    34          1
    37          9
    38         50
    39        355
    40         69
    41        856
    42        194
    43        676
    44         44
    45         40
    46          2
    47          4
    48          3
    49          3
    50         32
    51        101
    52         87
    53        242
    54        139
    55        965
    56        198
    57        450
    58         25
    59        290
    60          9
    61         18
    62          7
    63         23
    64          9
    65        111
    66        272
    67        598
    68        223
    69        305
    70         86
    71         47
    72          8
    73         12
    74         78
    75         27
    76          6
    77        197
    78         66
    79        999
    80        420
    81        849
    82        148
    83         80
    84         32
    85         61
    86          5
    87         62
    88         12
    89          5
    90          2
    91        146
    92         34
    93        528
    94        268
    95        420
    96         72
    97        152
    98        221
    99        166
   100        779
   101         55
   102         11
   103         10
   104          5
   105         42
   106         13
   107        390
   108        198
   109        108
   110         23
   111        336
   112         77
   113        176
   114         52
   115         18
   116          5
   117         17
   118          5
   119         14
   120         15
   121        330
   122        200
   123         56
   124         16
   125        225
   126         79
   127         36
   128         32
   129         10
   130          3
   131          8
   132          3
   133          6
   134          6
   135        152
   136         63
   137         88
   138         15
   139        252
   140        158
   141         29
   142          6
   143          2
   144          2
   145          3
   146          5
   147          4
   148          3
   149         17
   150          3
   151          4
   152          3
   153        188
   154         78
   155         11
   156          1
   162          1
   163          9
   164         14
   165        465
   166         57
   167         59
   168         13
   169          1
   179          6
   180          1
   195          5
   196          2
   197         14
   198          2