##TITLE=Library Entry 2446
##JCAMP-DX=Revision 4.10 
##DATA TYPE=MASS SPECTRUM
##SAMPLE DESCRIPTION=NIST Mass Spectrometry Data Center, 1992
##NAMES=HP
##CAS NAME=2-Bromotetradecanoic acid
##MOLFORM=C14H27BrO2
##CAS REGISTRY NO=10520-81-7
##MP= -300
##BP= -300
##MW= 306
##$RETENTION INDEX=0
##$CONDENSED SPECTRUM=NO
##NPOINTS= 189
##XYDATA=(XY..XY) 1 
    12         10
    14         11
    15         16
    16         20
    17         18
    18         31
    27        296
    28        221
    29        473
    30        106
    35         15
    36         27
    37         30
    38         45
    39        263
    40         77
    41        999
    42        229
    43        946
    44        253
    45         90
    46         12
    47          8
    49         21
    50         60
    51         67
    52         27
    53        131
    54        124
    55        712
    56        276
    57        616
    58         39
    59         25
    60         28
    61         22
    62         32
    63         82
    64         20
    65         43
    66         42
    67        239
    68        176
    69        386
    70        234
    71        269
    72         20
    73        436
    74        123
    75        168
    76         40
    77         51
    78         26
    79         62
    80         48
    81        246
    82        261
    83        299
    84        179
    85        173
    86        103
    87        117
    88         17
    89         13
    90         22
    91         50
    92         16
    93         28
    94         40
    95        201
    96        212
    97        258
    98        165
    99        339
   100         52
   101        138
   102         28
   103         17
   104         10
   105         54
   106         10
   107         39
   108         28
   109        121
   110        129
   111        156
   112         78
   113        101
   114         50
   115        102
   116         25
   117         16
   118         10
   119         32
   120         11
   121         28
   122         19
   123         68
   124         76
   125         89
   126         58
   127        147
   128         31
   129        200
   130         34
   131          7
   132         12
   133         22
   134         21
   135         41
   136         26
   137         63
   138        221
   139          7
   140        195
   141         18
   142          7
   143        167
   144         34
   145         36
   146         10
   147         39
   148         15
   149         61
   150         10
   151         65
   152         53
   153        102
   154         36
   155         46
   156         10
   157         53
   158         19
   159         14
   163         16
   164         38
   165         35
   166         39
   167         21
   169         15
   171         89
   172         23
   173         32
   175          6
   177         10
   179         15
   180         32
   181         54
   182         84
   183         33
   184         26
   185         81
   186         16
   190          7
   191         20
   193         86
   195         73
   196          8
   197         12
   198          7
   199         35
   200          7
   201        143
   202         21
   203         47
   204          9
   207         78
   208         33
   209        107
   210         18
   212          9
   221          7
   223          8
   226         24
   227        117
   228         18
   235         17
   237         15
   241         10
   249         34
   250         10
   251         33
   263         32
   264          7
   265         28
   300          6
   306         21
   307          7
   308         15