##TITLE=Library Entry 100716
##JCAMP-DX=Revision 4.10 
##DATA TYPE=MASS SPECTRUM
##SAMPLE DESCRIPTION=NIST Mass Spectrometry Data Center
##NAMES=HP
##CAS NAME=Ethyl 3,5-dimethylphenylacetate
##MOLFORM=C12H16O2
##CAS REGISTRY NO=105337-18-6
##MP= -300
##BP= -300
##MW= 192
##$RETENTION INDEX=0
##$CONDENSED SPECTRUM=NO
##NPOINTS= 67
##XYDATA=(XY..XY) 1 
    15          7
    26          5
    27         42
    28         12
    29        110
    30          5
    31          2
    38          3
    39         34
    40          4
    41         42
    42          2
    43          6
    44          1
    45          3
    50         10
    51         30
    52         11
    53         14
    55          1
    57          6
    58          5
    59         11
    62          3
    63         16
    64          3
    65         28
    66          2
    67          1
    73          1
    74          2
    75          4
    76          4
    77         62
    78         30
    79         16
    80          1
    87          1
    89          7
    91        118
    92         11
    93          9
   101          1
   102          8
   103         37
   104         32
   105         30
   106          3
   107          2
   115         35
   116          7
   117         44
   119        999
   120        136
   121         10
   133          8
   134          1
   135          3
   146          7
   147         13
   148          1
   163          2
   164          7
   190          1
   192        306
   193         38
   194          3