##TITLE=Library Entry 60826
##JCAMP-DX=Revision 4.10 
##DATA TYPE=MASS SPECTRUM
##SAMPLE DESCRIPTION=Humboldt-Universitat zu Berlin, Department of Chemistry
, Analytical Group
##NAMES=HP
##CAS NAME=N-Methyl-N-(4-toluensulfonyl)-benzamide
##MOLFORM=C15H15NO3S
##CAS REGISTRY NO=10533-83-2
##MP= -300
##BP= -300
##MW= 289
##$RETENTION INDEX=0
##$CONDENSED SPECTRUM=NO
##NPOINTS= 164
##XYDATA=(XY..XY) 1 
    14          2
    15         18
    16          5
    17         29
    18         85
    26          4
    27         22
    28         20
    29         11
    30          2
    31          2
    32          3
    37          3
    38         13
    39        148
    40         11
    41         49
    42          4
    43          9
    44          4
    45          9
    46          1
    48          3
    49          2
    50         57
    51        142
    52         27
    53         10
    54          1
    55          6
    56          3
    57          7
    58          4
    59          1
    60          1
    61          3
    62         17
    63         71
    64         39
    65        345
    66         19
    67          9
    68          1
    69          6
    70          4
    71          5
    73          2
    74         10
    75         16
    76         58
    77        145
    78         20
    79         45
    80          3
    81          4
    82          2
    83          3
    84          2
    85          2
    86          2
    87          3
    89         65
    90         36
    91        999
    92        166
    93         12
    94          1
    95          4
    96          2
    97          3
    98          1
    99          1
   101          1
   103         58
   104        569
   105        230
   106         32
   107         24
   108         47
   109          6
   110          1
   111          4
   112          2
   113          1
   115          2
   116         63
   117          9
   118         27
   119        112
   120         36
   121         24
   122         45
   123          6
   124          2
   125          1
   127          1
   128          1
   132          3
   133          6
   134         69
   135          7
   136          1
   138          1
   139         21
   140          3
   141          2
   146          4
   149          2
   150          1
   151          3
   152          6
   153          2
   155        135
   156         21
   157          8
   158          1
   163          1
   164          1
   165          7
   166          6
   167          7
   168          4
   169          1
   171          1
   177          1
   178          2
   179          1
   180          6
   181          8
   182         21
   183          3
   184          1
   185          0
   186          2
   190          1
   191          1
   192         21
   193          9
   194         24
   195          5
   196          1
   197          0
   198          1
   206          3
   207          1
   208         31
   209         35
   210         12
   211          2
   222          1
   224         80
   225         38
   226          5
   227          0
   258          1
   259          1
   262          0
   270          4
   271          0
   288         77
   289         72
   290         15
   291          4
   292          0