##TITLE=Library Entry 79468
##JCAMP-DX=Revision 4.10 
##DATA TYPE=MASS SPECTRUM
##SAMPLE DESCRIPTION=CARL DJERASSI DEPT OF CHEM STANFORD UNIV STANFORD CALIF
 94305
##NAMES=HP
##CAS NAME=Benzamide, N-propyl-
##MOLFORM=C10H13NO
##CAS REGISTRY NO=10546-70-0
##MP= -300
##BP= -300
##MW= 163
##$RETENTION INDEX=1526
##$CONDENSED SPECTRUM=NO
##NPOINTS= 22
##XYDATA=(XY..XY) 1 
    41         20
    43         10
    45         10
    50         30
    51        110
    52         10
    74         10
    75         10
    76         20
    77        350
    78         30
    79         10
   104         10
   105        999
   106         80
   122         20
   134         50
   135         20
   148         10
   162         40
   163        250
   164         30