##TITLE=Library Entry 100935
##JCAMP-DX=Revision 4.10 
##DATA TYPE=MASS SPECTRUM
##SAMPLE DESCRIPTION=ASES Database, Dalian Institute, P.R. China
##NAMES=HP
##CAS NAME=4-(4-Methylbenzoylmethyl)-2H-1,4-benzoxazin-3(4H)-one
##MOLFORM=C17H15NO3
##CAS REGISTRY NO=105492-44-2
##MP= -300
##BP= -300
##MW= 281
##$RETENTION INDEX=0
##$CONDENSED SPECTRUM=NO
##NPOINTS= 9
##XYDATA=(XY..XY) 1 
    77        100
    78         30
    79         19
   107         39
   119        999
   120        110
   134        110
   162         40
   281        179