##TITLE=Library Entry 58052
##JCAMP-DX=Revision 4.10 
##DATA TYPE=MASS SPECTRUM
##SAMPLE DESCRIPTION=A.Pleshkova, Nesmeyanov Inst.Org.Elem.Cpds, Moscow
##NAMES=HP
##CAS NAME=N-Carbomethoxy-N-nitroso-N-ethylamine
##MOLFORM=C4H8N2O3
##CAS REGISTRY NO=10546-23-3
##MP= -300
##BP= -300
##MW= 132
##$RETENTION INDEX=0
##$CONDENSED SPECTRUM=NO
##NPOINTS= 17
##XYDATA=(XY..XY) 1 
    56         33
    58         17
    70         33
    71         33
    72        176
    73         22
    77         22
    88        999
    89         33
   101         44
   102         33
   103        396
   104         22
   117         33
   132        176
   133         11
   134          1