##TITLE=Library Entry 59133
##JCAMP-DX=Revision 4.10 
##DATA TYPE=MASS SPECTRUM
##SAMPLE DESCRIPTION=Chemical Concepts
##NAMES=HP
##CAS NAME=Glycerin, 2-O-benzyl-1,3-di-O-acetyl-
##MOLFORM=C14H18O5
##CAS REGISTRY NO=105409-38-9
##MP= -300
##BP= -300
##MW= 266
##$RETENTION INDEX=0
##$CONDENSED SPECTRUM=NO
##NPOINTS= 61
##XYDATA=(XY..XY) 1 
    27          1
    28          3
    29          1
    31          2
    38          0
    39         20
    40          1
    41         11
    42          2
    43        546
    44          3
    45         10
    50          3
    51         13
    52          4
    53          1
    55          1
    56          0
    57         13
    58         24
    59          0
    61          7
    62          2
    63         11
    64          3
    65         90
    66          4
    72          0
    73          4
    74          1
    76          0
    77         20
    78          5
    79         20
    80          1
    88          0
    89          3
    90         10
    91        999
    92         72
    93          3
    99          4
   100        450
   101         27
   102          1
   104         30
   105         24
   106          4
   107         66
   108          7
   116          0
   117         43
   119          0
   149          3
   159         35
   160          5
   164          0
   181          0
   193          9
   217          0
   223          2