##TITLE=Library Entry 68070
##JCAMP-DX=Revision 4.10 
##DATA TYPE=MASS SPECTRUM
##SAMPLE DESCRIPTION=L. Cohen, LC, NIDDK, NIH, Bethesda, MD 20892
##NAMES=HP
##CAS NAME=Imidazole, 2-trifluoroacetyl-
##MOLFORM=C5H3F3N2O
##CAS REGISTRY NO=105480-29-3
##MP= -300
##BP= -300
##MW= 164
##$RETENTION INDEX=0
##$CONDENSED SPECTRUM=NO
##NPOINTS= 92
##XYDATA=(XY..XY) 1 
    41        156
    42         49
    43         10
    45         24
    46          6
    47          4
    48          1
    50         64
    51         35
    52         13
    53          8
    54         13
    55         10
    56          6
    57         12
    58         17
    59         11
    60          1
    62          2
    63          4
    64          5
    65          7
    66         35
    67        256
    68        507
    69        376
    70         16
    71          9
    72          0
    73          1
    74          5
    75          2
    76          2
    77          2
    78         11
    79          2
    81          7
    82          4
    83          2
    84          5
    85          5
    86          2
    87          0
    88          2
    89         15
    90          9
    91          4
    93          4
    94         32
    95        999
    96         61
    97          7
    98          1
    99          2
   100          1
   101          2
   102          0
   103          0
   105          1
   107          0
   108         18
   109          1
   110          1
   111          1
   112          1
   116          2
   117         13
   118          1
   119          1
   120          0
   121          0
   123          0
   125          0
   127          0
   128          0
   129          1
   130          0
   131          0
   133          0
   135          1
   136          0
   139          0
   141          0
   143          0
   145         10
   146          0
   149          1
   163          1
   164        347
   165         35
   166          1
   167          0