##TITLE=Library Entry 80722
##JCAMP-DX=Revision 4.10 
##DATA TYPE=MASS SPECTRUM
##SAMPLE DESCRIPTION=Div. of Experiment Therapeutics WRAIR, WRAMC, Washingto
n DC 20307
##NAMES=HP
##CAS NAME=1-Bromo-5-[4-methylphenyl]pentane
##MOLFORM=C12H17Br
##CAS REGISTRY NO=105474-18-8
##MP= -300
##BP= -300
##MW= 240
##$RETENTION INDEX=0
##$CONDENSED SPECTRUM=NO
##NPOINTS= 118
##XYDATA=(XY..XY) 1 
    41         56
    42          6
    43          9
    44          0
    45          0
    47          0
    48          0
    49          4
    50          8
    51         29
    52         11
    53         20
    54          3
    55         43
    56          8
    57          8
    58          1
    62          4
    63         19
    64          8
    65         36
    66          4
    67          6
    68          1
    69         18
    70          3
    71          6
    73          0
    74          2
    75          3
    76          6
    77        107
    78         40
    79         74
    80          4
    81          4
    82          2
    83          4
    84          4
    85          2
    86          2
    87          1
    89         15
    90          5
    91        106
    92         28
    93          8
    95          7
    96          0
    97          3
    98          0
    99          0
   101          1
   102         10
   103         70
   104         52
   105        999
   106        174
   107         13
   109          6
   110          0
   111          1
   112          0
   113          0
   114          0
   115         37
   116         11
   117         48
   118         37
   119         26
   120          2
   121          1
   123          1
   125          2
   126          0
   127          4
   128          8
   129          7
   130          1
   131         12
   132          4
   133          8
   134          1
   135         34
   137         34
   138          1
   139          0
   141          2
   142          0
   143          0
   144          1
   145          7
   146          2
   147          9
   149          6
   151          5
   152          0
   158          0
   159          2
   160          3
   161          6
   162          0
   163          0
   165          1
   167          0
   175          0
   178          0
   179          0
   181          0
   182          1
   183          4
   184          0
   239          0
   240        172
   241         22
   242        173
   243         21
   244          0