##TITLE=Library Entry 81262
##JCAMP-DX=Revision 4.10 
##DATA TYPE=MASS SPECTRUM
##SAMPLE DESCRIPTION=ASES Database, Dalian Institute, P.R. China
##NAMES=HP
##CAS NAME=4-(Benzoylmethyl)-6-methyl-2H-1,4-benzoxazin-3-one
##MOLFORM=C17H15NO3
##CAS REGISTRY NO=105492-53-3
##MP= -300
##BP= -300
##MW= 281
##$RETENTION INDEX=0
##$CONDENSED SPECTRUM=NO
##NPOINTS= 9
##XYDATA=(XY..XY) 1 
    91        240
    92         50
    93         49
   105        999
   121        138
   134         19
   148        687
   176        447
   281        638