##TITLE=Library Entry 49966
##JCAMP-DX=Revision 4.10 
##DATA TYPE=MASS SPECTRUM
##SAMPLE DESCRIPTION=A.A.Kutin, Moscow, Russia
##NAMES=HP
##CAS NAME=Benzene, 1,4-bis(2-furfuryliminomethyl)-
##MOLFORM=C18H16N2O2
##CAS REGISTRY NO=105482-83-5
##MP= -300
##BP= -300
##MW= 292
##$RETENTION INDEX=0
##$CONDENSED SPECTRUM=NO
##NPOINTS= 141
##XYDATA=(XY..XY) 1 
    33          0
    34          0
    36          0
    37          1
    38          5
    39         19
    40          7
    41          5
    42          2
    43          3
    44          1
    45          0
    46          0
    50         12
    51         28
    52         28
    53        220
    54         11
    55          2
    56          1
    57          0
    58          0
    59          0
    61          0
    62          3
    63         13
    64          4
    65          4
    66          0
    67          0
    68          0
    69          0
    71          2
    72          0
    73          0
    74          4
    76          6
    77         13
    78          6
    79          3
    81        999
    82         55
    83          2
    84          0
    86          0
    87          1
    88          3
    89         19
    90         13
    91          5
    92          1
    93          0
    94          0
    95          1
    97          0
    99          0
   100          0
   101          1
   102          5
   103          8
   104          2
   105          1
   106          0
   107          1
   108          0
   109          0
   113          0
   114          3
   115          4
   116          7
   117          8
   118          2
   119          5
   120          0
   125          0
   126          2
   127          9
   128          7
   129          4
   130          1
   131          0
   133          0
   135          0
   136          0
   139          0
   140          0
   141          2
   142          1
   143          1
   144          4
   145          0
   147          0
   149          0
   152          0
   153          1
   154         10
   155          3
   156          2
   157          0
   158          0
   161          0
   164          0
   165          0
   166          0
   167          1
   168          0
   169          0
   170          0
   179          0
   180          0
   181          0
   182          1
   183          7
   184          3
   185          1
   186          0
   191          0
   192          0
   194          0
   196          0
   198          0
   200          0
   202          0
   209          1
   211          8
   212          1
   213          0
   224          1
   225          0
   226          0
   263          0
   264          1
   265         17
   266          3
   267          0
   289          0
   290          1
   291          5
   292         74
   293         14
   294          1