##TITLE=Library Entry 7840
##JCAMP-DX=Revision 4.10 
##DATA TYPE=MASS SPECTRUM
##SAMPLE DESCRIPTION=W.L.MEAD BRITISH PETROLEUM CO. LTD., SUNBURY-ON-THAMES,
 UK
##NAMES=HP
##CAS NAME=Octadecane, 4-methyl-
##MOLFORM=C19H40
##CAS REGISTRY NO=10544-95-3
##MP= -300
##BP= -300
##MW= 268
##$RETENTION INDEX=1858
##$CONDENSED SPECTRUM=NO
##NPOINTS= 73
##XYDATA=(XY..XY) 1 
    39         85
    40         19
    41        478
    42        117
    43        999
    44         33
    53         27
    54         27
    55        306
    56        113
    57        567
    58         26
    67         34
    68         19
    69        105
    70        261
    71        560
    72         28
    81         10
    82         13
    83         52
    84         31
    85        209
    86         13
    96          9
    97         38
    98         14
    99         75
   100          5
   110          5
   111         21
   112          7
   113         47
   114          4
   124          4
   125         11
   126          7
   127         40
   128          4
   138          2
   139          7
   140          4
   141         36
   142          3
   153          4
   154          3
   155         27
   156          2
   167          4
   168          3
   169         19
   170          2
   181          1
   182          1
   183         10
   184          1
   194          1
   195          2
   196         17
   197         14
   198          2
   210          1
   211          2
   224         48
   225         74
   226          9
   238          4
   239          6
   240          1
   252          1
   253          7
   254          4
   268          2