##TITLE=Library Entry 54630
##JCAMP-DX=Revision 4.10 
##DATA TYPE=MASS SPECTRUM
##SAMPLE DESCRIPTION=V.A.Korolev, Moscow, Russia
##NAMES=HP
##CAS NAME=Oxane-2-carboxylic acid
##MOLFORM=C6H10O3
##CAS REGISTRY NO=105499-32-9
##MP= -300
##BP= -300
##MW= 130
##$RETENTION INDEX=0
##$CONDENSED SPECTRUM=NO
##NPOINTS= 66
##XYDATA=(XY..XY) 1 
    35          4
    36         21
    37         14
    38         41
    39        343
    40         63
    41        880
    42        120
    43        524
    44        131
    45        241
    46         10
    47          1
    49          3
    50         29
    51         40
    52         15
    53         83
    54         37
    55        418
    56         60
    57        562
    58         39
    59          9
    60         10
    61          2
    62          1
    63          3
    65         17
    66          4
    67        342
    68         33
    69         18
    70          7
    71         17
    72          4
    73         42
    74          3
    77          4
    78          2
    79          2
    81          8
    82          3
    83         30
    84         21
    85        999
    86         79
    87          6
    91          3
    97          3
    98         57
    99         18
   100          4
   101         36
   102         19
   103          2
   104          1
   111          1
   112         16
   113          2
   114          0
   115         12
   116          2
   130         64
   131          4
   132          1