##TITLE=Library Entry 28525
##JCAMP-DX=Revision 4.10 
##DATA TYPE=MASS SPECTRUM
##SAMPLE DESCRIPTION=Patti Price, Georgia Bureau of Investigation, Decatur,
 Georgia
##NAMES=HP
##CAS NAME=Tamoxifen
##MOLFORM=C26H29NO
##CAS REGISTRY NO=10540-29-1
##MP= -300
##BP= -300
##MW= 371
##$RETENTION INDEX=0
##$CONDENSED SPECTRUM=NO
##NPOINTS= 146
##XYDATA=(XY..XY) 1 
    42         35
    43         15
    44         28
    50          1
    51          4
    56         27
    57         11
    58        999
    59         38
    61          1
    63          3
    65          5
    66          1
    70         22
    71         15
    72        388
    73         16
    74          1
    75          2
    76          2
    77         16
    78          2
    79          6
    86          1
    89          5
    90          1
    91         54
    92          4
   101          2
   102          4
   103          9
   104          1
   105         15
   106          2
   107          3
   110          1
   113          4
   114          2
   115         30
   116          4
   117          6
   118          1
   119          4
   126          9
   127         13
   128         14
   129         30
   130          3
   131          2
   132          3
   137          2
   139         11
   140          1
   141          5
   142          1
   150          5
   151         12
   152         30
   153         10
   154          2
   163         10
   164         10
   165         49
   166          9
   167          8
   168          1
   175          2
   176         15
   177          9
   178         40
   179         12
   181          5
   182          1
   183          2
   184          1
   187          2
   188          3
   189         32
   190         16
   191         30
   192         11
   193          4
   194          2
   195          2
   200          4
   201          3
   202         19
   203         15
   204          5
   205          7
   206          7
   207          8
   208          2
   209          1
   213          6
   214          2
   215         19
   216          4
   219          2
   220          1
   221          3
   223          1
   224          2
   225          2
   226         14
   227          6
   228         10
   229          5
   230          1
   237          4
   238          2
   239         36
   240         16
   241         13
   242          5
   243          2
   249          1
   250         11
   251          4
   252         46
   253         38
   254         29
   255         10
   257          1
   263          8
   264          3
   265         17
   266          6
   267         12
   268          5
   269          2
   283          2
   284          2
   285          3
   299          2
   300         10
   301          2
   311          1
   313          1
   325          1
   326          1
   368          1
   370          3
   371        127
   372         33
   373          4