##TITLE=Library Entry 67405
##JCAMP-DX=Revision 4.10 
##DATA TYPE=MASS SPECTRUM
##SAMPLE DESCRIPTION=Chemical Concepts
##NAMES=HP
##CAS NAME=Bis-(methylthio)-phosphine
##MOLFORM=C2H7PS2
##CAS REGISTRY NO=105414-86-6
##MP= -300
##BP= -300
##MW= 126
##$RETENTION INDEX=0
##$CONDENSED SPECTRUM=NO
##NPOINTS= 18
##XYDATA=(XY..XY) 1 
    45        412
    46        177
    47        388
    48        174
    61        133
    64         98
    78         73
    79        618
    80        153
    81         62
    94        999
    95         36
    96         59
   108         16
   111         79
   126        752
   127         40
   128        102