##TITLE=Library Entry 23928
##JCAMP-DX=Revision 4.10 
##DATA TYPE=MASS SPECTRUM
##SAMPLE DESCRIPTION=R.T.HOLMAN,UNIVERSITY OF MINNESOTA
##NAMES=HP
##CAS NAME=Octadecane, 6-methyl-
##MOLFORM=C19H40
##CAS REGISTRY NO=10544-96-4
##MP= -300
##BP= -300
##MW= 268
##$RETENTION INDEX=1842
##$CONDENSED SPECTRUM=NO
##NPOINTS= 116
##XYDATA=(XY..XY) 1 
    26         16
    27        120
    28        560
    29        280
    30         17
    31          5
    32         47
    35          3
    36          5
    37          5
    38          7
    39         72
    40         22
    41        450
    42        110
    43        710
    44         90
    45          8
    50          5
    51          8
    52          5
    53         28
    54         29
    55        280
    56        160
    57        999
    58         51
    59          5
    60          7
    63          5
    65         18
    66          6
    67         33
    68         26
    69        120
    70         88
    71        300
    72         18
    73         19
    74          6
    75          3
    76          3
    77         19
    78          4
    79         11
    80          4
    81         17
    82         20
    83         53
    84         28
    85        160
    86         13
    87          5
    88          3
    89          3
    91         20
    92          4
    93          5
    94          3
    95          9
    96         12
    97         32
    98        140
    99         80
   100         18
   103          3
   104          3
   105          6
   106          6
   107          4
   109          5
   110          7
   111         16
   112         11
   113         33
   114          5
   115          4
   117          3
   119          4
   121          3
   123          3
   124          4
   125         10
   126          8
   127         24
   128          5
   131          4
   133          3
   138          3
   139          6
   140          5
   141         17
   142          4
   143          3
   147          3
   149          4
   152          3
   153          4
   154          4
   155          9
   156          3
   167          3
   168         10
   169          6
   183          4
   196         25
   197         25
   198          5
   210          3
   211          3
   224          3
   225          3
   239          3
   240          5
   253          5
   268          3