##TITLE=Library Entry 31817
##JCAMP-DX=Revision 4.10 
##DATA TYPE=MASS SPECTRUM
##SAMPLE DESCRIPTION=GAZ DE FRANCE D.E.T.N., B.P. 33, LA PLAINE ST. DENIS, F
RANCE
##NAMES=HP
##CAS NAME=Cyclic octaatomic sulfur
##MOLFORM=S8
##CAS REGISTRY NO=10544-50-0
##MP= -300
##BP= -300
##MW= 256
##$RETENTION INDEX=2030
##$CONDENSED SPECTRUM=NO
##NPOINTS= 30
##XYDATA=(XY..XY) 1 
    32        210
    33          3
    34         10
    64        999
    65         20
    66        108
    96        210
    97          6
    98         30
   128        520
   129         17
   130        102
   160        530
   161         17
   162        102
   163          3
   164          6
   192        408
   193         17
   194        105
   195          3
   196         10
   224        180
   225          7
   226         54
   256        704
   257         47
   258        251
   259         13
   260         44