##TITLE=Library Entry 79111
##JCAMP-DX=Revision 4.10 
##DATA TYPE=MASS SPECTRUM
##SAMPLE DESCRIPTION=A.A.Kutin, Moscow, Russia
##NAMES=HP
##CAS NAME=Benzamide, N-(1-methylhexyl)-
##MOLFORM=C14H21NO
##CAS REGISTRY NO=105452-89-9
##MP= -300
##BP= -300
##MW= 219
##$RETENTION INDEX=1799
##$CONDENSED SPECTRUM=NO
##NPOINTS= 133
##XYDATA=(XY..XY) 1 
    44          5
    45        140
    46         14
    47          3
    48          3
    50         30
    51        144
    52         20
    53         24
    54         10
    55        114
    56        107
    57         64
    58          2
    59         40
    60          3
    61          5
    62         13
    63         16
    64          6
    65         17
    66          3
    67          7
    68          2
    69         43
    70         33
    71         11
    72          8
    73          5
    74          3
    75          8
    76         56
    77        385
    78        125
    79          8
    80          6
    81          9
    82         10
    83         13
    85          3
    89          3
    90          2
    91         19
    92         14
    93         16
    94          5
    95          2
    97          4
    98         19
    99          4
   100          1
   101          3
   102          3
   103         10
   104         60
   105        999
   106        237
   107         30
   108          3
   109          2
   110          1
   111          1
   116          1
   117          5
   118         10
   119          8
   120          2
   121         15
   122        219
   123         29
   124          2
   126          1
   127          1
   128          1
   130          3
   131          5
   132          1
   133          4
   134         14
   135         10
   136          4
   141          6
   142          2
   143          2
   145          4
   146         10
   147         12
   148        209
   149         13
   150          2
   151          3
   156          3
   157          2
   160          5
   161          4
   162        221
   163         95
   164          6
   165          6
   166          1
   167          4
   168          2
   169          2
   172          3
   173          1
   174          1
   175          3
   176        168
   177         63
   178          9
   180          4
   181          3
   182         13
   183          1
   187          1
   188          2
   189          4
   190        168
   191         37
   192          2
   193          1
   199          1
   204          9
   205         12
   206          1
   217          1
   218          6
   219        108
   220         33
   221          3
   222          1
   223          2
   224          2