##TITLE=Library Entry 12314
##JCAMP-DX=Revision 4.10 
##DATA TYPE=MASS SPECTRUM
##SAMPLE DESCRIPTION=Japan AIST/NIMC Database- Spectrum MS-NW-8536
##NAMES=HP
##CAS NAME=N,N',N'',N'''-Tetr
##MOLFORM=C12H14N4O6
##CAS REGISTRY NO=10543-60-9
##MP= -300
##BP= -300
##MW= 310
##$RETENTION INDEX=0
##$CONDENSED SPECTRUM=NO
##NPOINTS= 96
##XYDATA=(XY..XY) 1 
    14          9
    15         71
    16          1
    17          1
    18          2
    26          1
    27          4
    28         67
    29         14
    30         10
    31          1
    40          5
    41          9
    42         58
    43        999
    44         53
    45         13
    46          1
    53          2
    54          2
    55         11
    56         33
    57          7
    58         11
    59          5
    60         17
    68          2
    69         11
    70         21
    71        118
    72          9
    73          3
    82          2
    83         16
    84         55
    85          9
    86         24
    87         17
    96          6
    97         24
    98         35
    99        189
   100         22
   101         13
   102          5
   112          4
   113         36
   114         32
   115          5
   123          3
   124          5
   125        112
   126         61
   127          5
   128          2
   129          2
   138          2
   139          2
   140          9
   141        289
   142        127
   143         20
   144          1
   154          2
   155          3
   156          7
   166          4
   167         13
   168         14
   169         19
   170          1
   182          2
   183        167
   184        174
   185         33
   186          3
   197          3
   198          2
   208          3
   209          6
   210          2
   211          8
   225         64
   226         97
   227         67
   228          7
   239          3
   240          7
   253          1
   267         24
   268         57
   269         14
   270          2
   282          3
   310         22
   311          3