##TITLE=Library Entry 9633
##JCAMP-DX=Revision 4.10 
##DATA TYPE=MASS SPECTRUM
##SAMPLE DESCRIPTION=Chemical Concepts
##NAMES=HP
##CAS NAME=3-Penten-2-one, 4-bromo-
##MOLFORM=C5H7BrO
##CAS REGISTRY NO=10541-26-1
##MP= -300
##BP= -300
##MW= 162
##$RETENTION INDEX=0
##$CONDENSED SPECTRUM=NO
##NPOINTS= 84
##XYDATA=(XY..XY) 1 
    25          3
    26         15
    27         37
    28          5
    29         10
    30          0
    31          4
    36          2
    37         24
    38         54
    39        394
    40         60
    41         14
    42         41
    43        999
    44         21
    45          2
    48          0
    49          4
    50         11
    51         10
    52          2
    53          9
    54          1
    55          4
    56          0
    57          0
    58          1
    59          0
    60          1
    61          4
    62          4
    63          4
    64          0
    65          3
    66          1
    67          7
    68         10
    69          1
    72          1
    73          0
    75          2
    77          0
    79          3
    80          3
    81          3
    82          3
    83        465
    84         23
    85         20
    86          0
    91          0
    92          0
    93          7
    94          0
    95          7
    97          0
   100         10
   101          0
   103         12
   104          1
   105          4
   106          0
   107          2
   109          2
   117          1
   118          3
   119         74
   120          2
   121         69
   122          2
   123          0
   131          0
   133          0
   147        144
   148          6
   149        138
   150          5
   151          0
   159          0
   162         38
   163          3
   164         37
   165          2