##TITLE=Library Entry 79872
##JCAMP-DX=Revision 4.10 
##DATA TYPE=MASS SPECTRUM
##SAMPLE DESCRIPTION=R.A.Khmel'nitskii
##NAMES=HP
##CAS NAME=Isoxazole, 4-chloro-3,5-diphenyl-
##MOLFORM=C15H10ClNO
##CAS REGISTRY NO=10557-79-6
##MP= -300
##BP= -300
##MW= 255
##$RETENTION INDEX=0
##$CONDENSED SPECTRUM=NO
##NPOINTS= 110
##XYDATA=(XY..XY) 1 
    26         18
    27         56
    29         33
    30         27
    31         13
    38         16
    39         73
    40         13
    41         86
    42         26
    45         22
    50         56
    51        178
    53         13
    54         20
    55         76
    56         26
    57         45
    60         35
    61         15
    62         18
    63         40
    64         12
    65         17
    67         33
    68         17
    69         45
    70         21
    71         28
    73         40
    74         29
    75         27
    76         64
    77        620
    78         67
    79         28
    80         12
    81         38
    82         29
    83         39
    84         21
    85         18
    87         21
    88         16
    89         73
    90         19
    91         31
    93         15
    94         12
    95         29
    96         21
    97         28
    98         22
    99         11
   101         13
   102         15
   103         87
   104         24
   105        999
   106         81
   107         14
   109         15
   110         13
   111         16
   114         13
   115         18
   116         13
   117         20
   119         11
   121         11
   122         17
   123         21
   124         17
   125         12
   126         11
   128         15
   129         22
   136         18
   137         11
   138         11
   139         13
   143         11
   146         16
   150         22
   152         12
   163         16
   164         11
   165         45
   166         16
   178         16
   180        111
   181         22
   189         29
   190         28
   191         15
   192         33
   193         15
   219         26
   220         86
   221         29
   222         29
   223         16
   227         50
   228         12
   229         28
   230         16
   255        311
   256         67
   257        110
   258         23