##TITLE=Library Entry 80024
##JCAMP-DX=Revision 4.10 
##DATA TYPE=MASS SPECTRUM
##SAMPLE DESCRIPTION=V.A. KOPTYUG, VOL.4, ATLAS OF MASS SPECTRA OF ORGANIC C
OMPOUNDS
##NAMES=HP
##CAS NAME=3,5-Diphenyl-4-bromoisoxazole
##MOLFORM=C15H10BrNO
##CAS REGISTRY NO=10557-78-5
##MP= -300
##BP= -300
##MW= 299
##$RETENTION INDEX=0
##$CONDENSED SPECTRUM=NO
##NPOINTS= 54
##XYDATA=(XY..XY) 1 
    26         31
    27         61
    29         20
    37         15
    38         22
    41         30
    42         50
    50         42
    51        150
    52         15
    55         20
    62         17
    63         41
    69         12
    74         15
    75         20
    76         28
    77        500
    78         54
    87         15
    88         21
    89         81
    90         13
    91         12
    95         13
   103         35
   104         12
   105        999
   106         83
   114         13
   115         26
   116         11
   143         15
   163         17
   165         45
   166         13
   180        130
   181         19
   182         12
   187         13
   188         12
   189         47
   190         30
   191         15
   192         62
   193         15
   219         12
   220        150
   221         46
   222         22
   299        210
   300         40
   301        210
   302         39