##TITLE=Library Entry 11728
##JCAMP-DX=Revision 4.10 
##DATA TYPE=MASS SPECTRUM
##SAMPLE DESCRIPTION=Chemical Concepts
##NAMES=HP
##CAS NAME=9-Oxabicyclo[4.2.1]nonan-2-ol, acetate
##MOLFORM=C10H16O3
##CAS REGISTRY NO=10555-33-6
##MP= -300
##BP= -300
##MW= 184
##$RETENTION INDEX=0
##$CONDENSED SPECTRUM=NO
##NPOINTS= 81
##XYDATA=(XY..XY) 1 
    26          5
    27         79
    28         19
    29         77
    30          2
    31         15
    36          2
    38          3
    39         80
    40         16
    41        196
    42         46
    43        999
    44         59
    45         17
    49          8
    50          2
    51          9
    52          5
    53         35
    54         39
    55        116
    56         21
    57         84
    58         26
    59          5
    60          3
    61         12
    65          9
    66         20
    67        132
    68         75
    69         82
    70         46
    71         43
    72          5
    73          6
    77         13
    78          8
    79        114
    80        151
    81        258
    82         80
    83         49
    84         28
    85         28
    86        101
    87         13
    91         10
    93         20
    94          7
    95        245
    96        131
    97        106
    98         32
    99         42
   100          8
   101          4
   102          3
   105         16
   106         34
   107         11
   109         13
   110          5
   111          3
   112          7
   113         22
   114         15
   123         54
   124        470
   125         56
   126          5
   127          3
   128          4
   140          2
   141         92
   142         39
   143          3
   155          4
   184         14
   185          1