##TITLE=Library Entry 22114
##JCAMP-DX=Revision 4.10 
##DATA TYPE=MASS SPECTRUM
##SAMPLE DESCRIPTION=E. SCHUMACHER INORG. CHEM. INST., UNIV., ZURICH, SWITZE
RLAND
##NAMES=HP
##CAS NAME=1,3,5-Triazine, hexahydro-1,3,5-tris(1-methylethyl)-
##MOLFORM=C12H27N3
##CAS REGISTRY NO=10556-98-6
##MP= -300
##BP= -300
##MW= 213
##$RETENTION INDEX=0
##$CONDENSED SPECTRUM=NO
##NPOINTS= 18
##XYDATA=(XY..XY) 1 
    41        199
    42        631
    43        542
    44         83
    55        116
    56        999
    57        212
    70        174
    71        281
    72        428
    84         13
    85        286
   100         29
   127        452
   141         54
   142        326
   212         83
   213         62