##TITLE=Library Entry 56062
##JCAMP-DX=Revision 4.10 
##DATA TYPE=MASS SPECTRUM
##SAMPLE DESCRIPTION=Div. of Experiment Therapeutics WRAIR, WRAMC, Washingto
n DC 20307
##NAMES=HP
##CAS NAME=3-Chloro-6-[3-diethylaminopropylamino]pyridazine
##MOLFORM=C11H19ClN4
##CAS REGISTRY NO=105583-21-9
##MP= -300
##BP= -300
##MW= 242
##$RETENTION INDEX=0
##$CONDENSED SPECTRUM=NO
##NPOINTS= 134
##XYDATA=(XY..XY) 1 
    41        144
    42        232
    43         67
    44         81
    45          2
    46          1
    47          5
    48          1
    49         13
    50          6
    51         21
    52         38
    53         13
    54         36
    55         20
    56        169
    57         54
    58        254
    59          9
    60          2
    61          2
    62          5
    63          3
    64         10
    65          8
    66          8
    67         11
    68         12
    69          6
    70         44
    71         33
    72        202
    73         71
    74          8
    75         20
    76          2
    77          4
    78         11
    79         65
    80         13
    81          3
    82          6
    83          3
    84        199
    85         33
    86        999
    87         62
    88         15
    89          1
    90          4
    91          2
    92          5
    93          5
    94          6
    95          1
    96          5
    97          3
    98         83
    99         11
   100        166
   101         15
   102          2
   103          1
   104          1
   105          3
   106         17
   107          5
   108         11
   109          2
   110          3
   112        173
   113         36
   114         11
   115         13
   116          5
   117          4
   118          1
   119          1
   120          3
   121          3
   122          2
   123          2
   124          1
   127          2
   128          2
   129          7
   130         12
   131          3
   132          5
   133          1
   134         15
   135          9
   136        103
   137          8
   140          0
   142         65
   143         64
   144         21
   145         19
   146          1
   154          5
   156         18
   157          1
   158          5
   159          7
   160          2
   161          2
   162          0
   163          2
   164          2
   166          1
   168          3
   169         31
   170        133
   171         33
   172         42
   173          7
   184          0
   191          2
   197          1
   199          0
   205          2
   206          1
   207         10
   208          1
   213         23
   214          3
   215          7
   227          2
   242         49
   243         13
   244         16
   245          4
   246          0