##TITLE=Library Entry 8352
##JCAMP-DX=Revision 4.10 
##DATA TYPE=MASS SPECTRUM
##SAMPLE DESCRIPTION=V.A. KOPTYUG, VOL.4, ATLAS OF MASS SPECTRA OF ORGANIC C
OMPOUNDS
##NAMES=HP
##CAS NAME=Isoxazole, 3,5-dimethyl-4-bromo-
##MOLFORM=C5H6BrNO
##CAS REGISTRY NO=10558-25-5
##MP= -300
##BP= -300
##MW= 175
##$RETENTION INDEX=0
##$CONDENSED SPECTRUM=NO
##NPOINTS= 78
##XYDATA=(XY..XY) 1 
    26         54
    27        249
    29         65
    30         27
    31         23
    34         13
    36         22
    37         34
    38         65
    39        163
    40         77
    41         79
    42        188
    43        999
    45         35
    48         10
    50         25
    51         59
    52         30
    53         38
    54        222
    55         57
    56         21
    57         20
    58         24
    60         19
    61         17
    62         33
    63         57
    64         27
    65         46
    66        415
    67         26
    68         42
    69         19
    70         14
    71         12
    77         16
    78         14
    79         15
    80         22
    81         34
    82         20
    84         14
    91         30
    92         18
    93         34
    94         18
    95         18
    96         33
    97         10
    99         14
   100         19
   101         22
   102         10
   105         32
   106        193
   107         33
   108        188
   117         16
   118         33
   119         20
   120         30
   128         10
   132        135
   133        277
   134        141
   135        277
   136         15
   146         68
   148         65
   149         10
   160        116
   162        114
   175        324
   176         40
   177        324
   178         22