##TITLE=Library Entry 67312
##JCAMP-DX=Revision 4.10 
##DATA TYPE=MASS SPECTRUM
##SAMPLE DESCRIPTION=H.J. Williams, Dep. Chem., Texas A&M Univ., College Sta
tion, Texas, USA
##NAMES=HP
##CAS NAME=2-Butanone, 1-[1,2,5,6-tetrahydro-6-(2-hydroxybutyl)-1-methyl-2-p
yridinyl]-
##MOLFORM=C14H25NO2
##CAS REGISTRY NO=105694-52-8
##MP= -300
##BP= -300
##MW= 239
##$RETENTION INDEX=0
##$CONDENSED SPECTRUM=NO
##NPOINTS= 35
##XYDATA=(XY..XY) 1 
    41        130
    42        280
    43         50
    44         70
    53         30
    55         45
    56         80
    57        390
    58        210
    59         60
    67         70
    68         40
    70         25
    79         35
    80         30
    81         40
    82         40
    86         65
    94        999
    95        110
    96        540
    97         40
   108        130
   110        260
   116         30
   124         35
   138        130
   166        120
   167        180
   168        290
   169         30
   182        110
   210         45
   224         40
   239         10