##TITLE=Library Entry 76602
##JCAMP-DX=Revision 4.10 
##DATA TYPE=MASS SPECTRUM
##SAMPLE DESCRIPTION=Japan AIST/NIMC Database- Spectrum MS-NW-9364
##NAMES=HP
##CAS NAME=3,3-Dimethoxyhexane
##MOLFORM=C8H18O2
##CAS REGISTRY NO=105644-27-7
##MP= -300
##BP= -300
##MW= 146
##$RETENTION INDEX=0
##$CONDENSED SPECTRUM=NO
##NPOINTS= 80
##XYDATA=(XY..XY) 1 
    14          3
    15         56
    16          1
    26          9
    27        126
    28         44
    29        275
    30          9
    31         79
    32         45
    33         19
    37          1
    38          5
    39         78
    40         12
    41        284
    42         36
    43        358
    44         12
    45        344
    46          8
    47         21
    50          4
    51          9
    52          4
    53         74
    54         15
    55        300
    56         49
    57        424
    58         22
    59        188
    60          6
    61          1
    62          1
    63          2
    65         10
    66          3
    67         76
    68          7
    69         74
    70          7
    71        242
    72         16
    73        300
    74         14
    75         12
    77          6
    78          2
    79         15
    80          1
    81         15
    82          3
    83         90
    84          7
    85         96
    86        146
    87          9
    88          5
    89          5
    91          2
    94          1
    97          5
    98          1
    99        175
   100         15
   101         12
   102          2
   103        999
   104         56
   105         30
   106          3
   113          9
   114         98
   115        791
   116         60
   117        675
   118         45
   119          4
   120          7