##TITLE=Library Entry 2587
##JCAMP-DX=Revision 4.10 
##DATA TYPE=MASS SPECTRUM
##SAMPLE DESCRIPTION=Chemical Concepts
##NAMES=HP
##CAS NAME=CH2=CHCH2SCH2CN
##MOLFORM=C5H7NS
##CAS REGISTRY NO=105643-80-9
##MP= -300
##BP= -300
##MW= 113
##$RETENTION INDEX=0
##$CONDENSED SPECTRUM=NO
##NPOINTS= 49
##XYDATA=(XY..XY) 1 
    26         35
    27         68
    28         27
    29          6
    32         19
    33          6
    34          2
    37         51
    38        130
    39        579
    41        999
    42         72
    44         36
    45        703
    46        218
    47        110
    48          9
    49          4
    50          2
    51          2
    52          3
    53          4
    54          3
    55          2
    56          4
    57         18
    58         32
    59         11
    60          5
    66          1
    67         14
    68        130
    69         52
    70         50
    71        110
    72        113
    73        502
    74         25
    75         21
    80          4
    85         31
    86         39
    87          6
    88          1
    98         12
   113        498
   114         31
   115         19
   116          1