##TITLE=Library Entry 69574
##JCAMP-DX=Revision 4.10 
##DATA TYPE=MASS SPECTRUM
##SAMPLE DESCRIPTION=H.J. Williams, Dep. Chem., Texas A&M Univ., College Sta
tion, Texas, USA
##NAMES=HP
##CAS NAME=2,6-Pyridinediethanol, .alpha.,.alpha.'-diethyl-1,2,3,6-tetrahydr
o-1-methyl-
##MOLFORM=C14H27NO2
##CAS REGISTRY NO=105694-50-6
##MP= -300
##BP= -300
##MW= 241
##$RETENTION INDEX=0
##$CONDENSED SPECTRUM=NO
##NPOINTS= 31
##XYDATA=(XY..XY) 1 
    41        200
    42        380
    44         90
    53         35
    55         45
    56        110
    57        130
    58        370
    59        180
    67         80
    68        110
    70         35
    79         35
    81         40
    82         35
    86        120
    94        470
    95         60
    96        999
    97         70
   108         85
   110        160
   116        130
   138         10
   168        760
   169        140
   182         10
   212         95
   213         15
   226         15
   241         10