##TITLE=Library Entry 10882
##JCAMP-DX=Revision 4.10 
##DATA TYPE=MASS SPECTRUM
##SAMPLE DESCRIPTION=R.T.HOLMAN,UNIVERSITY OF MINNESOTA
##NAMES=HP
##CAS NAME=Stearic acid, 2-phenyl-m-dioxan-5-yl ester, trans-
##MOLFORM=C28H46O4
##CAS REGISTRY NO=10564-35-9
##MP= -300
##BP= -300
##MW= 446
##$RETENTION INDEX=0
##$CONDENSED SPECTRUM=NO
##NPOINTS= 292
##XYDATA=(XY..XY) 1 
    26         10
    27        119
    28         44
    29        385
    30         12
    31         34
    32          2
    36          2
    37          2
    38          5
    39         62
    40         17
    41        598
    42        140
    43        999
    44         51
    45         20
    50         15
    51         47
    52         14
    53         29
    54         54
    55        557
    56        151
    57        807
    58         67
    59         15
    60         19
    61          6
    62          3
    63          8
    64          5
    65         11
    66          7
    67         83
    68         41
    69        276
    70         72
    71        270
    72         20
    73         35
    74          7
    75          7
    76          9
    77        171
    78         83
    79        197
    80         20
    81         88
    82         31
    83        171
    84         51
    85        151
    86         11
    87          9
    88          4
    89         19
    90         29
    91        239
    92         38
    93         22
    94          8
    95         83
    96         21
    97        114
    98         62
    99         37
   100        177
   101         30
   102          3
   103          8
   104         10
   105        906
   106        119
   107        177
   108         19
   109         47
   110         11
   111         49
   112         19
   113        218
   114         21
   115         11
   116        135
   117         34
   118         12
   119         23
   120         12
   121         18
   122          8
   123         28
   124          7
   125         21
   126          5
   127         28
   128          5
   129        130
   130         15
   131          5
   132          2
   133          8
   134          5
   135         16
   136          4
   137         11
   138          4
   139         10
   140          4
   141          8
   142          5
   143         11
   144         10
   145          5
   146          2
   147          6
   148          3
   149         42
   150          6
   151          6
   152          3
   153          6
   154          3
   155         28
   156          6
   157         41
   158          6
   159          3
   160          1
   161          5
   162        229
   163        145
   164         19
   165          5
   166          2
   167          5
   168          3
   169         67
   170          9
   171         18
   172          3
   173          1
   174          1
   175          1
   176          1
   177          4
   178          3
   179        114
   180         15
   181          8
   182          2
   183          9
   184          2
   185         33
   186          4
   187          1
   188          1
   189          1
   190          1
   191          2
   192          1
   193          2
   194          1
   195          2
   196          2
   197          7
   198          2
   199          8
   200          2
   201          1
   202          1
   203          1
   204          1
   205          2
   206          1
   207          2
   208          1
   209          2
   210          1
   211         12
   212          3
   213         10
   214          2
   215          1
   217          2
   219          1
   220          6
   221          2
   222          2
   223          2
   224          1
   225         16
   226          3
   227          9
   228          2
   229          1
   230          1
   233         25
   234          6
   235          2
   236          1
   237          1
   238          1
   239         15
   240          4
   241         10
   242          3
   246          1
   247          6
   248          2
   249          3
   250          2
   251          1
   253          9
   254          3
   255          8
   256          3
   257          2
   261          5
   262          2
   263          5
   264          4
   265          6
   266          3
   267        140
   268         29
   269          9
   270          2
   271          1
   275          7
   276          2
   281         36
   282          9
   283         14
   284          4
   285          2
   289          7
   290          2
   291          1
   295         10
   296          7
   297         16
   298          4
   299          1
   302          5
   303          2
   304          1
   309          3
   310          4
   311          8
   312          3
   313          1
   317          5
   318          2
   319          1
   324        119
   325         32
   326          6
   327          1
   331          4
   332          2
   333          1
   334          1
   337          2
   338          2
   339         17
   340         29
   341         13
   342          3
   343          1
   345          3
   346          1
   352          1
   353          1
   354          1
   355          3
   356          1
   359          1
   360          1
   368          2
   369         33
   370          9
   371          2
   373          2
   417          4
   418          3
   419          1
   431          3
   432          2
   445         72
   446         58
   447         16
   448          3