##TITLE=Library Entry 43436
##JCAMP-DX=Revision 4.10 
##DATA TYPE=MASS SPECTRUM
##SAMPLE DESCRIPTION=A.A.Kutin, Moscow, Russia
##NAMES=HP
##CAS NAME=Pyridazin-3(2H)-one, 4-isopropoxy-5-mercapto-2-phenyl-
##MOLFORM=C13H14N2O2S
##CAS REGISTRY NO=105651-78-3
##MP= -300
##BP= -300
##MW= 262
##$RETENTION INDEX=0
##$CONDENSED SPECTRUM=NO
##NPOINTS= 70
##XYDATA=(XY..XY) 1 
    38         11
    39        117
    40         83
    41        306
    42         93
    43        430
    44        153
    45        226
    46         46
    50         17
    51        344
    52        139
    53         18
    54          5
    55          1
    57         24
    58         92
    59         45
    61         36
    62          4
    63         21
    64         34
    65        102
    66          9
    69         24
    70         15
    71          2
    72         53
    73        999
    74        304
    75         50
    76         33
    77        810
    78        362
    79         25
    85         13
    87        102
    88          9
    89          0
    91         87
    92         68
    93         86
    94         22
    97          0
   104         26
   105         48
   106          8
   109         15
   110          7
   115          0
   119         16
   120         72
   121         23
   123         16
   131         24
   132         91
   133          4
   136         76
   137         40
   163        187
   164         69
   165          2
   187          0
   219         90
   220        811
   221        430
   222         76
   223          2
   262        101
   263         19