##TITLE=Library Entry 71253
##JCAMP-DX=Revision 4.10 
##DATA TYPE=MASS SPECTRUM
##SAMPLE DESCRIPTION=Exported from NIST MS Search
##NAMES=HP
##CAS NAME=1,4-Butanediol, 1-(2-furyl)-2,3-dimethyl-
##MOLFORM=C10H16O3
##CAS REGISTRY NO=10564-02-0
##MP= -300
##BP= -300
##MW= 184
##$RETENTION INDEX=0
##$CONDENSED SPECTRUM=NO
##NPOINTS= 33
##XYDATA=(XY..XY) 1 
    41        420
    42        110
    43        390
    44         10
    45        270
    51         20
    52         10
    53         30
    55         60
    57         50
    68         10
    69        410
    70        180
    71        100
    72         10
    81         50
    84         10
    85         10
    86         10
    87        870
    88         50
    95        120
    96         10
    97        270
    98        999
    99         70
   100         10
   102         10
   105         10
   123        200
   124         50
   125         10
   184         30