##TITLE=Library Entry 40149
##JCAMP-DX=Revision 4.10 
##DATA TYPE=MASS SPECTRUM
##SAMPLE DESCRIPTION=Japan AIST/NIMC Database- Spectrum MS-IW-5242
##NAMES=HP
##CAS NAME=(+-)-5,5-Dimethyl-4-(3-oxobutyl)dihydro-2(3H)-furanone 4-semicarb
azone
##MOLFORM=C11H19N3O3
##CAS REGISTRY NO=105640-56-0
##MP= -300
##BP= -300
##MW= 241
##$RETENTION INDEX=0
##$CONDENSED SPECTRUM=NO
##NPOINTS= 190
##XYDATA=(XY..XY) 1 
    12          4
    13          3
    14         14
    15         33
    16         36
    17         69
    18          5
    24          2
    25          9
    26         76
    27        223
    28        401
    29         84
    30         83
    31         43
    32         16
    33          4
    36          1
    37          8
    38         27
    39        197
    40        123
    41        505
    42        243
    43        443
    44        167
    45         16
    46          4
    48          1
    49          4
    50         21
    51         43
    52         37
    53        137
    54        126
    55        233
    56         84
    57        193
    58         31
    59         45
    60         15
    61         38
    62          8
    63         16
    64          6
    65         46
    66         36
    67        205
    68        122
    69        136
    70         81
    71        168
    72        999
    73         91
    74         77
    75         25
    76         57
    77         69
    78         32
    79        122
    80         85
    81        251
    82        104
    83        196
    84         93
    85        194
    86         23
    87          6
    88          2
    89          6
    90          5
    91         71
    92         26
    93         50
    94         98
    95         94
    96        135
    97        202
    98        290
    99        108
   100        303
   101         16
   102         11
   103         16
   104         13
   105         33
   106         38
   107        144
   108         68
   109         89
   110         41
   111        250
   112        120
   113         19
   114         27
   115        924
   116        160
   117         22
   118         12
   119         17
   120         52
   121         72
   122        207
   123        137
   124         37
   125         37
   126         39
   127         77
   128         85
   129         15
   130         11
   131          7
   132          9
   133         13
   134         12
   135         14
   136         29
   137         37
   138         31
   139         62
   140         93
   141         18
   142          9
   143          4
   144          8
   145          8
   146          8
   147         12
   148         43
   149         45
   150         11
   151         93
   152         22
   153         19
   154         20
   155         47
   156          7
   157          2
   158          1
   159          2
   160          2
   161          3
   162          8
   163         11
   164         18
   165         61
   166        129
   167         78
   168         33
   169          9
   170          2
   171          1
   173          1
   177          1
   178          2
   179          9
   180         49
   181         25
   182        211
   183        117
   184         12
   185          4
   186          1
   191          5
   192          1
   194          2
   195          2
   196         12
   197         33
   198         89
   199         12
   200          1
   205          1
   206          4
   207          1
   208          7
   209         46
   210          5
   211          1
   212          2
   213          1
   223         12
   224         53
   225          9
   226        190
   227         22
   228          2
   241        103
   242         27
   243          3