##TITLE=Library Entry 69575
##JCAMP-DX=Revision 4.10 
##DATA TYPE=MASS SPECTRUM
##SAMPLE DESCRIPTION=H.J. Williams, Dep. Chem., Texas A&M Univ., College Sta
tion, Texas, USA
##NAMES=HP
##CAS NAME=2,6-Pyridinediethanol, .alpha.2-ethyl-1,2,3,6-tetrahydro-.alpha.'
,1-dimethyl-
##MOLFORM=C13H25NO2
##CAS REGISTRY NO=105694-51-7
##MP= -300
##BP= -300
##MW= 227
##$RETENTION INDEX=0
##$CONDENSED SPECTRUM=NO
##NPOINTS= 35
##XYDATA=(XY..XY) 1 
    41        170
    42        390
    43         95
    44        100
    45        170
    53         40
    55         40
    56        110
    57        190
    58        370
    59         85
    67         95
    68        120
    70         20
    79         40
    80         30
    81         45
    82         40
    86        130
    94        470
    95         70
    96        999
    97         85
   108         90
   110        200
   116        150
   138         30
   154        250
   155         85
   168        500
   169         75
   182         15
   198         50
   212         30
   227         10