##TITLE=Library Entry 1242
##JCAMP-DX=Revision 4.10 
##DATA TYPE=MASS SPECTRUM
##SAMPLE DESCRIPTION=B.V.Rozynov
##NAMES=HP
##CAS NAME=8-Nitro-1-phenylisoxazolizidine
##MOLFORM=C11H12N2O4
##CAS REGISTRY NO=10577-08-9
##MP= -300
##BP= -300
##MW= 236
##$RETENTION INDEX=0
##$CONDENSED SPECTRUM=NO
##NPOINTS= 67
##XYDATA=(XY..XY) 1 
    29         35
    30        999
    31        230
    40        189
    41        220
    42         41
    43        346
    53         46
    54         28
    55         48
    56         25
    64         20
    65         33
    70         20
    72         33
    77        256
    78        135
    79         71
    89         56
    90        115
    91        653
    92        246
    93         35
    94         15
   103        241
   104        433
   105        510
   106        138
   107         61
   115         66
   116         87
   117        276
   118         56
   119         58
   120        143
   121         28
   122         38
   127         12
   128         53
   129         79
   130        312
   131         66
   132         38
   133         23
   135         35
   142         35
   143        105
   144        151
   145         71
   146         38
   147         20
   156         41
   157         17
   158         25
   159         53
   160        102
   161        400
   162         43
   169         12
   171         89
   172        120
   174        123
   176         25
   188         30
   189        148
   190        235
   191         30