##TITLE=Library Entry 32520
##JCAMP-DX=Revision 4.10 
##DATA TYPE=MASS SPECTRUM
##SAMPLE DESCRIPTION=G. Lange, Inst. Org. Chem., Univ. Wurzburg, Germany
##NAMES=HP
##CAS NAME=2,3-Diazaspiro[4.5]deca-1,3-diene, 1,4-dimethyl-
##MOLFORM=C10H16N2
##CAS REGISTRY NO=105786-97-8
##MP= -300
##BP= -300
##MW= 164
##$RETENTION INDEX=0
##$CONDENSED SPECTRUM=NO
##NPOINTS= 54
##XYDATA=(XY..XY) 1 
    38         12
    39        280
    40         70
    41        291
    42        352
    43         88
    44         12
    50         13
    51         56
    52         51
    53        165
    54        346
    55        156
    56         13
    57         10
    59          5
    63         20
    64         11
    65         66
    66         73
    67        999
    68        112
    69         19
    71         10
    77        106
    78         28
    79        199
    80         72
    81        161
    82        196
    83         31
    84         12
    85          8
    91         81
    92         21
    93        225
    94        150
    95         88
    96         12
    97         14
   105         20
   106          9
   107        240
   108        114
   109         29
   111         13
   121        110
   122         97
   123        156
   124         15
   135          6
   136         10
   164        173
   165         30