##TITLE=Library Entry 20664
##JCAMP-DX=Revision 4.10 
##DATA TYPE=MASS SPECTRUM
##SAMPLE DESCRIPTION=Japan AIST/NIMC Database- Spectrum MS-NW-4828
##NAMES=HP
##CAS NAME=2-Pentene, 2,3-dimethyl-
##MOLFORM=C7H14
##CAS REGISTRY NO=10574-37-5
##MP= -300
##BP= -300
##MW= 98
##$RETENTION INDEX=704
##$CONDENSED SPECTRUM=NO
##NPOINTS= 62
##XYDATA=(XY..XY) 1 
    14          2
    15         21
    26          9
    27        140
    28          9
    29        127
    30          3
    31         12
    36          2
    37          5
    38         10
    39        178
    40         33
    41        652
    42         50
    43        188
    44          6
    45          9
    46          1
    49          1
    50         12
    51         24
    52         11
    53         75
    54         22
    55        999
    56        136
    57         45
    58         17
    59         88
    60          3
    61          1
    62          3
    63          6
    64          1
    65         16
    66          7
    67         72
    68         15
    69        210
    70         44
    71          9
    72          2
    73          1
    74          2
    77          9
    78          2
    79         14
    80          2
    81         41
    82          9
    83        828
    84         56
    85         47
    86          3
    91          1
    95          3
    96          7
    97          9
    98        377
    99         40
   100          4