##TITLE=Library Entry 7279
##JCAMP-DX=Revision 4.10 
##DATA TYPE=MASS SPECTRUM
##SAMPLE DESCRIPTION=LAC, NIDDK, NIH, Bethesda, MD 20892
##NAMES=HP
##CAS NAME=1-Heptatriacotanol
##MOLFORM=C37H76O
##CAS REGISTRY NO=105794-58-9
##MP= -300
##BP= -300
##MW= 536
##$RETENTION INDEX=0
##$CONDENSED SPECTRUM=NO
##NPOINTS= 233
##XYDATA=(XY..XY) 1 
    41        750
    42         35
    43        999
    44         56
    45         79
    46         17
    47          5
    50          9
    51         41
    52         24
    53        252
    54         97
    55        907
    56         96
    57        567
    58         78
    59        102
    60         35
    61         38
    63         14
    64          5
    65        111
    66         51
    67        537
    68        188
    69        878
    70         94
    71        401
    72         47
    73         78
    74         21
    75         24
    77        253
    78         63
    79        459
    80        120
    81        675
    82        525
    83        465
    84        139
    85        252
    86         41
    87         44
    88         10
    89         24
    91        474
    92        101
    93        473
    94        151
    95        556
    96        166
    97        296
    98        106
    99        191
   100         15
   101         60
   102         14
   103         59
   104         28
   105        413
   106        101
   107        431
   108        193
   109        403
   110         66
   111        178
   112         49
   113         63
   115         98
   116         29
   117        107
   118         32
   119        256
   120         85
   121        310
   122        109
   123        186
   124         63
   125        104
   126         36
   127         53
   128         32
   129         68
   130         25
   131        111
   132         35
   133        233
   134        122
   135        225
   136        126
   137         98
   138         45
   139         55
   140         29
   141         42
   142         18
   143         50
   144         22
   145        142
   146         61
   147        380
   148        140
   149        128
   150         74
   151         72
   152         38
   153         49
   154         27
   155         75
   156         18
   157         49
   158         23
   159        146
   160         54
   161        237
   162         75
   163         81
   164         31
   165         40
   166         25
   167         31
   168         14
   169         24
   170          9
   171         43
   172         12
   173         67
   174         27
   175        125
   176         36
   177         45
   178         22
   179         27
   180         15
   181         19
   182          9
   183         18
   184          7
   185         28
   186         11
   187        104
   188         48
   189         79
   190        151
   191         48
   192         14
   193         19
   194         13
   195         15
   196         11
   197         14
   198          5
   199         21
   200          9
   201         52
   202         23
   203         53
   204         18
   205         19
   206         11
   207         14
   208          8
   209         14
   210          7
   211         14
   212          5
   213         17
   214          8
   215         26
   216         16
   217         19
   218         10
   219         12
   220          8
   221         10
   222          8
   223          9
   224         20
   225         13
   226          5
   227         13
   228          8
   229         64
   230         17
   231         12
   232          5
   233          8
   234          4
   235          7
   236          6
   237          7
   239         14
   240          4
   241          9
   242          4
   243         14
   244         15
   245         10
   246          5
   247          6
   248          5
   249          5
   250          7
   251          5
   252          6
   253          7
   255         10
   256         10
   257         66
   258         14
   259          6
   261          5
   262          6
   263          5
   264          8
   265          7
   267          6
   268          4
   269         12
   270          9
   271         15
   272         57
   273         19
   274          5
   277          4
   279          5
   283          5
   284          6
   285         17
   286          9
   287          8
   288          5
   536          3