##TITLE=Library Entry 46780
##JCAMP-DX=Revision 4.10 
##DATA TYPE=MASS SPECTRUM
##SAMPLE DESCRIPTION=Institute of Chemistry, SAS, Bratislava, Slovakia
##NAMES=HP
##CAS NAME=Methyl-5-thio.beta.D-glucopyranoside
##MOLFORM=C7H14O5S
##CAS REGISTRY NO=10579-05-2
##MP= -300
##BP= -300
##MW= 210
##$RETENTION INDEX=0
##$CONDENSED SPECTRUM=NO
##NPOINTS= 41
##XYDATA=(XY..XY) 1 
    45        441
    47        181
    55         83
    57        336
    59        304
    60        631
    61        136
    69         73
    70        167
    71         94
    73        315
    74        739
    75        146
    77        999
    78         37
    79         41
    85        210
    87        332
    89         94
   101        122
   103        164
   115         24
   116         66
   118        188
   119        153
   127         19
   129         30
   130         19
   131         17
   132         13
   133         27
   142         10
   143         10
   144         11
   148          8
   160         22
   161         62
   174         17
   178         28
   192         46
   210         46