##TITLE=Library Entry 42594
##JCAMP-DX=Revision 4.10 
##DATA TYPE=MASS SPECTRUM
##SAMPLE DESCRIPTION=O A MAMER, MCGILL UNIVERSITY, MONTRE
##NAMES=HP
##CAS NAME=2-Methyl-1,4-bis(trimethylsiloxy)butane
##MOLFORM=C11H28O2Si2
##CAS REGISTRY NO=105747-05-5
##MP= -300
##BP= -300
##MW= 248
##$RETENTION INDEX=0
##$CONDENSED SPECTRUM=NO
##NPOINTS= 85
##XYDATA=(XY..XY) 1 
    14          5
    15         48
    16          4
    26          8
    27         26
    28         50
    29         32
    31         15
    32          7
    39         27
    40          8
    41        178
    42         31
    43         78
    44         45
    45        195
    46         13
    47         82
    48          4
    51          6
    52         11
    53         10
    55         42
    56         11
    57         18
    58         54
    59        157
    60         19
    61         61
    66         42
    67         19
    68          7
    69        228
    70         28
    71         14
    72         42
    73        999
    74         93
    75        323
    76         23
    77         17
    79         11
    81         11
    85         21
    87         14
    88         48
    89        167
    90         16
    91         11
    99         15
   101        113
   102         15
   103        261
   104         25
   105         17
   109         12
   113          8
   115         78
   116        421
   117         70
   118         20
   119         10
   128         10
   129         31
   130        463
   131        100
   132         29
   133         92
   134         13
   135          8
   143         32
   147        985
   148        156
   149         93
   150         11
   157         11
   158          5
   159         13
   163          7
   177        109
   178         19
   179          9
   187         15
   188          3
   233          8