##TITLE=Library Entry 100133
##JCAMP-DX=Revision 4.10 
##DATA TYPE=MASS SPECTRUM
##SAMPLE DESCRIPTION=ASES Database, Dalian Institute, P.R. China
##NAMES=HP
##CAS NAME=2-(1S,2S-Dimethyl-4-hydroxybutyl)-1,3-dithiane
##MOLFORM=C10H20OS2
##CAS REGISTRY NO=105705-07-5
##MP= -300
##BP= -300
##MW= 220
##$RETENTION INDEX=0
##$CONDENSED SPECTRUM=NO
##NPOINTS= 9
##XYDATA=(XY..XY) 1 
    45         68
    73         60
   106         70
   113         90
   119        999
   120         60
   121         89
   147         40
   220         50