##TITLE=Library Entry 54834
##JCAMP-DX=Revision 4.10 
##DATA TYPE=MASS SPECTRUM
##SAMPLE DESCRIPTION=TNO Volatile Compounds in Food - Chemical Concepts
##NAMES=HP
##CAS NAME=1,3-Butadiene, 1-(ethylthio)-
##MOLFORM=C6H10S
##CAS REGISTRY NO=10574-85-3
##MP= -300
##BP= -300
##MW= 114
##$RETENTION INDEX=0
##$CONDENSED SPECTRUM=NO
##NPOINTS= 45
##XYDATA=(XY..XY) 1 
    20          5
    21          2
    24          0
    25          6
    26          3
    27         21
    28          2
    30          0
    31         17
    38          7
    39         72
    41         90
    43         11
    45        293
    46         10
    47         35
    48          2
    49          7
    50         24
    51         44
    52         23
    53         38
    57         19
    58         39
    65         30
    69          5
    70          1
    71         17
    73          2
    74          3
    77          2
    81          4
    82          2
    83          3
    84         45
    85        999
    86         52
    87         57
    88          6
    95          2
    97          2
    99          3
   114        149
   115          9
   116          5