##TITLE=Library Entry 3362
##JCAMP-DX=Revision 4.10 
##DATA TYPE=MASS SPECTRUM
##SAMPLE DESCRIPTION=Exported from NIST MS Search
##NAMES=HP
##CAS NAME=2-Hexene, 3-methyl-, (Z)-
##MOLFORM=C7H14
##CAS REGISTRY NO=10574-36-4
##MP= -300
##BP= -300
##MW= 98
##$RETENTION INDEX=694
##$CONDENSED SPECTRUM=NO
##NPOINTS= 73
##XYDATA=(XY..XY) 1 
    12          1
    13          2
    14          8
    15         62
    16          4
    24          1
    25          1
    26         29
    27        310
    28         56
    29        142
    30          3
    31          2
    32          1
    36          1
    37          9
    38         29
    39        340
    40         54
    41        999
    42         86
    43         70
    44          6
    45          1
    46          1
    48          1
    49          3
    50         30
    51         52
    52         23
    53        123
    54         40
    55        437
    56        195
    57         25
    58          1
    59          1
    60          1
    61          2
    62          6
    63         12
    64          2
    65         18
    66          8
    67         64
    68         44
    69        952
    70        252
    71         12
    72          1
    73          1
    74          2
    75          1
    76          1
    77         10
    78          3
    79         10
    80          2
    81         18
    82          5
    83         90
    84          6
    85          1
    86          1
    87          1
    91          1
    93          1
    94          1
    95          1
    96          1
    97          2
    98        318
    99         22