##TITLE=Library Entry 100267
##JCAMP-DX=Revision 4.10 
##DATA TYPE=MASS SPECTRUM
##SAMPLE DESCRIPTION=ASES Database, Dalian Institute, P.R. China
##NAMES=HP
##CAS NAME=2-((1S,2S-Dimethyl-3-methoxycarbonyl)-propyl)-1,3-dithiane
##MOLFORM=C11H20O2S2
##CAS REGISTRY NO=105705-04-2
##MP= -300
##BP= -300
##MW= 248
##$RETENTION INDEX=0
##$CONDENSED SPECTRUM=NO
##NPOINTS= 9
##XYDATA=(XY..XY) 1 
    41         61
    59         71
    69         80
   106         79
   119        999
   120         60
   121         89
   248         69
   249         10