##TITLE=Library Entry 41318
##JCAMP-DX=Revision 4.10 
##DATA TYPE=MASS SPECTRUM
##SAMPLE DESCRIPTION=Chemical Concepts
##NAMES=HP
##CAS NAME=Silane, (1,1-dimethylethyl)(3,7-dimethyl-1-oxo-2,6-octadienyl)dim
ethyl-, (E)-
##MOLFORM=C16H30OSi
##CAS REGISTRY NO=105875-72-7
##MP= -300
##BP= -300
##MW= 266
##$RETENTION INDEX=0
##$CONDENSED SPECTRUM=NO
##NPOINTS= 119
##XYDATA=(XY..XY) 1 
    27         17
    28         10
    29         22
    31          7
    39         31
    40          6
    41        201
    42         11
    43         39
    44          8
    45         57
    47          8
    53         21
    54         15
    55         24
    56          6
    57         17
    58         27
    59         95
    60          9
    61         10
    65          7
    67         21
    68          5
    69        365
    70         26
    71          6
    72         12
    73        999
    74         86
    75        545
    76         36
    77         32
    78          5
    79         17
    80          9
    81         16
    82         36
    83         31
    85         19
    89         12
    91         18
    92          7
    93         40
    94          7
    95         11
    97         28
    99         34
   101         24
   105         13
   106          6
   107         31
   108          9
   109         23
   111         10
   113         40
   114         22
   115         60
   116          8
   117         13
   119         41
   120          6
   121         57
   122         30
   123         32
   125         23
   126          7
   127        164
   128         26
   129         39
   130         24
   131         28
   133         26
   134         25
   135         77
   136         22
   137         21
   139         21
   140          7
   141        275
   142         41
   143         23
   149         19
   151         19
   153         24
   154         13
   155         11
   156          6
   165         26
   166          5
   167         54
   168         17
   169          7
   177          4
   179          5
   181         39
   182         17
   183         84
   184         16
   185          5
   186          8
   191          5
   195         55
   196         31
   197         54
   198         14
   209         57
   210         16
   211          8
   223         82
   224         18
   225          7
   233          6
   238          4
   251         84
   252         20
   253          5
   266         11
   267          3