##TITLE=Library Entry 107715
##JCAMP-DX=Revision 4.10 
##DATA TYPE=MASS SPECTRUM
##SAMPLE DESCRIPTION=S.HAYASHI, DEPT. OF CHEM., HIROSHIMA UNIV., HIROSHIMA,
 JAPAN.
##NAMES=HP
##CAS NAME=Stigmast-4-en-3-one
##MOLFORM=C29H48O
##CAS REGISTRY NO=1058-61-3
##MP= -300
##BP= -300
##MW= 412
##$RETENTION INDEX=3447
##$CONDENSED SPECTRUM=NO
##NPOINTS= 136
##XYDATA=(XY..XY) 1 
    27         51
    28         70
    29        109
    39         66
    40         17
    41        366
    42         56
    43        567
    44         51
    53         79
    54         20
    55        506
    56         81
    57        292
    58         22
    65         40
    66         20
    67        214
    68         53
    69        283
    70         35
    71        152
    77        121
    78         30
    79        240
    80         42
    81        275
    82         61
    83        170
    84         42
    85        111
    91        232
    92         48
    93        222
    94         83
    95        308
    96         61
    97        155
    98         30
    99         28
   103         20
   105        199
   106         69
   107        238
   108         77
   109        212
   110         49
   111         86
   115         35
   117         61
   118         25
   119        145
   120         74
   121        207
   122        126
   123        212
   124        999
   125        121
   128         26
   129         28
   131         83
   132         35
   133        151
   134        101
   135        200
   136         94
   137        123
   138         40
   139         20
   141         25
   143         36
   145         77
   146         40
   147        207
   148        135
   149        238
   150         40
   157         35
   159         75
   160         40
   161         88
   162         36
   163         61
   171         30
   173         63
   174         51
   175         79
   176         35
   177         46
   185         32
   187         73
   188         28
   189         40
   191         30
   201         46
   202         35
   203         34
   211         30
   213         28
   215         30
   227         30
   229        344
   230        101
   231         40
   243         30
   244         46
   245         61
   253         23
   257         41
   269         51
   270         35
   271        116
   272         40
   275         71
   288         91
   289        182
   290         36
   298         40
   299         43
   313         25
   314         38
   327         38
   328         20
   355         35
   356         30
   367         20
   370        111
   371         35
   397         40
   398         83
   399         20
   410         56
   411         20
   412        394
   413        126
   414         20