##TITLE=Library Entry 42083
##JCAMP-DX=Revision 4.10 
##DATA TYPE=MASS SPECTRUM
##SAMPLE DESCRIPTION=Chemical Concepts
##NAMES=HP
##CAS NAME=Silane, (cyclopropylcarbonyl)(1,1-dimethylethyl)dimethyl-
##MOLFORM=C10H20OSi
##CAS REGISTRY NO=105875-66-9
##MP= -300
##BP= -300
##MW= 184
##$RETENTION INDEX=0
##$CONDENSED SPECTRUM=NO
##NPOINTS= 91
##XYDATA=(XY..XY) 1 
    26          2
    27         16
    29         30
    31         17
    35          5
    37          2
    39         33
    40          4
    41         75
    42         12
    43         78
    44         14
    45         73
    46          5
    47         23
    49         13
    51          3
    53          8
    54          4
    55         13
    56         15
    57         43
    58         41
    59        132
    60         12
    61         12
    65          1
    66          2
    67          6
    68          2
    69         42
    70          5
    71         12
    72         16
    73        999
    74         92
    75        192
    76         14
    77          8
    80          2
    81          2
    82          2
    83          8
    84         77
    85        132
    86         50
    87          7
    88          8
    89          1
    95          4
    97         15
    98          6
    99         91
   100         46
   101         24
   102          4
   103          9
   109          4
   110          1
   111         10
   112          2
   113        232
   114         29
   115         73
   116          9
   117          4
   119          2
   121          2
   125          2
   126          1
   127        155
   128        129
   129         52
   130          9
   131          2
   140          4
   141         29
   142          5
   143          4
   145          1
   149          1
   155          1
   156         13
   157          3
   158          1
   169         11
   170          2
   171          1
   183          0
   184          1
   185          1