##TITLE=Library Entry 54961
##JCAMP-DX=Revision 4.10 
##DATA TYPE=MASS SPECTRUM
##SAMPLE DESCRIPTION=V.Zaikin,Topchiev Inst.Petrochem.Synth.,Moscow
##NAMES=HP
##CAS NAME=Pentanoic acid, 2-methylpropyl ester
##MOLFORM=C9H18O2
##CAS REGISTRY NO=10588-10-0
##MP= -300
##BP= -300
##MW= 158
##$RETENTION INDEX=1044
##$CONDENSED SPECTRUM=NO
##NPOINTS= 69
##XYDATA=(XY..XY) 1 
    25          2
    26         19
    27         69
    28         26
    29        158
    30          4
    31          9
    35          4
    36         36
    37          4
    38         12
    39         69
    40         14
    41        250
    42         26
    43         37
    44          3
    45          7
    49          5
    50         24
    51         35
    52         76
    53         17
    54          5
    55         47
    56        540
    57        684
    58         22
    59          5
    60        117
    61         17
    62          1
    65          1
    66          2
    67          2
    69          2
    70          1
    71          7
    72          3
    73         75
    74          7
    75         11
    76          3
    77          2
    78         18
    79        149
    80          9
    82          2
    83          7
    84         12
    85        999
    86         52
    87         12
    91          2
    92          1
    93          5
   100          2
   101          6
   102         22
   103        174
   104          8
   105          1
   115         22
   116         17
   117          2
   128         12
   129          1
   143          1
   158          1