##TITLE=Library Entry 7495
##JCAMP-DX=Revision 4.10 
##DATA TYPE=MASS SPECTRUM
##SAMPLE DESCRIPTION=LAC, NIDDK, NIH, Bethesda, MD 20892
##NAMES=HP
##CAS NAME=Anthraergosta-5,7,9,22-tetren-3-ol hexahydrobenzoate
##MOLFORM=C35H52O2
##CAS REGISTRY NO=105819-17-8
##MP= -300
##BP= -300
##MW= 504
##$RETENTION INDEX=0
##$CONDENSED SPECTRUM=NO
##NPOINTS= 126
##XYDATA=(XY..XY) 1 
    41        442
    43        999
    44         28
    47         18
    49         36
    51         18
    53         59
    55        967
    57        113
    65         16
    67        146
    69        286
    70         61
    71         24
    73         10
    77         27
    79         50
    81        147
    83        270
    84         25
    86          9
    91         30
    93         45
    95         56
    97         32
   105         20
   107         25
   109         33
   111         28
   115         16
   116          2
   117          8
   119          3
   121          3
   123         12
   125         13
   127          5
   128         17
   129         49
   130          2
   137          7
   141         26
   142         45
   143         26
   144          2
   145         13
   146          2
   152          8
   153         29
   154          5
   155         92
   157        180
   158         17
   159          2
   165         54
   166         28
   167         69
   168         30
   169         42
   170         15
   171         17
   172          3
   173         11
   174          3
   178         16
   179         66
   180         31
   181         70
   182         35
   183         87
   184         11
   185         20
   186          2
   191          9
   192         13
   193         60
   194         47
   195        248
   196         88
   197         91
   198          5
   199         12
   203          2
   205         13
   206          5
   207         48
   208         92
   209        191
   210         95
   211         54
   212          6
   213          4
   219          9
   220          6
   221         34
   222         23
   223         46
   224         46
   225         24
   226          2
   233          2
   234          8
   235         54
   236         28
   237         21
   248          5
   249         58
   250         34
   251        152
   252         34
   253          2
   263         14
   264         12
   265          5
   277         17
   278         42
   279         15
   306         16
   333          5
   361          8
   374          4
   375          6
   376        873
   377        286
   378         55
   379          8