##TITLE=Library Entry 10883
##JCAMP-DX=Revision 4.10 
##DATA TYPE=MASS SPECTRUM
##SAMPLE DESCRIPTION=R.T.HOLMAN,UNIVERSITY OF MINNESOTA
##NAMES=HP
##CAS NAME=Hexadecanoic acid, 2-phenyl-1,3-dioxan-5-yl ester, cis-
##MOLFORM=C26H42O4
##CAS REGISTRY NO=10588-87-1
##MP= -300
##BP= -300
##MW= 418
##$RETENTION INDEX=0
##$CONDENSED SPECTRUM=NO
##NPOINTS= 290
##XYDATA=(XY..XY) 1 
    26         12
    27        148
    28         61
    29        441
    30         13
    31         32
    32          3
    33          2
    36          3
    37          3
    38          5
    39         82
    40         20
    41        687
    42        158
    43        999
    44         61
    45         23
    46          2
    47          3
    48          1
    49          2
    50         24
    51         82
    52         17
    53         38
    54         61
    55        589
    56        153
    57        753
    58         76
    59         14
    60         24
    61          8
    62          4
    63         13
    64          5
    65         16
    66          6
    67         82
    68         36
    69        271
    70         69
    71        266
    72         18
    73         33
    74         14
    75         11
    76         15
    77        292
    78        107
    79        241
    80         25
    81         87
    82         37
    83        174
    84         55
    85        164
    86         14
    87         12
    88          3
    89         20
    90         33
    91        271
    92         41
    93         24
    94          8
    95         92
    96         21
    97        112
    98         71
    99         39
   100        225
   101         36
   102          5
   103          8
   104         14
   105        876
   106        148
   107        179
   108         21
   109         51
   110          9
   111         48
   112         18
   113        241
   114         24
   115         11
   116        169
   117         27
   118         22
   119         24
   120         14
   121         19
   122         12
   123         29
   124          7
   125         20
   126          5
   127         28
   128          5
   129        148
   130         15
   131          6
   132          3
   133         12
   134         10
   135         16
   136          5
   137         11
   138          4
   139         13
   140          4
   141          8
   142          5
   143         13
   144         13
   145          6
   146          3
   147          5
   148          3
   149         50
   150          9
   151          6
   152          4
   153          8
   154          3
   155         29
   156          5
   157         36
   158          5
   159          2
   160          2
   161          4
   162        107
   163         71
   164         10
   165         18
   166          4
   167          5
   168          4
   169         76
   170         10
   171         22
   172          4
   173          2
   175          1
   176          1
   177          3
   178          5
   179         22
   180          5
   181          7
   182          2
   183          7
   184          3
   185         28
   186          4
   187          1
   188          1
   189          1
   191          2
   192          2
   193          2
   194          2
   195          3
   196          2
   197         13
   198          4
   199         10
   200          2
   201          1
   202          1
   203          1
   204          2
   205          1
   207          3
   208          2
   209          2
   210          2
   211         17
   212          4
   213         13
   214          3
   215          2
   217          5
   219          4
   220          8
   221          3
   222          2
   223          1
   224          1
   225         11
   226          3
   227         12
   228          3
   229          1
   230          1
   233         33
   234          7
   235          5
   236          5
   237          8
   238          4
   239        225
   240         41
   241         12
   242          2
   243          2
   244          1
   247          6
   248          2
   249          1
   253         46
   254         11
   255         16
   256          6
   257          3
   258          1
   259          1
   261          7
   262          2
   263          2
   264          1
   265          1
   267         14
   268          4
   269         18
   270          4
   271          1
   275          7
   276          2
   277          1
   278          1
   279          1
   281          3
   282          1
   283          9
   284          3
   285          1
   289          9
   290          3
   291          1
   296        169
   297         43
   298          6
   299          2
   300          1
   302          7
   303          2
   304          1
   305          1
   309          1
   310          1
   311         20
   312         30
   313          8
   314          2
   315          1
   316          1
   317          6
   318          2
   319          1
   325          1
   326          1
   327          2
   331          4
   332          2
   333          1
   334          1
   340          4
   341         45
   342         11
   343          2
   344          1
   345          4
   346          2
   347          1
   355          1
   359          1
   360          1
   361          2
   362          1
   389          1
   390          2
   407        128
   408         87
   409         23
   410          4
   411          1