##TITLE=Library Entry 34225
##JCAMP-DX=Revision 4.10 
##DATA TYPE=MASS SPECTRUM
##SAMPLE DESCRIPTION=Chemical Concepts
##NAMES=HP
##CAS NAME=Cyclopropanecarboxylic acid, 2-methyl-2-(4-methyl-3-pentenyl)-, t
rans-(.+-.)-
##MOLFORM=C11H18O2
##CAS REGISTRY NO=105875-70-5
##MP= -300
##BP= -300
##MW= 182
##$RETENTION INDEX=0
##$CONDENSED SPECTRUM=NO
##NPOINTS= 104
##XYDATA=(XY..XY) 1 
    26          5
    27        130
    28         21
    29         97
    30          2
    31          5
    38          5
    39        170
    40         40
    41        752
    42         50
    43        108
    44          4
    45         26
    50          7
    51         25
    52         15
    53        129
    54         28
    55        358
    56         61
    57         28
    58          6
    59         48
    60          5
    61          2
    62          2
    63          7
    64          2
    65         27
    66         17
    67        196
    68        121
    69        999
    70        109
    71         31
    72          4
    73         59
    74          3
    75          6
    76          2
    77         30
    78          7
    79         49
    80         26
    81        193
    82        205
    83        139
    84         23
    85         18
    86          5
    87          2
    88          4
    91         21
    92          9
    93         68
    94         30
    95        234
    96         36
    97         27
    98         10
    99         21
   100         45
   101          9
   103          2
   105          6
   106          2
   107         61
   108         16
   109        158
   110         36
   111         51
   112         16
   113         96
   114         63
   115          6
   119          3
   121         27
   122         67
   123         51
   124         27
   125         35
   126         26
   127         20
   128          5
   135          9
   136         29
   137         57
   138          7
   139         58
   140         28
   141          6
   151          8
   153         15
   154          3
   163          3
   164          7
   165          2
   166          2
   167         14
   168          3
   181          4
   182         36
   183          4