##TITLE=Library Entry 22891
##JCAMP-DX=Revision 4.10 
##DATA TYPE=MASS SPECTRUM
##SAMPLE DESCRIPTION=V.G. Zaikin, R.S.Borisov, TIPS RAS, Moscow, Russia
##NAMES=HP
##CAS NAME=n-Butyl n-undecanoate
##MOLFORM=C15H30O2
##CAS REGISTRY NO=10580-24-2
##MP= -300
##BP= -300
##MW= 242
##$RETENTION INDEX=1671
##$CONDENSED SPECTRUM=NO
##NPOINTS= 103
##XYDATA=(XY..XY) 1 
    27         40
    28         68
    29        170
    30          3
    31         10
    39         57
    40         15
    41        367
    42         75
    43        274
    44         10
    45          9
    53         19
    54         23
    55        295
    56        999
    57        407
    58         21
    59         14
    60        245
    61        117
    62          3
    65          3
    67         28
    68         14
    69         92
    70         20
    71         90
    73        229
    74         25
    75          4
    77          2
    79          7
    80          3
    81         33
    82         15
    83         99
    84         57
    85         91
    86         13
    87         79
    88         10
    89         25
    92          3
    93         10
    94          2
    95         57
    96         15
    97         60
    98         54
    99         13
   100          6
   101         98
   102         10
   103         20
   107          4
   109         19
   110          2
   111         19
   112          8
   113          2
   114          2
   115         43
   116         83
   117         40
   118          3
   121          5
   122          2
   123          3
   124         15
   125         10
   126          6
   128          3
   129        173
   130         14
   131          6
   135          2
   139          5
   140          2
   143         95
   144         10
   145          2
   149         13
   150          4
   151          4
   153          3
   157         25
   158          4
   167          9
   168          5
   169        394
   170         48
   171         10
   185         22
   186         73
   187        645
   188         73
   189          7
   199         14
   200          2
   213          6
   242         18
   243          3