##TITLE=Library Entry 43380
##JCAMP-DX=Revision 4.10 
##DATA TYPE=MASS SPECTRUM
##SAMPLE DESCRIPTION=Exported from NIST MS Search
##NAMES=HP
##CAS NAME=Glucoheptonolactone, 5TMS ether
##MOLFORM=C22H52O7Si5
##CAS REGISTRY NO=10589-41-0
##MP= -300
##BP= -300
##MW= 568
##$RETENTION INDEX=0
##$CONDENSED SPECTRUM=NO
##NPOINTS= 111
##XYDATA=(XY..XY) 1 
    43         10
    45         40
    59         20
    72         20
    73        999
    74         80
    75         80
    89         20
   101         10
   103        110
   104         10
   116         10
   117         60
   129         50
   130         10
   131         20
   133         40
   134         10
   143         50
   147        200
   148         40
   149         40
   157         30
   189         30
   191         20
   193         10
   203         20
   204         50
   205        130
   206         30
   207         10
   217        540
   218        110
   219         50
   220         20
   221         20
   231         70
   232         20
   243         10
   245         20
   246         10
   255         10
   271         10
   291         10
   292         30
   293         10
   305         50
   306         20
   307         30
   318         10
   319         20
   321         20
   331         30
   332         10
   333         10
   334         10
   335         30
   336         10
   345         10
   347         20
   360          7
   361          5
   362          3
   363         19
   364          5
   365          4
   371          3
   373         12
   374         11
   375         11
   376          3
   377          3
   379          4
   380          2
   388          3
   389          6
   390          2
   393          2
   405          5
   406          4
   416          2
   417          3
   421         10
   422          7
   423          3
   424          1
   429          3
   432          2
   433          5
   434          2
   435         18
   436          8
   437          4
   438          2
   463          4
   464          3
   465          3
   466          3
   475          2
   478          2
   479          2
   525          7
   526          5
   527          4
   553          6
   554          3
   555          2
   568         12
   569          7
   570          4
   571          1