##TITLE=Library Entry 26331
##JCAMP-DX=Revision 4.10 
##DATA TYPE=MASS SPECTRUM
##SAMPLE DESCRIPTION=V.G. Zaikin, TIPS RAS, Moscow, Russia
##NAMES=HP
##CAS NAME=2,2-Dimethylpropionic acid, tridecyl ester
##MOLFORM=C18H36O2
##CAS REGISTRY NO=105859-93-6
##MP= -300
##BP= -300
##MW= 284
##$RETENTION INDEX=0
##$CONDENSED SPECTRUM=NO
##NPOINTS= 54
##XYDATA=(XY..XY) 1 
    26         13
    27         71
    28          6
    29        175
    30          3
    31          6
    36          6
    38          6
    39         84
    40         19
    41        343
    42         94
    43        278
    44         25
    45          6
    51          8
    52          3
    53         23
    54         23
    55        172
    56        155
    57        999
    58         41
    59         25
    67         25
    68         29
    69         97
    70         73
    71         92
    72          6
    79          8
    81         11
    82         27
    83         75
    84         45
    85        131
    86          6
    87         17
    96          8
    97         57
    98         24
    99          8
   102          6
   103        411
   104         26
   110          6
   111         29
   112         16
   125         13
   126          6
   154          9
   182         29
   183          6
   227          4