##TITLE=Library Entry 30132
##JCAMP-DX=Revision 4.10 
##DATA TYPE=MASS SPECTRUM
##SAMPLE DESCRIPTION=Japan AIST/NIMC Database- Spectrum MS-IW-4966
##NAMES=HP
##CAS NAME=trans-11-Icosenamide
##MOLFORM=C20H39NO
##CAS REGISTRY NO=10586-57-9
##MP= -300
##BP= -300
##MW= 309
##$RETENTION INDEX=0
##$CONDENSED SPECTRUM=NO
##NPOINTS= 244
##XYDATA=(XY..XY) 1 
    17         13
    18         56
    26          2
    27         39
    28         20
    29        117
    30         10
    31          1
    38          1
    39         42
    40          9
    41        406
    42         74
    43        375
    44        105
    45          4
    46          2
    50          1
    51          3
    52          3
    53         37
    54        141
    55        688
    56        183
    57        289
    58         23
    59        999
    60        256
    61          9
    62          1
    63          1
    65         12
    66          9
    67        203
    68         96
    69        496
    70        181
    71        110
    72        940
    73        115
    74          6
    75          1
    77         13
    78          6
    79         52
    80         41
    81        191
    82        154
    83        395
    84        173
    85         62
    86        132
    87         23
    88          2
    89          1
    91         21
    92          7
    93         39
    94         54
    95        165
    96        177
    97        338
    98        241
    99         51
   100        101
   101         42
   102          4
   103          3
   104          1
   105         15
   106          7
   107         31
   108         54
   109        106
   110        148
   111        161
   112        256
   113         64
   114        144
   115         55
   116          4
   117          3
   118          2
   119         19
   120         12
   121         35
   122        251
   123        121
   124        118
   125         82
   126        282
   127         51
   128        127
   129         17
   130          2
   131          2
   132          1
   133         22
   134         30
   135         31
   136        227
   137        111
   138        109
   139         48
   140         95
   141         22
   142         48
   143          9
   144          1
   145          1
   146          1
   147         17
   148         20
   149         21
   150        104
   151         74
   152         96
   153         33
   154         85
   155         18
   156         44
   157          9
   158          1
   159          1
   160          1
   161         13
   162          9
   163         11
   164         75
   165         44
   166         66
   167         22
   168         36
   169         10
   170         41
   171          8
   172          1
   173          2
   175         12
   176          7
   177          7
   178         72
   179         35
   180         49
   181         15
   182         29
   183          9
   184         34
   185          6
   186          1
   189          7
   190          5
   191          5
   192         67
   193         35
   194         46
   195         12
   196         21
   197         10
   198         29
   199          6
   200          1
   201          3
   203          4
   204          3
   205          4
   206         58
   207         36
   208         49
   209         13
   210         20
   211          9
   212         52
   213         11
   214          1
   217          2
   218          2
   219          2
   220         53
   221         39
   222         28
   223          9
   224         18
   225          6
   226         36
   227         11
   228          2
   231          2
   232          2
   233          2
   234         65
   235         46
   236         26
   237          9
   238         16
   239          5
   240         13
   241          5
   242          1
   245          1
   246          2
   247          1
   248        101
   249         58
   250         56
   251         12
   252         18
   253          5
   254         14
   255          3
   260          1
   261          1
   262         52
   263         38
   264         15
   265          3
   266         56
   267         12
   268         13
   269          3
   273          1
   274          9
   275          2
   276         14
   277          7
   278          2
   280         24
   281          6
   282          3
   283          1
   285          1
   289          4
   290         13
   291        184
   292        232
   293         52
   294         10
   295          1
   307          3
   308          8
   309        512
   310        136
   311         36
   312          7