##TITLE=Library Entry 33941
##JCAMP-DX=Revision 4.10 
##DATA TYPE=MASS SPECTRUM
##SAMPLE DESCRIPTION=J.M. Shreeve, Dep. Chem., Univ. Idaho, Moscow, Idaho, U
SA
##NAMES=HP
##CAS NAME=Ethanamine, 2,2'-azobis[N,N,1,1,2,2-hexafluoro-
##MOLFORM=C4F12N4
##CAS REGISTRY NO=105882-89-1
##MP= -300
##BP= -300
##MW= 332
##$RETENTION INDEX=0
##$CONDENSED SPECTRUM=NO
##NPOINTS= 9
##XYDATA=(XY..XY) 1 
    28        412
    31         99
    50        105
    52          2
    69        999
    81         26
   100        274
   114         46
   119         79