##TITLE=Library Entry 41725
##JCAMP-DX=Revision 4.10 
##DATA TYPE=MASS SPECTRUM
##SAMPLE DESCRIPTION=Chemical Concepts
##NAMES=HP
##CAS NAME=Palladium, [[bis(trimethylsilyl)methylene]-1,2-phenylene]bis(trim
ethylphosphine)-, (sp-4-3)-
##MOLFORM=C19H40P2PdSi2
##CAS REGISTRY NO=105858-65-9
##MP= -300
##BP= -300
##MW= 492
##$RETENTION INDEX=0
##$CONDENSED SPECTRUM=NO
##NPOINTS= 247
##XYDATA=(XY..XY) 1 
    26         28
    27        105
    29         34
    31         31
    33         12
    38          8
    39         38
    40         86
    41         90
    42         27
    43        141
    44         72
    45        398
    46         66
    47         78
    50         14
    51         20
    53         34
    55         29
    56         40
    57        214
    58         70
    59        543
    60         44
    61        617
    62         21
    63         12
    65         12
    66          9
    67         19
    69         10
    71          8
    72          9
    73        999
    74         77
    75        156
    76        391
    77        368
    78         16
    79          8
    83         17
    89         15
    91        785
    92         56
    93         26
   102          9
   103         20
   104          9
   105         84
   106         16
   107         21
   115         25
   117         28
   119         48
   120         16
   121         28
   129         23
   130         11
   131         95
   132         20
   133         56
   135        111
   136         13
   143         73
   144         13
   145        381
   146        298
   147        174
   148        176
   149         75
   150         16
   151         47
   152         16
   153         34
   155         17
   157         11
   159         79
   160         48
   161         94
   162         19
   163         39
   164         28
   165         43
   166         41
   167         56
   168         10
   169         44
   171         15
   175         19
   176          8
   177         26
   178         13
   179         35
   180        100
   181        169
   182        121
   183         71
   184        126
   185         35
   186         46
   187         10
   189         16
   191         34
   192          8
   193          9
   195         12
   203          8
   204         10
   205         34
   206          8
   207         12
   209          9
   210         14
   211         15
   213         12
   215          8
   217         32
   218         13
   219         17
   220         19
   221         46
   222         17
   223         36
   224         40
   225         51
   226          8
   227         39
   229         22
   231         10
   232         10
   233          8
   234         47
   235         22
   236         32
   237         33
   238         27
   239         43
   240         41
   241         36
   242         31
   243         29
   244         11
   245         14
   249         37
   250         53
   251         96
   252         26
   253        200
   254        258
   255        345
   256         67
   257        341
   258         71
   259        151
   260         45
   261         14
   262         18
   263         28
   264         45
   265         78
   266         21
   267         65
   268         28
   269         45
   270          9
   271         41
   272         54
   273         70
   275         56
   277         22
   279          9
   281         12
   282         15
   283         23
   285         20
   286          8
   287         10
   293         13
   294          8
   295        141
   296         38
   297         27
   299         26
   300         13
   301         21
   303         11
   305          7
   307          8
   309         10
   310         14
   311         34
   312         13
   313         10
   314         18
   315         26
   316         24
   318         21
   319         10
   320         12
   321         17
   322         22
   323         49
   324         47
   325         86
   326         31
   327         66
   328         30
   329         42
   331         15
   340         11
   341         22
   342         26
   343         29
   344         26
   345         33
   346         10
   347         17
   371          8
   373          9
   397         17
   398         31
   399         69
   400         78
   401        126
   402         38
   403         90
   404         28
   405         45
   406         10
   414         11
   415         22
   416         26
   417         14
   418         27
   419          9
   420         11
   476         16
   477         27
   479         19
   481         13
   490         14
   491         32
   492         45
   493         12
   494         41
   495         12
   496         26