##TITLE=Library Entry 37010
##JCAMP-DX=Revision 4.10 
##DATA TYPE=MASS SPECTRUM
##SAMPLE DESCRIPTION=Chemical Concepts
##NAMES=HP
##CAS NAME=1-Butanamine, N-(1-propylbutylidene)-
##MOLFORM=C11H23N
##CAS REGISTRY NO=10599-80-1
##MP= -300
##BP= -300
##MW= 169
##$RETENTION INDEX=0
##$CONDENSED SPECTRUM=NO
##NPOINTS= 76
##XYDATA=(XY..XY) 1 
    26          9
    27        114
    28         71
    29        203
    30         53
    31          2
    36          0
    37          1
    38          3
    39         61
    40         15
    41        292
    42         87
    43        149
    44         19
    50          1
    51          4
    52          2
    53         16
    54         37
    55         70
    56         35
    57        142
    58          9
    65          2
    66          2
    67          9
    68         16
    69         23
    70        999
    71        135
    72         20
    73          3
    76          0
    77          4
    79          2
    80          6
    81          6
    82         12
    83          6
    84        134
    85         19
    86         11
    94          3
    95          1
    96         12
    97          6
    98        138
    99         68
   100          5
   105          0
   106          1
   110          5
   111          3
   112         51
   113         42
   114          6
   124          4
   126        136
   127         23
   128         24
   129          2
   136          0
   138          1
   140         51
   141         25
   142          2
   144          1
   152          2
   154         65
   155         11
   165          1
   167          0
   168          6
   169         27
   170          3