##TITLE=Library Entry 15013
##JCAMP-DX=Revision 4.10 
##DATA TYPE=MASS SPECTRUM
##SAMPLE DESCRIPTION=Div. of Experiment Therapeutics WRAIR, WRAMC, Washingto
n DC 20307
##NAMES=HP
##CAS NAME=3a-Cholesterol acetate
##MOLFORM=C29H48O2
##CAS REGISTRY NO=1059-85-4
##MP= -300
##BP= -300
##MW= 428
##$RETENTION INDEX=0
##$CONDENSED SPECTRUM=NO
##NPOINTS= 167
##XYDATA=(XY..XY) 1 
    41        273
    43        999
    44         24
    45          1
    47          4
    49          2
    51          1
    53         31
    55        399
    57        241
    58          8
    61         18
    65         15
    67        142
    69        217
    70          5
    71        112
    72          6
    77         44
    79        193
    81        367
    82         28
    83        152
    84          5
    85         21
    86          9
    91        231
    92         11
    93        194
    94         11
    95        237
    96         30
    97         58
    99          9
   103         11
   104          3
   105        254
   106         21
   107        347
   108         61
   109        128
   110         12
   111         26
   113          1
   115         19
   116          2
   117         82
   118         17
   119        170
   120         44
   121        117
   122         59
   123         72
   124         11
   125         10
   127         26
   128          9
   129         27
   130         13
   131         98
   133        211
   134         76
   135        116
   136         45
   137         18
   138          6
   141         10
   142          8
   143         43
   144         14
   145        116
   146         28
   147        167
   148         30
   149         57
   150          8
   151          7
   152         17
   155          9
   157         36
   158         15
   159         72
   160         15
   161         98
   162         15
   163         16
   165          3
   169          7
   171         35
   172          7
   173         43
   174          9
   175         19
   176          1
   177          6
   179          6
   183          7
   185         26
   186         10
   187         25
   188          7
   189         12
   197          7
   199         25
   200         12
   201         36
   202          8
   203         12
   205          5
   206          6
   207          3
   211          5
   213        176
   214         37
   215         53
   216         22
   217         11
   219          1
   227         20
   228         32
   229        168
   230         36
   231          8
   233          8
   239          5
   241         13
   242          6
   243          5
   245         17
   246          1
   247         13
   253          2
   255         85
   256         18
   257          8
   259         21
   260         32
   261         14
   262          9
   273         20
   274         15
   275         12
   276          9
   287          3
   288         29
   289          6
   302          5
   313          7
   314          8
   315         63
   316         15
   353         44
   354         13
   355          7
   367          5
   368         17
   369         15
   370         16
   371          1
   413        106
   414         30
   415          6
   427          9
   428        486
   429        149
   430         33
   431          5