##TITLE=Library Entry 90079
##JCAMP-DX=Revision 4.10 
##DATA TYPE=MASS SPECTRUM
##SAMPLE DESCRIPTION=NIST Mass Spectrometry Data Center
##NAMES=HP
##CAS NAME=.beta.-Phenoxyethyl methacrylate
##MOLFORM=C12H14O3
##CAS REGISTRY NO=10595-06-9
##MP= -300
##BP= -300
##MW= 206
##$RETENTION INDEX=0
##$CONDENSED SPECTRUM=NO
##NPOINTS= 68
##XYDATA=(XY..XY) 1 
    12          1
    14          2
    15         19
    16          2
    18          1
    19          2
    26         15
    27         38
    28         24
    29         18
    30          1
    31          3
    37         10
    38         44
    39        335
    40         68
    41        621
    42         24
    43         16
    44          4
    45         13
    50         34
    51        123
    52          9
    53         12
    54          3
    55         13
    57          1
    59          2
    61          2
    62          8
    63         30
    64         16
    65        118
    66         32
    67          6
    69        680
    70         29
    71          1
    73          1
    74          6
    75          5
    77        235
    78         22
    79         26
    80          2
    83          1
    85          1
    89          1
    91         53
    92         14
    93         18
    94         53
    95          4
   103          3
   105          3
   107         19
   108          2
   113        999
   114         62
   115          8
   116          1
   119         14
   120         36
   121          6
   133          2
   206         12
   207          1