##TITLE=Library Entry 85529
##JCAMP-DX=Revision 4.10 
##DATA TYPE=MASS SPECTRUM
##SAMPLE DESCRIPTION=MASS SPECTRA OF ORGANIC COMPOUNDS, V. 5, B. H. KENNETT
 ET AL, DIV. OF FOOD RESEARCH, CSIRO, AUSTRALIA
##NAMES=HP
##CAS NAME=1-Propanone, 1-(5-methyl-2-furanyl)-
##MOLFORM=C8H10O2
##CAS REGISTRY NO=10599-69-6
##MP= -300
##BP= -300
##MW= 138
##$RETENTION INDEX=1151
##$CONDENSED SPECTRUM=NO
##NPOINTS= 31
##XYDATA=(XY..XY) 1 
    26         60
    27        320
    29        170
    37         10
    38         40
    39         60
    40         10
    41         30
    42         20
    43        130
    50         50
    51         90
    52         80
    53        300
    54         30
    55         30
    56         10
    57         50
    65         10
    77         10
    79         10
    80         10
    81         30
    82         10
    95         10
   108         10
   109        999
   110        100
   111         10
   138        260
   139         30