##TITLE=Library Entry 22543
##JCAMP-DX=Revision 4.10 
##DATA TYPE=MASS SPECTRUM
##SAMPLE DESCRIPTION=CARL DJERASSI DEPT OF CHEM STANFORD UNIV STANFORD CALIF
 94305
##NAMES=HP
##CAS NAME=Ethanamine, N-pentylidene-
##MOLFORM=C7H15N
##CAS REGISTRY NO=10599-76-5
##MP= -300
##BP= -300
##MW= 113
##$RETENTION INDEX=0
##$CONDENSED SPECTRUM=NO
##NPOINTS= 23
##XYDATA=(XY..XY) 1 
    40         30
    41        280
    42         70
    43        100
    44         30
    52         20
    53         20
    54         60
    55         60
    56        999
    57         90
    58         20
    67         20
    68         40
    69         40
    70         70
    71        770
    72         40
    82         20
    84        260
    85         30
    98         40
   113         40