##TITLE=Library Entry 14868
##JCAMP-DX=Revision 4.10 
##DATA TYPE=MASS SPECTRUM
##SAMPLE DESCRIPTION=LAC, NIDDK, NIH, Bethesda, MD 20892
##NAMES=HP
##CAS NAME=Cholesta-5,7-dien-3-ol, acetate, (3.beta.)-
##MOLFORM=C29H46O2
##CAS REGISTRY NO=1059-86-5
##MP= -300
##BP= -300
##MW= 426
##$RETENTION INDEX=0
##$CONDENSED SPECTRUM=NO
##NPOINTS= 211
##XYDATA=(XY..XY) 1 
    41        226
    43        999
    44         22
    45          3
    49          0
    51          2
    52          0
    53         44
    54          5
    55        236
    57        132
    58          5
    61          6
    65          9
    66          6
    67         96
    68         27
    69        122
    71         75
    72          3
    77         35
    78          5
    79        118
    81        211
    82         33
    83         36
    84          3
    85         10
    91         60
    92          9
    93         62
    94         21
    95         95
    96          4
    97         56
    98          4
    99          3
   103          5
   104          2
   105         57
   106         12
   107         63
   108         14
   109         47
   110         11
   111         14
   112          0
   113          1
   115         10
   116          5
   117         24
   118          8
   119         27
   120          5
   121         30
   122          9
   123         27
   124          7
   125          6
   127          3
   128         11
   129         17
   130          8
   131         32
   132          9
   133         33
   134         31
   135         38
   136          7
   137          7
   138          0
   139          2
   141         21
   142         15
   143        128
   144         27
   145         68
   146         14
   147         20
   148          1
   149         13
   150          3
   151          8
   152         10
   153          4
   154          1
   155         14
   156          7
   157         54
   158        158
   159         57
   160         13
   161         19
   162          5
   163          9
   164          0
   165          4
   166          1
   167          5
   168          5
   169         21
   170          9
   171         20
   172          8
   173         11
   174          3
   175          8
   176          2
   177          4
   179          3
   180          1
   181          6
   182          3
   183         18
   184          6
   185         14
   186          3
   187          8
   189          4
   191          3
   193          4
   194          4
   195          9
   196          6
   197         27
   198         22
   199         27
   200          5
   201          2
   203          3
   205          3
   206          6
   207          3
   209          5
   210          1
   211         35
   212         28
   213         13
   214          3
   215          4
   217          1
   219          3
   221          5
   222          0
   223          4
   224          2
   225          8
   226          7
   227          7
   228          0
   229          1
   231          2
   233          1
   235          0
   237          6
   238          4
   239          6
   240          2
   241          2
   243          2
   245          1
   247          2
   249          2
   251          8
   252          6
   253         46
   254          9
   255          0
   256          1
   257          2
   258          2
   259          5
   261          0
   264          2
   265          3
   266          1
   267          4
   269          1
   275          1
   280          0
   281          2
   285          4
   294          2
   295          0
   308          0
   311          0
   315          3
   323          3
   324          0
   325          3
   337          1
   349          5
   350          3
   351         30
   352          7
   355          2
   363          4
   364          9
   365         35
   366        979
   367        289
   368         37
   369          3
   370          5
   380         10
   381          5
   382          3
   383          3
   398          4
   399          2
   426          2