##TITLE=Library Entry 12451
##JCAMP-DX=Revision 4.10 
##DATA TYPE=MASS SPECTRUM
##SAMPLE DESCRIPTION=K.GRIESBAUM,DEP.PETROCHEM.ORG.TECHNOL.,UNIV.KARLSRUHE,W
.GER.
##NAMES=HP
##CAS NAME=3-[(E)-2-Chloro-1-methyl-1-butenyl]-3-methyl-1,2,4-trioxolane
##MOLFORM=C8H13ClO3
##CAS REGISTRY NO=105949-78-8
##MP= -300
##BP= -300
##MW= 192
##$RETENTION INDEX=0
##$CONDENSED SPECTRUM=NO
##NPOINTS= 127
##XYDATA=(XY..XY) 1 
    37         14
    38         34
    39        287
    40         50
    41        273
    42         52
    43        999
    44         31
    45         59
    46         17
    47          8
    49         37
    50         70
    51        157
    52         51
    53        227
    54         17
    55        106
    56         20
    57         90
    58         13
    59         22
    60         19
    61         50
    62         52
    63        123
    64         17
    65        314
    66         93
    67        769
    68        131
    69        197
    70         20
    71         74
    72         12
    73         47
    74         16
    75        155
    76         16
    77        134
    78         16
    79        106
    80         12
    81        106
    82         12
    83        119
    84         44
    85         80
    86        176
    87         89
    88         16
    89        253
    90         13
    91         77
    92         12
    93         88
    94         76
    95        375
    96         70
    97         72
    98          6
    99         49
   100          9
   101         55
   102         24
   103        114
   104         21
   105        201
   106         17
   107         98
   108          9
   109        117
   110        248
   111        512
   112        162
   113        168
   114         21
   115         53
   116         10
   117        131
   118         22
   119        511
   120        199
   121        182
   122         74
   123         13
   125        391
   126         39
   127        146
   128         20
   129         44
   130         38
   131        821
   132         77
   133        298
   134         24
   135         10
   139          5
   140          4
   141          8
   142         47
   143         27
   144         24
   145        202
   146        845
   147        153
   148        680
   149         61
   150        170
   151         11
   152         12
   156          6
   157          6
   160         33
   161          4
   162         40
   163          5
   164          9
   177         49
   178          4
   179         17
   182          5
   184          5
   192        414
   193         38
   194        146
   196          5