##TITLE=Library Entry 109717
##JCAMP-DX=Revision 4.10 
##DATA TYPE=MASS SPECTRUM
##SAMPLE DESCRIPTION=K.GRIESBAUM,DEP.PETROCHEM.ORG.TECHNOL.,UNIV.KARLSRUHE,W
.GER.
##NAMES=HP
##CAS NAME=cis-3-[(E)-2-Chloro-1-methyl-1-butenyl]-5-methyl-1,2,4-trioxolane
##MOLFORM=C8H13ClO3
##CAS REGISTRY NO=105949-82-4
##MP= -300
##BP= -300
##MW= 192
##$RETENTION INDEX=0
##$CONDENSED SPECTRUM=NO
##NPOINTS= 31
##XYDATA=(XY..XY) 1 
    39        250
    43        420
    44         90
    51        120
    53        250
    65        200
    67        650
    68        140
    69        230
    75        110
    77        110
    79        130
    81        170
    95        160
    97        300
   103        270
   105         90
   107        130
   117        150
   119        170
   120        110
   125        999
   131        210
   132        680
   133        140
   134        230
   148        210
   149         90
   150         80
   192        220
   194         70