##TITLE=Library Entry 490
##JCAMP-DX=Revision 4.10 
##DATA TYPE=MASS SPECTRUM
##SAMPLE DESCRIPTION=J.M. MILLER,BROCK UNIVERSITY,ONTARIO,CANADA
##NAMES=HP
##CAS NAME=Stannane, dibutylbis(pentafluorophenyl)-
##MOLFORM=C20H18F10Sn
##CAS REGISTRY NO=1059-35-4
##MP= -300
##BP= -300
##MW= 568
##$RETENTION INDEX=0
##$CONDENSED SPECTRUM=NO
##NPOINTS= 130
##XYDATA=(XY..XY) 1 
    29        999
    30         27
    39         84
    40         10
    41        652
    42         30
    43         33
    49          2
    50          4
    51          4
    52          2
    53         13
    54          5
    55         97
    56         25
    57        177
    58         31
    82          3
    83          6
    91          3
    92          1
    93          4
    94          2
    95          9
    96          3
    97          5
    98          4
    99          9
   116         12
   117          8
   118         27
   119          9
   120         36
   122          3
   124          5
   135         79
   136         55
   137        127
   138         47
   139        172
   141         17
   143         30
   168         13
   169          2
   200          7
   201          2
   240          2
   283         36
   284         19
   285         66
   286         29
   287         94
   288          8
   289         30
   290          1
   291         13
   293          2
   300          5
   301          1
   302          5
   303          4
   304          2
   305          4
   306          2
   307          6
   340          2
   341          4
   342          5
   343          6
   344          7
   345          7
   373          3
   388          4
   389          1
   397         12
   398          8
   399         20
   400         12
   401         37
   402          5
   403          6
   405          7
   433          3
   434          2
   435          5
   436          4
   437          7
   438          1
   439          1
   441          1
   447          6
   448          1
   449          4
   450          4
   451         97
   452         69
   453        163
   454         80
   455        216
   456         31
   457         33
   458          8
   459         44
   460          8
   490         75
   491         64
   492        136
   493         83
   494        169
   495         27
   496         25
   498         27
   507        211
   508        150
   509        430
   510        186
   511        583
   512         83
   513         73
   514         14
   515         83
   516         13
   564         34
   565         23
   566         55
   567         31
   568         76
   569         13
   570          9
   572         10