##TITLE=Library Entry 22986
##JCAMP-DX=Revision 4.10 
##DATA TYPE=MASS SPECTRUM
##SAMPLE DESCRIPTION=A.A.Kutin, Moscow, Russia
##NAMES=HP
##CAS NAME=Methanimidamide, N'-(2,3-dihydro-1,5-dimethyl-3-oxo-2-phenyl-1H-p
yrazol-4-yl)-N,N-dimethyl-
##MOLFORM=C14H18N4O
##CAS REGISTRY NO=105949-64-2
##MP= -300
##BP= -300
##MW= 258
##$RETENTION INDEX=0
##$CONDENSED SPECTRUM=NO
##NPOINTS= 64
##XYDATA=(XY..XY) 1 
    33         18
    34         11
    38          9
    40         27
    41         29
    42        200
    43         27
    44         94
    46          2
    48          3
    50          4
    51         12
    52          8
    54          8
    56        999
    57        119
    58         46
    63          2
    64         14
    65          5
    67         12
    68          2
    69          4
    71          9
    72         11
    77         31
    79          1
    81          6
    83         69
    84          7
    85         18
    91          8
    92          2
    94          1
    95         27
    96         10
    97          6
    99         46
   104          7
   106          3
   108          1
   109          7
   117          1
   118          3
   119          4
   123         10
   124         22
   129         19
   133          4
   138         16
   139          5
   147          4
   148         30
   152          2
   166          4
   174          2
   180          2
   209          1
   214         10
   237          2
   252          2
   258        333
   259         41
   260          3