##TITLE=Library Entry 60528
##JCAMP-DX=Revision 4.10 
##DATA TYPE=MASS SPECTRUM
##SAMPLE DESCRIPTION=Exported from NIST MS Search
##NAMES=HP
##CAS NAME=Tetrabenzylthiuram disulfide
##MOLFORM=C30H28N2S4
##CAS REGISTRY NO=10591-85-2
##MP= -300
##BP= -300
##MW= 544
##$RETENTION INDEX=0
##$CONDENSED SPECTRUM=NO
##NPOINTS= 58
##XYDATA=(XY..XY) 1 
    41         39
    44         23
    45         78
    50         39
    51         59
    52         20
    62         23
    63         59
    64         59
    65        207
    66         27
    72         20
    76         86
    77         70
    78         23
    79         59
    89         59
    90         39
    91        999
    92        211
    93         12
   104         23
   106        148
   107         23
   116         27
   117         27
   118         12
   120         12
   121         47
   122          8
   123        145
   124         23
   125         16
   140         20
   148         90
   149         63
   150         23
   153         78
   154          8
   155         12
   182         66
   183          8
   184         12
   192         12
   194         20
   195         16
   196         39
   197          8
   239         12
   240        176
   241         59
   242         23
   272         90
   273         66
   274         27
   512         12
   544        203
   545         60