##TITLE=Library Entry 23669
##JCAMP-DX=Revision 4.10 
##DATA TYPE=MASS SPECTRUM
##SAMPLE DESCRIPTION=CARL DJERASSI DEPT OF CHEM STANFORD UNIV STANFORD CALIF
 94305
##NAMES=HP
##CAS NAME=1-Butanamine, N-pentylidene-
##MOLFORM=C9H19N
##CAS REGISTRY NO=10599-77-6
##MP= -300
##BP= -300
##MW= 141
##$RETENTION INDEX=0
##$CONDENSED SPECTRUM=NO
##NPOINTS= 28
##XYDATA=(XY..XY) 1 
    40         60
    41        990
    42        690
    43        210
    44        120
    51         20
    53         40
    54        110
    55        130
    56        720
    57        999
    58         50
    67         20
    68         60
    69        110
    70        270
    71         40
    82         20
    84        760
    85         50
    98        130
    99        200
   100         20
   112        190
   113         30
   125         20
   139         20
   141         60