##TITLE=Library Entry 96999
##JCAMP-DX=Revision 4.10 
##DATA TYPE=MASS SPECTRUM
##SAMPLE DESCRIPTION=NIST Mass Spectrometry Data Center
##NAMES=HP
##CAS NAME=Ethyl 3-hydroxyhexadecanoate
##MOLFORM=C18H36O3
##CAS REGISTRY NO=105918-27-2
##MP= -300
##BP= -300
##MW= 300
##$RETENTION INDEX=2142
##$CONDENSED SPECTRUM=NO
##NPOINTS= 77
##XYDATA=(XY..XY) 1 
    27          5
    29         29
    41         79
    42         26
    43        154
    44         17
    45         19
    47          8
    54         14
    55        113
    56         32
    57        100
    58         11
    59          5
    60         38
    61         40
    67         39
    68         22
    69         85
    70         65
    71        237
    72          9
    73         22
    75         48
    81         35
    82         22
    83         61
    84         30
    85         23
    87          7
    88        153
    89        147
    90          7
    95         31
    96         37
    97         49
    98         25
    99          9
   100          4
   101         33
   102          6
   109         18
   110         16
   111         24
   112          7
   113          5
   114          7
   115         25
   117        999
   118         54
   119         12
   123         14
   124          7
   125         11
   127          9
   137          9
   138          8
   139          5
   141          7
   142          6
   152         14
   153          5
   155         10
   166          5
   167          4
   185          6
   194         18
   195          4
   211         20
   212          4
   213          5
   236         17
   237         10
   238          3
   255          2
   282          3
   299          1