##TITLE=Library Entry 4771
##JCAMP-DX=Revision 4.10 
##DATA TYPE=MASS SPECTRUM
##SAMPLE DESCRIPTION=DC-10-12
##NAMES=HP
##CAS NAME=Methanamine, N-pentylidene-
##MOLFORM=C6H13N
##CAS REGISTRY NO=10599-75-4
##MP= -300
##BP= -300
##MW= 99
##$RETENTION INDEX=0
##$CONDENSED SPECTRUM=NO
##NPOINTS= 19
##XYDATA=(XY..XY) 1 
    41        150
    42        999
    43         30
    44         20
    51         20
    52         20
    53         20
    54         30
    55         30
    56         90
    57        790
    58         30
    68         30
    70        200
    71         20
    84         20
    99          5
   100          2
   101          2