##TITLE=Library Entry 1529
##JCAMP-DX=Revision 4.10 
##DATA TYPE=MASS SPECTRUM
##SAMPLE DESCRIPTION=NIST Mass Spectrometry Data Center
##NAMES=HP
##CAS NAME=3,3'-Thiodipropanol
##MOLFORM=C6H14O2S
##CAS REGISTRY NO=10595-09-2
##MP= -300
##BP= -300
##MW= 150
##$RETENTION INDEX=0
##$CONDENSED SPECTRUM=NO
##NPOINTS= 76
##XYDATA=(XY..XY) 1 
    18          8
    19          9
    23          2
    26         14
    27        167
    28         57
    29        206
    31        999
    33         13
    34         19
    35         83
    37         10
    38         18
    39        139
    40         26
    41        437
    42         53
    43         67
    44         37
    45        276
    46        199
    47        422
    48         46
    49         52
    53         12
    54          9
    55         38
    57        709
    58        647
    59         70
    60         97
    61        970
    62         93
    63        131
    64          6
    65         14
    67         20
    68          9
    69         13
    70         10
    71         33
    72         93
    73        173
    74        132
    75        838
    76         65
    77         48
    79          3
    80          6
    81         10
    83          5
    85         16
    86         10
    87         61
    88         26
    89         19
    90         47
    91        176
    92        121
    93        225
    94         13
    95         12
    99         18
   101         16
   103         18
   105         38
   106          9
   113          5
   114          4
   119         44
   131          4
   132         12
   133          6
   150        618
   151         47
   152         32