##TITLE=Library Entry 4933
##JCAMP-DX=Revision 4.10 
##DATA TYPE=MASS SPECTRUM
##SAMPLE DESCRIPTION=CARL DJERASSI DEPT OF CHEM STANFORD UNIV STANFORD CALIF
 94305
##NAMES=HP
##CAS NAME=Methylamine, N-(1-propylbutylidene)-
##MOLFORM=C8H17N
##CAS REGISTRY NO=10599-78-7
##MP= -300
##BP= -300
##MW= 127
##$RETENTION INDEX=0
##$CONDENSED SPECTRUM=NO
##NPOINTS= 23
##XYDATA=(XY..XY) 1 
    41         70
    42        999
    43        350
    44         30
    53         20
    54         60
    55        120
    56         60
    57         40
    58         20
    68         60
    70         40
    71        350
    72         20
    82         20
    84        820
    85         50
    99         80
   112        130
   113         20
   126         20
   127         40
   128         30