##TITLE=Library Entry 1702
##JCAMP-DX=Revision 4.10 
##DATA TYPE=MASS SPECTRUM
##SAMPLE DESCRIPTION=K.GRIESBAUM,DEP.PETROCHEM.ORG.TECHNOL.,UNIV.KARLSRUHE,W
.GER.
##NAMES=HP
##CAS NAME=(4Z)-5-Chloro-3,4-dimethyl-2,4-heptadiene
##MOLFORM=C9H15Cl
##CAS REGISTRY NO=105949-75-5
##MP= -300
##BP= -300
##MW= 158
##$RETENTION INDEX=0
##$CONDENSED SPECTRUM=NO
##NPOINTS= 48
##XYDATA=(XY..XY) 1 
    37         62
    38        150
    39        999
    40        162
    41        700
    42        100
    49        312
    50        200
    51        575
    52        300
    53        425
    54         87
    55        225
    60         62
    61        100
    62        162
    63        337
    64        112
    65        425
    66        162
    67        325
    68         87
    73         87
    74        112
    75        150
    76         87
    77        562
    78        212
    79        487
    80         75
    81        287
    82         62
    89         75
    91        637
    92        100
    93        362
    94         62
    95        112
   103         62
   105        200
   106         62
   107        487
   108         75
   123        162
   143         62
   145         75
   158        175
   160         87