##TITLE=Library Entry 23033
##JCAMP-DX=Revision 4.10 
##DATA TYPE=MASS SPECTRUM
##SAMPLE DESCRIPTION=Japan AIST/NIMC Database- Spectrum MS-NW- 864
##NAMES=HP
##CAS NAME=Oxirane, (chloromethyl)-
##MOLFORM=C3H5ClO
##CAS REGISTRY NO=106-89-8
##MP= -300
##BP= -300
##MW= 92
##$RETENTION INDEX=725
##$CONDENSED SPECTRUM=NO
##NPOINTS= 51
##XYDATA=(XY..XY) 1 
    12          2
    13          5
    14         19
    15         72
    17          2
    18          8
    24          2
    25         11
    26         95
    27        470
    28        181
    29        268
    30         22
    31        249
    32          3
    35          8
    36         20
    37         13
    38         16
    39         32
    40          4
    41          9
    42         82
    43         41
    44          3
    47          9
    48         10
    49        260
    50          8
    51         85
    52          2
    53          2
    55          8
    56          3
    57        999
    58         32
    59          2
    60         10
    61         41
    62        165
    63         28
    64         54
    65          7
    73          1
    75          2
    76          2
    77          3
    79          2
    91          1
    92          3
    94          1