##TITLE=Library Entry 10829
##JCAMP-DX=Revision 4.10 
##DATA TYPE=MASS SPECTRUM
##SAMPLE DESCRIPTION=RADIAN CORP
##NAMES=HP
##CAS NAME=1,2,3-Propanetriol, 1-acetate
##MOLFORM=C5H10O4
##CAS REGISTRY NO=106-61-6
##MP= -300
##BP= -300
##MW= 134
##$RETENTION INDEX=1093
##$CONDENSED SPECTRUM=NO
##NPOINTS= 22
##XYDATA=(XY..XY) 1 
    14          2
    15         20
    27          8
    28         13
    29         26
    31         28
    32          2
    42         29
    43        999
    44         55
    45         12
    55          2
    56          9
    57         12
    60          4
    61         48
    73         17
    74         48
    86         37
   103        243
   104         12
   116          3