##TITLE=Library Entry 24040
##JCAMP-DX=Revision 4.10 
##DATA TYPE=MASS SPECTRUM
##SAMPLE DESCRIPTION=M.C. HAMMING CONTINENTAL OIL CO., PONCA CITY, OKLA, USA
##NAMES=HP
##CAS NAME=1-Pentanol, 2-ethyl-4-methyl-
##MOLFORM=C8H18O
##CAS REGISTRY NO=106-67-2
##MP= -300
##BP= -300
##MW= 130
##$RETENTION INDEX=955
##$CONDENSED SPECTRUM=NO
##NPOINTS= 79
##XYDATA=(XY..XY) 1 
    13          0
    14          6
    15         34
    16          2
    17          1
    18          4
    19          4
    20          0
    24          0
    25          0
    26         11
    27        202
    28         30
    29        208
    30          8
    31        139
    32          2
    33          3
    37          3
    38          7
    39        135
    40         24
    41        377
    42         65
    43        432
    44         20
    45         25
    46          0
    47          0
    49          0
    50          4
    51         10
    52          4
    53         30
    54         12
    55        268
    56        336
    57        999
    58         45
    59         19
    60          0
    61          0
    62          0
    63          2
    65          4
    66          2
    67         11
    68         13
    69        144
    70         79
    71         25
    72          7
    73          7
    74          0
    75          0
    77          2
    78          0
    79          2
    80          0
    81          3
    82          4
    83        142
    84         46
    85          6
    86          0
    87          0
    91          0
    95          0
    96          0
    97         37
    98         23
    99         30
   100          2
   105          0
   111          1
   112         17
   113          1
   115          1
   130          0