##TITLE=Library Entry 39731
##JCAMP-DX=Revision 4.10 
##DATA TYPE=MASS SPECTRUM
##SAMPLE DESCRIPTION=RADIAN CORP
##NAMES=HP
##CAS NAME=1,2-Ethanediamine, N,N'-diethyl-N,N'-dimethyl-
##MOLFORM=C8H20N2
##CAS REGISTRY NO=106-66-1
##MP= -300
##BP= -300
##MW= 144
##$RETENTION INDEX=0
##$CONDENSED SPECTRUM=NO
##NPOINTS= 28
##XYDATA=(XY..XY) 1 
    15          3
    18          5
    27         10
    28         22
    29         19
    30         12
    32          4
    40          2
    41          6
    42         58
    43         17
    44        206
    45          5
    54          4
    55          2
    56         19
    57         30
    58         21
    59          1
    70         14
    71          8
    72        999
    73         48
    84          2
    85          5
    86         17
   113          1
   144         16