##TITLE=Library Entry 11295
##JCAMP-DX=Revision 4.10 
##DATA TYPE=MASS SPECTRUM
##SAMPLE DESCRIPTION=Japan AIST/NIMC Database- Spectrum MS-NW-6398
##NAMES=HP
##CAS NAME=4-Hydroxy-N-methylpiperidine
##MOLFORM=C6H13NO
##CAS REGISTRY NO=106-52-5
##MP= -300
##BP= -300
##MW= 115
##$RETENTION INDEX=988
##$CONDENSED SPECTRUM=NO
##NPOINTS= 76
##XYDATA=(XY..XY) 1 
    14          7
    15        102
    16          2
    17          2
    18          7
    25          1
    26         23
    27        117
    28         76
    29         66
    30         58
    31         33
    36          1
    37          2
    38          6
    39         49
    40         13
    41         78
    42        557
    43        999
    44        476
    45         26
    46          1
    47          1
    49          1
    50          9
    51         15
    52         20
    53         29
    54         34
    55        189
    56         63
    57        185
    58        169
    59         40
    60          2
    65          1
    66          2
    67          9
    68         26
    69         19
    70        513
    71        215
    72         23
    73          2
    74          2
    77          1
    78          5
    79         21
    80          9
    81         10
    82         48
    83         10
    84         10
    85          1
    86         24
    87         12
    88          1
    93          1
    94         16
    95          5
    96        215
    97         66
    98        279
    99         20
   100         19
   101          2
   109          1
   110          1
   111          1
   112          6
   113          8
   114        688
   115        562
   116         42
   117          2