##TITLE=Library Entry 34264
##JCAMP-DX=Revision 4.10 
##DATA TYPE=MASS SPECTRUM
##SAMPLE DESCRIPTION=NIST Mass Spectrometry Data Center
##NAMES=HP
##CAS NAME=Citronellol
##MOLFORM=C10H20O
##CAS REGISTRY NO=106-22-9
##MP= -300
##BP= -300
##MW= 156
##$RETENTION INDEX=1228
##$CONDENSED SPECTRUM=NO
##NPOINTS= 105
##XYDATA=(XY..XY) 1 
    15         12
    16          1
    17          2
    18          7
    19          8
    25          1
    26          8
    27        173
    28         39
    29        167
    30          8
    31        283
    32          4
    33          1
    37          2
    38          8
    39        250
    40         54
    41        942
    42         93
    43        198
    44         26
    45         37
    46          1
    49          1
    50          9
    51         31
    52         15
    53        150
    54         46
    55        480
    56        249
    57        111
    58          9
    59          6
    60          1
    62          2
    63          8
    64          2
    65         41
    66         19
    67        587
    68        276
    69        999
    70        168
    71        271
    72         16
    73          3
    74          1
    75          1
    76          1
    77         38
    78          8
    79         56
    80         38
    81        515
    82        498
    83        126
    84         26
    85         27
    86         25
    87          5
    89          1
    91         24
    92          3
    93         23
    94         23
    95        448
    96         90
    97         18
    98          4
    99         12
   100          4
   101          1
   103          1
   104          1
   105          4
   106          1
   107          7
   108          3
   109        180
   110         66
   111         18
   112         13
   113          5
   114          1
   115          1
   117          2
   119          2
   121          7
   123        248
   124         26
   125          2
   128          1
   132          1
   134          1
   136          2
   137          2
   138         99
   139         13
   140          1
   141          1
   154          1
   156         53
   157          7