##TITLE=Library Entry 28029
##JCAMP-DX=Revision 4.10 
##DATA TYPE=MASS SPECTRUM
##SAMPLE DESCRIPTION=Japan AIST/NIMC Database- Spectrum MS-NW-9327
##NAMES=HP
##CAS NAME=Piperazine, 2,5-dimethyl-
##MOLFORM=C6H14N2
##CAS REGISTRY NO=106-55-8
##MP= -300
##BP= -300
##MW= 114
##$RETENTION INDEX=0
##$CONDENSED SPECTRUM=NO
##NPOINTS= 67
##XYDATA=(XY..XY) 1 
    14          1
    15         17
    16          1
    26          4
    27         29
    28        179
    29         37
    30        399
    31         34
    32         12
    37          1
    38          2
    39         35
    40         12
    41        136
    42        268
    43        120
    44        402
    45         29
    46          1
    47          1
    48          9
    49          5
    51          1
    52          3
    53          2
    54         17
    55         13
    56        214
    57         96
    58        999
    59         43
    60          7
    65          1
    66          1
    67          7
    68         26
    69         11
    70        184
    71         95
    72         34
    73          6
    74          3
    75          1
    76          2
    80          2
    81          3
    82         11
    83         16
    84         35
    85          8
    86          8
    94          1
    95          4
    96          3
    97          7
    98         10
    99        265
   100         19
   108          9
   109          3
   110          2
   111          3
   112          6
   113         18
   114         69
   115         10