##TITLE=Library Entry 6130
##JCAMP-DX=Revision 4.10 
##DATA TYPE=MASS SPECTRUM
##SAMPLE DESCRIPTION=H. Fales, LC, NHLBI, NIH, Bethesda, MD 20892
##NAMES=HP
##CAS NAME=Octadecanoic acid, 2-(2-hydroxyethoxy)ethyl ester
##MOLFORM=C22H44O4
##CAS REGISTRY NO=106-11-6
##MP= -300
##BP= -300
##MW= 372
##$RETENTION INDEX=0
##$CONDENSED SPECTRUM=NO
##NPOINTS= 168
##XYDATA=(XY..XY) 1 
    41        696
    42        184
    43        999
    44         69
    45        223
    46          3
    47         11
    48          1
    49         31
    51         12
    52          1
    53         39
    54         56
    55        647
    56        158
    57        593
    58         32
    59         40
    60        661
    61        171
    62          3
    63          1
    65          7
    66          4
    67         68
    68         52
    69        319
    70         93
    71        287
    73        615
    74         47
    75         25
    76          7
    77          6
    78          3
    79         19
    80          7
    81         48
    82         44
    83        209
    84        112
    85        178
    87        162
    88         43
    89         15
    91          5
    93         11
    94          5
    95         34
    96         36
    97        172
    98        112
    99         65
   100          0
   101         68
   102         19
   103          4
   104          2
   105          2
   106          0
   107         13
   108          2
   109         14
   110         16
   111         59
   112         31
   113         27
   115         85
   116         36
   117          3
   118          1
   119          1
   121         12
   122          1
   123          7
   124         10
   125         35
   126         11
   127         19
   129        235
   130         37
   131          3
   135          8
   137          4
   138         10
   139         15
   140          8
   141         12
   143         47
   144          7
   145          1
   147          1
   148         16
   149          5
   151          2
   152          4
   153          6
   154         10
   155         12
   156          1
   157         52
   158         10
   161          3
   163          3
   165          1
   166          8
   167          4
   168          7
   169          5
   171         77
   172         13
   173          1
   177          0
   180          2
   181          2
   182          3
   183          3
   184          1
   185        121
   186         16
   187          0
   194          8
   195          3
   196          9
   197          4
   199         45
   200          6
   209          1
   210          2
   211          7
   213         79
   214         11
   215          0
   220          2
   222          9
   223          2
   224          7
   225          5
   227         40
   228         21
   229          3
   237          2
   238          1
   239         14
   241         82
   242         16
   243          2
   248          2
   253          1
   255         15
   256         24
   257          5
   258          0
   265          2
   266          1
   267         10
   268          1
   269          1
   270         18
   271          4
   282          1
   283          5
   284        392
   285         87
   286         12
   311          2
   312          0
   372          0