##TITLE=Library Entry 61887
##JCAMP-DX=Revision 4.10 
##DATA TYPE=MASS SPECTRUM
##SAMPLE DESCRIPTION=Japan AIST/NIMC Database- Spectrum MS-NW-8668
##NAMES=HP
##CAS NAME=Benzenethiol, 4-methyl-
##MOLFORM=C7H8S
##CAS REGISTRY NO=106-45-6
##MP= -300
##BP= -300
##MW= 124
##$RETENTION INDEX=1048
##$CONDENSED SPECTRUM=NO
##NPOINTS= 81
##XYDATA=(XY..XY) 1 
    26          3
    27         17
    28          1
    32          2
    33          2
    34          2
    37          8
    38         15
    39         79
    40          6
    41          9
    43          1
    44          4
    45        122
    46          3
    47          9
    48          1
    49          5
    50         29
    51         48
    52         13
    53         22
    54          1
    57          7
    58         12
    59          8
    60          9
    61         19
    62         38
    63         56
    64         10
    65         81
    66          8
    67          1
    68          2
    69         56
    70         12
    71         18
    72          2
    73          3
    74          8
    75          6
    76          3
    77         84
    78         28
    79        101
    80         23
    81          6
    82         12
    83          6
    84         15
    85          5
    86          6
    87          4
    88          1
    89         44
    90         37
    91        999
    92         80
    93         10
    94          2
    95         11
    96          6
    97         29
    98          6
    99          1
   105          1
   106          1
   107          1
   108         18
   109         20
   110          2
   111          1
   117          1
   121         40
   122         10
   123        208
   124        925
   125         88
   126         43
   127          3