##TITLE=Library Entry 2961
##JCAMP-DX=Revision 4.10 
##DATA TYPE=MASS SPECTRUM
##SAMPLE DESCRIPTION=Exported from NIST MS Search
##NAMES=HP
##CAS NAME=1-Butene
##MOLFORM=C4H8
##CAS REGISTRY NO=106-98-9
##MP= -300
##BP= -300
##MW= 56
##$RETENTION INDEX=386
##$CONDENSED SPECTRUM=NO
##NPOINTS= 31
##XYDATA=(XY..XY) 1 
     2          1
    15         22
    16          1
    19          1
    20          1
    24          1
    25          9
    26         82
    27        251
    28        270
    29        125
    30          4
    36          2
    37         26
    38         43
    39        339
    40         64
    41        999
    42         33
    43          1
    48          3
    49         16
    50         51
    51         42
    52         13
    53         54
    54         24
    55        181
    56        388
    57         17
    58          1