##TITLE=Library Entry 3427
##JCAMP-DX=Revision 4.10 
##DATA TYPE=MASS SPECTRUM
##SAMPLE DESCRIPTION=Mark Whitten, Florida Museum of Natural History, U. of
 Florida
##NAMES=HP
##CAS NAME=trans-Farnesol
##MOLFORM=C15H26O
##CAS REGISTRY NO=106-28-5
##MP= -300
##BP= -300
##MW= 222
##$RETENTION INDEX=1722
##$CONDENSED SPECTRUM=NO
##NPOINTS= 92
##XYDATA=(XY..XY) 1 
    41        999
    42         60
    43        152
    44         12
    45         10
    50          5
    51         23
    53        149
    54         19
    55        144
    56         21
    57         86
    58          4
    59          5
    62          1
    63          4
    65         34
    67        198
    68        158
    69        994
    70         73
    71         38
    72          4
    73          1
    77         53
    78         11
    79         73
    80         49
    81        291
    82         46
    83         35
    84         45
    85         11
    86          1
    89          1
    91         53
    92         25
    93        174
    94         32
    95        101
    96         14
    97         17
    98          4
    99          1
   103          3
   105         27
   106          7
   107         87
   108         20
   109         68
   110         12
   111         15
   112          3
   115          2
   117          2
   119         27
   120         11
   121         63
   122         29
   123         50
   124         10
   125          2
   126          1
   127         20
   128          2
   133         11
   134          7
   135         23
   136         63
   137         26
   138         20
   139          6
   140          4
   147          7
   148          8
   149          6
   151          4
   152          3
   153          2
   161         19
   162          5
   163          1
   166          2
   179         11
   180          3
   189          9
   190          1
   191         12
   192          1
   204          3
   207          2
   222          3