##TITLE=Library Entry 5739
##JCAMP-DX=Revision 4.10 
##DATA TYPE=MASS SPECTRUM
##SAMPLE DESCRIPTION=Japan AIST/NIMC Database- Spectrum MS-NW-5066
##NAMES=HP
##CAS NAME=Propane, 1-bromo-
##MOLFORM=C3H7Br
##CAS REGISTRY NO=106-94-5
##MP= -300
##BP= -300
##MW= 122
##$RETENTION INDEX=627
##$CONDENSED SPECTRUM=NO
##NPOINTS= 43
##XYDATA=(XY..XY) 1 
    14          4
    15         15
    25          2
    26         23
    27        255
    28         15
    29         39
    31          1
    36          5
    37         11
    38         21
    39         89
    40         20
    41        309
    42         76
    43        999
    44         34
    55          1
    57          1
    59          1
    61          5
    71          1
    73          3
    79          9
    80          9
    81          8
    82          8
    91          2
    92          1
    93         10
    94          4
    95          9
    96          3
   105          2
   106          2
   107         14
   108          1
   109         11
   121          3
   122         85
   123          6
   124         82
   125          3