##TITLE=Library Entry 23052
##JCAMP-DX=Revision 4.10 
##DATA TYPE=MASS SPECTRUM
##SAMPLE DESCRIPTION=Exported from NIST MS Search
##NAMES=HP
##CAS NAME=3-Heptanone
##MOLFORM=C7H14O
##CAS REGISTRY NO=106-35-4
##MP= -300
##BP= -300
##MW= 114
##$RETENTION INDEX=887
##$CONDENSED SPECTRUM=NO
##NPOINTS= 66
##XYDATA=(XY..XY) 1 
    13          2
    14          8
    15         31
    16          1
    18          1
    19          1
    25          1
    26         70
    27        405
    28        135
    29        685
    30         16
    31         17
    32          1
    37          5
    38         12
    39        108
    40         15
    41        248
    42         52
    43        124
    44          7
    45          7
    49          1
    50          7
    51          9
    52          4
    53         16
    54          7
    55         46
    56         28
    57        999
    58         49
    59         28
    60          1
    61          1
    62          1
    63          1
    65          1
    66          1
    67          3
    68          1
    69         19
    70          3
    71         22
    72        199
    73         13
    74          1
    77          1
    78          1
    79          1
    81          1
    83          2
    84          2
    85        300
    86         18
    87          9
    88          1
    91          1
    92          1
    98          1
    99          3
   100          1
   114        127
   115         12
   116          1