##TITLE=Library Entry 35303
##JCAMP-DX=Revision 4.10 
##DATA TYPE=MASS SPECTRUM
##SAMPLE DESCRIPTION=Philip Morris R&D
##NAMES=HP
##CAS NAME=Butanoic acid, 3,7-dimethyl-2,6-octadienyl ester, (E)-
##MOLFORM=C14H24O2
##CAS REGISTRY NO=106-29-6
##MP= -300
##BP= -300
##MW= 224
##$RETENTION INDEX=1562
##$CONDENSED SPECTRUM=NO
##NPOINTS= 93
##XYDATA=(XY..XY) 1 
    36          9
    37          3
    38         10
    39         80
    40         26
    41        553
    42         32
    43        346
    44         26
    45          8
    46          2
    47          1
    49          4
    50          5
    51         14
    52          6
    53         61
    54          6
    55         33
    56          7
    57          7
    58          1
    59          4
    60          4
    61          1
    62          1
    63          3
    65         21
    66          5
    67        149
    68        530
    69        999
    70         53
    71        553
    72         29
    73          4
    77         23
    78          6
    79         42
    80        219
    81         86
    82         12
    83          9
    84         26
    85         33
    86          5
    87          1
    89          7
    90          0
    91         34
    92         76
    93        374
    94         77
    95         24
    96          5
    97          4
    98          7
    99          1
   103          2
   104          0
   105         11
   106          2
   107         58
   108         16
   109          6
   110          2
   111          6
   112          2
   113          1
   117          0
   119          4
   120          1
   121        186
   122         20
   123         25
   124          2
   125          0
   126          0
   127          0
   129          3
   133          0
   135          3
   136        125
   137         19
   138          1
   139          5
   142          0
   153          0
   154         17
   155          9
   156          0
   187          0
   224          1