##TITLE=Library Entry 3011
##JCAMP-DX=Revision 4.10 
##DATA TYPE=MASS SPECTRUM
##SAMPLE DESCRIPTION=Japan AIST/NIMC Database- Spectrum MS-NW-5739
##NAMES=HP
##CAS NAME=Oxirane, [(2-propenyloxy)methyl]-
##MOLFORM=C6H10O2
##CAS REGISTRY NO=106-92-3
##MP= -300
##BP= -300
##MW= 114
##$RETENTION INDEX=869
##$CONDENSED SPECTRUM=NO
##NPOINTS= 62
##XYDATA=(XY..XY) 1 
    12          1
    13          2
    14         14
    15         92
    16          2
    25          4
    26         42
    27        249
    28         67
    29        351
    30         51
    31        375
    32          4
    33          1
    34          1
    37          9
    38         21
    39        260
    40         46
    41        999
    42         57
    43        127
    44         35
    45         42
    46          2
    47          1
    50          1
    51          1
    52          1
    53          7
    54         11
    55        135
    56         27
    57        833
    58        244
    59         16
    60          2
    61          3
    65          1
    66          3
    67          5
    68          9
    69         14
    70         14
    71         50
    72          4
    73          9
    74          1
    81          4
    82          1
    83         31
    84         25
    85          4
    86          1
    87          2
    95          4
    97          1
    98          1
    99          1
   113          3
   114          1
   115          1