##TITLE=Library Entry 61908
##JCAMP-DX=Revision 4.10 
##DATA TYPE=MASS SPECTRUM
##SAMPLE DESCRIPTION=NIST Mass Spectrometry Data Center, 1990.
##NAMES=HP
##CAS NAME=Benzene, 1-chloro-4-methyl-
##MOLFORM=C7H7Cl
##CAS REGISTRY NO=106-43-4
##MP= -300
##BP= -300
##MW= 126
##$RETENTION INDEX=959
##$CONDENSED SPECTRUM=NO
##NPOINTS= 44
##XYDATA=(XY..XY) 1 
    14          3
    26          7
    27         15
    37         17
    38         26
    39         67
    40          6
    41          6
    43         15
    44          9
    45         23
    49         16
    50         64
    51         53
    52          8
    60          8
    61         35
    62         70
    63        159
    64         28
    65        119
    66          5
    72          7
    73         41
    74         26
    75         36
    76          6
    84          7
    85         16
    86         20
    87         15
    88          6
    89        133
    90          6
    91        999
    92         77
    97          6
    99         31
   101          8
   125        129
   126        300
   127         61
   128         95
   129          7