##TITLE=Library Entry 7896
##JCAMP-DX=Revision 4.10 
##DATA TYPE=MASS SPECTRUM
##SAMPLE DESCRIPTION=Japan AIST/NIMC Database- Spectrum MS-NW-2110
##NAMES=HP
##CAS NAME=3-Octanone
##MOLFORM=C8H16O
##CAS REGISTRY NO=106-68-3
##MP= -300
##BP= -300
##MW= 128
##$RETENTION INDEX=986
##$CONDENSED SPECTRUM=NO
##NPOINTS= 60
##XYDATA=(XY..XY) 1 
    14          2
    15         12
    17          2
    18         11
    26         16
    27        205
    28         45
    29        574
    30         11
    31          7
    32          4
    37          1
    38          5
    39         79
    40         12
    41        170
    42         41
    43        999
    44         34
    45          4
    50          3
    51          6
    52          1
    53         15
    54          8
    55         87
    56         27
    57        921
    58         45
    59          7
    63          1
    65          2
    67          6
    68          3
    69          8
    70          7
    71        517
    72        672
    73         77
    74          4
    77          1
    79          1
    80          1
    81         12
    82          2
    83          3
    84          1
    85         94
    86         32
    87          2
    97          2
    98          2
    99        514
   100         36
   101          2
   110          1
   111          1
   114          2
   128        122
   129         11