##TITLE=Library Entry 3388
##JCAMP-DX=Revision 4.10 
##DATA TYPE=MASS SPECTRUM
##SAMPLE DESCRIPTION=Exported from NIST MS Search
##NAMES=HP
##CAS NAME=Citronellal
##MOLFORM=C10H18O
##CAS REGISTRY NO=106-23-0
##MP= -300
##BP= -300
##MW= 154
##$RETENTION INDEX=1153
##$CONDENSED SPECTRUM=NO
##NPOINTS= 60
##XYDATA=(XY..XY) 1 
    15          5
    27        202
    29        215
    31         13
    39        213
    40         43
    41        999
    42         98
    43        247
    44         17
    45          4
    51         17
    52         10
    53        114
    54         32
    55        407
    56        239
    57         92
    58          7
    59         29
    65         26
    66         10
    67        235
    68        113
    69        642
    70        112
    71        121
    72         33
    77         26
    79         58
    80         35
    81        125
    82         49
    83        110
    84        139
    85         26
    91         18
    92         13
    93         91
    94         32
    95        302
    96         46
    97         68
    98         65
    99          6
   107         24
   109         82
   110         95
   111        115
   112         62
   121        151
   122         13
   123         20
   136         74
   137          9
   139         49
   140          5
   154        108
   155         12
   156          0