##TITLE=Library Entry 34427
##JCAMP-DX=Revision 4.10 
##DATA TYPE=MASS SPECTRUM
##SAMPLE DESCRIPTION=NIST Mass Spectrometry Data Center
##NAMES=HP
##CAS NAME=2,6-Octadien-1-ol, 3,7-dimethyl-, (Z)-
##MOLFORM=C10H18O
##CAS REGISTRY NO=106-25-2
##MP= -300
##BP= -300
##MW= 154
##$RETENTION INDEX=1228
##$CONDENSED SPECTRUM=NO
##NPOINTS= 94
##XYDATA=(XY..XY) 1 
    15          2
    19          1
    26          3
    27         55
    28          9
    29         68
    30          2
    31         19
    37          1
    38          6
    39        162
    40         34
    41        660
    42         44
    43         80
    44          9
    45          6
    50         11
    51         35
    52         17
    53        136
    54         20
    55        116
    56         36
    57         37
    58          3
    59         19
    60          1
    61          1
    62          3
    63          9
    64          2
    65         34
    66         13
    67        185
    68        211
    69        999
    70         87
    71         82
    72         14
    73          1
    74          1
    75          1
    77         51
    78         10
    79         66
    80        120
    81         66
    82         16
    83        110
    84        184
    85         29
    86          4
    87          1
    89          1
    91         60
    92         57
    93        289
    94         43
    95         34
    96         24
    97         63
    98         26
    99          3
   102          1
   103          4
   104          1
   105         24
   106          5
   107         37
   108          9
   109         15
   110         19
   111         73
   112         19
   113          1
   115          2
   117          1
   119          6
   120          2
   121        107
   122         12
   123         82
   124          8
   125          2
   126          2
   135          1
   136         32
   137          5
   139         47
   140          5
   153          1
   154         16
   155          2