##TITLE=Library Entry 84698
##JCAMP-DX=Revision 4.10 
##DATA TYPE=MASS SPECTRUM
##SAMPLE DESCRIPTION=Japan AIST/NIMC Database- Spectrum MS-NW-1277
##NAMES=HP
##CAS NAME=p-Benzoquinone
##MOLFORM=C6H4O2
##CAS REGISTRY NO=106-51-4
##MP= -300
##BP= -300
##MW= 108
##$RETENTION INDEX=912
##$CONDENSED SPECTRUM=NO
##NPOINTS= 48
##XYDATA=(XY..XY) 1 
    12          4
    13          5
    14          2
    18         23
    24          9
    25         67
    26        526
    27         22
    28         23
    29          6
    31          3
    36         15
    37         41
    38         24
    39          7
    40          2
    41         20
    42          2
    44          3
    48          7
    49         29
    50         69
    51         61
    52        229
    53        192
    54        974
    55         40
    56          2
    60         11
    61         28
    62         20
    63         12
    64          3
    69          1
    73          2
    74          2
    77          2
    78          3
    79          9
    80        342
    81         22
    82        421
    83         17
    84          2
   108        999
   109         67
   110         25
   111          1