##TITLE=Library Entry 51253
##JCAMP-DX=Revision 4.10 
##DATA TYPE=MASS SPECTRUM
##SAMPLE DESCRIPTION=NIST Mass Spectrometry Data Center, 2010
##NAMES=HP
##CAS NAME=5-Heptenal, 2,6-dimethyl-
##MOLFORM=C9H16O
##CAS REGISTRY NO=106-72-9
##MP= -300
##BP= -300
##MW= 140
##$RETENTION INDEX=1052
##$CONDENSED SPECTRUM=NO
##NPOINTS= 38
##XYDATA=(XY..XY) 1 
    27         41
    29         38
    38          9
    39        114
    40         24
    41        393
    42         47
    43         55
    52         11
    53         80
    54         38
    55        208
    56        130
    57         35
    58         20
    62          2
    65         25
    66         12
    67        563
    68         55
    69        324
    70         57
    72          9
    77         22
    79         34
    80          7
    81         58
    82        999
    83        125
    84         24
    94          5
    97         11
   107         30
   109          4
   110          3
   112          2
   140         41
   141          5