##TITLE=Library Entry 23144
##JCAMP-DX=Revision 4.10 
##DATA TYPE=MASS SPECTRUM
##SAMPLE DESCRIPTION=Chuck Anderson, Aldrich Chemical Co.
##NAMES=HP
##CAS NAME=Propanoic acid, propyl ester
##MOLFORM=C6H12O2
##CAS REGISTRY NO=106-36-5
##MP= -300
##BP= -300
##MW= 116
##$RETENTION INDEX=807
##$CONDENSED SPECTRUM=NO
##NPOINTS= 41
##XYDATA=(XY..XY) 1 
    14          3
    15         15
    16          0
    19          0
    25          1
    26         34
    27        273
    28         86
    29        609
    30         27
    31         84
    32          1
    36          0
    37          1
    38          5
    39         54
    40          9
    41        148
    42         99
    43        204
    44          7
    45          5
    53          1
    54          0
    55          9
    56         16
    57        999
    58         35
    59         49
    60          1
    73         11
    74         35
    75        521
    76         17
    77          2
    86         13
    87        142
    88          6
    89          0
   115          0
   117          0