##TITLE=Library Entry 28931
##JCAMP-DX=Revision 4.10 
##DATA TYPE=MASS SPECTRUM
##SAMPLE DESCRIPTION=RADIAN CORP
##NAMES=HP
##CAS NAME=Hexanedioic acid, bis(2-methoxyethyl) ester
##MOLFORM=C12H22O6
##CAS REGISTRY NO=106-00-3
##MP= -300
##BP= -300
##MW= 262
##$RETENTION INDEX=0
##$CONDENSED SPECTRUM=NO
##NPOINTS= 82
##XYDATA=(XY..XY) 1 
    15         18
    26          5
    27         34
    29        147
    30          7
    31         88
    33          3
    39         31
    40          2
    41         85
    42         59
    43        136
    44          6
    45        503
    46         11
    53         15
    54         18
    55        441
    56        104
    57         19
    58        999
    59        923
    60         36
    61          2
    67          8
    68         23
    69         33
    70          2
    71          6
    72          4
    73         10
    74          5
    75          8
    77          8
    81          8
    82         23
    83        235
    84        112
    85         19
    86         29
    87          5
    88          7
    89          6
    97          8
    98          9
    99         54
   100         17
   101         44
   109          4
   110          1
   111        973
   112        100
   113         82
   114         10
   115          9
   118         52
   125          2
   126         23
   127         21
   128         27
   129         60
   130          5
   131         17
   132          2
   140          3
   141         49
   142          6
   143         22
   145         68
   146          5
   155        296
   156         54
   157          6
   158         86
   159         10
   160          9
   169         82
   170          8
   186         13
   187        232
   188         23
   232          4