##TITLE=Library Entry 34088
##JCAMP-DX=Revision 4.10 
##DATA TYPE=MASS SPECTRUM
##SAMPLE DESCRIPTION=Chuck Anderson, Aldrich Chemical Co.
##NAMES=HP
##CAS NAME=2-Propenoic acid, 2-methyl-, oxiranylmethyl ester
##MOLFORM=C7H10O3
##CAS REGISTRY NO=106-91-2
##MP= -300
##BP= -300
##MW= 142
##$RETENTION INDEX=0
##$CONDENSED SPECTRUM=NO
##NPOINTS= 86
##XYDATA=(XY..XY) 1 
    13          0
    14          2
    15         12
    16          0
    19          1
    25          1
    26         16
    27         88
    28         38
    29        125
    30          8
    31        118
    32          1
    33          0
    36          0
    37          8
    38         22
    39        224
    40         58
    41        629
    42         33
    43         29
    44          9
    45         14
    46          0
    47          0
    49          0
    50          0
    51          0
    52          0
    53          9
    54          4
    55         23
    56         71
    57         25
    58          5
    59          4
    60          0
    61          0
    63          0
    65          0
    66          1
    67          2
    68         34
    69        999
    70         43
    71          5
    72          1
    73          4
    74          0
    75          0
    77          0
    78          0
    79          0
    80          0
    81          2
    82          5
    83          4
    84         11
    85          6
    86         16
    87         18
    88          0
    89          0
    93          0
    94          0
    95          2
    96          2
    97         15
    98          1
    99          5
   100          1
   101          0
   109          0
   111          2
   112         13
   113          1
   114          2
   115          0
   123          0
   124          0
   125          0
   127          0
   141          2
   142          0
   143          0