##TITLE=Library Entry 44748
##JCAMP-DX=Revision 4.10 
##DATA TYPE=MASS SPECTRUM
##SAMPLE DESCRIPTION=NIST Mass Spectrometry Data Center
##NAMES=HP
##CAS NAME=Hexanoic acid, methyl ester
##MOLFORM=C7H14O2
##CAS REGISTRY NO=106-70-7
##MP= -300
##BP= -300
##MW= 130
##$RETENTION INDEX=925
##$CONDENSED SPECTRUM=NO
##NPOINTS= 60
##XYDATA=(XY..XY) 1 
    14          1
    15         15
    26          7
    27         62
    28         20
    29         68
    30          3
    31         11
    33          2
    37          1
    38          5
    39         87
    40         17
    41        169
    42        116
    43        375
    44         19
    45         25
    48          1
    50          2
    51          2
    52          2
    53         21
    54          8
    55        185
    56         28
    57         52
    59        274
    60         11
    61          4
    62          1
    63          1
    66          1
    67          6
    68          4
    69         40
    70         45
    71        107
    72          7
    74        999
    75         59
    76          6
    80          4
    81          4
    83          8
    85          1
    87        403
    88         55
    89          4
    97          8
    98          8
    99        273
   100         20
   101        117
   102          8
   113          1
   115          1
   129          2
   130          4
   131          6