##TITLE=Library Entry 18859
##JCAMP-DX=Revision 4.10 
##DATA TYPE=MASS SPECTRUM
##SAMPLE DESCRIPTION=NIST Mass Spectrometry Data Center, 1998.
##NAMES=HP
##CAS NAME=2-Propenoic acid, oxiranylmethyl ester
##MOLFORM=C6H8O3
##CAS REGISTRY NO=106-90-1
##MP= -300
##BP= -300
##MW= 128
##$RETENTION INDEX=0
##$CONDENSED SPECTRUM=NO
##NPOINTS= 42
##XYDATA=(XY..XY) 1 
    14          2
    15          8
    25          3
    26         27
    27        142
    28         15
    29         48
    30          4
    31         41
    37          2
    38          3
    39          9
    40          2
    41          8
    42         18
    43         27
    44          8
    45         17
    46          1
    52          1
    53         10
    54          8
    55        999
    56         87
    57          9
    58          1
    68          4
    69          4
    70         18
    71          4
    72          3
    73         18
    74          1
    81          1
    82          1
    83          1
    85          7
    86          1
    97          2
    98          6
    99          1
   127          2