##TITLE=Library Entry 3273
##JCAMP-DX=Revision 4.10 
##DATA TYPE=MASS SPECTRUM
##SAMPLE DESCRIPTION=Chemical Concepts
##NAMES=HP
##CAS NAME=2,6-Octadienal, 3,7-dimethyl-, (Z)-
##MOLFORM=C10H16O
##CAS REGISTRY NO=106-26-3
##MP= -300
##BP= -300
##MW= 152
##$RETENTION INDEX=1240
##$CONDENSED SPECTRUM=NO
##NPOINTS= 93
##XYDATA=(XY..XY) 1 
    26         28
    27        254
    28         51
    29        120
    30          3
    31          8
    37          7
    38         21
    39        248
    40         48
    41        999
    42         46
    43         66
    44          6
    45          3
    49          2
    50         19
    51         40
    52         18
    53        107
    54         36
    55         65
    56         36
    57          8
    58          6
    59         72
    60          3
    61          2
    62          4
    63         10
    64          3
    65         25
    66         11
    67         88
    68         28
    69        853
    70         47
    71          9
    72          4
    73          0
    74          2
    75          1
    76          1
    77         33
    78          8
    79         41
    80         25
    81         72
    82         67
    83         82
    84        197
    85         11
    86          1
    89          1
    91         37
    92         13
    93         19
    94        130
    95         64
    96         19
    97          9
    98          1
   102          0
   103          3
   104          2
   105         10
   106          4
   107         15
   108         12
   109         94
   110         17
   111          2
   115          1
   117          3
   118          0
   119         34
   120          3
   121          9
   122          2
   123         35
   124          8
   125          0
   132          1
   133          0
   134         20
   135          4
   136          1
   137         34
   138          3
   150          0
   151          0
   152         36
   153          4