##TITLE=Library Entry 84029
##JCAMP-DX=Revision 4.10 
##DATA TYPE=MASS SPECTRUM
##SAMPLE DESCRIPTION=NIST Mass Spectrometry Data Center, 1990.
##NAMES=HP
##CAS NAME=Ethane, 1,2-dibromo-
##MOLFORM=C2H4Br2
##CAS REGISTRY NO=106-93-4
##MP= -300
##BP= -300
##MW= 186
##$RETENTION INDEX=805
##$CONDENSED SPECTRUM=NO
##NPOINTS= 40
##XYDATA=(XY..XY) 1 
    12          6
    13          9
    14         18
    15          3
    16          0
    17          2
    18          1
    24          9
    25         54
    26        292
    27        974
    28         75
    29          2
    53          1
    65          1
    79         63
    80         24
    81         73
    82         21
    83          2
    91         13
    92         12
    93         59
    94         13
    95         47
   103          2
   104         16
   105         37
   106          2
   107        999
   108          2
   109        990
   110         19
   158          4
   160          8
   162          5
   186         21
   188         43
   189          5
   190         20