##TITLE=Library Entry 86635
##JCAMP-DX=Revision 4.10 
##DATA TYPE=MASS SPECTRUM
##SAMPLE DESCRIPTION=Japan AIST/NIMC Database- Spectrum MS-NW-3450
##NAMES=HP
##CAS NAME=Benzenethiol, 4-bromo-
##MOLFORM=C6H5BrS
##CAS REGISTRY NO=106-53-6
##MP= -300
##BP= -300
##MW= 188
##$RETENTION INDEX=0
##$CONDENSED SPECTRUM=NO
##NPOINTS= 95
##XYDATA=(XY..XY) 1 
    25          1
    26          4
    27          2
    32          3
    33          2
    34          1
    36          4
    37         22
    38         28
    39         43
    40          1
    41          1
    44          8
    45         46
    46          1
    47          2
    48          2
    49         10
    50         77
    51         29
    52          3
    53         12
    54         65
    55          3
    56          1
    57         17
    58         29
    59          7
    60          5
    61         16
    62         26
    63         71
    64         13
    65        182
    66          9
    68          3
    69        110
    70          6
    71          7
    72          1
    73         11
    74         44
    75         54
    76         35
    77         11
    78          1
    79          4
    80          4
    81         19
    82         53
    83         15
    84          8
    85          1
    93          7
    94         25
    95         25
    96          1
   104          1
   105          4
   106          5
   107         12
   108        208
   109        999
   110         83
   111         48
   112          3
   116          1
   117          6
   118          1
   119          6
   128          1
   129          2
   130          1
   131          2
   136          1
   138          1
   143          6
   144          5
   145          5
   146          5
   154          1
   155         10
   156          4
   157          9
   158          3
   162          3
   164          3
   186          2
   187         43
   188        573
   189         85
   190        582
   191         45
   192         25
   193          1