##TITLE=Library Entry 62933
##JCAMP-DX=Revision 4.10 
##DATA TYPE=MASS SPECTRUM
##SAMPLE DESCRIPTION=Chuck Anderson, Aldrich Chemical Co.
##NAMES=HP
##CAS NAME=Benzene, 1-bromo-4-methyl-
##MOLFORM=C7H7Br
##CAS REGISTRY NO=106-38-7
##MP= -300
##BP= -300
##MW= 170
##$RETENTION INDEX=1095
##$CONDENSED SPECTRUM=NO
##NPOINTS= 68
##XYDATA=(XY..XY) 1 
    15          0
    25          0
    26          7
    27         16
    28          0
    36          1
    37         13
    38         26
    39         75
    40          5
    41          7
    43          8
    44          6
    45         11
    46          0
    49          5
    50         42
    51         31
    52          6
    53          1
    60          1
    61         18
    62         41
    63        101
    64         23
    65        137
    66          7
    73          4
    74         18
    75         15
    76          7
    77          1
    79          3
    80          1
    81          4
    82          1
    83          1
    84          3
    85         21
    86         26
    87         11
    88          3
    89        130
    90         70
    91        999
    92         74
    93          3
    95          0
   104          0
   105          0
   106          0
   107          0
   116          1
   117          8
   118          1
   119          8
   128          0
   129          0
   130          0
   131          0
   141          0
   143          3
   145          2
   169         29
   170        238
   171         47
   172        229
   173         16