##TITLE=Library Entry 22915
##JCAMP-DX=Revision 4.10 
##DATA TYPE=MASS SPECTRUM
##SAMPLE DESCRIPTION=Japan AIST/NIMC Database- Spectrum MS-NW- 372
##NAMES=HP
##CAS NAME=n-Butyl laurate
##MOLFORM=C16H32O2
##CAS REGISTRY NO=106-18-3
##MP= -300
##BP= -300
##MW= 256
##$RETENTION INDEX=1786
##$CONDENSED SPECTRUM=NO
##NPOINTS= 126
##XYDATA=(XY..XY) 1 
    26          2
    27         49
    28         19
    29        179
    30          4
    31          4
    39         34
    40          8
    41        293
    42         53
    43        268
    44          8
    45          9
    53         13
    54         21
    55        208
    56        999
    57        416
    58         17
    59          9
    60        224
    61        131
    62          3
    67         29
    68         19
    69        103
    70         27
    71        101
    72          6
    73        208
    74         22
    75          3
    77          3
    79          7
    80          4
    81         27
    82         14
    83         69
    84         42
    85         67
    86          6
    87         41
    88          7
    89          9
    93          5
    94          2
    95         30
    96         12
    97         50
    98         49
    99         12
   100          3
   101         81
   102          8
   103          9
   107          5
   109         16
   110          9
   111         23
   112         11
   113          4
   114          3
   115         36
   116        221
   117         76
   118          5
   121          6
   123          8
   124          3
   125         13
   126          3
   127          3
   129        155
   130         13
   131          3
   135          4
   137          3
   138         10
   139          9
   140          6
   141          4
   143         22
   144          3
   149          2
   153          4
   155         19
   156          2
   157         45
   158          8
   163          7
   164          3
   165          2
   166          3
   167          3
   171         29
   172          9
   173         39
   174          4
   180          4
   181          9
   182          4
   183        235
   184         30
   185         41
   186          6
   199         10
   200         85
   201        537
   202         70
   203          7
   211         32
   212          5
   213         19
   214          3
   222          3
   227          9
   228         21
   229         75
   230         11
   239         13
   240          2
   241          5
   255          4
   256        153
   257         58
   258          8