##TITLE=Library Entry 57995
##JCAMP-DX=Revision 4.10 
##DATA TYPE=MASS SPECTRUM
##SAMPLE DESCRIPTION=Japan AIST/NIMC Database- Spectrum MS-NW- 440
##NAMES=HP
##CAS NAME=Octanoic acid, ethyl ester
##MOLFORM=C10H20O2
##CAS REGISTRY NO=106-32-1
##MP= -300
##BP= -300
##MW= 172
##$RETENTION INDEX=1196
##$CONDENSED SPECTRUM=NO
##NPOINTS= 83
##XYDATA=(XY..XY) 1 
    15          4
    17          1
    18          3
    26          8
    27         98
    28         23
    29        226
    30          6
    31          9
    32          1
    38          1
    39         44
    40          9
    41        176
    42         56
    43        166
    44         13
    45         91
    46          3
    47          2
    50          1
    51          2
    53         10
    54          8
    55        124
    56         32
    57        285
    58         12
    59         14
    60        234
    61        172
    62          4
    65          1
    67         13
    68          6
    69         50
    70        137
    71         12
    73        190
    74         30
    75          6
    77          2
    79          2
    80          4
    81          8
    82         10
    83         38
    84         38
    85          8
    86          2
    87         38
    88        999
    89         71
    90          7
    95          1
    96          2
    97         22
    98         29
    99          4
   101        353
   102         31
   103          4
   105          1
   107          1
   108          2
   109         13
   110          2
   111          4
   115         71
   116          7
   124          1
   125         12
   126          2
   127        265
   128         25
   129         68
   130          9
   143         36
   144          6
   145         16
   157          4
   172         23
   173          4