##TITLE=Library Entry 19248
##JCAMP-DX=Revision 4.10 
##DATA TYPE=MASS SPECTRUM
##SAMPLE DESCRIPTION=Japan AIST/NIMC Database- Spectrum MS-NW-7026
##NAMES=HP
##CAS NAME=Oxacyclohexadecan-2-one
##MOLFORM=C15H28O2
##CAS REGISTRY NO=106-02-5
##MP= -300
##BP= -300
##MW= 240
##$RETENTION INDEX=1831
##$CONDENSED SPECTRUM=NO
##NPOINTS= 184
##XYDATA=(XY..XY) 1 
    14          2
    15         11
    16          2
    17          2
    18          7
    26          7
    27        207
    28         88
    29        393
    30         10
    31         27
    36          1
    37          1
    38          1
    39        148
    40         38
    41        957
    42        257
    43        471
    44         21
    45         28
    46          1
    48          1
    50          1
    51          5
    52          5
    53         64
    54        140
    55        999
    56        302
    57        259
    58         66
    59         36
    60         82
    61         42
    62          2
    63          2
    65          8
    66         25
    67        231
    68        272
    69        614
    70        192
    71        124
    72         15
    73        133
    74         15
    75          2
    76          3
    77          7
    78          5
    79         37
    80         40
    81        207
    82        371
    83        390
    84        251
    85         63
    86         12
    87         50
    88          7
    89          3
    91          9
    92          4
    93         25
    94         44
    95        153
    96        330
    97        291
    98        243
    99         39
   100         43
   101         72
   102         15
   103          3
   104          1
   105          4
   106          3
   107         21
   108         35
   109        101
   110        164
   111        130
   112         87
   113         35
   114         72
   115         48
   116         62
   117          7
   118          2
   119         14
   120          8
   121         21
   122         37
   123         91
   124        112
   125         76
   126         34
   127         62
   128         22
   129         57
   130         13
   131          2
   132          2
   133         14
   134         26
   135         22
   136         16
   137         59
   138        104
   139         46
   140         20
   141         27
   142          9
   143         12
   144         14
   145          2
   147         13
   148         17
   149         11
   150         14
   151         46
   152         66
   153         28
   154         14
   155         14
   156          5
   157         10
   158         22
   159          8
   161         10
   162          7
   163          4
   164          3
   165         26
   166         16
   167         11
   168          9
   169          9
   170          5
   171         16
   172         31
   173         11
   174          2
   175          5
   176          6
   177          2
   178         51
   179         25
   180        132
   181         27
   182          5
   183          6
   184          3
   185          4
   189          1
   192          3
   193         16
   194         20
   195          4
   196          3
   197         20
   198          5
   199          1
   203          2
   204         30
   205          5
   206          2
   207          1
   210          5
   211          7
   212          9
   213          1
   221          4
   222        170
   223         31
   224          3
   225          3
   238          4
   239          7
   240        184
   241         47
   242          9
   243          1