##TITLE=Library Entry 58064
##JCAMP-DX=Revision 4.10 
##DATA TYPE=MASS SPECTRUM
##SAMPLE DESCRIPTION=NIST Mass Spectrometry Data Center
##NAMES=HP
##CAS NAME=Heptanoic acid, ethyl ester
##MOLFORM=C9H18O2
##CAS REGISTRY NO=106-30-9
##MP= -300
##BP= -300
##MW= 158
##$RETENTION INDEX=1097
##$CONDENSED SPECTRUM=NO
##NPOINTS= 82
##XYDATA=(XY..XY) 1 
    15          2
    26          8
    27         78
    28         30
    29        139
    30          6
    31          7
    37          1
    38          2
    39         76
    40         16
    41        205
    42         80
    43        296
    44         14
    45         81
    46          2
    47          2
    48          1
    50          3
    51          7
    52          3
    53         25
    54         13
    55        226
    56         76
    57         92
    58          6
    59         18
    60        287
    61        190
    62          6
    63          2
    65          4
    66          1
    67         13
    68         20
    69         75
    70        221
    71         20
    73        238
    74         36
    75          8
    77          2
    79          3
    81          4
    82          2
    83         55
    84         62
    85        131
    86         11
    87         79
    88        999
    89         74
    90          6
    91          1
    93          1
    94          4
    95         19
    96          2
    97         11
    98          1
    99          1
   101        334
   102         36
   103          3
   110          3
   111         17
   113        456
   114         37
   115        190
   116         17
   117          1
   129         40
   130          6
   131         35
   132          3
   143          3
   157          1
   158         12
   159         14
   160          1