##TITLE=Library Entry 57948
##JCAMP-DX=Revision 4.10 
##DATA TYPE=MASS SPECTRUM
##SAMPLE DESCRIPTION=Japan AIST/NIMC Database- Spectrum MS-NW- 459
##NAMES=HP
##CAS NAME=Dodecanoic acid, ethyl ester
##MOLFORM=C14H28O2
##CAS REGISTRY NO=106-33-2
##MP= -300
##BP= -300
##MW= 228
##$RETENTION INDEX=1595
##$CONDENSED SPECTRUM=NO
##NPOINTS= 141
##XYDATA=(XY..XY) 1 
    14          4
    15          6
    16          4
    17          2
    18          7
    19          1
    26         10
    27         76
    28         30
    29        199
    30          6
    31         10
    32          1
    36          2
    38          3
    39         41
    40         14
    41        184
    42         51
    43        206
    44         58
    45         63
    46          3
    47          2
    48          2
    50          2
    51          6
    52          2
    53         12
    54         15
    55        151
    56         38
    57        130
    58          7
    59         10
    60        119
    61        137
    62          4
    63          3
    64          3
    65          3
    66          4
    67         26
    68         29
    69         95
    70        127
    71         51
    72          6
    73        161
    74         26
    75          7
    77          6
    78          4
    79          8
    80          3
    81         20
    82          9
    83         56
    84         36
    85         33
    86          8
    87         27
    88        999
    89        111
    90          9
    91          6
    92          3
    93          5
    94          2
    95         19
    96          8
    97         42
    98         38
    99          9
   100          2
   101        466
   102         39
   103          5
   104          2
   105          5
   106         11
   107          5
   108          2
   109          9
   110          5
   111         13
   112          9
   113          6
   114          2
   115         54
   116          8
   117          2
   119          2
   120          5
   121          8
   123          5
   124          2
   125          8
   126          4
   127          2
   128          2
   129         34
   130          9
   131          2
   134          1
   135          5
   136          2
   137          3
   138          4
   139          4
   140          5
   141          2
   143         55
   144         10
   147          1
   149          3
   150          2
   153          4
   155          4
   157         95
   158         10
   159          2
   163          5
   164          1
   165          2
   167          2
   171         17
   172          4
   181          5
   182          3
   183        131
   184         17
   185         72
   186         12
   199         25
   200          7
   201          5
   227          2
   228         82
   229         12
   230          3