##TITLE=Library Entry 20453
##JCAMP-DX=Revision 4.10 
##DATA TYPE=MASS SPECTRUM
##SAMPLE DESCRIPTION=NIST Mass Spectrometry Data Center
##NAMES=HP
##CAS NAME=Decanedioic acid, dimethyl ester
##MOLFORM=C12H22O4
##CAS REGISTRY NO=106-79-6
##MP= -300
##BP= -300
##MW= 230
##$RETENTION INDEX=1648
##$CONDENSED SPECTRUM=NO
##NPOINTS= 151
##XYDATA=(XY..XY) 1 
    14          1
    15         49
    16          1
    26          5
    27         61
    28         35
    29        107
    30          7
    31         20
    33          4
    37          1
    38          3
    39        113
    40         26
    41        395
    42        135
    43        357
    44         20
    45         64
    46          2
    47          2
    48          1
    50          2
    51          8
    52          6
    53         64
    54         54
    55        999
    56        119
    57         87
    59        587
    60         18
    61          6
    62          1
    63          1
    64          1
    65         15
    66          8
    67        138
    68         74
    69        415
    70         76
    71         41
    72         10
    73        114
    74        985
    75         57
    76          6
    77         15
    78          6
    79         85
    80         56
    81        156
    82         71
    83        470
    84        553
    85         63
    87        430
    88         52
    89          4
    91         21
    92          8
    93         59
    94         57
    95        129
    96        151
    97        682
    98        843
    99         68
   100         18
   101        124
   102         12
   103          2
   104         11
   105         10
   106         19
   107         76
   108         10
   109         48
   110        118
   111        139
   112         87
   113         38
   114         36
   115        114
   116         14
   117          3
   118          1
   119         25
   120         49
   121        157
   122         31
   123         39
   124        140
   125        934
   126         85
   127         33
   128         11
   129         19
   130         16
   131         11
   132          1
   133          2
   135          1
   136          2
   137         49
   138        597
   139        221
   140         22
   141         11
   142         30
   143         10
   144         65
   145          6
   146          1
   147          8
   148         82
   149         35
   150          4
   151         14
   152          3
   153          1
   154         16
   155         11
   156         26
   157        469
   158         48
   159          4
   160          1
   164          1
   165         15
   166        413
   167         61
   168          7
   169          4
   170         63
   171         11
   172          5
   173          1
   174          2
   180          9
   181          2
   183          1
   187          2
   197          1
   198         23
   199        511
   200         63
   201          7
   202          1
   231          2