##TITLE=Library Entry 83991
##JCAMP-DX=Revision 4.10 
##DATA TYPE=MASS SPECTRUM
##SAMPLE DESCRIPTION=NIST Mass Spectrometry Data Center, 2012
##NAMES=HP
##CAS NAME=p-Cresol
##MOLFORM=C7H8O
##CAS REGISTRY NO=106-44-5
##MP= -300
##BP= -300
##MW= 108
##$RETENTION INDEX=1077
##$CONDENSED SPECTRUM=NO
##NPOINTS= 63
##XYDATA=(XY..XY) 1 
    15          5
    25          2
    26         23
    27         86
    28         11
    29         22
    30          2
    31          3
    36          1
    37         13
    38         33
    39        118
    40         16
    41          8
    42          8
    43         11
    45          1
    48          1
    49         12
    50         94
    51        145
    52         72
    53        123
    54         33
    55         32
    56          1
    57          1
    60          2
    61         13
    62         28
    63         62
    64         12
    65         26
    66         12
    67          5
    68          6
    69          2
    73          4
    74         16
    75          8
    76          7
    77        306
    78         75
    79        207
    80         80
    81         25
    82          4
    84          1
    85          3
    86          5
    87          4
    88          1
    89         34
    90         80
    91         45
    92          5
    93          2
   105         10
   106          7
   107        999
   108        846
   109         64
   110          4