##TITLE=Library Entry 44750
##JCAMP-DX=Revision 4.10 
##DATA TYPE=MASS SPECTRUM
##SAMPLE DESCRIPTION=NIST Mass Spectrometry Data Center
##NAMES=HP
##CAS NAME=Heptanoic acid, methyl ester
##MOLFORM=C8H16O2
##CAS REGISTRY NO=106-73-0
##MP= -300
##BP= -300
##MW= 144
##$RETENTION INDEX=1023
##$CONDENSED SPECTRUM=NO
##NPOINTS= 76
##XYDATA=(XY..XY) 1 
    15         12
    26          6
    27         62
    28         25
    29         74
    30          4
    31         10
    33          2
    37          1
    38          4
    39         88
    40         16
    41        199
    42         70
    43        347
    44         16
    45         23
    46          1
    48          1
    50          4
    51          8
    52          4
    53         26
    54         12
    55        242
    56         65
    57         83
    58          5
    59        234
    60          9
    61          4
    62          1
    63          1
    65          4
    66          2
    67         12
    68         16
    69         64
    70         15
    71          7
    72          1
    73         42
    74        999
    75         88
    76          8
    77          2
    79          3
    81          3
    82          2
    83         35
    84         63
    85         65
    87        509
    88         63
    89          5
    93          1
    94          3
    95         10
    96          1
    97          8
    98          1
    99          1
   101        235
   102         17
   103          2
   111          6
   113        271
   114         22
   115         57
   116          6
   117          1
   129          4
   143          1
   144          7
   145         13
   146          1