##TITLE=Library Entry 29605
##JCAMP-DX=Revision 4.10 
##DATA TYPE=MASS SPECTRUM
##SAMPLE DESCRIPTION=Exported from NIST MS Search
##NAMES=HP
##CAS NAME=1-Propanol, 2-(2-hydroxypropoxy)-
##MOLFORM=C6H14O3
##CAS REGISTRY NO=106-62-7
##MP= -300
##BP= -300
##MW= 134
##$RETENTION INDEX=1046
##$CONDENSED SPECTRUM=NO
##NPOINTS= 71
##XYDATA=(XY..XY) 1 
    14          2
    15         19
    16          1
    17          2
    18          7
    19          8
    25          1
    26          4
    27         32
    28         27
    29         56
    30          6
    31        344
    32          6
    33          2
    36          1
    37          1
    38          1
    39         21
    40          5
    41        147
    42         80
    43         75
    44         11
    45        262
    46          7
    47          2
    49          1
    53          1
    54          1
    55          3
    56          1
    57         38
    58         36
    59        999
    60         35
    61         15
    62          1
    63          2
    64          1
    65          1
    66          1
    67          1
    69          1
    70          1
    71          4
    72          2
    73          3
    74          1
    75         13
    76          1
    77          1
    83          1
    85          3
    86          1
    87          2
    89         12
    90          2
    91          1
    94          1
   101          4
   102          1
   103        273
   104         16
   105          2
   107          1
   115          1
   116          1
   117          1
   119          1
   134          1