##TITLE=Library Entry 38294
##JCAMP-DX=Revision 4.10 
##DATA TYPE=MASS SPECTRUM
##SAMPLE DESCRIPTION=Japan AIST/NIMC Database- Spectrum MS-NW-3133
##NAMES=HP
##CAS NAME=Butanoic acid, anhydride
##MOLFORM=C8H14O3
##CAS REGISTRY NO=106-31-0
##MP= -300
##BP= -300
##MW= 158
##$RETENTION INDEX=0
##$CONDENSED SPECTRUM=NO
##NPOINTS= 35
##XYDATA=(XY..XY) 1 
    14          2
    15          9
    18          1
    25          1
    26         12
    27        130
    28         10
    29         22
    30          1
    31          1
    37          5
    38          8
    39         55
    40         10
    41        133
    42         43
    43        457
    44         13
    45         10
    53          1
    54          1
    55         52
    56          2
    57          2
    60          4
    69          5
    70         38
    71        999
    72         46
    73         26
    74          1
    85          1
    87          2
    88          2
    89          3