##TITLE=Library Entry 54597
##JCAMP-DX=Revision 4.10 
##DATA TYPE=MASS SPECTRUM
##SAMPLE DESCRIPTION=Japan AIST/NIMC Database- Spectrum MS-NW- 559
##NAMES=HP
##CAS NAME=1,2,6-Hexanetriol
##MOLFORM=C6H14O3
##CAS REGISTRY NO=106-69-4
##MP= -300
##BP= -300
##MW= 134
##$RETENTION INDEX=0
##$CONDENSED SPECTRUM=NO
##NPOINTS= 100
##XYDATA=(XY..XY) 1 
    12          2
    14          4
    15         50
    16          7
    17         43
    18        211
    19         29
    25          1
    26         14
    27        137
    28         55
    29        387
    30         18
    31        311
    32         10
    33          4
    37          3
    38          8
    39        107
    40         25
    41        575
    42         84
    43        531
    44        147
    45         58
    46          3
    47          9
    49          4
    50          6
    51          9
    52          5
    53         36
    54         47
    55        244
    56        141
    57        409
    58         53
    59         11
    60         33
    61        115
    62          4
    63          3
    65         14
    66          7
    67        333
    68         73
    69         47
    70        159
    71         37
    72         12
    73         23
    74         10
    75          6
    76          1
    77          6
    78          3
    79         16
    80         19
    81         16
    82          9
    83         60
    84         23
    85        999
    86         79
    87          7
    88          3
    89          4
    91          6
    92          1
    93          2
    94          2
    95          9
    96         16
    97         17
    98         32
    99          9
   100          3
   101         12
   102          1
   103         62
   104          8
   105          2
   106          1
   107          2
   108          1
   109          2
   110          3
   111          2
   112          4
   113          4
   114         11
   115          4
   116          2
   117          9
   118          2
   119          2
   129          1
   131          1
   134          1
   135          2