##TITLE=Library Entry 12511
##JCAMP-DX=Revision 4.10 
##DATA TYPE=MASS SPECTRUM
##SAMPLE DESCRIPTION=G. Willuhn, Inst. Pharm. Biol., Univ. Dusseldorf, Dusse
ldorf, Germany
##NAMES=HP
##CAS NAME=Propanoic acid, 2-methyl-, 2-[3-[(acetyloxy)methyl]oxiranyl]-5-me
thylphenyl ester
##MOLFORM=C16H20O5
##CAS REGISTRY NO=106009-86-3
##MP= -300
##BP= -300
##MW= 292
##$RETENTION INDEX=0
##$CONDENSED SPECTRUM=NO
##NPOINTS= 33
##XYDATA=(XY..XY) 1 
    40         60
    41         70
    43        999
    44         80
    45        110
    65         20
    71        520
    77         70
    89         50
    91         80
   105        130
   119         60
   121        110
   132         60
   133        300
   134        120
   135        190
   145        430
   146        110
   147         60
   149        950
   150        230
   161        300
   162        680
   163        100
   177         70
   191        160
   204        110
   219        140
   221         40
   232         50
   262         10
   292         10