##TITLE=Library Entry 109186
##JCAMP-DX=Revision 4.10 
##DATA TYPE=MASS SPECTRUM
##SAMPLE DESCRIPTION=A. KREUTZBERGER, JOHANNES GUTENBERG-UNIV. MAINZ, W. GER
.
##NAMES=HP
##CAS NAME=2-Amino-4-[(3-phenyl)thioureido]-6-propyl-1,3,5-triazine
##MOLFORM=C13H16N6S
##CAS REGISTRY NO=106013-60-9
##MP= -300
##BP= -300
##MW= 288
##$RETENTION INDEX=0
##$CONDENSED SPECTRUM=NO
##NPOINTS= 16
##XYDATA=(XY..XY) 1 
    51        220
    68        180
    69        140
    77        450
    83        120
    98        140
   111         80
   125        999
   138        180
   152         50
   153        370
   196         60
   255         20
   256         10
   260         20
   288        220