##TITLE=Library Entry 76257
##JCAMP-DX=Revision 4.10 
##DATA TYPE=MASS SPECTRUM
##SAMPLE DESCRIPTION=Chuck Anderson, Aldrich Chemical Co.
##NAMES=HP
##CAS NAME=Ethyl 3,3-diethoxypropionate
##MOLFORM=C9H18O4
##CAS REGISTRY NO=10601-80-6
##MP= -300
##BP= -300
##MW= 190
##$RETENTION INDEX=1163
##$CONDENSED SPECTRUM=NO
##NPOINTS= 69
##XYDATA=(XY..XY) 1 
    14          3
    15         32
    16          1
    25          0
    26         12
    27        148
    28         32
    29        522
    30         16
    31         61
    32          1
    36          0
    39          1
    41          8
    42         39
    43        229
    44         91
    45         96
    46          2
    47        270
    48          2
    49          0
    53          0
    54          0
    55         15
    56          1
    57          1
    59          3
    60         21
    61         16
    69          4
    70          6
    71        340
    72         39
    73         17
    75        326
    76          9
    77          1
    85          0
    86          0
    87         38
    88          7
    89        231
    90          7
    91          1
    98          0
    99         11
   100          3
   101          8
   102          4
   103        999
   104         50
   105          9
   115        105
   116          7
   117        254
   118         12
   119          1
   129          1
   133         22
   134          0
   144          3
   145        421
   146         41
   147          3
   161         75
   162          4
   163          0
   189          0