##TITLE=Library Entry 24163
##JCAMP-DX=Revision 4.10 
##DATA TYPE=MASS SPECTRUM
##SAMPLE DESCRIPTION=Japan AIST/NIMC Database- Spectrum MS-NW-9115
##NAMES=HP
##CAS NAME=L-Ascorbic acid, 6-octadecanoate
##MOLFORM=C24H42O7
##CAS REGISTRY NO=10605-09-1
##MP= -300
##BP= -300
##MW= 442
##$RETENTION INDEX=0
##$CONDENSED SPECTRUM=NO
##NPOINTS= 317
##XYDATA=(XY..XY) 1 
    14          2
    15          5
    16          4
    17          4
    18         14
    25          1
    26          9
    27         57
    28         64
    29        151
    30          6
    31         12
    32          2
    37          4
    38          9
    39         77
    40         22
    41        354
    42        103
    43        820
    44        134
    45         34
    46          3
    47          1
    50          3
    51          5
    52          3
    53         20
    54         44
    55        510
    56        166
    57        999
    58         57
    59         28
    60        542
    61        202
    62          7
    63          2
    65          4
    66          8
    67        105
    68        198
    69        773
    70        165
    71        640
    72         40
    73        699
    74         80
    75          8
    76          2
    77          5
    78          4
    79         20
    80         14
    81        121
    82         90
    83        376
    84        196
    85        464
    86         40
    87        205
    88         25
    89          5
    91          8
    92          3
    93         20
    94         14
    95        208
    96         99
    97        351
    98        267
    99        157
   100         32
   101         80
   102         45
   103         12
   104          2
   105          5
   106          2
   107         17
   108         10
   109         95
   110         58
   111        184
   112         90
   113         97
   114         41
   115        148
   116        117
   117         10
   118          3
   119          5
   120          2
   121         28
   122          9
   123         59
   124         31
   125         90
   126         38
   127         61
   128         12
   129        402
   130         56
   131          8
   132          5
   133          4
   134          3
   135         23
   136          8
   137         36
   138         21
   139         44
   140         67
   141         68
   142         44
   143         91
   144         30
   145          9
   146          8
   147          4
   148          3
   149         15
   150          5
   151         18
   152         15
   153         29
   154         24
   155         32
   156          9
   157         56
   158         56
   159         11
   160          5
   161          3
   162          2
   163          9
   164          4
   165         11
   166         13
   167         21
   168         15
   169         23
   170          4
   171         95
   172         28
   173          7
   174         13
   175          3
   176         12
   177         25
   178          4
   179          9
   180         12
   181         14
   182         10
   183         12
   184          3
   185        215
   186         32
   187         29
   188          3
   189          8
   190          2
   191          7
   192          2
   193          7
   194          7
   195          9
   196         14
   197          8
   198          2
   199         77
   200         19
   201          6
   202          5
   203          2
   204          1
   205          3
   206          1
   207          4
   208          4
   209          6
   210          9
   211          5
   212          2
   213         64
   214         10
   215         10
   216          2
   217          1
   218         18
   219          4
   220          4
   221          4
   222         25
   223         11
   224         21
   225         15
   226          3
   227         60
   228         12
   229          7
   230          2
   231         12
   232          2
   233          1
   234          1
   235          2
   236          3
   237          5
   238          5
   239          9
   240          2
   241        186
   242         32
   243         13
   244          2
   245          3
   246          3
   247          7
   248          9
   249         11
   250          4
   251          3
   252          2
   253         10
   254          3
   255         37
   256          9
   257          4
   258          1
   259          1
   262          1
   263          5
   264         28
   265         30
   266         16
   267        522
   268        104
   269         25
   270          9
   271          7
   272          1
   273          2
   274          1
   277          1
   278          2
   279          2
   280          9
   281          6
   282          6
   283         16
   284        580
   285        175
   286         25
   287          6
   288          1
   293          1
   294          1
   295          6
   296          2
   297          3
   298          4
   299          5
   300          1
   306          1
   307          1
   309          2
   311          7
   312          8
   313          4
   314          1
   322          1
   323          1
   324          2
   325          8
   326          4
   327         18
   328          4
   329          1
   334          1
   339          5
   340          3
   341          3
   343          1
   350          4
   351          2
   352          6
   353          4
   354          1
   355          5
   356          1
   357          1
   364          1
   367          5
   368          9
   369          4
   380          1
   381          8
   382          2
   383          1
   385          6
   386          1
   395          3
   396          2
   398         10
   399          5
   400          1
   406          1
   410          1
   423          3
   424         95
   425         26
   426          7
   427          1
   442         16
   443          5