##TITLE=Library Entry 49781
##JCAMP-DX=Revision 4.10 
##DATA TYPE=MASS SPECTRUM
##SAMPLE DESCRIPTION=NIST Mass Spectrometry Data Center
##NAMES=HP
##CAS NAME=9-Nonadecyne
##MOLFORM=C19H36
##CAS REGISTRY NO=106073-69-2
##MP= -300
##BP= -300
##MW= 264
##$RETENTION INDEX=0
##$CONDENSED SPECTRUM=NO
##NPOINTS= 100
##XYDATA=(XY..XY) 1 
    11          1
    13          1
    15          8
    17          8
    18         32
    24          1
    27        286
    29        550
    30         11
    36          1
    37          1
    39        181
    41        956
    42        126
    43        628
    44         24
    49          1
    50          5
    51         25
    52         50
    53        163
    54        444
    55        672
    56        111
    57        239
    58          9
    63          5
    65         80
    66         87
    67        928
    68        289
    69        438
    70         63
    71         40
    72          2
    73          2
    74          1
    75          1
    77         94
    78         28
    79        244
    80        118
    81        999
    82        601
    83        271
    84         23
    85         13
    86          1
    89          1
    91         70
    92         14
    93         87
    95        780
    96        414
    97        185
    98         14
    99          1
   103          2
   105         10
   107         25
   109        281
   110        116
   111         56
   112          7
   113          1
   117          1
   119          2
   121          1
   123         18
   124        142
   125        100
   126         21
   127          2
   135          1
   137          7
   138        114
   139         83
   140          9
   149          1
   151          2
   152         56
   153         27
   164          3
   165          1
   166         11
   167         11
   179          1
   180          8
   193          6
   194         26
   195         20
   206          2
   207          1
   208         15
   209         13
   221          2
   222          2
   235          3
   264          1
   265          4