##TITLE=Library Entry 19579
##JCAMP-DX=Revision 4.10 
##DATA TYPE=MASS SPECTRUM
##SAMPLE DESCRIPTION=A. Brossi, LC, NIDDK, NIH, Bethesda, MD 20892
##NAMES=HP
##CAS NAME=1,2,3,6-Tetrahydropyridine, 1-cyclopropylmethyl-4-phenyl-
##MOLFORM=C15H19N
##CAS REGISTRY NO=106055-15-6
##MP= -300
##BP= -300
##MW= 213
##$RETENTION INDEX=0
##$CONDENSED SPECTRUM=NO
##NPOINTS= 133
##XYDATA=(XY..XY) 1 
    41         67
    42        914
    43         60
    44         37
    45         17
    46          2
    47         12
    48          5
    49         52
    50         45
    51        151
    52         54
    53        202
    54        132
    55        999
    56         85
    57         31
    58          8
    60          6
    62         13
    63         57
    64         17
    65         70
    66         15
    67         34
    68         49
    69         26
    70         20
    71         19
    72         14
    73          6
    74         15
    75         26
    76         38
    77        182
    78         83
    79         28
    80         73
    81         27
    82        112
    83         26
    84         54
    85         12
    86         47
    87         12
    88          9
    89         44
    90         10
    91        315
    92         32
    93         10
    94         30
    95         18
    96         18
    97         17
    98          8
    99          6
   100          1
   101         13
   102         93
   103        142
   104         39
   105         16
   106         17
   107          7
   108         28
   109          9
   110         11
   111          8
   112          5
   113          8
   114          7
   115        397
   116         82
   117         43
   118          9
   119          1
   120          7
   121          7
   122         59
   123          8
   124          6
   125          8
   126         12
   127         86
   128        230
   129        373
   130        231
   131         92
   132         12
   134         26
   135         11
   136        252
   137         29
   138          1
   139         23
   140         19
   141         33
   142         19
   143         48
   144         21
   145          4
   149         12
   150          6
   152          2
   153          7
   154         14
   155         16
   156         98
   157         21
   158        120
   159         50
   160          6
   167          4
   168          6
   169          5
   170         15
   171         18
   172        286
   173         39
   182          6
   184         37
   185         18
   186          1
   196          1
   198         15
   199          2
   210         13
   211          6
   212        256
   213        828
   214        135
   215         12