##TITLE=Library Entry 109915
##JCAMP-DX=Revision 4.10 
##DATA TYPE=MASS SPECTRUM
##SAMPLE DESCRIPTION=A. KREUTZBERGER, JOHANNES GUTENBERG-UNIV. MAINZ, W. GER
.
##NAMES=HP
##CAS NAME=2-Acetamido-4-[3-(4-fluorophenyl)thioureido]-6-propyl-1,3,5-triaz
ine
##MOLFORM=C15H17FN6OS
##CAS REGISTRY NO=106013-62-1
##MP= -300
##BP= -300
##MW= 348
##$RETENTION INDEX=0
##$CONDENSED SPECTRUM=NO
##NPOINTS= 23
##XYDATA=(XY..XY) 1 
    68        290
    69        140
    75        210
    83        160
    95        400
    98         90
   111        370
   125        999
   138        350
   152        160
   153        650
   167        840
   180        300
   194         90
   195        140
   196         60
   238         30
   273         30
   278         10
   290         20
   305         20
   306         90
   348        190