##TITLE=Library Entry 28325
##JCAMP-DX=Revision 4.10 
##DATA TYPE=MASS SPECTRUM
##SAMPLE DESCRIPTION=A.Pleshkova, Nesmeyanov Inst.Org.Elem.Cpds, Moscow
##NAMES=HP
##CAS NAME=1-(2-Dimethylaminoethyl)-3,3-bis(trifluoromethyl)diaziridine
##MOLFORM=C7H11F6N3
##CAS REGISTRY NO=106036-93-5
##MP= -300
##BP= -300
##MW= 251
##$RETENTION INDEX=0
##$CONDENSED SPECTRUM=NO
##NPOINTS= 40
##XYDATA=(XY..XY) 1 
    31         31
    38         27
    40         21
    41         24
    42        169
    44          7
    45         11
    46         10
    50         35
    51         12
    54         44
    55         17
    56         32
    58        999
    59         76
    60         24
    69        200
    70         21
    73         14
    78         21
    79         25
    82         12
    91         19
    96        144
    97         11
   101         15
   111         12
   112         20
   113         13
   128         15
   142         15
   145         14
   152         27
   153         21
   159         11
   166         14
   222         19
   250         16
   251         49
   252          4