##TITLE=Library Entry 26724
##JCAMP-DX=Revision 4.10 
##DATA TYPE=MASS SPECTRUM
##SAMPLE DESCRIPTION=Chemical Concepts
##NAMES=HP
##CAS NAME=Butanoic acid, 4-(1,1-dimethylethoxy)-3-hydroxy-2-methyl-, ethyl
 ester, [r-(R*,S*)]-
##MOLFORM=C11H22O4
##CAS REGISTRY NO=106058-97-3
##MP= -300
##BP= -300
##MW= 218
##$RETENTION INDEX=0
##$CONDENSED SPECTRUM=NO
##NPOINTS= 76
##XYDATA=(XY..XY) 1 
    26          5
    27         58
    28         28
    29        237
    30         12
    31         40
    39         39
    40          9
    41        216
    42         26
    43        229
    44         15
    45         27
    47         20
    50          1
    51          8
    53         13
    54          6
    55         44
    56         97
    57        999
    58         73
    59        115
    60         13
    61         15
    65         23
    68          7
    69         31
    70          9
    71        129
    72         18
    73         53
    74        104
    75         67
    76          3
    77          1
    79          6
    83          3
    84          6
    85        825
    86         82
    87         66
    88          7
    89         18
    96          2
    97          3
    98         73
    99        189
   100         11
   101         14
   102        192
   103        106
   104          6
   105          3
   114         67
   115         76
   116         10
   117        841
   118         35
   119          5
   127          2
   130         17
   131        842
   132        113
   133         33
   134          3
   141          2
   143         11
   144         95
   145        171
   146         13
   147          2
   149          2
   161         25
   162          3
   163          4