##TITLE=Library Entry 4997
##JCAMP-DX=Revision 4.10 
##DATA TYPE=MASS SPECTRUM
##SAMPLE DESCRIPTION=V.G.Zaikin, TIPS RAS, Moscow, Russia
##NAMES=HP
##CAS NAME=Silane, chloro(3-chloropropyl)dimethyl-
##MOLFORM=C5H12Cl2Si
##CAS REGISTRY NO=10605-40-0
##MP= -300
##BP= -300
##MW= 170
##$RETENTION INDEX=0
##$CONDENSED SPECTRUM=NO
##NPOINTS= 52
##XYDATA=(XY..XY) 1 
    26         18
    27         47
    28          6
    29         29
    31          9
    36         15
    38         19
    39         83
    40         31
    41        155
    42        999
    43        111
    44         74
    45          7
    49         38
    51         29
    53         25
    55         17
    57          9
    58         12
    59          9
    63        175
    64         21
    65        148
    66         19
    67         38
    69          7
    76          4
    77         21
    78         39
    79         48
    80         18
    81         18
    91          4
    92         19
    93        525
    94         48
    95        185
    96         12
   112          8
   113        339
   114         21
   115        233
   116         18
   117         45
   118          8
   119          4
   155         28
   156          1
   157         13
   158          2
   159          3