##TITLE=Library Entry 109863
##JCAMP-DX=Revision 4.10 
##DATA TYPE=MASS SPECTRUM
##SAMPLE DESCRIPTION=A. KREUTZBERGER, JOHANNES GUTENBERG-UNIV. MAINZ, W. GER
.
##NAMES=HP
##CAS NAME=2-Amino-4-[3-(4-fluorophenyl)thioureido]-6-propyl-1,3,5-triazine
##MOLFORM=C13H15FN6S
##CAS REGISTRY NO=106013-61-0
##MP= -300
##BP= -300
##MW= 306
##$RETENTION INDEX=0
##$CONDENSED SPECTRUM=NO
##NPOINTS= 15
##XYDATA=(XY..XY) 1 
    68        350
    69        150
    75        140
    83        140
    95        230
    98        120
   111        230
   125        999
   138        190
   152         50
   153        390
   196         70
   273         40
   278         20
   306        150