##TITLE=Library Entry 37507
##JCAMP-DX=Revision 4.10 
##DATA TYPE=MASS SPECTRUM
##SAMPLE DESCRIPTION=V.Zaikin,Topchiev Inst.Petrochem.Synth.,Moscow
##NAMES=HP
##CAS NAME=Cyclopentanecarboxylic acid, 3-methylbutyl ester
##MOLFORM=C11H20O2
##CAS REGISTRY NO=106083-74-3
##MP= -300
##BP= -300
##MW= 184
##$RETENTION INDEX=0
##$CONDENSED SPECTRUM=NO
##NPOINTS= 52
##XYDATA=(XY..XY) 1 
    26          7
    27         34
    28          8
    29         26
    36          5
    38          4
    39         55
    40         16
    41        215
    42         55
    43        215
    44          6
    45          6
    51          5
    52          6
    53         18
    54          8
    55        168
    56         11
    57          5
    65          8
    66          7
    67         64
    68         37
    69        690
    70        999
    71        335
    72         18
    73        138
    74          5
    85          5
    86         33
    87          5
    91          3
    95          6
    96         14
    97        591
    98         35
    99          6
   101          4
   113          8
   114        133
   115        366
   116         24
   117          3
   127         11
   141         32
   142          6
   143         85
   144          8
   169          5
   184          3