##TITLE=Library Entry 22255
##JCAMP-DX=Revision 4.10 
##DATA TYPE=MASS SPECTRUM
##SAMPLE DESCRIPTION=Exported from NIST MS Search
##NAMES=HP
##CAS NAME=2H-Pyran-2-one, tetrahydro-4,4,6-trimethyl-
##MOLFORM=C8H14O2
##CAS REGISTRY NO=10603-06-2
##MP= -300
##BP= -300
##MW= 142
##$RETENTION INDEX=0
##$CONDENSED SPECTRUM=NO
##NPOINTS= 25
##XYDATA=(XY..XY) 1 
    27        125
    28         83
    29        125
    30         10
    39        167
    40         20
    41        458
    42         41
    43        250
    44        583
    45         60
    55        292
    56        999
    57        125
    58         10
    69        208
    70        333
    71         30
    83        136
    84         26
    85         36
    98        138
    99         10
   127         48
   142         34