##TITLE=Library Entry 14780
##JCAMP-DX=Revision 4.10 
##DATA TYPE=MASS SPECTRUM
##SAMPLE DESCRIPTION=H. Fales, LC, NHLBI, NIH, Bethesda, MD 20892
##NAMES=HP
##CAS NAME=Crinamine acetate
##MOLFORM=C19H21NO5
##CAS REGISTRY NO=106196-22-9
##MP= -300
##BP= -300
##MW= 343
##$RETENTION INDEX=0
##$CONDENSED SPECTRUM=NO
##NPOINTS= 232
##XYDATA=(XY..XY) 1 
    43        999
    44        187
    45        182
    46          4
    49          6
    50         12
    51         39
    52         12
    53         24
    54         23
    55         34
    56         21
    57         17
    58          6
    59          8
    60         10
    61          2
    62          7
    63         30
    64         11
    65         25
    66          6
    67         12
    68         10
    69         14
    70         11
    71         42
    72         13
    73          8
    74         19
    75         18
    76         29
    77         56
    78         16
    79         10
    80          8
    81          7
    82         10
    83         10
    84         15
    85         10
    86          3
    87        109
    88         11
    89         24
    90         10
    91         25
    92          9
    93          4
    94          4
    95          6
    96          4
    97          9
    98          8
    99          5
   100          4
   101         13
   102         24
   103         21
   104          9
   105          9
   106          6
   107          4
   108          2
   109          3
   110          3
   111          5
   113         19
   114         16
   115        101
   116         21
   117         13
   118          5
   119          4
   120          4
   121         10
   122          1
   123          3
   124          3
   126         22
   127         45
   128         48
   129         23
   130         18
   131          9
   132          2
   133          2
   134          1
   135         20
   136          2
   137          2
   138          1
   139         43
   140         20
   141         46
   142         14
   143         15
   144          7
   145          5
   146          2
   147          5
   148          3
   149          9
   150          3
   151         19
   152         80
   153         78
   154         28
   155         24
   156         12
   157          9
   158          3
   159         28
   160         32
   161          8
   162          5
   163          4
   164          5
   165         23
   166         24
   167         32
   168         21
   169         22
   170          9
   171         17
   172         20
   173         61
   174         20
   175         10
   176          9
   177          2
   178          3
   180         32
   181        209
   182         38
   183         50
   184         13
   185         45
   186         21
   187         24
   188        106
   189         13
   190          3
   191          3
   193         43
   194         14
   195          9
   196         16
   197         25
   198         29
   199         33
   200         26
   201         17
   202          7
   203          3
   204          8
   205          1
   207          2
   209        114
   210        185
   211        159
   212         84
   213         44
   214         27
   215         13
   216         12
   217         13
   218          4
   220          6
   222         42
   223        119
   224        208
   225        123
   226         68
   227         64
   228         61
   229         24
   230         10
   231          4
   235          1
   236          2
   237          7
   238         49
   239         27
   240        118
   241         41
   242         52
   243         14
   244         11
   245          6
   246         14
   247          2
   250         24
   251         20
   252        128
   253         31
   254         26
   255         11
   256         37
   257         24
   258          6
   259          2
   266          7
   268        102
   269         57
   270         37
   271         16
   272         10
   273          2
   277          2
   282         55
   283         88
   284         87
   285         16
   286          4
   298          6
   300         39
   301          8
   302          1
   310          5
   311          4
   312         14
   313          4
   314         11
   315          2
   316          3
   328         16
   329          3
   343        908
   344        165
   345         24
   346          3