##TITLE=Library Entry 28496
##JCAMP-DX=Revision 4.10 
##DATA TYPE=MASS SPECTRUM
##SAMPLE DESCRIPTION=A.A.Kutin, Moscow, Russia
##NAMES=HP
##CAS NAME=Ethanamine, N,N-dimethyl-2-[(9-methyl-9H-1,2,4-triazino[6,5-b]ind
ol-3-yl)thio]-
##MOLFORM=C14H17N5S
##CAS REGISTRY NO=106110-58-1
##MP= -300
##BP= -300
##MW= 287
##$RETENTION INDEX=0
##$CONDENSED SPECTRUM=NO
##NPOINTS= 124
##XYDATA=(XY..XY) 1 
    33          1
    34          0
    35         18
    36         94
    37          6
    38         31
    39         11
    40         20
    41          9
    42         99
    43         48
    44         38
    45          7
    46          0
    50          5
    51          8
    52          2
    53          1
    54          2
    55          5
    56         43
    58        999
    59         36
    60          2
    61          3
    62          3
    63          7
    64          4
    65          1
    66          0
    68          0
    70         78
    71        285
    72        386
    73         19
    74          3
    75          9
    76          8
    77          6
    78          2
    79          1
    83          0
    85          1
    86          3
    87          4
    88          7
    89          9
    90          4
    91          0
    94          0
    96          0
    99          0
   100          1
   101          8
   102         25
   103          8
   104          2
   105          0
   107          0
   113          1
   114         23
   115          5
   116          8
   117          2
   119          1
   120          1
   126          0
   127          2
   128         13
   129          7
   130          3
   131          1
   132          0
   133          1
   141          0
   142          4
   143         20
   144          2
   145          0
   146          7
   147          0
   149          0
   150          0
   153          1
   154          1
   155          3
   156          3
   157          1
   158          1
   159          2
   160          1
   168          0
   169          1
   170          1
   171          2
   172          6
   173          4
   175          0
   184          0
   185          1
   186          1
   187         22
   188         48
   189          6
   190          1
   198          8
   199          0
   201          1
   202          1
   216         66
   217         28
   218          6
   219          0
   226          0
   229          4
   230          2
   231          1
   240          0
   241          1
   243          4
   244          0
   254          0
   287         14
   288          2