##TITLE=Library Entry 65470
##JCAMP-DX=Revision 4.10 
##DATA TYPE=MASS SPECTRUM
##SAMPLE DESCRIPTION=Chemical Concepts
##NAMES=HP
##CAS NAME=Benzenamine, 4-[(2-methoxy-4-nitrophenyl)azo]-
##MOLFORM=C13H12N4O3
##CAS REGISTRY NO=106132-45-0
##MP= -300
##BP= -300
##MW= 272
##$RETENTION INDEX=0
##$CONDENSED SPECTRUM=NO
##NPOINTS= 176
##XYDATA=(XY..XY) 1 
    25          0
    26         17
    27         23
    28         60
    29         10
    30         32
    31          2
    34          0
    35          0
    36          1
    37          9
    38         28
    39        194
    40         15
    41         38
    42         22
    43          4
    44          0
    45          0
    46          6
    47          0
    48          0
    49          2
    50         56
    51         87
    52        119
    53         75
    54         28
    55         10
    56          0
    58          0
    59          1
    60          7
    61          8
    62         30
    63        129
    64         77
    65        807
    66        106
    67          7
    68          1
    69          3
    71          1
    72          0
    73          1
    74         15
    75         66
    76        104
    77         60
    78         54
    79        161
    80         55
    81          5
    82          0
    83          3
    84          0
    85          0
    86          0
    87          1
    88          3
    89          4
    90         14
    91         86
    92        999
    93        174
    94         31
    95          2
    96          1
    97          0
    98          0
    99          0
   100          0
   101          2
   102          3
   103          2
   104         21
   105         72
   106        183
   107        297
   108         60
   109          4
   110          0
   113          2
   114          1
   115          3
   116          2
   117          3
   118         16
   119         88
   120        950
   121         96
   122         45
   123          3
   124          3
   125          0
   126          2
   127          6
   128          5
   129          1
   130          3
   131          2
   132          8
   133          3
   134          4
   135          2
   136         15
   137         39
   138          7
   139          6
   140          3
   141          2
   142          1
   143          3
   144          1
   145          0
   146          0
   148          0
   149          0
   150          1
   151          2
   152          2
   153          2
   154         21
   155          8
   156          2
   157          0
   158          0
   159          0
   164          1
   165          6
   166          9
   167          5
   168          3
   169          1
   170          1
   171          4
   172          0
   179          0
   180         17
   181          2
   182          4
   183          8
   184          1
   185          0
   186          0
   193          0
   194          1
   195          2
   196          1
   197          1
   198          1
   199          0
   209          0
   210          1
   211          0
   212          0
   214          0
   215          0
   224          0
   225          2
   226          1
   227          0
   228          0
   240          0
   241          0
   242         13
   243          1
   244          0
   255          0
   256          2
   257          1
   258          0
   272        573
   273         96
   274         11
   275          1