##TITLE=Library Entry 81077
##JCAMP-DX=Revision 4.10 
##DATA TYPE=MASS SPECTRUM
##SAMPLE DESCRIPTION=Chemical Concepts
##NAMES=HP
##CAS NAME=8-Oxabicyclo[3.2.1]octan-1-ol, 5-phenyl-
##MOLFORM=C13H16O2
##CAS REGISTRY NO=106165-82-6
##MP= -300
##BP= -300
##MW= 204
##$RETENTION INDEX=0
##$CONDENSED SPECTRUM=NO
##NPOINTS= 162
##XYDATA=(XY..XY) 1 
    25          1
    26         14
    27        155
    28         27
    29         54
    30          2
    31         21
    34          0
    37          2
    38          8
    39        108
    40         18
    41         89
    42         47
    43         90
    44          3
    45         31
    46          2
    47          1
    48          0
    49          1
    50         45
    51        158
    52         28
    53         48
    54          7
    55        178
    56         22
    57         28
    58          6
    59          1
    60          9
    61          1
    62          6
    63         32
    64         13
    65         53
    66          9
    67          7
    68          2
    69         14
    70         12
    71        169
    72         12
    73          4
    74         12
    75         16
    76         25
    77        370
    78         87
    79         32
    80          3
    81         12
    82          3
    83         21
    84         53
    85         12
    86          1
    87          4
    88         10
    89         18
    90          4
    91        172
    92         26
    93          3
    94          1
    95          3
    96          0
    97          3
    98          5
    99         65
   100          4
   101          6
   102         30
   103         53
   104         21
   105        999
   106         82
   107          9
   108          0
   109          2
   110          1
   111          2
   112          0
   113          3
   114          2
   115        141
   116         41
   117        157
   118         19
   119          4
   120        109
   121         33
   122          3
   123          1
   124          0
   125          1
   126          3
   127         20
   128         53
   129        104
   130         41
   131        295
   132         48
   133        511
   134         68
   135          7
   136          0
   139          1
   140          0
   141          8
   142          4
   143         18
   144         63
   145         23
   146          4
   147         14
   148          4
   149          2
   150          0
   151          0
   152          1
   153          1
   154          0
   155          2
   156          2
   157         17
   158          7
   159          4
   160          2
   161        178
   162         20
   163          2
   165          1
   166          0
   167          2
   168          0
   169          1
   170          1
   171          0
   172          1
   173          0
   174          0
   175          8
   176        247
   177         29
   178          2
   179          0
   181          0
   183          0
   185          1
   186          8
   187          2
   189          1
   190          0
   191          0
   202          0
   203          0
   204        332
   205         42
   206          5
   208          0