##TITLE=Library Entry 60677
##JCAMP-DX=Revision 4.10 
##DATA TYPE=MASS SPECTRUM
##SAMPLE DESCRIPTION=A.Pleshkova, Nesmeyanov Inst.Org.Elem.Cpds, Moscow
##NAMES=HP
##CAS NAME=1-Benzyl-2-(trifluoromethyl)aziridine
##MOLFORM=C10H10F3N
##CAS REGISTRY NO=106240-89-5
##MP= -300
##BP= -300
##MW= 201
##$RETENTION INDEX=0
##$CONDENSED SPECTRUM=NO
##NPOINTS= 14
##XYDATA=(XY..XY) 1 
    51         35
    65         55
    66          6
    69         11
    77         32
    78          7
    89         15
    91        999
    92         77
    93          4
   104         14
   110         30
   201         66
   202          4