##TITLE=Library Entry 87284
##JCAMP-DX=Revision 4.10 
##DATA TYPE=MASS SPECTRUM
##SAMPLE DESCRIPTION=G. Lange, Inst. Org. Chem., Univ. Wurzburg, Germany
##NAMES=HP
##CAS NAME=11-Oxatricyclo[6.2.1.0(1,6)]undec-9-en-2-one
##MOLFORM=C10H12O2
##CAS REGISTRY NO=106247-65-8
##MP= -300
##BP= -300
##MW= 164
##$RETENTION INDEX=0
##$CONDENSED SPECTRUM=NO
##NPOINTS= 72
##XYDATA=(XY..XY) 1 
    38         25
    39        260
    40         49
    41        114
    42         42
    43         16
    50         12
    51         42
    52         20
    53         60
    54         59
    55         74
    57          6
    58          5
    62          5
    63         19
    64          8
    65         41
    66         46
    67         52
    68        106
    69         13
    77         53
    78         21
    79         56
    80         20
    81        130
    82         38
    83          6
    89         12
    90         24
    91         55
    92         22
    93         16
    94         64
    95        559
    96         35
    97          5
   103          6
   104         25
   105         13
   106          5
   107         55
   108         52
   109          7
   110        999
   111         65
   112          6
   115         20
   116          8
   117         16
   118         38
   119          8
   120         28
   121         25
   122         35
   123         25
   127          5
   131         14
   134          8
   135         14
   136         58
   137          6
   144          8
   145         19
   146         55
   147         10
   148          9
   149          8
   162          5
   164        158
   165         18