##TITLE=Library Entry 17752
##JCAMP-DX=Revision 4.10 
##DATA TYPE=MASS SPECTRUM
##SAMPLE DESCRIPTION=NIST Mass Spectrometry Data Center, 1994
##NAMES=HP
##CAS NAME=Bis(3,4-dichlorophenylthio)methane
##MOLFORM=C13H8Cl4S2
##CAS REGISTRY NO=106241-40-1
##MP= -300
##BP= -300
##MW= 368
##$RETENTION INDEX=0
##$CONDENSED SPECTRUM=NO
##NPOINTS= 111
##XYDATA=(XY..XY) 1 
    18          6
    35          6
    36         12
    37         11
    38         13
    39         13
    45        999
    46         57
    47         50
    48          3
    49          7
    50         35
    51         18
    57         10
    58          5
    60          3
    61         15
    62         35
    63         66
    64          4
    69         62
    70          5
    71          9
    72          8
    73         36
    74         56
    75        101
    76          9
    77         24
    78          2
    79         19
    81         26
    82         20
    83         11
    84         26
    85         23
    86         12
    87         10
    89          3
    92          5
    93          8
    94          6
    95          5
    96          5
    97         25
    98          5
    99         12
   103          6
   105         13
   106         24
   107         50
   108         15
   109        104
   110         27
   111         63
   112         30
   113         12
   114          8
   115          3
   116          5
   117          4
   118          3
   119          7
   120         16
   121         77
   122          8
   123         14
   124          3
   133         27
   134          3
   135         16
   137          3
   142        130
   143         22
   144         51
   145         25
   146         10
   147         14
   148          5
   149          5
   155         65
   156         75
   157         31
   158         27
   159         19
   160          3
   161          9
   176          8
   177         44
   178         15
   179         29
   180          8
   181          5
   187          2
   189         12
   191        848
   192         82
   193        563
   194         54
   195        114
   196          9
   197          4
   368        139
   369         28
   370        186
   371         28
   372         94
   373         17
   374         28
   375          4
   376          4