##TITLE=Library Entry 72312
##JCAMP-DX=Revision 4.10 
##DATA TYPE=MASS SPECTRUM
##SAMPLE DESCRIPTION=Chemical Concepts
##NAMES=HP
##CAS NAME=5,19-Cycloandrost-6-en-3-one, 17,17-ethylenedioxy-
##MOLFORM=C21H28O3
##CAS REGISTRY NO=106298-27-5
##MP= -300
##BP= -300
##MW= 328
##$RETENTION INDEX=0
##$CONDENSED SPECTRUM=NO
##NPOINTS= 251
##XYDATA=(XY..XY) 1 
    26          5
    27         57
    29         70
    30          6
    31        115
    33         41
    38          2
    39         57
    40         15
    41        171
    42         70
    43        105
    44         12
    45         41
    46          5
    50          5
    51         22
    52         13
    53         63
    54         14
    55        208
    56         66
    57         53
    58          8
    59          6
    60         11
    61          4
    62          5
    63         11
    64          8
    65         51
    66         15
    67         76
    68         16
    69         58
    70         12
    71         29
    72         10
    73         79
    74         13
    75          7
    76         10
    77         92
    78         44
    79        112
    80         20
    81         71
    82         17
    83         32
    84         14
    85         22
    86        265
    87        105
    88          8
    89         15
    90          8
    91        199
    92         50
    93         70
    94         27
    95         47
    96         18
    97         82
    98         27
    99        999
   100        262
   101         28
   102         12
   103         32
   104         44
   105        112
   106         35
   107         64
   108         16
   109         28
   110         26
   111         17
   112          9
   113         32
   114          9
   115         80
   116         36
   117        108
   118         54
   119         57
   120         21
   121         20
   122         12
   123         24
   124         11
   125         12
   126         13
   127         26
   128         62
   129         88
   130         39
   131         85
   132         44
   133         35
   134         20
   135         18
   136         25
   137         13
   138          5
   139         20
   140         36
   141        181
   142         66
   143         78
   144         38
   145         51
   146         22
   147         29
   148         24
   149         72
   150         16
   151          8
   152         11
   153         24
   154         22
   155         49
   156         27
   157         67
   158         33
   159         76
   160         30
   161         21
   162         13
   163          7
   164          5
   165         13
   166          9
   167         24
   168         20
   169         48
   170         29
   171         70
   172         58
   173         45
   174         21
   175         13
   176          5
   177          5
   178          4
   179          9
   180          8
   181         22
   182         16
   183         41
   184         29
   185         85
   186         43
   187         27
   188         15
   189          7
   190          4
   191          5
   192          5
   193         12
   194          7
   195         31
   196         15
   197         25
   198         21
   199         56
   200         27
   201         12
   202          6
   203          5
   204          3
   205         14
   206         10
   207          9
   208         11
   209         43
   210         33
   211         38
   212         23
   213         46
   214         24
   215         14
   216          5
   217          3
   218          4
   219         11
   220          5
   221          4
   222          4
   223         23
   224         25
   225         34
   226         34
   227        139
   228         46
   229         13
   230          5
   231          4
   232          3
   233          8
   234          3
   235          2
   236          3
   237         17
   238         26
   239         13
   240         28
   241         23
   242         25
   243         10
   244          4
   245          5
   247          3
   248          5
   249          4
   250          2
   251         63
   252         14
   253          9
   254          5
   255         12
   256         18
   257          8
   258          3
   259          3
   265         10
   266        144
   267         46
   268         10
   269         29
   270          7
   271         14
   272         15
   273          4
   274          2
   281          2
   282          3
   283         14
   284        115
   285         29
   286         10
   287          3
   299          6
   300         13
   301          3
   313         47
   314         11
   315          2
   326          4
   328        165
   329         39
   330          7