##TITLE=Library Entry 41560
##JCAMP-DX=Revision 4.10 
##DATA TYPE=MASS SPECTRUM
##SAMPLE DESCRIPTION=G.S. KING, CHEM. PATHOL. DEP., QUEEN CHARLOTTE'S HOSP.,
 LONDON,
##NAMES=HP
##CAS NAME=Undecanedioic acid, 2TMS derivative
##MOLFORM=C17H36O4Si2
##CAS REGISTRY NO=106450-25-3
##MP= -300
##BP= -300
##MW= 360
##$RETENTION INDEX=2001
##$CONDENSED SPECTRUM=NO
##NPOINTS= 110
##XYDATA=(XY..XY) 1 
    40         12
    41         88
    42         12
    43         92
    44         44
    45        108
    47         52
    55        280
    56         24
    57         40
    58         16
    59         28
    61         40
    67         68
    68          8
    69        168
    70          8
    71         16
    72         32
    73        999
    74         76
    75        684
    76         48
    77         60
    79         52
    81         56
    83         80
    84         16
    85         20
    89         12
    91         16
    93         68
    95         56
    96         12
    97         72
    98         28
    99         12
   101          8
   103          8
   105         40
   107         32
   109         24
   110         12
   111         32
   112          8
   116         48
   117        220
   118         16
   119         24
   121         56
   129        172
   130         20
   131         32
   132         28
   133         40
   134          8
   135         68
   136          8
   137          8
   139         80
   143         16
   145         52
   146          8
   147        180
   148         28
   149        148
   150         16
   151         28
   152         40
   153         16
   156         12
   157         16
   159         12
   161          8
   162          8
   163          8
   169          8
   170         24
   171         20
   173         32
   180         20
   181         20
   185          8
   187         12
   199         56
   200         12
   201          8
   202         12
   204        120
   205         24
   206         24
   207          8
   213         24
   217        168
   218         40
   219         16
   227         40
   228          8
   229        212
   230         36
   231         16
   237         16
   269         12
   273          8
   301         28
   329         80
   330         16
   345        504
   346        128
   347         48