##TITLE=Library Entry 52917
##JCAMP-DX=Revision 4.10 
##DATA TYPE=MASS SPECTRUM
##SAMPLE DESCRIPTION=G. Lange, Inst. Org. Chem., Univ. Wurzburg, Germany
##NAMES=HP
##CAS NAME=Tricyclo[4.2.1.0(3,7)]nonane-2,6-diol, (exo-2)-
##MOLFORM=C9H14O2
##CAS REGISTRY NO=106435-10-3
##MP= -300
##BP= -300
##MW= 154
##$RETENTION INDEX=0
##$CONDENSED SPECTRUM=NO
##NPOINTS= 74
##XYDATA=(XY..XY) 1 
    38          7
    39        247
    40         50
    41        359
    42         75
    43        376
    44         25
    45         16
    50          9
    51         50
    52         28
    53        157
    54         82
    55        496
    56         66
    57        253
    58         44
    59         10
    63         12
    65         75
    66        190
    67        228
    68         78
    69        110
    70        107
    71        178
    72        105
    73         13
    77        168
    78        107
    79        398
    80        218
    81        193
    82        221
    83        999
    84        615
    85         57
    86         18
    91         95
    92         69
    93        230
    94        335
    95        305
    96        924
    97        492
    98         69
    99         41
   100         74
   103         10
   105         49
   106          9
   107        132
   108        159
   109         37
   110         26
   111         47
   112         49
   113         22
   115          7
   117         24
   118         27
   119         13
   121        105
   122          8
   123         46
   125        139
   126         40
   135         33
   136        203
   137         30
   139         15
   153          7
   154        429
   155         41