##TITLE=Library Entry 66796
##JCAMP-DX=Revision 4.10 
##DATA TYPE=MASS SPECTRUM
##SAMPLE DESCRIPTION=G. Lange, Inst. Org. Chem., Univ. Wurzburg, Germany
##NAMES=HP
##CAS NAME=Tricyclo[4.2.1.0(3,7)]nonan-3-ol, anti-8-(phenylamino)-
##MOLFORM=C15H19NO
##CAS REGISTRY NO=106435-12-5
##MP= -300
##BP= -300
##MW= 229
##$RETENTION INDEX=0
##$CONDENSED SPECTRUM=NO
##NPOINTS= 96
##XYDATA=(XY..XY) 1 
    36          6
    38          7
    39         37
    40          7
    41         61
    42         10
    43         43
    49          8
    51         32
    52          8
    53         29
    54         10
    55         55
    56          8
    57         11
    65         55
    66         39
    67         39
    68         13
    69         13
    70          5
    77        178
    78         35
    79        115
    80         21
    81         21
    82         10
    83         18
    84         18
    86         10
    90          5
    91         68
    92         37
    93        999
    94        104
    95         26
    96          8
   103         10
   104         99
   105         26
   106        243
   107         44
   108         10
   109         15
   114         12
   115         17
   116          7
   117         57
   118         60
   119        101
   120         31
   121          7
   128         12
   129          7
   130         68
   131         19
   132        115
   133         34
   134          5
   135          9
   136         23
   137         15
   143         23
   144         50
   145         61
   146        161
   147         22
   148          6
   155          9
   156         26
   157         12
   158         34
   159         14
   160          6
   161         14
   168          8
   169          6
   170         40
   171         12
   172         23
   173          7
   174          9
   182         13
   183         54
   184         11
   186         11
   196          8
   200          9
   201          8
   210         25
   211         10
   212          5
   228         28
   229        643
   230        108
   231          9