##TITLE=Library Entry 41768
##JCAMP-DX=Revision 4.10 
##DATA TYPE=MASS SPECTRUM
##SAMPLE DESCRIPTION=F. Herrmann, Res. Inst. Synth. Resins Lacquers, Pardubi
ce, Czechoslovakia
##NAMES=HP
##CAS NAME=4-Cyclohexene-1,2-dicarboxylic acid, 4-methyl-, bis(trimethylsily
l) ester
##MOLFORM=C15H28O4Si2
##CAS REGISTRY NO=106450-28-6
##MP= -300
##BP= -300
##MW= 328
##$RETENTION INDEX=0
##$CONDENSED SPECTRUM=NO
##NPOINTS= 21
##XYDATA=(XY..XY) 1 
    59         40
    61         20
    72         30
    73        999
    74         90
    75        190
    77         50
    91         50
    92        470
    93        190
   103         20
   117         60
   147        210
   148         30
   149         30
   166         80
   210         90
   211         20
   238         30
   313         50
   328          9