##TITLE=Library Entry 100519
##JCAMP-DX=Revision 4.10 
##DATA TYPE=MASS SPECTRUM
##SAMPLE DESCRIPTION=Chemical Concepts
##NAMES=HP
##CAS NAME=3-(4-Cyanomethyl-1H-pyrrol-3-yl)-propionitrile
##MOLFORM=C9H9N3
##CAS REGISTRY NO=106491-24-1
##MP= -300
##BP= -300
##MW= 159
##$RETENTION INDEX=0
##$CONDENSED SPECTRUM=NO
##NPOINTS= 96
##XYDATA=(XY..XY) 1 
    26          5
    27         16
    28         48
    29          3
    30          1
    37          6
    38         14
    39         46
    40         12
    41         22
    42          4
    43          6
    46          0
    49          1
    50         15
    51         41
    52         37
    53          8
    54          6
    55          6
    56          2
    57          8
    59          1
    60          1
    61          3
    62          7
    63         24
    64         35
    65        113
    66         18
    67          9
    68          2
    69          5
    70          2
    71          5
    73          1
    74          2
    75          8
    76         13
    77         23
    78         16
    79         16
    80          7
    81          3
    82          1
    83          3
    84          1
    85          3
    86          0
    87          1
    88          2
    89          2
    90          7
    91         30
    92         69
    93         29
    94          3
    95          2
    96          1
    97          3
    98          1
    99          1
   100          0
   101          1
   102          7
   103          5
   104         22
   105         29
   106         11
   107          1
   108          0
   109          1
   110          0
   111          2
   112          0
   113          1
   114          0
   115          0
   116          1
   117         12
   118        117
   119        999
   120         83
   121          3
   129          8
   130          8
   131         31
   132         37
   133         11
   134          1
   156          2
   157          3
   158          6
   159        255
   160         28
   161          1