##TITLE=Library Entry 53188
##JCAMP-DX=Revision 4.10 
##DATA TYPE=MASS SPECTRUM
##SAMPLE DESCRIPTION=G. Lange, Inst. Org. Chem., Univ. Wurzburg, Wurzburg, G
ermany
##NAMES=HP
##CAS NAME=Tricyclo[4.2.1.0(3,7)]nonane-3,8-diol, (anti-8)-
##MOLFORM=C9H14O2
##CAS REGISTRY NO=106435-09-0
##MP= -300
##BP= -300
##MW= 154
##$RETENTION INDEX=0
##$CONDENSED SPECTRUM=NO
##NPOINTS= 82
##XYDATA=(XY..XY) 1 
    36          3
    37          4
    38         16
    39        429
    40        104
    41        507
    42         98
    43        403
    44         28
    45         21
    47          7
    50         18
    51         90
    52         52
    53        248
    54        158
    55        593
    56         75
    57        243
    58         67
    59         14
    62          7
    63         22
    64          8
    65        140
    66        284
    67        480
    68        110
    69        169
    70        294
    71        317
    72         36
    73         20
    74          3
    75          8
    77        260
    78        112
    79        558
    80        450
    81        762
    82        318
    83        999
    84        113
    85         72
    86         94
    87          7
    89          6
    91        150
    92        467
    93        390
    94        531
    95        822
    96        572
    97        117
    98         23
    99         24
   103         17
   105         39
   106         15
   107        241
   108        464
   109         86
   110         33
   111         40
   112         13
   113         71
   115         10
   116         12
   117         68
   118        189
   119         38
   120         12
   121        204
   123         13
   125         26
   126          6
   135         49
   136        911
   137        101
   139          2
   154         32
   155          3