##TITLE=Library Entry 19771
##JCAMP-DX=Revision 4.10 
##DATA TYPE=MASS SPECTRUM
##SAMPLE DESCRIPTION=ORMSBG,9(11)1063(1974); YEMUL
##NAMES=HP
##CAS NAME=2-Butenal, 2-methyl-4-[3a,4,5,7-tetrahydro-8-hydroxy-3,3,11,11-te
tramethyl-13-(3-methyl-2-butenyl)-7,15-dioxo-1,5-methano-1H,3H,11H-furo[3,4-
g]pyrano[3,2-b]xanthen-1-yl]-, [1R-[1.alpha.,1(E),3a.beta.,5.alpha.,14aS*]]-
##MOLFORM=C33H36O7
##CAS REGISTRY NO=1064-71-7
##MP= -300
##BP= -300
##MW= 544
##$RETENTION INDEX=0
##$CONDENSED SPECTRUM=NO
##NPOINTS= 88
##XYDATA=(XY..XY) 1 
    43        968
    51        206
    53        516
    55        999
    56        150
    57        170
    65        264
    67        219
    69        741
    71         80
    73        116
    77        516
    78        139
    79        290
    81        216
    82         76
    83        400
    84        141
    89         87
    91        426
    93        103
    95        113
    97         60
   103        129
   104         64
   105        341
   107        126
   109        184
   111         70
   115        232
   117        103
   119        139
   121         84
   127         70
   128        150
   129        145
   131         90
   133         80
   135        145
   141         87
   145        113
   147        145
   152         70
   153         64
   159         76
   161         64
   165         76
   171         60
   173        135
   187         80
   189        160
   199         60
   201         70
   213         64
   215        306
   216         64
   227         87
   229        350
   231        274
   232         55
   243         84
   245         80
   258         64
   271         55
   285        209
   287        338
   288         70
   295         76
   307        129
   347        126
   349        145
   363        226
   364         64
   389        109
   391         77
   405        338
   406        153
   433         55
   487         80
   501        183
   502        119
   516        109
   529        303
   530        200
   531         80
   544        870
   545        290
   546        103