##TITLE=Library Entry 85131
##JCAMP-DX=Revision 4.10 
##DATA TYPE=MASS SPECTRUM
##SAMPLE DESCRIPTION=Philip Morris R&D
##NAMES=HP
##CAS NAME=1-(2,5-Dimethyl-3-pyrazinyl)-3-methyl-1-butanone
##MOLFORM=C11H16N2O
##CAS REGISTRY NO=106538-15-2
##MP= -300
##BP= -300
##MW= 192
##$RETENTION INDEX=0
##$CONDENSED SPECTRUM=NO
##NPOINTS= 81
##XYDATA=(XY..XY) 1 
    37         16
    38         57
    39        585
    40        128
    41        389
    42        581
    43        171
    44          9
    50         13
    51         29
    52         66
    53         86
    54         77
    55         54
    56         31
    57        522
    58         24
    61          3
    63          7
    64         29
    65         25
    66        154
    67         82
    68         21
    69        132
    70          5
    74          3
    76          2
    77          6
    78         13
    79         21
    80        211
    81         98
    82         31
    83          8
    84          5
    85         63
    86          4
    87          5
    88          9
    91          4
    92          4
    93         14
    94          4
    96          3
   105         10
   106         12
   107        860
   108        999
   109        291
   110         13
   121         23
   122        602
   123         54
   131         12
   132          5
   133         18
   135        207
   136        269
   137         27
   145          4
   147          9
   148          3
   149         98
   150         54
   151         17
   159         15
   161          9
   162          7
   163         18
   164        342
   165         43
   166          3
   173         29
   174          6
   175          8
   177        170
   178         20
   191          6
   192        159
   193         25