##TITLE=Library Entry 81102
##JCAMP-DX=Revision 4.10 
##DATA TYPE=MASS SPECTRUM
##SAMPLE DESCRIPTION=Chemical Concepts
##NAMES=HP
##CAS NAME=1,3-Pentanedione, 2,4,4-trimethyl-1-phenyl-
##MOLFORM=C14H18O2
##CAS REGISTRY NO=106596-69-4
##MP= -300
##BP= -300
##MW= 218
##$RETENTION INDEX=0
##$CONDENSED SPECTRUM=NO
##NPOINTS= 92
##XYDATA=(XY..XY) 1 
    26          2
    27         30
    28          6
    29        100
    30          2
    31          0
    38          1
    39         26
    41        120
    42         10
    43          6
    44          0
    49          0
    50         12
    51         66
    52          5
    53          3
    54          0
    55         19
    56         20
    57        372
    58         16
    59          0
    62          0
    63          2
    64          0
    65          2
    66          0
    67          0
    69          9
    70          2
    71          0
    74          1
    75          3
    76         10
    77        250
    78         24
    79          8
    80          0
    81          0
    83          2
    85        181
    86          9
    87          0
    88          0
    89          1
    90          0
    91          6
    92          3
    93          0
    95          0
    97          0
   101          0
   102          1
   103          3
   104          3
   105        999
   106         69
   107          5
   108          0
   113          0
   115          6
   116          3
   117          7
   118          0
   119          1
   120          0
   127          0
   131          1
   132          3
   133        156
   134        383
   135         37
   136          2
   143          0
   145          0
   147          0
   149          0
   160          1
   161         22
   162          2
   163          1
   175          0
   190          0
   191          0
   201          0
   203         10
   204          1
   218        327
   219         49
   220          4
   221          0