##TITLE=Library Entry 19804
##JCAMP-DX=Revision 4.10 
##DATA TYPE=MASS SPECTRUM
##SAMPLE DESCRIPTION=ASES Database, Dalian Institute, P.R. China
##NAMES=HP
##CAS NAME=(Z)-9-Hydroxy-4-methyl-7-nonenoic acid lactone
##MOLFORM=C10H16O2
##CAS REGISTRY NO=106552-43-6
##MP= -300
##BP= -300
##MW= 168
##$RETENTION INDEX=0
##$CONDENSED SPECTRUM=NO
##NPOINTS= 25
##XYDATA=(XY..XY) 1 
    53        226
    54        819
    55        999
    56        178
    57        143
    67        578
    68        420
    69        600
    70        417
    71        132
    79        191
    81        576
    82        156
    83        120
    84        155
    93        324
    95        432
    96        154
    98        131
   107        132
   108        192
   114        132
   139        431
   140        253
   168        239