##TITLE=Library Entry 56365
##JCAMP-DX=Revision 4.10 
##DATA TYPE=MASS SPECTRUM
##SAMPLE DESCRIPTION=Japan AIST/NIMC Database- Spectrum MS-IW-2990
##NAMES=HP
##CAS NAME=8,8-Ethylenedioxy-1,2,3,4,4a,6,7,8,cis-8a,9,10,trans-10a-dodecahy
dro-4a,8a-dimethyl-2-phenanthrylidenemalononitrile
##MOLFORM=C21H26N2O2
##CAS REGISTRY NO=106524-23-6
##MP= -300
##BP= -300
##MW= 338
##$RETENTION INDEX=0
##$CONDENSED SPECTRUM=NO
##NPOINTS= 164
##XYDATA=(XY..XY) 1 
    15          1
    27          7
    28          9
    29          8
    31          1
    39          9
    40          2
    41         25
    42         26
    43         20
    44          1
    45          7
    51          3
    52          3
    53          9
    54          2
    55         20
    56          2
    57          1
    60          1
    63          1
    64          2
    65          9
    66          4
    67          9
    68          2
    69          5
    71          1
    73          7
    74          2
    76          1
    77         19
    78          7
    79         23
    80          4
    81          9
    82          2
    83          1
    85          1
    86        999
    87        209
    88         12
    89          3
    90          1
    91         29
    92          6
    93         14
    94          8
    95          6
    96          2
    97          1
    99          9
   100          1
   101          1
   102          2
   103          6
   104          4
   105         20
   106          5
   107          9
   108          2
   109          2
   110          1
   111          1
   112          1
   113          2
   114          1
   115          8
   116          7
   117          9
   118          5
   119         10
   120          2
   121          3
   122          1
   123          1
   125          2
   126          1
   127          2
   128          6
   129          9
   130          6
   131          9
   132          3
   133          7
   134          2
   135          1
   139          1
   140          2
   141          4
   142          4
   143          6
   144          2
   145          4
   146          1
   147          6
   148          1
   149          1
   151          2
   152          2
   153          2
   154          3
   155          4
   156          2
   157          4
   158          1
   159          1
   165          2
   166          2
   167          2
   168          4
   169          4
   170          1
   171          2
   178          1
   179          1
   180          2
   181          4
   182          3
   183          2
   184          1
   185          1
   191          1
   192          1
   193          2
   194          2
   195          7
   196          5
   197          2
   204          1
   205          1
   206          1
   207          2
   208          2
   209          5
   210          3
   211          1
   219          1
   220          1
   221          2
   222          1
   223          4
   224          2
   225          1
   233          1
   235          2
   236          1
   237         44
   238          8
   239          1
   249          1
   251          2
   252         21
   253          4
   261          1
   263          1
   275          1
   277          1
   278          2
   336          2
   337          1
   338        101
   339         23
   340          3