##TITLE=Library Entry 27462
##JCAMP-DX=Revision 4.10 
##DATA TYPE=MASS SPECTRUM
##SAMPLE DESCRIPTION=Chemical Concepts
##NAMES=HP
##CAS NAME=1,3-Benzenedicarboxylic acid, 4,5,6-tris(1,1-dimethylethyl)-, 1,1
-dimethylethyl methyl ester
##MOLFORM=C25H40O4
##CAS REGISTRY NO=106543-14-0
##MP= -300
##BP= -300
##MW= 404
##$RETENTION INDEX=0
##$CONDENSED SPECTRUM=NO
##NPOINTS= 249
##XYDATA=(XY..XY) 1 
    26          2
    27         35
    28         10
    29        224
    30          4
    31          5
    33          1
    38          2
    39         46
    40         22
    41        333
    42         17
    43         38
    44          0
    45          2
    49          0
    50          0
    51          3
    52          1
    53         14
    54          1
    55         41
    56         22
    57        999
    58         47
    59         23
    60          0
    61          0
    63          3
    64          0
    65          9
    66          1
    67          7
    69          6
    71          0
    72          0
    73         10
    74          0
    75          2
    76          2
    77         14
    78          3
    79          9
    81          5
    82          1
    83          1
    84          0
    88          1
    89          4
    90          1
    91         35
    92          2
    93          3
    95          2
    97          0
    99          0
   100          0
   101          1
   102          2
   103          9
   104          2
   105         18
   106          2
   107          4
   108          1
   109          1
   111          2
   113          0
   114          1
   115         48
   116         15
   117         19
   118          3
   119         12
   120          1
   121          1
   122          0
   123          1
   126          1
   127         15
   128         41
   129         51
   130         20
   131         38
   132          6
   133          6
   134          1
   135          2
   136          1
   139          3
   140          0
   141         36
   142         25
   143         43
   144         14
   145         24
   146          5
   147          5
   148          1
   149          3
   150          1
   151          1
   152          8
   153         13
   154          7
   155         23
   156         23
   157         42
   158         24
   159         19
   160          5
   161          4
   162          2
   163          3
   164          1
   165          7
   166          4
   167          6
   168          5
   169         13
   170         11
   171         47
   172         25
   173         16
   174          6
   175         14
   176          7
   177          8
   178          2
   179          6
   180          1
   181          5
   182          4
   183         15
   184         10
   185         27
   186         11
   187         18
   188          5
   189         23
   190          7
   191         11
   192          4
   193         13
   194          4
   195          3
   196          2
   197         10
   198          6
   199         72
   200         16
   201         25
   202          7
   203        162
   204         23
   205         12
   206          7
   207          3
   208          5
   209          4
   210          1
   211         10
   212          3
   213         13
   214         15
   215         58
   216         12
   217        149
   218         27
   219         27
   220          4
   221          7
   222          1
   223          1
   224          1
   225          6
   226          3
   227         40
   228         11
   229         29
   230          5
   231         34
   232         25
   233         28
   234          5
   235        344
   236         52
   237          6
   238          1
   239          1
   241          8
   242          7
   243         63
   244         12
   245        147
   246         37
   247         17
   248          4
   249          9
   250          8
   251          2
   253          0
   255          3
   256          1
   257          6
   258          1
   259        242
   260         51
   261        642
   262        118
   263         12
   264          1
   269          0
   271          1
   273         34
   274         11
   275        162
   276         32
   277        272
   278         44
   279          6
   280          0
   283          0
   287          1
   289          0
   290          1
   291        130
   292         74
   293         15
   294          2
   301          2
   315          1
   316          0
   317         91
   318         22
   319          3
   331         77
   332         19
   333         12
   334          2
   347          1
   348          1
   349          3
   373         19
   374          4
   389          0
   404         17
   405          4
   406          1