##TITLE=Library Entry 52006
##JCAMP-DX=Revision 4.10 
##DATA TYPE=MASS SPECTRUM
##SAMPLE DESCRIPTION=NIST Mass Spectrometry Data Center, 1994
##NAMES=HP
##CAS NAME=(Trimethylsilyl)acetylene
##MOLFORM=C5H10Si
##CAS REGISTRY NO=1066-54-2
##MP= -300
##BP= -300
##MW= 98
##$RETENTION INDEX=552
##$CONDENSED SPECTRUM=NO
##NPOINTS= 52
##XYDATA=(XY..XY) 1 
    15         60
    17          1
    18          1
    25          2
    26          6
    27         13
    28         31
    29         47
    30          6
    31          6
    32          1
    37          3
    38          4
    39         10
    40          3
    41          9
    42         33
    43        228
    44         20
    45         17
    50          1
    51          1
    53        169
    54         22
    55        126
    56         11
    57         19
    58          6
    59          2
    64          2
    65         26
    66         61
    67         94
    68         22
    69         19
    70          3
    71          1
    72          2
    73          1
    76          1
    77          5
    78          1
    79          2
    81          7
    83        999
    84         96
    85         40
    86          1
    97          7
    98         92
    99         10
   100          3