##TITLE=Library Entry 100154
##JCAMP-DX=Revision 4.10 
##DATA TYPE=MASS SPECTRUM
##SAMPLE DESCRIPTION=A.A.Kutin, Moscow, Russia
##NAMES=HP
##CAS NAME=Trigermane, octamethyl-
##MOLFORM=C8H24Ge3
##CAS REGISTRY NO=1066-63-3
##MP= -300
##BP= -300
##MW= 342
##$RETENTION INDEX=0
##$CONDENSED SPECTRUM=NO
##NPOINTS= 158
##XYDATA=(XY..XY) 1 
    36          1
    39          4
    40          2
    41         12
    42          2
    43         16
    44         10
    45          1
    53          0
    55          7
    56          8
    57         22
    58          0
    60          0
    67          0
    69          5
    70          7
    71         19
    72          6
    73         17
    74         10
    75         17
    76          1
    77          4
    81          0
    83          2
    85        154
    87        221
    88         68
    89        268
    91        104
    93          8
    95          0
    97          6
    98          0
    99         11
   100         36
   101         30
   102         43
   103         44
   104         61
   105         35
   106         10
   107          6
   112          0
   115        621
   117        848
   118        286
   119        999
   121        239
   122          5
   127          0
   129          1
   131          1
   140          0
   142          0
   143          0
   144          2
   145          1
   146          3
   147          1
   148          2
   149          1
   153          1
   154          0
   155          6
   156          2
   157         15
   158          6
   159         19
   160          6
   161         17
   162          4
   163          8
   164          0
   165          2
   167          0
   169          1
   170          1
   171          4
   172          3
   173          6
   174          6
   175          6
   176          5
   177          4
   178          3
   180          0
   185          3
   187          9
   188          3
   189         15
   190          4
   191         15
   192          3
   193         10
   195          2
   200         15
   202         50
   203         23
   204         85
   205         30
   206         85
   207         31
   208         64
   209          8
   210         18
   211          0
   212          0
   215         52
   217        140
   218         53
   219        240
   220         71
   221        251
   222         77
   223        179
   224         23
   225         55
   227          7
   229          3
   230          1
   231          8
   232          3
   233         15
   234          4
   235         14
   236          4
   237         10
   238          0
   239          2
   315          0
   317          5
   318          2
   319         15
   320          6
   321         24
   322         10
   323         26
   324         11
   325         23
   326          6
   327         13
   328          1
   329          3
   331          0
   332          3
   333          1
   334         10
   336         23
   337          9
   338         20
   339          8
   340         18
   341          5
   342          8
   343          1
   344          2