##TITLE=Library Entry 66095
##JCAMP-DX=Revision 4.10 
##DATA TYPE=MASS SPECTRUM
##SAMPLE DESCRIPTION=NIST Mass Spectrometry Data Center, 1994
##NAMES=HP
##CAS NAME=Silane, chlorodimethyl-
##MOLFORM=C2H7ClSi
##CAS REGISTRY NO=1066-35-9
##MP= -300
##BP= -300
##MW= 94
##$RETENTION INDEX=534
##$CONDENSED SPECTRUM=NO
##NPOINTS= 56
##XYDATA=(XY..XY) 1 
    15        395
    16          8
    25          6
    26         22
    27         54
    28          6
    29        131
    30         26
    31        116
    33          3
    35         24
    36         14
    37         11
    38          6
    40         27
    41        127
    42        240
    43        485
    44         45
    45         19
    47          5
    48          6
    49          8
    50          2
    53         81
    54         19
    55         32
    56          2
    57         49
    58          2
    59        731
    60         57
    61         28
    62          2
    63        443
    64         88
    65        300
    66         32
    67         52
    68          3
    69          1
    73          0
    75          6
    76         23
    77         55
    78        214
    79        761
    80        116
    81        267
    82         18
    83          9
    93        999
    94        116
    95        345
    96         26
    97         12