##TITLE=Library Entry 49508
##JCAMP-DX=Revision 4.10 
##DATA TYPE=MASS SPECTRUM
##SAMPLE DESCRIPTION=Chemical Concepts
##NAMES=HP
##CAS NAME=Tetracyclo[6.6.1.0(2,7).0(9,14)]pentadeca-4,11-diene
##MOLFORM=C15H20
##CAS REGISTRY NO=106653-13-8
##MP= -300
##BP= -300
##MW= 200
##$RETENTION INDEX=0
##$CONDENSED SPECTRUM=NO
##NPOINTS= 109
##XYDATA=(XY..XY) 1 
    26          8
    27         78
    34          0
    38          3
    39        179
    40         33
    41        222
    42          6
    43         14
    45          1
    50         20
    51         79
    52         38
    53         85
    54         33
    55         45
    56          3
    57          6
    58          7
    62          5
    63         34
    64         10
    65        146
    66        594
    67        259
    68        322
    69         12
    70          3
    71         10
    72          9
    73          2
    74          5
    75          6
    76          6
    77        333
    78        196
    79        972
    80        999
    81        180
    82         10
    83          8
    84          3
    85          7
    86          5
    89         12
    90          0
    91        675
    92        409
    93        141
    94         44
    95         31
    96         19
    97          3
   102          5
   103         44
   104        191
   105        206
   106        100
   107         59
   108         28
   109         57
   111          0
   113          2
   115         84
   116         62
   117        372
   118        485
   119        408
   120        328
   121         99
   122         59
   123          2
   124          1
   125          1
   126          0
   127          9
   128         37
   129        137
   130        139
   131        224
   132        105
   133         73
   134         49
   135          5
   139          4
   141         11
   142          3
   143        106
   144         73
   145         95
   146        174
   147         19
   152          4
   155          2
   156          1
   157         99
   158         58
   159        131
   160         18
   171        116
   172         82
   173          5
   185         58
   186          6
   191          1
   199          6
   200        645
   201         94
   202          7