##TITLE=Library Entry 17587
##JCAMP-DX=Revision 4.10 
##DATA TYPE=MASS SPECTRUM
##SAMPLE DESCRIPTION=A.Pleshkova, Nesmeyanov Inst.Org.Elem.Cpds, Moscow
##NAMES=HP
##CAS NAME=Metyldibromphosphine
##MOLFORM=CH3Br2P
##CAS REGISTRY NO=1066-34-8
##MP= -300
##BP= -300
##MW= 204
##$RETENTION INDEX=0
##$CONDENSED SPECTRUM=NO
##NPOINTS= 30
##XYDATA=(XY..XY) 1 
    15         31
    16         19
    32         15
    43         61
    44        272
    45        999
    46         67
    47          1
    79         98
    80         99
    81        101
    82         92
   110         72
   112         71
   121         43
   123         32
   124         35
   125        732
   126          8
   127        717
   128          8
   189        144
   191        282
   193        138
   204        329
   205          4
   206        645
   207          8
   208        315
   209          4