##TITLE=Library Entry 90973
##JCAMP-DX=Revision 4.10 
##DATA TYPE=MASS SPECTRUM
##SAMPLE DESCRIPTION=Tox21 Consortium/NIST Mass Spectrometry Data Center, 20
12
##NAMES=HP
##CAS NAME=Sibutramine
##MOLFORM=C17H26ClN
##CAS REGISTRY NO=106650-56-0
##MP= -300
##BP= -300
##MW= 279
##$RETENTION INDEX=0
##$CONDENSED SPECTRUM=NO
##NPOINTS= 120
##XYDATA=(XY..XY) 1 
    27          3
    28          2
    29          3
    30          1
    39          4
    40          1
    41         14
    42         21
    43         17
    44         10
    45          1
    46          1
    50          2
    51          4
    52          1
    53          4
    54          1
    55          6
    56         16
    57         16
    58         42
    59          2
    62          1
    63          3
    64          1
    65          2
    66          1
    67          2
    68          3
    69          2
    70         15
    71         19
    72        123
    73          6
    74          2
    75          7
    76          3
    77          6
    79          6
    81          1
    82          5
    83          1
    84          6
    85          2
    86          1
    87          1
    89          4
    90          1
    91          2
    93          1
    94          1
    96          1
    97          2
    98         15
    99          3
   100          2
   101         20
   102         18
   103          5
   104          1
   110          1
   111          2
   112          4
   114        999
   115        101
   116         11
   117          1
   123          1
   125         19
   126          3
   127         15
   128         21
   129         20
   130          9
   131          2
   136          6
   137         20
   138          5
   139          8
   140          2
   141          4
   142          3
   143          3
   144          3
   145          1
   149          3
   150          1
   151          3
   152          2
   153          2
   154          1
   155          1
   156          1
   157          1
   158          7
   159          2
   162          1
   163          1
   164          3
   165          4
   166          2
   167          1
   177          1
   178          4
   179          2
   180          2
   181          1
   186          1
   187          1
   191          1
   192          3
   193          1
   194          4
   195          1
   196          1
   206          1
   220          1
   222          4
   223          1
   224          2