##TITLE=Library Entry 59776
##JCAMP-DX=Revision 4.10 
##DATA TYPE=MASS SPECTRUM
##SAMPLE DESCRIPTION=V.A.Korolev, Moscow, Russia
##NAMES=HP
##CAS NAME=1-Benzyl-3,5-dibromo-1,2,4-triazole
##MOLFORM=C9H7Br2N3
##CAS REGISTRY NO=106724-85-0
##MP= -300
##BP= -300
##MW= 315
##$RETENTION INDEX=0
##$CONDENSED SPECTRUM=NO
##NPOINTS= 81
##XYDATA=(XY..XY) 1 
    36          4
    37          6
    38         53
    39        165
    40         71
    41         74
    42          8
    43         30
    44         42
    45          9
    50         61
    51        132
    52         32
    53         18
    54          5
    55         23
    56          7
    57         18
    60          7
    61          6
    62         22
    63         80
    64         33
    65        325
    66         22
    67          7
    69          9
    70          5
    71          7
    73          8
    74         12
    75         13
    76         20
    77         82
    78         12
    79         18
    80         10
    81         17
    82         10
    83          7
    84          3
    85          5
    89         78
    90         56
    91        999
    92        215
    93         34
    97          4
    98          5
   102         12
   103         13
   104         19
   105         12
   106         12
   107          3
   108         11
   117          5
   118          5
   119          9
   120         18
   122         12
   125         11
   128          4
   129          9
   131          9
   133          7
   135          3
   156          4
   224          8
   226         18
   228          7
   236        100
   237         11
   238         99
   239         10
   315         95
   316         15
   317        187
   318         15
   319         93
   320          8