##TITLE=Library Entry 31445
##JCAMP-DX=Revision 4.10 
##DATA TYPE=MASS SPECTRUM
##SAMPLE DESCRIPTION=Japan AIST/NIMC Database- Spectrum MS-NW-8081
##NAMES=HP
##CAS NAME=Tris-(hydroxymethyl)-phosphine oxide
##MOLFORM=C3H9O4P
##CAS REGISTRY NO=1067-12-5
##MP= -300
##BP= -300
##MW= 140
##$RETENTION INDEX=0
##$CONDENSED SPECTRUM=NO
##NPOINTS= 75
##XYDATA=(XY..XY) 1 
    12          1
    13          1
    14          4
    15         18
    16          2
    17          4
    18         19
    19          1
    26          2
    27          9
    28        184
    29        300
    30        178
    31        752
    32         28
    33         66
    34         14
    35          9
    36          1
    41          1
    42          3
    43         11
    44         19
    45         91
    46         27
    47        238
    48        110
    49         90
    50        197
    51         45
    56          1
    57          3
    58          2
    59          9
    60         24
    61        390
    62        999
    63        125
    64         75
    65        147
    66          9
    67          1
    74          5
    75          5
    76         17
    77          9
    78         25
    79        286
    80        388
    81         13
    82         23
    91         11
    92        396
    93         15
    94         40
    95          2
    96          4
   106          3
   107          1
   108          5
   109          7
   110        283
   111         10
   112          2
   120          2
   121          1
   122          9
   123          2
   124          2
   136          1
   137          1
   138          1
   139          3
   140         13
   141          9