##TITLE=Library Entry 107217
##JCAMP-DX=Revision 4.10 
##DATA TYPE=MASS SPECTRUM
##SAMPLE DESCRIPTION=NIST Mass Spectrometry Data Center
##NAMES=HP
##CAS NAME=Methyl diethylphosphonoacetate
##MOLFORM=C7H15O5P
##CAS REGISTRY NO=1067-74-9
##MP= -300
##BP= -300
##MW= 210
##$RETENTION INDEX=0
##$CONDENSED SPECTRUM=NO
##NPOINTS= 100
##XYDATA=(XY..XY) 1 
    12          2
    13          2
    14         13
    15        229
    17          2
    18          6
    19          3
    26         59
    27        360
    28         74
    29        662
    30         35
    31         87
    33         30
    39          9
    42        564
    43        422
    44         36
    45        190
    47        179
    48         58
    49         36
    50          5
    54          7
    55         18
    57         12
    58          7
    59          9
    60          4
    61         27
    62          9
    63         15
    65        281
    66          3
    67          2
    68          6
    69          8
    71          3
    74        580
    75         52
    76          8
    77         28
    78        114
    79         67
    80         49
    81        403
    82         19
    83          5
    89          5
    91        152
    92         17
    93        122
    95        507
    96        118
    97         78
    98          2
    99          7
   105        211
   106         62
   107         15
   109        329
   110         17
   111         26
   112          8
   113         52
   119         53
   120          6
   121         28
   122        147
   123        999
   124         67
   125         37
   126          3
   127          4
   131          3
   134          4
   135          7
   137        464
   138         58
   139         14
   141          8
   149         20
   151        295
   152         52
   153          9
   155        483
   156         20
   157          4
   165        196
   166        137
   167         10
   179        206
   180         17
   181          5
   183        884
   184         48
   185         10
   209          5
   210         24
   211          5