##TITLE=Library Entry 9863
##JCAMP-DX=Revision 4.10 
##DATA TYPE=MASS SPECTRUM
##SAMPLE DESCRIPTION=Japan AIST/NIMC Database- Spectrum MS-NW-3698
##NAMES=HP
##CAS NAME=Pentane, 3-ethyl-3-methyl-
##MOLFORM=C8H18
##CAS REGISTRY NO=1067-08-9
##MP= -300
##BP= -300
##MW= 114
##$RETENTION INDEX=774
##$CONDENSED SPECTRUM=NO
##NPOINTS= 39
##XYDATA=(XY..XY) 1 
    15          4
    26          5
    27         90
    28          3
    29        112
    30          2
    38          2
    39         55
    40          7
    41        187
    42         17
    43        999
    44         32
    45          2
    50          3
    51          6
    52          2
    53         18
    54          5
    55         66
    56         25
    57        320
    58         13
    63          1
    65          3
    67          6
    68          1
    69         62
    70          7
    71          6
    77          1
    83          4
    84        184
    85        718
    86         49
    87          2
    98          2
    99         20
   100          1