##TITLE=Library Entry 85876
##JCAMP-DX=Revision 4.10 
##DATA TYPE=MASS SPECTRUM
##SAMPLE DESCRIPTION=CBDCOM/ERDEC, Edgewood, MD
##NAMES=HP
##CAS NAME=Diethyl allylphosphonate
##MOLFORM=C7H15O3P
##CAS REGISTRY NO=1067-87-4
##MP= -300
##BP= -300
##MW= 178
##$RETENTION INDEX=0
##$CONDENSED SPECTRUM=NO
##NPOINTS= 76
##XYDATA=(XY..XY) 1 
    53          3
    54         30
    55         38
    56          1
    57         41
    58          8
    61          2
    62          2
    63          6
    65        200
    66          3
    67         14
    68         43
    69         36
    70          5
    71         17
    72          1
    75          2
    77          5
    78         18
    79         14
    80         53
    81        731
    82         56
    83         26
    85          2
    86          6
    87         11
    88          1
    89          2
    91        385
    92         16
    93         69
    94          5
    96        161
    97        273
    98          4
    99          1
   102          1
   103         13
   104         37
   105        101
   106         36
   107         15
   109        999
   110         44
   111         17
   115         10
   117          1
   119          3
   120          3
   121         39
   122        105
   123        134
   124        116
   125         84
   126          3
   131          2
   132          1
   133         24
   134        221
   135         92
   136          8
   137        119
   138          7
   149         44
   150         68
   151        170
   152         15
   153          1
   163         22
   164          1
   177         14
   178        153
   179         43
   180          3