##TITLE=Library Entry 60020
##JCAMP-DX=Revision 4.10 
##DATA TYPE=MASS SPECTRUM
##SAMPLE DESCRIPTION=Chemical Concepts
##NAMES=HP
##CAS NAME=3-(Toluene-4-sulfonyloxy)butyric acid, methyl ester
##MOLFORM=C12H16O5S
##CAS REGISTRY NO=106797-75-5
##MP= -300
##BP= -300
##MW= 272
##$RETENTION INDEX=0
##$CONDENSED SPECTRUM=NO
##NPOINTS= 113
##XYDATA=(XY..XY) 1 
    25          2
    26         14
    27         55
    28         16
    29         74
    30          6
    31         70
    33          2
    37         12
    38         31
    39        277
    40         43
    41        460
    42         74
    43        160
    44         12
    45         39
    48          4
    50         22
    51         42
    52         16
    53         16
    54          5
    55         31
    56         19
    57         27
    58         68
    59        460
    60         16
    61          5
    62         12
    63         58
    64         20
    65        293
    66         19
    67         11
    68         74
    69        869
    70         49
    71         20
    72         31
    73          6
    74         24
    75         24
    76          7
    77         51
    78         12
    79         55
    80         18
    81          8
    82          5
    83         11
    84         16
    85        223
    86         13
    87          8
    88          3
    89         70
    90         66
    91        999
    92        132
    93         10
    94          2
    95          6
    96          3
    97          9
    98          3
    99         15
   100        275
   101        271
   102         17
   103          5
   104          2
   105         14
   106          7
   107        170
   108        186
   109         17
   110          2
   111          6
   115          4
   117        494
   118         29
   119          8
   121          5
   122          3
   123          5
   124          3
   135          3
   139         11
   140          2
   141         14
   142          7
   155        496
   156         45
   157         26
   164         11
   165          3
   170         13
   171          9
   172        441
   173         51
   174         25
   186          5
   187          7
   199         31
   200          4
   219          2
   241          6
   257          5
   272         72
   273         11
   274          5