##TITLE=Library Entry 87672
##JCAMP-DX=Revision 4.10 
##DATA TYPE=MASS SPECTRUM
##SAMPLE DESCRIPTION=A.Mazepa, Phys.-Chem.Institute, Odessa, Ukraine
##NAMES=HP
##CAS NAME=Nonanoic acid 4-hydroxyphenyl ester
##MOLFORM=C15H22O3
##CAS REGISTRY NO=106793-44-6
##MP= -300
##BP= -300
##MW= 250
##$RETENTION INDEX=0
##$CONDENSED SPECTRUM=NO
##NPOINTS= 29
##XYDATA=(XY..XY) 1 
    53          3
    54          1
    55         78
    56          9
    57        147
    58          3
    67          9
    69         47
    70          2
    71         96
    72          2
    81         20
    83          5
    84          3
    95          1
    97          5
    98          5
   105         14
   107          2
   109          8
   110        999
   111         69
   112          3
   119         46
   141         59
   142          3
   152          5
   250        156
   251         22