##TITLE=Library Entry 58565
##JCAMP-DX=Revision 4.10 
##DATA TYPE=MASS SPECTRUM
##SAMPLE DESCRIPTION=NIST Mass Spectrometry Data Center, 1990.
##NAMES=HP
##CAS NAME=2-Chloromethyl-1,3-dichloro-2-methylpropane
##MOLFORM=C5H9Cl3
##CAS REGISTRY NO=1067-09-0
##MP= -300
##BP= -300
##MW= 174
##$RETENTION INDEX=0
##$CONDENSED SPECTRUM=NO
##NPOINTS= 51
##XYDATA=(XY..XY) 1 
    26         32
    27        179
    29         47
    36         13
    37         27
    38         68
    39        331
    40         48
    41        158
    47         18
    48         31
    49        286
    50         92
    51        279
    53        847
    54         58
    55         96
    61         65
    62         63
    63        529
    64         25
    65        211
    66         13
    67        106
    73         49
    74         14
    75        112
    76         35
    77         36
    83         28
    85         25
    87         71
    89        999
    90        101
    91        312
    92         28
    97         27
    99         19
   102        182
   103        109
   104         69
   105         34
   123         35
   124        306
   125        892
   126        231
   127        560
   128         54
   129         96
   138         43
   140         34