##TITLE=Library Entry 1588
##JCAMP-DX=Revision 4.10 
##DATA TYPE=MASS SPECTRUM
##SAMPLE DESCRIPTION=Japan AIST/NIMC Database- Spectrum MS-NW-3033
##NAMES=HP
##CAS NAME=Acetic acid, hydrazide
##MOLFORM=C2H6N2O
##CAS REGISTRY NO=1068-57-1
##MP= -300
##BP= -300
##MW= 74
##$RETENTION INDEX=0
##$CONDENSED SPECTRUM=NO
##NPOINTS= 29
##XYDATA=(XY..XY) 1 
    12          2
    13          7
    14         32
    15        154
    16         20
    17         26
    18         45
    25          2
    26          4
    27          8
    28         90
    29         53
    30         25
    31        243
    32        999
    33          8
    38          8
    39         13
    40         39
    41         80
    42         55
    43        503
    44         31
    45          9
    56          1
    59         20
    60          6
    74         57
    75          2