##TITLE=Library Entry 15006
##JCAMP-DX=Revision 4.10 
##DATA TYPE=MASS SPECTRUM
##SAMPLE DESCRIPTION=A. Brossi, LC, NIDDK, NIH, Bethesda, MD 20892
##NAMES=HP
##CAS NAME=Cochicine, N-desacetyl-N-acetylcarbonyl-
##MOLFORM=C23H25NO7
##CAS REGISTRY NO=106807-71-0
##MP= -300
##BP= -300
##MW= 427
##$RETENTION INDEX=0
##$CONDENSED SPECTRUM=NO
##NPOINTS= 165
##XYDATA=(XY..XY) 1 
    41         51
    43        999
    44         29
    45         10
    51          6
    53         14
    54          9
    55         42
    56         72
    57         13
    59          2
    61          2
    63          9
    65          3
    67         13
    68          2
    69         16
    70         14
    75          6
    76          2
    77         15
    78          3
    79          6
    81          4
    82          8
    83         14
    89          7
    91         10
    98         16
    99         22
   100          3
   102          7
   103          3
   106          3
   113          8
   114          8
   115         35
   116          3
   119          2
   125          3
   126         17
   127         22
   128         23
   129          8
   134          4
   138          2
   139         37
   140         24
   141         33
   142         10
   143         21
   150          6
   151         17
   152         49
   153         32
   154         18
   155         18
   156         17
   157          8
   163          7
   164          7
   165         39
   166         17
   167         18
   168         23
   169         31
   170         10
   171          9
   176          3
   177          7
   178         16
   179         10
   180         14
   181         34
   182         19
   183         28
   184         19
   185         10
   191          2
   192          6
   193          9
   194         15
   195         28
   196         22
   197         27
   198         11
   199         18
   205          6
   206          6
   207         15
   208         17
   209         23
   210         18
   211         35
   212         27
   213         17
   220          3
   221         11
   222         16
   223         26
   224         44
   225         29
   226         16
   227         30
   228         10
   235         17
   236         17
   237         24
   238         24
   239         50
   240         25
   241         19
   242         15
   249          3
   250          9
   251         41
   252         41
   253         27
   254         40
   255         41
   256         14
   257          3
   264          2
   265         19
   266         23
   267         54
   268         34
   269         27
   270         31
   271         13
   279          4
   280          8
   281         56
   282        165
   283         65
   284         23
   285         96
   286         23
   294         17
   295         13
   296         16
   297         65
   298         55
   299         20
   300         52
   301          8
   309          3
   310          4
   311         78
   312        131
   313        142
   314         36
   325          3
   326          7
   327          3
   328        152
   329         31
   340         11
   353         11
   356         20
   399        114
   400         28
   427        173
   428         49
   429         11