##TITLE=Library Entry 98158
##JCAMP-DX=Revision 4.10 
##DATA TYPE=MASS SPECTRUM
##SAMPLE DESCRIPTION=K. Jacobson, LBC, NIDDK, NIH, Bethesda, MD 20892
##NAMES=HP
##CAS NAME=p-Tolylethanamine, N-[4-hydroxyhydrocinnamoyl]-
##MOLFORM=C18H21NO2
##CAS REGISTRY NO=106827-54-7
##MP= -300
##BP= -300
##MW= 283
##$RETENTION INDEX=0
##$CONDENSED SPECTRUM=NO
##NPOINTS= 96
##XYDATA=(XY..XY) 1 
    41         29
    42         14
    43         37
    44         86
    45         11
    50         23
    51         52
    52         22
    53         26
    54          5
    55         29
    56         22
    57         20
    58         16
    59         10
    60          5
    61          7
    62         14
    63         41
    64         10
    65         67
    66         10
    67          6
    68          1
    69          7
    70          5
    71          8
    72         10
    73          3
    74          8
    75          8
    76         10
    77        151
    78         53
    79         49
    80          2
    81          7
    83          5
    84          5
    85          6
    86          2
    87          5
    89         25
    90         11
    91        175
    92         22
    93         10
    94         19
    95          5
    97          4
    98          3
    99          5
   101          3
   102         16
   103         81
   104         22
   105        216
   106         58
   107        639
   108         48
   109          5
   113          3
   115        103
   116         19
   117        344
   118        999
   119        152
   120        138
   121         58
   122         10
   123          3
   131          5
   132          5
   133          5
   134         11
   135         13
   136          4
   143          3
   146          3
   147         21
   148         10
   149         62
   150          6
   161         27
   162          6
   165         66
   166         44
   167          4
   168          4
   178          8
   181          4
   226          1
   227          1
   283        279
   284         55
   285          7