##TITLE=Library Entry 30345
##JCAMP-DX=Revision 4.10 
##DATA TYPE=MASS SPECTRUM
##SAMPLE DESCRIPTION=Chemical Concepts
##NAMES=HP
##CAS NAME=2-Hydroxy-2,6-dimethyl-hept-6-en-3-one
##MOLFORM=C9H16O2
##CAS REGISTRY NO=1068-82-2
##MP= -300
##BP= -300
##MW= 156
##$RETENTION INDEX=0
##$CONDENSED SPECTRUM=NO
##NPOINTS= 102
##XYDATA=(XY..XY) 1 
    26          1
    27         22
    28          3
    29         20
    30          0
    31         52
    33          0
    36          0
    37          0
    39         35
    40          6
    41        178
    42         18
    43        179
    44          4
    45          3
    46          0
    47          0
    48          0
    49          0
    50          1
    51          3
    52          1
    53         14
    54          5
    55         66
    56         39
    57          6
    58         11
    59        999
    60         28
    61          2
    62          0
    63          0
    64          0
    65          1
    66          0
    67         11
    68          3
    69        111
    70        124
    71          9
    72          1
    73          1
    74          0
    75          2
    76          0
    77          2
    78          0
    79          2
    80         14
    81          7
    82          1
    83         18
    84          2
    85          3
    86          0
    87          1
    88          5
    89          0
    90          0
    91          1
    92          0
    93          2
    94          0
    95         14
    96          7
    97         27
    98        182
    99         11
   100          1
   101          0
   102          0
   103          0
   104          0
   105          1
   106          0
   107          0
   108          1
   109          8
   110          1
   111          1
   112          2
   113          9
   114          2
   115          0
   116          0
   117          0
   118          0
   119          0
   120          0
   121          0
   122          0
   123          3
   124          0
   137          1
   138          0
   139          2
   140          1
   141          1
   156          0
   157          0