##TITLE=Library Entry 47008
##JCAMP-DX=Revision 4.10 
##DATA TYPE=MASS SPECTRUM
##SAMPLE DESCRIPTION=Chemical Concepts
##NAMES=HP
##CAS NAME=Methanone, (4-methylene-2-phenylcyclopentyl)phenyl-
##MOLFORM=C19H18O
##CAS REGISTRY NO=106895-40-3
##MP= -300
##BP= -300
##MW= 262
##$RETENTION INDEX=0
##$CONDENSED SPECTRUM=NO
##NPOINTS= 147
##XYDATA=(XY..XY) 1 
    27         90
    29         15
    34          1
    38          8
    39        123
    40         16
    41         25
    42          1
    43          4
    49          1
    50         82
    51        364
    52         65
    53         74
    54          5
    55         66
    56          2
    57          0
    62         11
    63         53
    64         15
    65         64
    66         10
    67          1
    68          1
    73          1
    74         15
    75         32
    76         63
    77        999
    78        176
    79         78
    80          9
    81          4
    86          3
    87          5
    88          6
    89         40
    90          9
    91        184
    92         24
    93          2
    94          1
    95          1
    98          1
    99          2
   101          9
   102         54
   103         65
   104         49
   105        779
   106         66
   107         20
   108          0
   113          5
   114          7
   115        244
   116         75
   117         35
   118          6
   121          1
   125          1
   126          9
   127         56
   128        139
   129        139
   130         35
   131         12
   132          2
   133         34
   134          3
   138          1
   139         13
   140          6
   141         94
   142         74
   143         16
   144          7
   145          4
   146          1
   150          1
   151          6
   152         25
   153         31
   154         14
   155         53
   156         92
   157        142
   158         73
   159          9
   163          1
   164          1
   165         14
   166          5
   167          6
   168          2
   169          3
   170          1
   171         68
   172         10
   173          1
   176          2
   177          0
   178          6
   179          4
   180          1
   181          2
   183         11
   184          9
   185          7
   186          1
   189          2
   190          1
   191          2
   193          0
   202          4
   203          4
   204          2
   205          2
   206          1
   207          8
   208          2
   215          3
   216          2
   217          1
   218          2
   219          2
   220         12
   221          4
   228          2
   229          8
   230          2
   231          1
   232          1
   233          2
   234          2
   241          1
   243          5
   244          7
   245          3
   246          1
   247         15
   248          1
   261          3
   262        193
   263         47
   264          5