##TITLE=Library Entry 21033
##JCAMP-DX=Revision 4.10 
##DATA TYPE=MASS SPECTRUM
##SAMPLE DESCRIPTION=Japan AIST/NIMC Database- Spectrum MS-IW-2934
##NAMES=HP
##CAS NAME=cis-6-Ethyl-cis-4a,trans-8a-perhydro-trans-1-(2-methoxycarbonylet
hyl)-trans-2,trans-6,8a-trimethylnaphthalene-2-carboxylic acid
##MOLFORM=C20H34O4
##CAS REGISTRY NO=106864-11-3
##MP= -300
##BP= -300
##MW= 338
##$RETENTION INDEX=0
##$CONDENSED SPECTRUM=NO
##NPOINTS= 264
##XYDATA=(XY..XY) 1 
    15         55
    17         14
    18         73
    26          3
    27         71
    28         47
    29        213
    30          7
    31         20
    32         10
    33          6
    39         88
    40         23
    41        664
    42         55
    43        337
    44         27
    45         45
    51         10
    52          8
    53        163
    54         36
    55        999
    56         70
    57        166
    58         10
    59        149
    60         12
    61          8
    63          3
    64          5
    65         63
    66         33
    67        467
    68        163
    69        558
    70         72
    71         85
    72          9
    73         33
    74         92
    75         19
    76          8
    77        150
    78         29
    79        320
    80         75
    81        833
    82        361
    83        459
    84         90
    85        103
    86          9
    87        174
    88         37
    89         11
    90         42
    91        257
    92         41
    93        388
    94        143
    95        998
    96        221
    97        255
    98         35
    99        102
   100         36
   101         45
   102         17
   103         34
   104         53
   105        185
   106         51
   107        472
   108        145
   109        922
   110        201
   111        127
   112         21
   113         45
   114        104
   115        136
   116         23
   117         73
   118         21
   119        237
   120         98
   121        589
   122        153
   123        535
   124        128
   125        129
   126         20
   127         52
   128        594
   129         99
   130         17
   131         44
   132         27
   133        177
   134         47
   135        431
   136        121
   137        347
   138        109
   139         44
   140         39
   141         67
   142         80
   143         48
   144         10
   145         74
   146         20
   147        111
   148         31
   149        195
   150        278
   151        376
   152        131
   153         70
   154         84
   155        160
   156        715
   157         89
   158         15
   159         45
   160         17
   161         83
   162         31
   163        156
   164        190
   165        410
   166         74
   167        150
   168         75
   169        146
   170         84
   171         31
   172          8
   173         40
   174        670
   175        129
   176         30
   177        185
   178         89
   179         56
   180         21
   181        103
   182        107
   183         50
   184          8
   185         10
   186          3
   187         31
   188          9
   189         95
   190         33
   191        314
   192         70
   193         62
   194         26
   195        113
   196         47
   197         14
   199         13
   200          3
   201         17
   202          7
   203         72
   204         29
   205        343
   206        856
   207        201
   208         45
   209        101
   210         46
   211         11
   213         70
   214         16
   215         24
   216          9
   217         30
   218         62
   219        247
   220         61
   221         46
   222         85
   223        471
   224         88
   225         33
   226          5
   227         13
   228          7
   229         25
   231        113
   232         31
   233         69
   234         20
   235         53
   236         33
   237        139
   238         37
   239         19
   241         45
   242         16
   243         16
   244         10
   245         38
   246         56
   247         60
   248         15
   249         96
   250         41
   251         59
   252        360
   253         64
   254          9
   255          9
   259        265
   260         78
   261         54
   262         71
   263        620
   264        152
   265        693
   266        129
   267         16
   268          5
   270          6
   271          2
   273        111
   274         28
   276         14
   277        279
   278         91
   279        393
   280         82
   281         13
   287         50
   288         92
   289         19
   290         17
   291        254
   292        429
   293        122
   294        132
   295         28
   302        342
   303         79
   304          7
   305        520
   306        144
   307         30
   308          8
   309        147
   310         26
   311          5
   320        259
   321         57
   322          9
   323          6
   338        208
   339         46
   340          7