##TITLE=Library Entry 77108
##JCAMP-DX=Revision 4.10 
##DATA TYPE=MASS SPECTRUM
##SAMPLE DESCRIPTION=K. Jacobson, LBC, NIDDK, NIH, Bethesda, MD 20892
##NAMES=HP
##CAS NAME=Benzeneethanamine, N-[(4-hydroxy)hydrocinnamoyl]-
##MOLFORM=C17H19NO2
##CAS REGISTRY NO=106827-59-2
##MP= -300
##BP= -300
##MW= 269
##$RETENTION INDEX=0
##$CONDENSED SPECTRUM=NO
##NPOINTS= 53
##XYDATA=(XY..XY) 1 
    41         16
    42          8
    43         20
    44        352
    45         31
    46         13
    49          8
    50        101
    51        200
    52         71
    53         13
    55         12
    56         11
    57          1
    61          8
    62         25
    63         66
    64          6
    65         41
    69         16
    73         10
    74         43
    75         30
    76         40
    77        192
    78        343
    79         28
    87          2
    89         23
    91        148
    92         20
    98          8
   101          4
   102         66
   103        392
   104        999
   105         92
   107        100
   108          5
   119          2
   120         23
   121         32
   122          2
   131          1
   147         35
   149         20
   165          2
   181         10
   183          1
   226          2
   227          1
   269         37
   270          1