##TITLE=Library Entry 75887
##JCAMP-DX=Revision 4.10 
##DATA TYPE=MASS SPECTRUM
##SAMPLE DESCRIPTION=Japan AIST/NIMC Database- Spectrum MS-IW-3885
##NAMES=HP
##CAS NAME=Propanedioic acid, (acetylamino)-, diethyl ester
##MOLFORM=C9H15NO5
##CAS REGISTRY NO=1068-90-2
##MP= -300
##BP= -300
##MW= 217
##$RETENTION INDEX=0
##$CONDENSED SPECTRUM=NO
##NPOINTS= 65
##XYDATA=(XY..XY) 1 
    18          4
    26          3
    27         36
    28         80
    29        128
    30         13
    31          7
    41          4
    42         11
    43        351
    44         10
    45         10
    46         19
    47          7
    55          2
    56          7
    57         58
    58         11
    59          1
    60          1
    61          1
    69          4
    70          2
    71         19
    72         10
    73          4
    74        222
    75          9
    76          1
    84          2
    86          2
    87          1
    88         10
    89          1
    99        255
   100         28
   101          6
   102        999
   103        115
   104          8
   114          1
   115          1
   116         15
   117          1
   118          1
   125          3
   126          4
   127         52
   128          5
   129          2
   130          2
   131          2
   143          2
   144        119
   145        145
   146         10
   147          1
   171          1
   172         79
   173         18
   174          4
   176          2
   217          7
   218         10
   219          1