##TITLE=Library Entry 14814
##JCAMP-DX=Revision 4.10 
##DATA TYPE=MASS SPECTRUM
##SAMPLE DESCRIPTION=ASES Database, Dalian Institute, P.R. China
##NAMES=HP
##CAS NAME=2,3:4,5-Bis-O-isopropylidene-.beta.-d-fructopyranose N,N-dimethyl
sulfamate
##MOLFORM=C14H25NO8S
##CAS REGISTRY NO=106881-33-8
##MP= -300
##BP= -300
##MW= 367
##$RETENTION INDEX=0
##$CONDENSED SPECTRUM=NO
##NPOINTS= 23
##XYDATA=(XY..XY) 1 
    43        999
    59        272
    68         81
    69        197
    71         91
    81         79
    83         59
    85        177
    97        108
    99        147
   101         81
   108        558
   109        281
   113        290
   127        198
   138        259
   143         30
   171        318
   185         89
   229        180
   234        149
   294         40
   352        747