##TITLE=Library Entry 51568
##JCAMP-DX=Revision 4.10 
##DATA TYPE=MASS SPECTRUM
##SAMPLE DESCRIPTION=K. Jacobson, LBC, NIDDK, NIH, Bethesda, MD 20892
##NAMES=HP
##CAS NAME=5-Imidazolethylamine, N-[4'-hydroxy-3-phenylpropionyl]-
##MOLFORM=C14H17N3O2
##CAS REGISTRY NO=106827-58-1
##MP= -300
##BP= -300
##MW= 259
##$RETENTION INDEX=0
##$CONDENSED SPECTRUM=NO
##NPOINTS= 137
##XYDATA=(XY..XY) 1 
    41         78
    42         81
    43        286
    44        136
    45        103
    46         28
    47         26
    48         13
    50          6
    51         23
    52         21
    53         31
    54         74
    55         81
    56         47
    57         50
    58          7
    59          9
    60         53
    61          7
    62          4
    63         12
    64         31
    65         35
    66         16
    67         19
    68         45
    69         19
    70          9
    71         13
    72         13
    73         67
    74         76
    75          8
    76          4
    77        118
    78         38
    79         14
    80          6
    81        212
    82        999
    83         81
    84         12
    85          8
    86          4
    87          8
    88          2
    89         10
    90          4
    91         51
    92          8
    93         44
    94        449
    95        724
    96        103
    97         11
    98          6
    99          9
   100          5
   101          6
   102          5
   103         20
   104          5
   105          9
   106         14
   107        503
   108         42
   109         12
   110         88
   111        142
   112         66
   113          7
   114          1
   115          5
   116          2
   117          4
   118          3
   119         22
   120        120
   121         40
   122         14
   123          6
   124         11
   125          3
   127          1
   129          6
   130          3
   131          4
   132          1
   133         10
   134          5
   135          4
   136          1
   137          3
   138         48
   139         58
   140          7
   141          1
   143          4
   145          1
   146         39
   147         17
   148          7
   149         16
   150          4
   151          4
   153         15
   154          2
   158          1
   159          4
   160          2
   161          2
   163          3
   164          4
   165         33
   166         25
   167          5
   171          1
   173          2
   175          1
   181          1
   185          1
   186          4
   187          3
   191          1
   193         17
   194          1
   196          2
   207          6
   208          2
   230         15
   231          3
   258          6
   259        491
   260         85
   261         10
   262          3