##TITLE=Library Entry 49603
##JCAMP-DX=Revision 4.10 
##DATA TYPE=MASS SPECTRUM
##SAMPLE DESCRIPTION=NIST Mass Spectrometry Data Center, 1994
##NAMES=HP
##CAS NAME=Phosphoramidic acid, diethyl ester
##MOLFORM=C4H12NO3P
##CAS REGISTRY NO=1068-21-9
##MP= -300
##BP= -300
##MW= 153
##$RETENTION INDEX=0
##$CONDENSED SPECTRUM=NO
##NPOINTS= 45
##XYDATA=(XY..XY) 1 
    14          3
    15         25
    16          5
    17         36
    18         21
    19          4
    26         28
    27        107
    28         39
    29        128
    30         23
    31         13
    32          1
    41          3
    42         15
    43         51
    44         38
    45        100
    46         18
    47         54
    48          3
    62         22
    63         18
    64         39
    65         44
    80        999
    81        501
    82         85
    91          7
    94          5
    96         26
    98        914
    99          7
   100          5
   108        164
   109        153
   110         15
   124         54
   126        722
   127         23
   128          5
   138         19
   152         13
   153         60
   154          4