##TITLE=Library Entry 30550
##JCAMP-DX=Revision 4.10 
##DATA TYPE=MASS SPECTRUM
##SAMPLE DESCRIPTION=Chemical Concepts
##NAMES=HP
##CAS NAME=Ethene, tetramethoxy-
##MOLFORM=C6H12O4
##CAS REGISTRY NO=1069-12-1
##MP= -300
##BP= -300
##MW= 148
##$RETENTION INDEX=0
##$CONDENSED SPECTRUM=NO
##NPOINTS= 52
##XYDATA=(XY..XY) 1 
    26         10
    27         21
    28         46
    29        122
    30         25
    31         57
    33         10
    39          1
    40          1
    41          8
    42         12
    43        251
    44         16
    45        333
    46          9
    47         48
    48          2
    55          2
    56          9
    57         13
    58          7
    59        999
    60         29
    61        125
    62          4
    72          8
    73          3
    74         44
    75         51
    76          2
    77          1
    83          1
    86          5
    87          2
    88          3
    89          3
    90          2
    91          2
   103          2
   104          1
   105        138
   106          7
   107          1
   117          2
   118          3
   119          2
   133        923
   134         55
   135          9
   148        149
   149         13
   150          2