##TITLE=Library Entry 70058
##JCAMP-DX=Revision 4.10 
##DATA TYPE=MASS SPECTRUM
##SAMPLE DESCRIPTION=M.R. ALONSO, FAC. FARM., DEP. QUIM. ORG., GRANADA, SPAI
N
##NAMES=HP
##CAS NAME=5-(N,N-Diacetylamino)-2-(methylthio)-4-(2,3,4-tri-O-acetyl-.beta.
-d-xylopyranosylamino)-1H-pyrimidin-6-one
##MOLFORM=C20H26N4O10S
##CAS REGISTRY NO=106979-82-2
##MP= -300
##BP= -300
##MW= 514
##$RETENTION INDEX=0
##$CONDENSED SPECTRUM=NO
##NPOINTS= 32
##XYDATA=(XY..XY) 1 
    69        700
    97        999
   139        550
   157        390
   172        360
   173        240
   183        420
   196        170
   199        150
   200        120
   201        210
   214        330
   215         80
   225        330
   238         50
   243        630
   251        110
   256         60
   259         50
   267         70
   293        200
   298         20
   311         50
   335         80
   353        230
   370         20
   395         20
   412         10
   430         30
   455         50
   472        250
   514         50