##TITLE=Library Entry 80115
##JCAMP-DX=Revision 4.10 
##DATA TYPE=MASS SPECTRUM
##SAMPLE DESCRIPTION=A.A.Kutin, Moscow, Russia
##NAMES=HP
##CAS NAME=Furan-2(5H)-one, 3-chloro-4-(4-methylphenylamino)-5-(2-oxo-2-phen
ylethyl)-
##MOLFORM=C19H16ClNO3
##CAS REGISTRY NO=106915-09-7
##MP= -300
##BP= -300
##MW= 341
##$RETENTION INDEX=0
##$CONDENSED SPECTRUM=NO
##NPOINTS= 128
##XYDATA=(XY..XY) 1 
    33         60
    34          1
    36         16
    37          1
    38         16
    39        125
    40         41
    41         29
    43         46
    44         16
    50         40
    51        289
    52         28
    53         16
    54          6
    55          1
    57          1
    61          2
    63         62
    65        195
    66         13
    68          1
    69          9
    71          0
    73          9
    75         29
    77        924
    79         24
    80          2
    86          3
    88         13
    89         57
    91        251
    92         22
    93         17
    95          1
   100          2
   101         29
   102         31
   103        107
   105        999
   106         67
   107         45
   108          2
   115         28
   116         13
   117         10
   118         32
   119         11
   120          5
   126          1
   127          2
   128         36
   129         23
   130         90
   131         26
   132          5
   138         13
   139          7
   140          7
   141          7
   142          5
   143         12
   144         34
   145          3
   149          1
   150          1
   151         10
   153          1
   154          9
   155          1
   156         77
   157         51
   158         68
   159         15
   164        133
   165         44
   166         50
   167         10
   168          1
   172          5
   177          6
   178          7
   179          2
   180          1
   184          7
   186         14
   190         13
   192        121
   194        245
   195         29
   196         40
   197          4
   200         24
   201         14
   203          1
   206          3
   207          7
   208          6
   218         40
   219         17
   220         17
   221         12
   222          8
   232          5
   233          2
   234          7
   236        444
   238        201
   239         12
   246          5
   249          2
   260         20
   261          0
   262          8
   277         12
   278         26
   279          3
   288         17
   289          3
   305          2
   306         63
   307          8
   313          1
   341        498
   342         89
   343        153
   344         24