##TITLE=Library Entry 30673
##JCAMP-DX=Revision 4.10 
##DATA TYPE=MASS SPECTRUM
##SAMPLE DESCRIPTION=G. Ruecker, Pharm. Inst., Univ. Bonn, Bonn, W. Ger.
##NAMES=HP
##CAS NAME=5,8-Ethano-1H-[1,2,4]triazolo[1,2-a]pyridazine-1,3(2H)-dione, 5,8
-dihydro-9-(1-hydroxy-1-methylethyl)-5-methyl-2-phenyl-, [5S-(5.alpha.,8.alp
ha.,9R*)]-
##MOLFORM=C18H21N3O3
##CAS REGISTRY NO=106929-41-3
##MP= -300
##BP= -300
##MW= 327
##$RETENTION INDEX=0
##$CONDENSED SPECTRUM=NO
##NPOINTS= 15
##XYDATA=(XY..XY) 1 
    43        140
    59        999
    77        120
    79        120
    91        120
    93        220
    94        380
   119        180
   133        450
   177        610
   241        270
   242         90
   309        180
   327        130
   328         27