##TITLE=Library Entry 11048
##JCAMP-DX=Revision 4.10 
##DATA TYPE=MASS SPECTRUM
##SAMPLE DESCRIPTION=G. Ruecker, Pharm. Inst., Univ. Bonn, Bonn, W. Ger.
##NAMES=HP
##CAS NAME=3H-1,2-Benzodioxol-7-ol, 3a,4,7,7a-tetrahydro-3,3,5-trimethyl-, a
cetate, [3as-(3a.alpha.,7.alpha.,7a.alpha.)]-
##MOLFORM=C12H18O4
##CAS REGISTRY NO=106929-42-4
##MP= -300
##BP= -300
##MW= 226
##$RETENTION INDEX=0
##$CONDENSED SPECTRUM=NO
##NPOINTS= 27
##XYDATA=(XY..XY) 1 
    39        120
    41        180
    43        999
    59        100
    69         50
    77         60
    79        140
    80        190
    81        140
    82        130
    83         70
    84        120
    91         70
    97        160
   107         60
   108        120
   109        370
   110         40
   111         40
   119        160
   123         50
   126        150
   134         60
   154         40
   169         40
   211          5
   226          1