##TITLE=Library Entry 9819
##JCAMP-DX=Revision 4.10 
##DATA TYPE=MASS SPECTRUM
##SAMPLE DESCRIPTION=Exported from NIST MS Search
##NAMES=HP
##CAS NAME=Hexane, 2,3,5-trimethyl-
##MOLFORM=C9H20
##CAS REGISTRY NO=1069-53-0
##MP= -300
##BP= -300
##MW= 128
##$RETENTION INDEX=812
##$CONDENSED SPECTRUM=NO
##NPOINTS= 61
##XYDATA=(XY..XY) 1 
    26          3
    27        147
    28         14
    29        119
    30          3
    37          1
    38          2
    39         78
    40         15
    41        250
    42         86
    43        999
    44         35
    45          1
    46          1
    47          1
    48          1
    50          1
    51          3
    52          2
    53         18
    54          5
    55         75
    56         94
    57        228
    58         10
    59          1
    63          1
    64          1
    65          2
    66          1
    67          6
    68          2
    69         93
    70         40
    71        145
    72          8
    73          1
    77          1
    78          1
    79          1
    80          1
    81          1
    82          1
    83          4
    84        244
    85        405
    86         25
    87          1
    91          1
    93          1
    95          1
    97          1
    98          1
    99          1
   112          1
   113          2
   114          1
   127          1
   128         16
   129          1