##TITLE=Library Entry 26860
##JCAMP-DX=Revision 4.10 
##DATA TYPE=MASS SPECTRUM
##SAMPLE DESCRIPTION=NIST Mass Spectrometry Data Center
##NAMES=HP
##CAS NAME=N-Decanoyl-DL-homoserine lactone
##MOLFORM=C14H25NO3
##CAS REGISTRY NO=106983-36-2
##MP= -300
##BP= -300
##MW= 255
##$RETENTION INDEX=2169
##$CONDENSED SPECTRUM=NO
##NPOINTS= 139
##XYDATA=(XY..XY) 1 
    15          1
    26          3
    27         48
    28         50
    29        115
    30         16
    31          3
    38          1
    39         56
    40         13
    41        341
    42         86
    43        506
    44         68
    45          8
    46          2
    47          1
    50          1
    51          3
    52          3
    53         29
    54         44
    55        437
    56        277
    57        999
    58         58
    59         39
    60          7
    63          1
    65          4
    66          3
    67         38
    68         24
    69        102
    70         30
    71        160
    72         39
    73         11
    74         68
    75          3
    77          3
    78          1
    79         11
    80          5
    81         41
    82         15
    83        209
    84         87
    85        134
    86         19
    87         15
    88          1
    91          2
    93          7
    94          3
    95         39
    96         10
    97         47
    98         96
    99         31
   100         53
   101        172
   102        204
   103         11
   104          1
   105          1
   107          3
   108          2
   109          4
   110          8
   111         16
   112         44
   113          6
   114          9
   115         44
   116          3
   117          1
   121          1
   122          1
   123          2
   125        210
   126         24
   127          4
   128         63
   129          6
   130          1
   135          2
   136          1
   137          3
   138         13
   139          7
   140          3
   141          5
   143        911
   144         68
   145          8
   150          1
   151          1
   152          3
   153          3
   154         17
   155         35
   156        156
   157         18
   158          2
   164          1
   166          1
   167          3
   168          2
   169          1
   170         18
   171          3
   172          2
   180          3
   181          2
   182          4
   183          1
   184          7
   185          5
   186          1
   194          2
   195          1
   196          3
   197          1
   198         12
   199          4
   208          1
   209          1
   210          1
   211          1
   212         15
   213          2
   224          2
   225          1
   226          4
   227          1
   237          1
   255         16
   256          3