##TITLE=Library Entry 26859
##JCAMP-DX=Revision 4.10 
##DATA TYPE=MASS SPECTRUM
##SAMPLE DESCRIPTION=NIST Mass Spectrometry Data Center
##NAMES=HP
##CAS NAME=N-Capryloyl-DL-homoserine lactone
##MOLFORM=C12H21NO3
##CAS REGISTRY NO=106983-30-6
##MP= -300
##BP= -300
##MW= 227
##$RETENTION INDEX=1959
##$CONDENSED SPECTRUM=NO
##NPOINTS= 112
##XYDATA=(XY..XY) 1 
    15          1
    26          3
    27         42
    28         43
    29         86
    30         12
    31          3
    38          1
    39         45
    40         10
    41        216
    42         63
    43        268
    44         42
    45          6
    46          1
    50          1
    51          3
    52          2
    53         18
    54         26
    55        263
    56        184
    57        999
    58         49
    59         28
    60          5
    65          3
    66          1
    67         21
    68          9
    69         33
    70         16
    71         22
    72         21
    73          6
    74         37
    75          1
    77          1
    78          1
    79          4
    80          3
    81          8
    82         11
    83        121
    84         50
    85         42
    86          9
    87          9
    88          1
    91          1
    93          1
    94          1
    95          2
    96          3
    97         23
    98         46
    99         16
   100         36
   101        105
   102         94
   103          5
   104          1
   107          1
   108          1
   109         13
   110          4
   111          5
   112          9
   113          2
   114          6
   115         27
   116          2
   122          1
   123          1
   125        124
   126         26
   127         53
   128         38
   129          3
   136          1
   138          7
   139          3
   140          2
   141          3
   143        483
   144         37
   145          4
   150          1
   152          2
   153          1
   154          3
   156         72
   157          9
   158          1
   166          1
   167          2
   168          3
   169          2
   170         10
   171          1
   180          2
   181          1
   182          1
   183          1
   184          8
   185          2
   198          7
   199          1
   209          1
   227          6
   228          1