##TITLE=Library Entry 24529
##JCAMP-DX=Revision 4.10 
##DATA TYPE=MASS SPECTRUM
##SAMPLE DESCRIPTION=NIST Mass Spectrometry Data Center
##NAMES=HP
##CAS NAME=N-Hexanoyl-DL-homoserine lactone
##MOLFORM=C10H17NO3
##CAS REGISTRY NO=106983-28-2
##MP= -300
##BP= -300
##MW= 199
##$RETENTION INDEX=1742
##$CONDENSED SPECTRUM=NO
##NPOINTS= 112
##XYDATA=(XY..XY) 1 
    15          3
    18          1
    26          7
    27         94
    28        100
    29        153
    30         23
    31          6
    37          1
    38          4
    39         98
    40         19
    41        302
    42        144
    43        975
    44         91
    45         12
    46          2
    48          1
    50          2
    51          5
    52          5
    53         27
    54         47
    55        292
    56        340
    57        999
    58         50
    59         47
    60          7
    61          1
    62          1
    63          1
    65          3
    66          2
    67          9
    68         15
    69         59
    70         50
    71        302
    72         57
    73         12
    74         50
    75          2
    77          1
    78          1
    79          2
    80          9
    81         10
    82          8
    83        172
    84         54
    85         77
    86         20
    87         15
    88          1
    94          2
    95          2
    96          6
    97         20
    98         55
    99        227
   100         80
   101        162
   102        123
   103          7
   104          1
   108          1
   109          1
   110          4
   111          1
   112         11
   113          8
   114          8
   115         42
   116          5
   117          1
   122          1
   123          1
   125        189
   126         23
   127          3
   128         42
   129          4
   136          1
   137          1
   138          8
   139          4
   140          7
   141         15
   143        706
   144         51
   145          6
   152          3
   153          2
   154          5
   155          3
   156         68
   157         10
   158          1
   166          1
   168          1
   169          2
   170         24
   171          4
   180          1
   181          3
   182          1
   184          1
   198          1
   199          7
   200          2