##TITLE=Library Entry 48488
##JCAMP-DX=Revision 4.10 
##DATA TYPE=MASS SPECTRUM
##SAMPLE DESCRIPTION=G. Ruecker, Pharm. Inst., Univ. Bonn, Bonn, W. Ger.
##NAMES=HP
##CAS NAME=Bicyclo[4.1.0]heptan-3-one, 7,7-dimethyl-4-methylene-, (1R)-
##MOLFORM=C10H14O
##CAS REGISTRY NO=106974-32-7
##MP= -300
##BP= -300
##MW= 150
##$RETENTION INDEX=0
##$CONDENSED SPECTRUM=NO
##NPOINTS= 15
##XYDATA=(XY..XY) 1 
    40        970
    41        880
    43        260
    53        500
    67        440
    68        620
    77        420
    79        999
    91        730
    93        300
   107        830
   108        820
   135        810
   150        810
   151         89