##TITLE=Library Entry 31563
##JCAMP-DX=Revision 4.10 
##DATA TYPE=MASS SPECTRUM
##SAMPLE DESCRIPTION=NIST Mass Spectrometry Data Center, 1998.
##NAMES=HP
##CAS NAME=Ethane, 1-bromo-2-chloro-
##MOLFORM=C2H4BrCl
##CAS REGISTRY NO=107-04-0
##MP= -300
##BP= -300
##MW= 142
##$RETENTION INDEX=698
##$CONDENSED SPECTRUM=NO
##NPOINTS= 58
##XYDATA=(XY..XY) 1 
    12          1
    13          1
    14          3
    15          1
    24          3
    25         17
    26         97
    27        324
    28         17
    35         12
    36          5
    37          5
    38          2
    47          7
    48          8
    49         46
    50          3
    51         14
    53          1
    54          1
    59          2
    60         15
    61         49
    62         59
    63        999
    64         39
    65        340
    66          7
    79         35
    80         10
    81         36
    82         10
    83          1
    91          7
    92          5
    93         53
    94          6
    95         46
    96          1
   103          1
   104          7
   105         19
   106         17
   107         37
   108         11
   109         19
   114          1
   116          2
   127          1
   129          1
   140          1
   141          2
   142         98
   143          4
   144        125
   145          3
   146         31
   147          1