##TITLE=Library Entry 9988
##JCAMP-DX=Revision 4.10 
##DATA TYPE=MASS SPECTRUM
##SAMPLE DESCRIPTION=NIST Mass Spectrometry Data Center, 1998.
##NAMES=HP
##CAS NAME=2-Pentanone
##MOLFORM=C5H10O
##CAS REGISTRY NO=107-87-9
##MP= -300
##BP= -300
##MW= 86
##$RETENTION INDEX=685
##$CONDENSED SPECTRUM=NO
##NPOINTS= 43
##XYDATA=(XY..XY) 1 
    14          2
    15         17
    25          1
    26         12
    27         77
    28          4
    29         16
    30          1
    31          2
    37          6
    38         13
    39         78
    40         11
    41        138
    42         60
    43        999
    44         29
    45          7
    49          1
    50          5
    51          4
    52          1
    53          8
    54          1
    55          9
    56          2
    57          6
    58         98
    59          3
    60          1
    61          1
    62          1
    63          1
    65          1
    67          2
    68          1
    69          2
    71         97
    72          4
    85          1
    86        197
    87         12
    88          1