##TITLE=Library Entry 69824
##JCAMP-DX=Revision 4.10 
##DATA TYPE=MASS SPECTRUM
##SAMPLE DESCRIPTION=Japan AIST/NIMC Database- Spectrum MS-NW-3307
##NAMES=HP
##CAS NAME=2-Pentene, 2,4,4-trimethyl-
##MOLFORM=C8H16
##CAS REGISTRY NO=107-40-4
##MP= -300
##BP= -300
##MW= 112
##$RETENTION INDEX=715
##$CONDENSED SPECTRUM=NO
##NPOINTS= 62
##XYDATA=(XY..XY) 1 
    15         10
    26          4
    27         91
    28          5
    29         93
    30          2
    31          1
    32          1
    37          2
    38          8
    39        119
    40         16
    41        262
    42         19
    43        129
    44          5
    45          1
    46          3
    49          1
    50          9
    51         20
    52          8
    53         57
    54         10
    55        820
    56         60
    57        212
    58         10
    59          2
    61          1
    62          3
    63          6
    64          1
    65         11
    66          6
    67         31
    68          5
    69        192
    70         24
    71          2
    72          1
    74          1
    75          1
    77         13
    78          3
    79         20
    80          3
    81         33
    82          4
    83          4
    84          1
    91          2
    93          1
    95          7
    96         11
    97        999
    98         82
    99          3
   110          1
   112        260
   113         24
   114          1