##TITLE=Library Entry 356
##JCAMP-DX=Revision 4.10 
##DATA TYPE=MASS SPECTRUM
##SAMPLE DESCRIPTION=MASS SPECTROMETRY CENTER, UNIV. OF UTAH EPA-PTSEL 3400
##NAMES=HP
##CAS NAME=Mercury, chloroethyl-
##MOLFORM=C2H5ClHg
##CAS REGISTRY NO=107-27-7
##MP= -300
##BP= -300
##MW= 266
##$RETENTION INDEX=0
##$CONDENSED SPECTRUM=NO
##NPOINTS= 43
##XYDATA=(XY..XY) 1 
    14         20
    15         19
    25         14
    26        149
    27        839
    28        256
    29        999
    30         25
    32          3
    35         27
    36         42
    38          9
    49          2
    63         28
   198         47
   199         84
   200        117
   201         76
   202        136
   203         18
   204         31
   226         33
   227         65
   228         89
   229         66
   230        105
   231         29
   232         21
   233         26
   234         56
   235         90
   236         93
   237        117
   238         88
   239         42
   240         34
   262         23
   263         41
   264         58
   265         47
   266         77
   267         12
   268         34