##TITLE=Library Entry 440
##JCAMP-DX=Revision 4.10 
##DATA TYPE=MASS SPECTRUM
##SAMPLE DESCRIPTION=Exported from NIST MS Search
##NAMES=HP
##CAS NAME=Glyoxal
##MOLFORM=C2H2O2
##CAS REGISTRY NO=107-22-2
##MP= -300
##BP= -300
##MW= 58
##$RETENTION INDEX=0
##$CONDENSED SPECTRUM=NO
##NPOINTS= 28
##XYDATA=(XY..XY) 1 
    12         11
    13         16
    14         33
    15         61
    16         56
    19         33
    20         11
    24         11
    25         16
    26         22
    27         33
    28        359
    29        999
    30        550
    31        864
    32        246
    33        173
    36          5
    40         11
    41         22
    42         44
    43        117
    44        185
    55          5
    56         67
    57          5
    58        443
    59         16