##TITLE=Library Entry 29640
##JCAMP-DX=Revision 4.10 
##DATA TYPE=MASS SPECTRUM
##SAMPLE DESCRIPTION=NIST Mass Spectrometry Data Center, 1992
##NAMES=HP
##CAS NAME=Acetaldoxime
##MOLFORM=C2H5NO
##CAS REGISTRY NO=107-29-9
##MP= -300
##BP= -300
##MW= 59
##$RETENTION INDEX=606
##$CONDENSED SPECTRUM=NO
##NPOINTS= 33
##XYDATA=(XY..XY) 1 
    12         22
    13         36
    14        103
    15        349
    16         49
    17         39
    18         47
    19         12
    20          2
    24         19
    25         49
    26        160
    27        205
    28        250
    29         50
    30        141
    31         81
    32         16
    33         10
    38        123
    39        168
    40        479
    41        826
    42        276
    43         68
    44        522
    45          9
    46          1
    55          1
    56          3
    59        999
    60         30
    61          2