##TITLE=Library Entry 46217
##JCAMP-DX=Revision 4.10 
##DATA TYPE=MASS SPECTRUM
##SAMPLE DESCRIPTION=Japan AIST/NIMC Database- Spectrum MS-NW-3863
##NAMES=HP
##CAS NAME=Propyl mercaptan
##MOLFORM=C3H8S
##CAS REGISTRY NO=107-03-9
##MP= -300
##BP= -300
##MW= 76
##$RETENTION INDEX=616
##$CONDENSED SPECTRUM=NO
##NPOINTS= 55
##XYDATA=(XY..XY) 1 
    13          1
    14          5
    15         28
    16          2
    17          9
    18         44
    20          1
    25          5
    26         46
    27        453
    28         31
    29         78
    30          2
    32         15
    33         21
    34         17
    35         68
    36          7
    37         24
    38         39
    39        230
    40         69
    41        753
    42        844
    43        921
    44         32
    45        175
    46        205
    47        878
    48        102
    49         41
    50          4
    55          5
    56          3
    57         16
    58         39
    59         36
    60         11
    61        116
    62          4
    63          5
    64          1
    66          1
    68          5
    69         15
    70          2
    71         11
    72          1
    73          8
    74          5
    75         14
    76        999
    77         43
    78         46
    79          2