##TITLE=Library Entry 2198
##JCAMP-DX=Revision 4.10 
##DATA TYPE=MASS SPECTRUM
##SAMPLE DESCRIPTION=NIST Mass Spectrometry Data Center, 1998.
##NAMES=HP
##CAS NAME=Allyl chloride
##MOLFORM=C3H5Cl
##CAS REGISTRY NO=107-05-1
##MP= -300
##BP= -300
##MW= 76
##$RETENTION INDEX=498
##$CONDENSED SPECTRUM=NO
##NPOINTS= 36
##XYDATA=(XY..XY) 1 
    12          1
    13          1
    14          4
    15          7
    24          2
    25          8
    26         32
    27         50
    35         21
    36         27
    37        110
    38        153
    39        741
    40        114
    41        999
    42         38
    47         15
    48         14
    49         73
    50          8
    51         23
    52          1
    59          1
    60          6
    61         16
    62          3
    63          5
    71          2
    72          4
    73         12
    74          3
    75         51
    76        390
    77         28
    78        128
    79          4