##TITLE=Library Entry 7300
##JCAMP-DX=Revision 4.10 
##DATA TYPE=MASS SPECTRUM
##SAMPLE DESCRIPTION=Japan AIST/NIMC Database- Spectrum MS-NW-1111
##NAMES=HP
##CAS NAME=Butane, 1-chloro-3-methyl-
##MOLFORM=C5H11Cl
##CAS REGISTRY NO=107-84-6
##MP= -300
##BP= -300
##MW= 106
##$RETENTION INDEX=693
##$CONDENSED SPECTRUM=NO
##NPOINTS= 65
##XYDATA=(XY..XY) 1 
    14          3
    15         13
    26         19
    27        212
    28         11
    29        190
    30          4
    31          4
    32          1
    35          1
    36          8
    37          6
    38         13
    39        139
    40         19
    41        391
    42        354
    43        999
    44         33
    45          4
    49         16
    50          9
    51         14
    52          5
    53         34
    54         10
    55        508
    56         70
    57        140
    58          7
    59         11
    61          5
    62          9
    63         40
    64          4
    65         12
    67          9
    68          3
    69         63
    70        497
    71        102
    72          5
    73          4
    75          6
    76         40
    77         74
    78         14
    79         24
    81          4
    82          3
    83         15
    84         14
    85         13
    86          2
    87          1
    89          1
    90         10
    91         46
    92          6
    93         13
    94          3
   105          3
   106          4
   107          2
   108          1