##TITLE=Library Entry 5714
##JCAMP-DX=Revision 4.10 
##DATA TYPE=MASS SPECTRUM
##SAMPLE DESCRIPTION=D.HENNEBERG, MAX-PLANCK INSTITUTE, MULHEIM, WEST GERMAN
Y
##NAMES=HP
##CAS NAME=Pentane, 2-bromo-
##MOLFORM=C5H11Br
##CAS REGISTRY NO=107-81-3
##MP= -300
##BP= -300
##MW= 150
##$RETENTION INDEX=778
##$CONDENSED SPECTRUM=NO
##NPOINTS= 60
##XYDATA=(XY..XY) 1 
    24          0
    25          6
    26        109
    27        612
    28        130
    29        425
    30         10
    31          4
    32          2
    33          1
    37         25
    38         54
    39        398
    40         68
    41        615
    42        523
    43        999
    44         46
    45          1
    49          3
    50         21
    51         28
    52          9
    53         39
    54         11
    55        188
    56         27
    57         97
    58          4
    60          0
    61          3
    62          5
    63          5
    64          0
    65          2
    66          1
    67          4
    68          0
    69          6
    70         16
    71        364
    72         82
    73          3
    78          0
    79         11
    80          8
    81         11
    82          7
    83          1
    93          2
    95          2
   105          0
   106          1
   107          6
   108          0
   109          4
   121          1
   123          1
   150          0
   152          0