##TITLE=Library Entry 870
##JCAMP-DX=Revision 4.10 
##DATA TYPE=MASS SPECTRUM
##SAMPLE DESCRIPTION=Chemical Concepts
##NAMES=HP
##CAS NAME=Taurine
##MOLFORM=C2H7NO3S
##CAS REGISTRY NO=107-35-7
##MP= -300
##BP= -300
##MW= 125
##$RETENTION INDEX=0
##$CONDENSED SPECTRUM=NO
##NPOINTS= 63
##XYDATA=(XY..XY) 1 
    26        192
    27        697
    28         18
    29         47
    30        999
    31         25
    33         17
    34         24
    35          3
    36          6
    37          4
    38         11
    39         42
    40         46
    41         98
    42        422
    43        554
    44        201
    45        158
    46          8
    47          3
    48        337
    49         18
    50         19
    51          9
    52          6
    53          6
    54         13
    55          2
    56         23
    57          9
    58         10
    59          4
    60         15
    63          5
    64        337
    65        188
    66         24
    67          8
    68          5
    69          7
    70          5
    71          7
    74          3
    75          4
    76          2
    77          3
    78          7
    79          6
    80          4
    81         21
    82         16
    83          1
    84          3
    85          1
    86          2
    87          1
    91          7
    92          5
    93          7
    94          4
    95          2
    96          3