##TITLE=Library Entry 28049
##JCAMP-DX=Revision 4.10 
##DATA TYPE=MASS SPECTRUM
##SAMPLE DESCRIPTION=Japan AIST/NIMC Database- Spectrum MS-NW-1897
##NAMES=HP
##CAS NAME=Betaine
##MOLFORM=C5H11NO2
##CAS REGISTRY NO=107-43-7
##MP= -300
##BP= -300
##MW= 117
##$RETENTION INDEX=0
##$CONDENSED SPECTRUM=NO
##NPOINTS= 75
##XYDATA=(XY..XY) 1 
    12          9
    13          9
    14         53
    15        248
    16         20
    17          3
    18         10
    25          1
    26         12
    27         44
    28         82
    29         56
    30        178
    31         26
    32          9
    33          1
    38          4
    39          9
    40         24
    41         46
    42        322
    43         80
    44        377
    45         33
    46          2
    51          2
    52          3
    53          1
    54          8
    55         12
    56         49
    57         73
    58        999
    59        191
    60          7
    61          1
    64          1
    67          2
    68          3
    69          4
    70         13
    71          9
    72         61
    73         83
    74          6
    75          1
    77          1
    79          1
    81          2
    82          2
    83          3
    84          8
    85         10
    86          2
    87          1
    88          5
    91          1
    95          1
    96          2
    97          2
    98          4
    99          1
   100         10
   101          2
   102          2
   103          8
   109          1
   111          1
   112          1
   113          1
   114          2
   115          2
   116         21
   117         19
   118          1