##TITLE=Library Entry 29720
##JCAMP-DX=Revision 4.10 
##DATA TYPE=MASS SPECTRUM
##SAMPLE DESCRIPTION=Exported from NIST MS Search
##NAMES=HP
##CAS NAME=1,7-Octanediol, 3,7-dimethyl-
##MOLFORM=C10H22O2
##CAS REGISTRY NO=107-74-4
##MP= -300
##BP= -300
##MW= 174
##$RETENTION INDEX=0
##$CONDENSED SPECTRUM=NO
##NPOINTS= 84
##XYDATA=(XY..XY) 1 
    15         11
    16          1
    17          7
    18         26
    19          2
    25          2
    26          7
    27         44
    29         64
    30          3
    31         84
    38          4
    39         47
    40         11
    41        177
    42         43
    43        287
    44         19
    45         23
    50          3
    51          5
    52          4
    53         26
    54         17
    55        191
    56        110
    57         52
    58         44
    59        999
    60         29
    61          4
    65          8
    66          6
    67         73
    68         45
    69        142
    70        123
    71         87
    72          9
    73          2
    77          8
    78          5
    79          7
    80          8
    81         83
    82         63
    83         94
    84         11
    85         19
    86          7
    87          5
    89          8
    91          5
    93          5
    94          4
    95         48
    96         16
    97          9
    98         73
    99         11
   100          4
   101          2
   107          2
   109         23
   110          9
   111          7
   112          6
   113          5
   114          2
   117          2
   121          4
   123         84
   124         11
   125          2
   126          4
   128          2
   131          2
   138          9
   139          2
   141         12
   142          2
   156          7
   157          2
   159         17