##TITLE=Library Entry 1194
##JCAMP-DX=Revision 4.10 
##DATA TYPE=MASS SPECTRUM
##SAMPLE DESCRIPTION=Japan AIST/NIMC Database- Spectrum MS-NW-5002
##NAMES=HP
##CAS NAME=Ethanamine, 2-bromo-
##MOLFORM=C2H6BrN
##CAS REGISTRY NO=107-09-5
##MP= -300
##BP= -300
##MW= 123
##$RETENTION INDEX=0
##$CONDENSED SPECTRUM=NO
##NPOINTS= 34
##XYDATA=(XY..XY) 1 
    12          1
    13          1
    14          8
    15         40
    16          3
    17          1
    25          2
    26         11
    27         47
    28         77
    29          8
    30        999
    31         14
    32          1
    38          3
    39          4
    40         13
    41         24
    42         85
    43         78
    44         40
    45          1
    79         47
    80        146
    81         48
    82        147
    91          1
    93          4
    94          1
    95          3
   122          4
   123         21
   124          4
   125         19