##TITLE=Library Entry 28145
##JCAMP-DX=Revision 4.10 
##DATA TYPE=MASS SPECTRUM
##SAMPLE DESCRIPTION=NIST Mass Spectrometry Data Center, 1992
##NAMES=HP
##CAS NAME=2-Propenamide, N-(1,1-dimethylethyl)-
##MOLFORM=C7H13NO
##CAS REGISTRY NO=107-58-4
##MP= -300
##BP= -300
##MW= 127
##$RETENTION INDEX=0
##$CONDENSED SPECTRUM=NO
##NPOINTS= 65
##XYDATA=(XY..XY) 1 
    12          0
    13          1
    14          2
    15         47
    17          1
    18         13
    25          3
    26         35
    27        228
    28         33
    29         69
    30         19
    34          0
    37          2
    38          8
    39         67
    40         20
    41        162
    42        113
    43         11
    44         17
    45          2
    47          0
    49          6
    50          3
    51          5
    52          7
    53         15
    54          0
    55        529
    56         97
    57        146
    58        999
    59         37
    60          0
    64          0
    67          1
    68          2
    69          1
    70          5
    71          0
    72        281
    73         12
    74          1
    77          1
    78          1
    80          0
    82          2
    83          2
    84         17
    85          9
    86          1
    95          0
    96          7
    97          4
    98         21
    99          4
   100          0
   110          1
   112        260
   113         18
   114          0
   127        138
   128         11
   129          0