##TITLE=Library Entry 23524
##JCAMP-DX=Revision 4.10 
##DATA TYPE=MASS SPECTRUM
##SAMPLE DESCRIPTION=D.HENNEBERG, MAX-PLANCK INSTITUTE, MULHEIM, WEST GERMAN
Y
##NAMES=HP
##CAS NAME=1-Pentene, 2,4,4-trimethyl-
##MOLFORM=C8H16
##CAS REGISTRY NO=107-39-1
##MP= -300
##BP= -300
##MW= 112
##$RETENTION INDEX=712
##$CONDENSED SPECTRUM=NO
##NPOINTS= 51
##XYDATA=(XY..XY) 1 
    25          0
    27         46
    28          7
    29        137
    30          4
    31          0
    35          0
    37          2
    38          5
    39        101
    40         13
    41        309
    42         14
    43         15
    47          1
    49          0
    50          4
    51          8
    52          3
    53         27
    54          6
    55        218
    56        122
    57        999
    58         33
    59          0
    62          0
    63          2
    64          0
    65          3
    66          1
    67          8
    68          1
    69         42
    70          4
    71          0
    74          0
    77          4
    79         11
    80          0
    81          5
    82          1
    83          0
    84          1
    91          0
    95          0
    96          0
    97         63
    98          4
   112         49
   113          6