##TITLE=Library Entry 23192
##JCAMP-DX=Revision 4.10 
##DATA TYPE=MASS SPECTRUM
##SAMPLE DESCRIPTION=Japan AIST/NIMC Database- Spectrum MS-NW- 974
##NAMES=HP
##CAS NAME=2-Propen-1-ol
##MOLFORM=C3H6O
##CAS REGISTRY NO=107-18-6
##MP= -300
##BP= -300
##MW= 58
##$RETENTION INDEX=540
##$CONDENSED SPECTRUM=NO
##NPOINTS= 36
##XYDATA=(XY..XY) 1 
    12          1
    13          3
    14          7
    15         16
    17          3
    18         10
    19          2
    24          3
    25         16
    26         91
    27        233
    28        151
    29        252
    30        153
    31        412
    32          7
    33          1
    36          7
    37         35
    38         51
    39        278
    40         93
    41         58
    42         11
    43         45
    44          1
    45          1
    52          2
    53         12
    54          2
    55         51
    56          8
    57        999
    58        229
    59         11
    60          2