##TITLE=Library Entry 45156
##JCAMP-DX=Revision 4.10 
##DATA TYPE=MASS SPECTRUM
##SAMPLE DESCRIPTION=Japan AIST/NIMC Database- Spectrum MS-NW-1496
##NAMES=HP
##CAS NAME=Chloromethyl cyanide
##MOLFORM=C2H2ClN
##CAS REGISTRY NO=107-14-2
##MP= -300
##BP= -300
##MW= 75
##$RETENTION INDEX=606
##$CONDENSED SPECTRUM=NO
##NPOINTS= 35
##XYDATA=(XY..XY) 1 
    12         30
    13         22
    14         17
    24          9
    25         18
    26         27
    27         17
    28         57
    29          3
    30          1
    35         56
    36         23
    37         21
    38        117
    39        131
    40        433
    41         12
    42          2
    43          1
    44         22
    47        110
    48        846
    49         67
    50        264
    51         13
    59          2
    60          4
    61          3
    62          1
    73         22
    74         44
    75        999
    76         38
    77        320
    78          9