##TITLE=Library Entry 123
##JCAMP-DX=Revision 4.10 
##DATA TYPE=MASS SPECTRUM
##SAMPLE DESCRIPTION=Japan AIST/NIMC Database- Spectrum MS-NW-1129
##NAMES=HP
##CAS NAME=Acetonitrile, hydroxy-
##MOLFORM=C2H3NO
##CAS REGISTRY NO=107-16-4
##MP= -300
##BP= -300
##MW= 57
##$RETENTION INDEX=0
##$CONDENSED SPECTRUM=NO
##NPOINTS= 29
##XYDATA=(XY..XY) 1 
    12         12
    13          9
    14          7
    15          1
    16          7
    17        145
    18        552
    19          1
    24          3
    25          4
    26         58
    27        256
    28        999
    29        425
    30        410
    31         86
    32          7
    38         46
    39         54
    40        135
    41          8
    42          2
    43          2
    54         54
    55         12
    56        225
    57         40
    58          9
    59          2