##TITLE=Library Entry 16963
##JCAMP-DX=Revision 4.10 
##DATA TYPE=MASS SPECTRUM
##SAMPLE DESCRIPTION=Japan AIST/NIMC Database- Spectrum MS-NW- 685
##NAMES=HP
##CAS NAME=2-Propanol, 1-methoxy-
##MOLFORM=C4H10O2
##CAS REGISTRY NO=107-98-2
##MP= -300
##BP= -300
##MW= 90
##$RETENTION INDEX=661
##$CONDENSED SPECTRUM=NO
##NPOINTS= 39
##XYDATA=(XY..XY) 1 
    14          6
    15         65
    16          2
    17          1
    18          6
    19          2
    26          6
    27         49
    28          9
    29         73
    30          5
    31        113
    32          3
    33         11
    37          5
    38          3
    39         16
    40          3
    41         37
    42         12
    43         86
    44         20
    45        999
    46         48
    47        288
    48          6
    55          2
    56          3
    57         18
    58          8
    59         34
    60          1
    71          7
    72          6
    73          5
    75         37
    76          1
    89          2
    90          6