##TITLE=Library Entry 18611
##JCAMP-DX=Revision 4.10 
##DATA TYPE=MASS SPECTRUM
##SAMPLE DESCRIPTION=Exported from NIST MS Search
##NAMES=HP
##CAS NAME=1-Butyne
##MOLFORM=C4H6
##CAS REGISTRY NO=107-00-6
##MP= -300
##BP= -300
##MW= 54
##$RETENTION INDEX=385
##$CONDENSED SPECTRUM=NO
##NPOINTS= 29
##XYDATA=(XY..XY) 1 
     1         31
     2          8
    12         11
    13         13
    14         22
    15         51
    16          1
    19          1
    24          4
    25         31
    26        142
    27        415
    28        346
    29         12
    36         11
    37         83
    38        150
    39        761
    40         25
    41          1
    48         13
    49         75
    50        230
    51        197
    52         80
    53        434
    54        999
    55         43
    56          1