##TITLE=Library Entry 5722
##JCAMP-DX=Revision 4.10 
##DATA TYPE=MASS SPECTRUM
##SAMPLE DESCRIPTION=NIST Mass Spectrometry Data Center, 1992
##NAMES=HP
##CAS NAME=Propane, 1-iodo-
##MOLFORM=C3H7I
##CAS REGISTRY NO=107-08-4
##MP= -300
##BP= -300
##MW= 170
##$RETENTION INDEX=719
##$CONDENSED SPECTRUM=NO
##NPOINTS= 39
##XYDATA=(XY..XY) 1 
    12          2
    13          3
    14         13
    15         49
    16          1
    24          1
    25          9
    26         74
    27        525
    28         55
    29         11
    32          0
    36          5
    37         33
    38         62
    39        275
    40         62
    41        589
    42          0
    43        999
    44         34
    45          0
    63          0
   127        189
   128         29
   129          2
   139          5
   140          5
   141         24
   142          4
   152          2
   153          1
   155         17
   156          0
   164          0
   165          0
   167          0
   170        384
   171         13