##TITLE=Library Entry 2044
##JCAMP-DX=Revision 4.10 
##DATA TYPE=MASS SPECTRUM
##SAMPLE DESCRIPTION=NIST Mass Spectrometry Data Center, 1990.
##NAMES=HP
##CAS NAME=2-Butene
##MOLFORM=C4H8
##CAS REGISTRY NO=107-01-7
##MP= -300
##BP= -300
##MW= 56
##$RETENTION INDEX=411
##$CONDENSED SPECTRUM=NO
##NPOINTS= 23
##XYDATA=(XY..XY) 1 
    14         56
    15         45
    16         26
    26        143
    27        338
    28        607
    29        149
    32        125
    37         50
    38         73
    39        513
    40        117
    41        999
    42         35
    49         41
    50        129
    51         97
    52         26
    53        121
    54         43
    55        256
    56        531
    57         26