##TITLE=Library Entry 29703
##JCAMP-DX=Revision 4.10 
##DATA TYPE=MASS SPECTRUM
##SAMPLE DESCRIPTION=NIST Mass Spectrometry Data Center, 1994
##NAMES=HP
##CAS NAME=Hexylene glycol
##MOLFORM=C6H14O2
##CAS REGISTRY NO=107-41-5
##MP= -300
##BP= -300
##MW= 118
##$RETENTION INDEX=892
##$CONDENSED SPECTRUM=NO
##NPOINTS= 54
##XYDATA=(XY..XY) 1 
    14         20
    15        141
    16          8
    17          1
    18          1
    19         37
    26         19
    27        127
    28         20
    29        148
    30          1
    31        216
    33          1
    36          2
    37          4
    38         17
    39        128
    40         39
    41        286
    42        208
    43        937
    44         67
    45        227
    46          4
    47          5
    50          7
    51          8
    52          2
    53         12
    54          2
    55         52
    56        254
    57        142
    58          2
    59        999
    60         37
    61         86
    62          3
    63          5
    65          3
    67         15
    68          2
    69          7
    71          6
    77          2
    83          7
    85        112
    86          6
    87          3
    99          2
   100          4
   101          2
   103         60
   104          3