##TITLE=Library Entry 18078
##JCAMP-DX=Revision 4.10 
##DATA TYPE=MASS SPECTRUM
##SAMPLE DESCRIPTION=NIST Mass Spectrometry Data Center, 1998.
##NAMES=HP
##CAS NAME=Acetaldehyde, chloro-
##MOLFORM=C2H3ClO
##CAS REGISTRY NO=107-20-0
##MP= -300
##BP= -300
##MW= 78
##$RETENTION INDEX=0
##$CONDENSED SPECTRUM=NO
##NPOINTS= 40
##XYDATA=(XY..XY) 1 
    12          3
    13          9
    14         26
    15        101
    16          3
    24          6
    25         20
    26         36
    27         17
    28         12
    29        216
    30          3
    31          1
    35         42
    36         12
    37         15
    38          5
    40          9
    41         31
    42        179
    43         11
    44          2
    47         48
    48         61
    49        291
    50        999
    51        101
    52        317
    53          4
    59          3
    60          9
    61          5
    62          3
    63          2
    76          5
    77          3
    78        404
    79         11
    80        132
    81          3