##TITLE=Library Entry 884
##JCAMP-DX=Revision 4.10 
##DATA TYPE=MASS SPECTRUM
##SAMPLE DESCRIPTION=NIST Mass Spectrometry Data Center, 1998.
##NAMES=HP
##CAS NAME=Ethylenediamine
##MOLFORM=C2H8N2
##CAS REGISTRY NO=107-15-3
##MP= -300
##BP= -300
##MW= 60
##$RETENTION INDEX=612
##$CONDENSED SPECTRUM=NO
##NPOINTS= 31
##XYDATA=(XY..XY) 1 
    14          2
    15          9
    16          3
    17          3
    18         15
    25          1
    26          5
    27         27
    28        195
    29         31
    30        999
    31         28
    32          5
    38          5
    39          7
    40         25
    41         51
    42        125
    43        154
    44         40
    45          1
    52          1
    53          5
    54          1
    55          1
    56          2
    57          3
    58          6
    59         66
    60         68
    61          6