##TITLE=Library Entry 28188
##JCAMP-DX=Revision 4.10 
##DATA TYPE=MASS SPECTRUM
##SAMPLE DESCRIPTION=Japan AIST/NIMC Database- Spectrum MS-NW- 711
##NAMES=HP
##CAS NAME=2-Pentanamine, 2,4,4-trimethyl-
##MOLFORM=C8H19N
##CAS REGISTRY NO=107-45-9
##MP= -300
##BP= -300
##MW= 129
##$RETENTION INDEX=879
##$CONDENSED SPECTRUM=NO
##NPOINTS= 51
##XYDATA=(XY..XY) 1 
    15          8
    25          1
    26          1
    27         23
    28         13
    29         39
    30         16
    38          1
    39         27
    40          5
    41         94
    42         61
    43         28
    44          5
    46          1
    47          2
    48         12
    49          2
    50          2
    51          3
    52          1
    53          7
    54          3
    55         37
    56         42
    57        110
    58        999
    59         36
    65          1
    67          2
    68          1
    69          7
    70          7
    71          5
    72         21
    73          2
    77          1
    78          2
    79          1
    81          1
    82          1
    83          2
    84          3
    85          1
    86          6
    91          2
    97         12
    98          2
   100          2
   114         38
   115          3