##TITLE=Library Entry 82385
##JCAMP-DX=Revision 4.10 
##DATA TYPE=MASS SPECTRUM
##SAMPLE DESCRIPTION=NIST Mass Spectrometry Data Center, 1998.
##NAMES=HP
##CAS NAME=3-Mercaptopropionic acid
##MOLFORM=C3H6O2S
##CAS REGISTRY NO=107-96-0
##MP= -300
##BP= -300
##MW= 106
##$RETENTION INDEX=1057
##$CONDENSED SPECTRUM=NO
##NPOINTS= 46
##XYDATA=(XY..XY) 1 
    15          3
    25         11
    26         71
    27        314
    28        390
    29        117
    31         18
    32         24
    33         41
    34         61
    35        126
    36          9
    37          3
    38          3
    41          2
    42        139
    43        141
    44         41
    45        643
    46        189
    47        508
    48         13
    49         16
    53         10
    54          9
    55        272
    56         16
    57         77
    58        163
    59        237
    60        757
    61        342
    62         39
    63         30
    72         10
    73         99
    74          1
    75          5
    78          3
    87         28
    88        470
    89         46
    90         16
   106        999
   107         28
   108         50