##TITLE=Library Entry 16773
##JCAMP-DX=Revision 4.10 
##DATA TYPE=MASS SPECTRUM
##SAMPLE DESCRIPTION=Chemical Concepts
##NAMES=HP
##CAS NAME=Butanal, 3-hydroxy-
##MOLFORM=C4H8O2
##CAS REGISTRY NO=107-89-1
##MP= -300
##BP= -300
##MW= 88
##$RETENTION INDEX=0
##$CONDENSED SPECTRUM=NO
##NPOINTS= 47
##XYDATA=(XY..XY) 1 
    25         24
    26         76
    27        269
    28         17
    29        531
    30         10
    31         84
    33          1
    36          6
    37         32
    38         47
    39        231
    40         49
    41        325
    42        653
    43        518
    44        379
    45        999
    46         24
    47          3
    48          1
    49          5
    50         11
    51          5
    52          2
    53          9
    54          2
    55         58
    56          2
    57          7
    58          4
    59          2
    60         29
    61          9
    66          0
    67          0
    68          3
    69         65
    70        219
    71         20
    72          1
    73         69
    74          3
    75          0
    87          6
    88          0
    89          0