##TITLE=Library Entry 199
##JCAMP-DX=Revision 4.10 
##DATA TYPE=MASS SPECTRUM
##SAMPLE DESCRIPTION=Japan AIST/NIMC Database- Spectrum MS-NW- 774
##NAMES=HP
##CAS NAME=Propanenitrile
##MOLFORM=C3H5N
##CAS REGISTRY NO=107-12-0
##MP= -300
##BP= -300
##MW= 55
##$RETENTION INDEX=530
##$CONDENSED SPECTRUM=NO
##NPOINTS= 26
##XYDATA=(XY..XY) 1 
    12          4
    13          4
    14          6
    15         41
    24          5
    25         17
    26        162
    27        146
    28        999
    29         25
    32          1
    36          4
    37         12
    38         20
    39         19
    40         41
    41          5
    43          1
    50         17
    51        101
    52        140
    53         87
    54        845
    55        155
    56         11
    57          6