##TITLE=Library Entry 6816
##JCAMP-DX=Revision 4.10 
##DATA TYPE=MASS SPECTRUM
##SAMPLE DESCRIPTION=Japan AIST/NIMC Database- Spectrum MS-NW-1817
##NAMES=HP
##CAS NAME=1,3-Butanediol
##MOLFORM=C4H10O2
##CAS REGISTRY NO=107-88-0
##MP= -300
##BP= -300
##MW= 90
##$RETENTION INDEX=787
##$CONDENSED SPECTRUM=NO
##NPOINTS= 55
##XYDATA=(XY..XY) 1 
    12          1
    13          4
    14         28
    15        150
    16          6
    17          9
    18         44
    19         41
    25          3
    26         43
    27        291
    28        310
    29        250
    30         14
    31        341
    32          6
    33          1
    34          2
    36          1
    37          9
    38         16
    39        108
    40         25
    41        138
    42        150
    43        999
    44        210
    45        913
    46         51
    47         21
    49          6
    50          7
    51          7
    52          1
    53         11
    54         11
    55         42
    56          5
    57        248
    58         12
    59          6
    60          1
    61          2
    62          7
    63          4
    69          2
    70          2
    71         22
    72        255
    73         14
    74          1
    75         75
    76          2
    89          3
    90          1