##TITLE=Library Entry 29757
##JCAMP-DX=Revision 4.10 
##DATA TYPE=MASS SPECTRUM
##SAMPLE DESCRIPTION=Exported from NIST MS Search
##NAMES=HP
##CAS NAME=Octanal, 7-hydroxy-3,7-dimethyl-
##MOLFORM=C10H20O2
##CAS REGISTRY NO=107-75-5
##MP= -300
##BP= -300
##MW= 172
##$RETENTION INDEX=1300
##$CONDENSED SPECTRUM=NO
##NPOINTS= 93
##XYDATA=(XY..XY) 1 
    14          6
    15          7
    17         17
    18         51
    20          4
    26          8
    27         59
    28         24
    29         73
    30          6
    31          6
    32          3
    33          3
    37          3
    38          4
    39         67
    40         13
    41        191
    42         43
    43        497
    44         25
    45         26
    47          3
    50          4
    51          5
    52          6
    53         23
    54         16
    55        124
    56         79
    57         62
    58         34
    59        999
    60         28
    61          8
    63          4
    65          7
    66          4
    67         34
    68         25
    69        132
    70         37
    71        385
    72         21
    73          6
    77          7
    78          3
    79         10
    80          8
    81         90
    82         13
    83         21
    84         20
    85         21
    86         10
    87          7
    91          5
    92          3
    93         21
    94          7
    95         83
    96         91
    97         31
    98         18
    99         12
   101          3
   104          3
   105          4
   107          4
   108          4
   109         21
   110         37
   111         44
   112         18
   113         31
   114         56
   115         10
   121         55
   122          7
   123          7
   124          3
   125          3
   126          3
   129          7
   131          3
   135          3
   136          8
   137          6
   139         43
   140          7
   154          8
   155          3
   157         13