##TITLE=Library Entry 1463
##JCAMP-DX=Revision 4.10 
##DATA TYPE=MASS SPECTRUM
##SAMPLE DESCRIPTION=NIST Mass Spectrometry Data Center
##NAMES=HP
##CAS NAME=1,2-Ethanediol
##MOLFORM=C2H6O2
##CAS REGISTRY NO=107-21-1
##MP= -300
##BP= -300
##MW= 62
##$RETENTION INDEX=706
##$CONDENSED SPECTRUM=NO
##NPOINTS= 25
##XYDATA=(XY..XY) 1 
    14          7
    15         37
    17          4
    18          2
    19          9
    25          4
    26         16
    27         51
    28          1
    29        189
    30         30
    31        999
    32        101
    33        362
    34          5
    41          9
    42         55
    43        142
    44         39
    45         15
    56          2
    60          2
    61         24
    62         54
    63          2