##TITLE=Library Entry 9185
##JCAMP-DX=Revision 4.10 
##DATA TYPE=MASS SPECTRUM
##SAMPLE DESCRIPTION=RADIAN CORP
##NAMES=HP
##CAS NAME=2-Pentanone, 4-methoxy-4-methyl-
##MOLFORM=C7H14O2
##CAS REGISTRY NO=107-70-0
##MP= -300
##BP= -300
##MW= 130
##$RETENTION INDEX=910
##$CONDENSED SPECTRUM=NO
##NPOINTS= 45
##XYDATA=(XY..XY) 1 
    14          2
    15         18
    18          2
    26          5
    27         45
    28         20
    29         52
    30          2
    31         12
    32          3
    33         14
    37          1
    38          6
    39         68
    40         15
    41         99
    42         62
    43        999
    44         26
    45         38
    50          4
    51          4
    52          2
    53         12
    54          2
    55         52
    56         42
    57         18
    58          5
    59         11
    67          2
    69          2
    71          2
    72         15
    73        855
    74         40
    75          7
    83         18
    85         15
    98         12
    99          8
   100         53
   101          4
   115         92
   116          6