##TITLE=Library Entry 55715
##JCAMP-DX=Revision 4.10 
##DATA TYPE=MASS SPECTRUM
##SAMPLE DESCRIPTION=Chemical Concepts
##NAMES=HP
##CAS NAME=2-Butenoic acid, (E)-
##MOLFORM=C4H6O2
##CAS REGISTRY NO=107-93-7
##MP= -300
##BP= -300
##MW= 86
##$RETENTION INDEX=1742
##$CONDENSED SPECTRUM=NO
##NPOINTS= 54
##XYDATA=(XY..XY) 1 
    24          0
    25          9
    26         60
    27        117
    28          7
    29         48
    30          8
    31         23
    33          2
    34          0
    36          8
    37         75
    38        138
    39        678
    40        195
    41        756
    42         66
    43         53
    44         19
    45        179
    46          4
    47          1
    49          1
    50          2
    51          1
    52          0
    53         19
    54          2
    55         14
    56          2
    57         39
    58         11
    59          0
    60         15
    61          0
    65          0
    66          3
    67          5
    68        262
    69        339
    70         12
    71         97
    72          2
    73          1
    74          0
    79          0
    82          0
    83          0
    84          0
    85         28
    86        999
    87         45
    88          5
    89          0