##TITLE=Library Entry 1079
##JCAMP-DX=Revision 4.10 
##DATA TYPE=MASS SPECTRUM
##SAMPLE DESCRIPTION=NIST Mass Spectrometry Data Center, 1994
##NAMES=HP
##CAS NAME=2-Propen-1-amine
##MOLFORM=C3H7N
##CAS REGISTRY NO=107-11-9
##MP= -300
##BP= -300
##MW= 57
##$RETENTION INDEX=463
##$CONDENSED SPECTRUM=NO
##NPOINTS= 31
##XYDATA=(XY..XY) 1 
    12          6
    13         12
    14         26
    15         43
    16         21
    17         15
    18         15
    19          1
    24          5
    25         33
    26        159
    27        235
    28        822
    29        238
    30        999
    31         28
    36          7
    37         42
    38         78
    39        237
    40         39
    41         93
    42         33
    43          7
    51         31
    52         52
    54         70
    56        997
    57        298
    58         10
    59          0