##TITLE=Library Entry 23812
##JCAMP-DX=Revision 4.10 
##DATA TYPE=MASS SPECTRUM
##SAMPLE DESCRIPTION=Exported from NIST MS Search
##NAMES=HP
##CAS NAME=Di-tert-butyl sulfide
##MOLFORM=C8H18S
##CAS REGISTRY NO=107-47-1
##MP= -300
##BP= -300
##MW= 146
##$RETENTION INDEX=918
##$CONDENSED SPECTRUM=NO
##NPOINTS= 70
##XYDATA=(XY..XY) 1 
    15         18
    16          1
    26          4
    27         66
    28         17
    29         52
    30          4
    32          1
    33          1
    34          1
    35          1
    37          2
    38          4
    39         12
    40         10
    41        264
    42         12
    43          4
    44          1
    45         16
    46          3
    47         15
    48          1
    49         13
    50          2
    51          3
    52          1
    53          7
    54          2
    55         38
    56         89
    57        999
    58         48
    59         41
    60          3
    61          6
    62          1
    63          1
    64          1
    65          1
    66          1
    67          1
    68          1
    69          2
    70          1
    71          2
    72          1
    73          2
    74          5
    75         80
    76          4
    77          4
    78          1
    83          1
    84          1
    85          1
    88         16
    89         19
    90         46
    91         23
    92          3
    93          1
    97          1
   112          2
   113          1
   131          1
   132          1
   146         93
   147          7
   148          4