##TITLE=Library Entry 25004
##JCAMP-DX=Revision 4.10 
##DATA TYPE=MASS SPECTRUM
##SAMPLE DESCRIPTION=RADIAN CORP
##NAMES=HP
##CAS NAME=Acetic acid, chloro-, 1,1-dimethylethyl ester
##MOLFORM=C6H11ClO2
##CAS REGISTRY NO=107-59-5
##MP= -300
##BP= -300
##MW= 150
##$RETENTION INDEX=891
##$CONDENSED SPECTRUM=NO
##NPOINTS= 42
##XYDATA=(XY..XY) 1 
    14         16
    15         64
    25          1
    26         21
    27        149
    29        303
    30         10
    31         34
    35          6
    37         14
    38         26
    39        242
    40         30
    41        569
    42        147
    43        274
    44          2
    45         18
    47         13
    48         24
    49        239
    50         31
    51         89
    52         10
    53         19
    54          4
    55         46
    56         66
    57        999
    58         74
    59        858
    60         35
    61          3
    71          2
    76         14
    77        238
    78          7
    79         82
   135        148
   136          9
   137         50
   138          3