##TITLE=Library Entry 8846
##JCAMP-DX=Revision 4.10 
##DATA TYPE=MASS SPECTRUM
##SAMPLE DESCRIPTION=Japan AIST/NIMC Database- Spectrum MS-NW- 902
##NAMES=HP
##CAS NAME=Butane, 1-bromo-3-methyl-
##MOLFORM=C5H11Br
##CAS REGISTRY NO=107-82-4
##MP= -300
##BP= -300
##MW= 150
##$RETENTION INDEX=853
##$CONDENSED SPECTRUM=NO
##NPOINTS= 57
##XYDATA=(XY..XY) 1 
    14          1
    15          9
    26         20
    27        216
    28         35
    29        151
    30          3
    31          1
    37          5
    38         13
    39        125
    40         18
    41        324
    42        128
    43        999
    44         33
    49          2
    50          9
    51         10
    52          4
    53         26
    54          6
    55        393
    56         29
    57         42
    58          1
    59          2
    62          1
    63          1
    67          2
    69         20
    70        381
    71        461
    72         23
    73          1
    79          4
    80          6
    81          4
    82          7
    93          7
    95          7
   105          1
   106          2
   107         20
   108          2
   109         18
   120          1
   121          5
   122          2
   123          4
   124          2
   135          8
   137          7
   150         17
   151          2
   152         16
   153          1