##TITLE=Library Entry 74395
##JCAMP-DX=Revision 4.10 
##DATA TYPE=MASS SPECTRUM
##SAMPLE DESCRIPTION=NIST Mass Spectrometry Data Center, 1994
##NAMES=HP
##CAS NAME=Ethyl hydrogen succinate
##MOLFORM=C6H10O4
##CAS REGISTRY NO=1070-34-4
##MP= -300
##BP= -300
##MW= 146
##$RETENTION INDEX=1079
##$CONDENSED SPECTRUM=NO
##NPOINTS= 40
##XYDATA=(XY..XY) 1 
     4          0
    14          4
    15         13
    16          1
    19          3
    26         44
    27        154
    28        109
    29        243
    30         21
    31         19
    32          1
    41          4
    42         26
    43         41
    44          1
    45        172
    46          7
    47          5
    53          4
    55        216
    56         89
    57         10
    58          1
    59          2
    60          9
    71          3
    73        262
    74        110
    75         14
    83         10
    84          2
   101        999
   102         46
   103         11
   119         54
   120          2
   128        207
   129         22
   131         19