##TITLE=Library Entry 21012
##JCAMP-DX=Revision 4.10 
##DATA TYPE=MASS SPECTRUM
##SAMPLE DESCRIPTION=Chemical Concepts
##NAMES=HP
##CAS NAME=2-Pentene, 3-(chloroethylboryl)-2-(chlorodimethylsilyl)-, (E)-
##MOLFORM=C9H19BCl2Si
##CAS REGISTRY NO=107098-30-6
##MP= -300
##BP= -300
##MW= 236
##$RETENTION INDEX=0
##$CONDENSED SPECTRUM=NO
##NPOINTS= 122
##XYDATA=(XY..XY) 1 
    27        134
    29         49
    31          4
    36          5
    37         42
    38         12
    39         91
    40         85
    41        307
    42          7
    43         65
    44         13
    45          9
    46         23
    47         87
    48          3
    49         30
    50         68
    51        249
    52         51
    53        114
    54        240
    55        999
    56         33
    57          2
    58         21
    59         25
    60         20
    61         56
    62         13
    63        117
    64         50
    65        152
    66        100
    67         50
    68         39
    69        106
    70          6
    71         17
    72          8
    73         53
    74         24
    75         80
    76         15
    77         51
    78         92
    79        321
    80        126
    81         18
    83         22
    84         19
    85         46
    86         28
    87         40
    88         12
    89         16
    90          7
    91         21
    92         44
    93        593
    94         50
    95        218
    96         15
    97        156
    98         19
    99         11
   100          9
   101          4
   103         19
   105         22
   106          8
   107         12
   108         47
   109         15
   110         13
   111        135
   112         16
   113         20
   114          5
   115         21
   116          9
   117        288
   118         25
   119        109
   120         13
   121          9
   124         11
   125          5
   126          8
   127          4
   129          8
   131        182
   132         15
   133         86
   134         10
   137          7
   142          2
   143          4
   145          9
   147          6
   153          9
   155          6
   157         12
   167          3
   171          9
   173          6
   179         14
   182         11
   183          2
   200          5
   201         42
   202         11
   203         16
   206         39
   207        572
   208        119
   209        403
   210         59
   211         81
   212         13
   221          9
   223          7