##TITLE=Library Entry 85724
##JCAMP-DX=Revision 4.10 
##DATA TYPE=MASS SPECTRUM
##SAMPLE DESCRIPTION=Exported from NIST MS Search
##NAMES=HP
##CAS NAME=Propane, 1,1,1,3-tetrachloro-
##MOLFORM=C3H4Cl4
##CAS REGISTRY NO=1070-78-6
##MP= -300
##BP= -300
##MW= 180
##$RETENTION INDEX=921
##$CONDENSED SPECTRUM=NO
##NPOINTS= 96
##XYDATA=(XY..XY) 1 
    13          4
    14          9
    15          6
    24          4
    25         21
    26        113
    27        326
    28         93
    29          2
    35         67
    36        124
    37        152
    38        156
    39        231
    40         11
    41          2
    42          1
    47        104
    48         41
    49        559
    50         22
    51        165
    52          2
    53          5
    54         10
    55         14
    56          7
    57          2
    58          1
    59          4
    60         43
    61        200
    62         28
    63        977
    64         25
    65        279
    66          6
    70          2
    71         12
    72         41
    73        129
    74         21
    75         88
    76          4
    77         22
    78          1
    80          2
    82         52
    83        473
    84         39
    85        301
    86          9
    87         48
    91          2
    94          2
    95         52
    96         51
    97         37
    98         32
    99          7
   100          5
   104          1
   105          2
   106          1
   107         13
   108          3
   109        999
   110         32
   111        553
   112         32
   113        103
   114          7
   115          1
   117        173
   118          3
   119        166
   120          2
   121         54
   123          6
   129          1
   130          2
   131         16
   132          3
   133         15
   134          1
   135          4
   143         12
   144         31
   145        669
   146         50
   147        631
   148         21
   149        197
   150          8
   151         22
   152          1