##TITLE=Library Entry 88104
##JCAMP-DX=Revision 4.10 
##DATA TYPE=MASS SPECTRUM
##SAMPLE DESCRIPTION=P.D. Bartlett, Dep. Chem., Tex. Christ. Univ., Fort Wor
th, Tex., USA
##NAMES=HP
##CAS NAME=Bicyclo[2.2.1]heptan-2-ol, 2-(2-cyclopenten-1-yl)-
##MOLFORM=C12H18O
##CAS REGISTRY NO=107081-99-2
##MP= -300
##BP= -300
##MW= 178
##$RETENTION INDEX=0
##$CONDENSED SPECTRUM=NO
##NPOINTS= 13
##XYDATA=(XY..XY) 1 
    39        710
    41        810
    43        140
    53        130
    55        400
    65        180
    66        180
    67        960
    77        130
    83        150
    91        180
    93        350
   111        999