##TITLE=Library Entry 37366
##JCAMP-DX=Revision 4.10 
##DATA TYPE=MASS SPECTRUM
##SAMPLE DESCRIPTION=Japan AIST/NIMC Database- Spectrum MS-IW-3820
##NAMES=HP
##CAS NAME=1-Heptanol, 3-methyl-
##MOLFORM=C8H18O
##CAS REGISTRY NO=1070-32-2
##MP= -300
##BP= -300
##MW= 130
##$RETENTION INDEX=1041
##$CONDENSED SPECTRUM=NO
##NPOINTS= 68
##XYDATA=(XY..XY) 1 
    15          6
    17          2
    18          7
    26          6
    27        151
    28         37
    29        197
    30          5
    31        162
    32          3
    37          1
    38          5
    39        142
    40         25
    41        565
    42        260
    43        870
    44         46
    45         53
    46         19
    47          1
    50          5
    51         12
    52          5
    53         48
    54         35
    55        984
    56        716
    57        428
    58         19
    59         11
    62          1
    63          3
    65          7
    66          3
    67         34
    68         34
    69        478
    70        999
    71        128
    72         12
    73         21
    74          1
    75          1
    77          5
    78          1
    79          5
    80          1
    81         11
    82         53
    83        421
    84        919
    85        166
    86          9
    87          6
    91          2
    92          1
    95          4
    96          2
    97         57
    98          6
    99          1
   101          1
   105          1
   110          1
   111          5
   112         54
   113          6