##TITLE=Library Entry 25020
##JCAMP-DX=Revision 4.10 
##DATA TYPE=MASS SPECTRUM
##SAMPLE DESCRIPTION=NIST Mass Spectrometry Data Center, 1992
##NAMES=HP
##CAS NAME=Butanoic acid, 3,3-dimethyl-
##MOLFORM=C6H12O2
##CAS REGISTRY NO=1070-83-3
##MP= -300
##BP= -300
##MW= 116
##$RETENTION INDEX=0
##$CONDENSED SPECTRUM=NO
##NPOINTS= 48
##XYDATA=(XY..XY) 1 
    13          2
    14         13
    15         46
    16          8
    17          0
    18          1
    26         19
    27        178
    28         74
    29        277
    30         10
    31         54
    32          7
    37          5
    38         29
    39        261
    40         49
    41        474
    42         82
    43        254
    44         12
    45        103
    49          4
    50         20
    51         23
    52         10
    53         44
    54          4
    55        201
    56          4
    57        999
    58         90
    59        889
    60        201
    61          9
    67          5
    69         13
    70          5
    71          5
    72         13
    73          4
    82          9
    83         22
    85          4
    99          7
   100         16
   101         80
   102          6