##TITLE=Library Entry 51803
##JCAMP-DX=Revision 4.10 
##DATA TYPE=MASS SPECTRUM
##SAMPLE DESCRIPTION=Chemical Concepts
##NAMES=HP
##CAS NAME=2,4(1H,3H)-Pyrimidinedione, 6-(hydroxymethyl)-1,3-dimethyl-
##MOLFORM=C7H10N2O3
##CAS REGISTRY NO=107077-52-1
##MP= -300
##BP= -300
##MW= 170
##$RETENTION INDEX=0
##$CONDENSED SPECTRUM=NO
##NPOINTS= 128
##XYDATA=(XY..XY) 1 
    25          2
    26         20
    27         77
    28         83
    29         24
    30         35
    31         28
    33          0
    35          1
    36         14
    37          2
    38          7
    39         33
    40         10
    41         40
    42        369
    43         26
    44         10
    45          2
    46          0
    48          0
    50          0
    51          5
    52         27
    53         35
    54         53
    55        125
    56         71
    57         19
    58         29
    59          2
    60          5
    61          0
    62          0
    63          0
    64          1
    65          1
    66         17
    67         81
    68         98
    69         20
    70         17
    71         25
    72          9
    73          2
    74          0
    75          0
    77          2
    78          0
    79          1
    80          4
    81         20
    82        999
    83        124
    84        129
    85         99
    86          6
    87          1
    88          0
    89          0
    91          0
    92          0
    93          1
    94          1
    95         31
    96         70
    97         10
    98          3
    99          2
   100          1
   101          0
   102          0
   103          1
   104          0
   105          1
   107          1
   108          0
   109          3
   110          3
   111         10
   112        116
   113         53
   114         10
   115          1
   116          0
   117          0
   119          0
   120          0
   122          1
   123          1
   124         46
   125         37
   126          5
   127          5
   128          1
   131          3
   132          0
   133          0
   134          0
   135          0
   136          0
   137          5
   138          0
   139         46
   140         63
   141        182
   142         36
   143          2
   144          0
   145          0
   147          0
   149          0
   151          1
   152         50
   153         47
   154          7
   155          7
   156          0
   157          0
   163          0
   165          0
   166          0
   167          4
   168          1
   169        112
   170        579
   171         72
   172          7