##TITLE=Library Entry 86713
##JCAMP-DX=Revision 4.10 
##DATA TYPE=MASS SPECTRUM
##SAMPLE DESCRIPTION=E.J. BROWNE, DEP. CHEM., UNIV. TASMANIA, TASMANIA, AUST
.
##NAMES=HP
##CAS NAME=6-Methyl-4,5,6,7,8,13-hexahydrobenzo[d]thieno[2,3-g]azecin-13-one
##MOLFORM=C16H17NOS
##CAS REGISTRY NO=107042-05-7
##MP= -300
##BP= -300
##MW= 271
##$RETENTION INDEX=0
##$CONDENSED SPECTRUM=NO
##NPOINTS= 11
##XYDATA=(XY..XY) 1 
   109        999
   118        150
   152        270
   184        220
   185        370
   199        200
   200        150
   213        120
   227        430
   228        140
   271        260