##TITLE=Library Entry 19792
##JCAMP-DX=Revision 4.10 
##DATA TYPE=MASS SPECTRUM
##SAMPLE DESCRIPTION=NIST Mass Spectrometry Data Center, 1994
##NAMES=HP
##CAS NAME=2-Propenoic acid, 1,4-butanediyl ester
##MOLFORM=C10H14O4
##CAS REGISTRY NO=1070-70-8
##MP= -300
##BP= -300
##MW= 198
##$RETENTION INDEX=0
##$CONDENSED SPECTRUM=NO
##NPOINTS= 69
##XYDATA=(XY..XY) 1 
    12          1
    13          1
    15          8
    19          1
    26         93
    27        429
    29         51
    30          5
    31         25
    37          1
    39         43
    40          9
    41         55
    42         34
    43         36
    44          7
    45          5
    46          0
    49          0
    50          0
    51          2
    54        505
    55        999
    56         52
    57          8
    58          1
    60          0
    65          0
    66          2
    67         10
    68         23
    69          6
    70          0
    71        132
    72          9
    73         25
    74          0
    78          0
    79          1
    80          8
    81          7
    82          3
    83          4
    84          0
    85         45
    86          3
    87          0
    95          3
    96          9
    97          5
    98         13
    99          4
   100          1
   107          0
   108          2
   109          0
   110          0
   111          1
   113         15
   114          1
   115          0
   123          0
   126         37
   127          8
   128          0
   129          0
   140          0
   143          2
   144          0