##TITLE=Library Entry 48981
##JCAMP-DX=Revision 4.10 
##DATA TYPE=MASS SPECTRUM
##SAMPLE DESCRIPTION=G. Lange, Inst. Org. Chem., Univ. Wurzburg, Germany
##NAMES=HP
##CAS NAME=Spiro[cyclopropane-1,6'-[3]oxatricyclo[3.2.1.0(2,4)]octane]
##MOLFORM=C9H12O
##CAS REGISTRY NO=107079-37-8
##MP= -300
##BP= -300
##MW= 136
##$RETENTION INDEX=0
##$CONDENSED SPECTRUM=NO
##NPOINTS= 66
##XYDATA=(XY..XY) 1 
    37          8
    38         36
    39        491
    40         89
    41        304
    42         22
    43         35
    44         11
    45          5
    50         62
    51        179
    52         94
    53        206
    54        108
    55        111
    56          9
    57         52
    58         16
    62         13
    63         49
    64         12
    65        181
    66        148
    67        234
    68         59
    69         35
    70         39
    71         11
    74          7
    75         15
    76          8
    77        497
    78        171
    79        999
    80        415
    81        389
    82        396
    83         37
    84          7
    89         12
    90         12
    91        547
    92        191
    93        197
    94         63
    95        111
    96         15
    97          5
   103         74
   104         20
   105        358
   106         52
   107        209
   108         92
   109         16
   117        154
   118         60
   119         18
   120          9
   121         60
   122          6
   133          8
   134          7
   135         32
   136         64
   137          8