##TITLE=Library Entry 59894
##JCAMP-DX=Revision 4.10 
##DATA TYPE=MASS SPECTRUM
##SAMPLE DESCRIPTION=A.A.Kutin, Moscow, Russia
##NAMES=HP
##CAS NAME=Imidazole, 1-benzyl-4,5-dichloro-
##MOLFORM=C10H8Cl2N2
##CAS REGISTRY NO=107108-24-7
##MP= -300
##BP= -300
##MW= 226
##$RETENTION INDEX=0
##$CONDENSED SPECTRUM=NO
##NPOINTS= 102
##XYDATA=(XY..XY) 1 
    35          2
    36          4
    37          4
    38         21
    39         95
    40         11
    41         21
    42          1
    43          1
    44          1
    46          1
    47         25
    48          1
    49         10
    50         26
    51         51
    52         14
    53          2
    55          0
    59          0
    60          0
    61          8
    62         20
    63         52
    64         19
    65        176
    66          9
    67          0
    68          0
    69          1
    70          0
    73         15
    74         15
    75         12
    76         10
    77         13
    78          3
    79          0
    82          5
    83          1
    84          2
    85          3
    86         10
    87          5
    88          5
    89         41
    90         27
    91        999
    92         78
    93          3
    94          3
    95          2
    96          3
    97          0
    98          0
   100         17
   101          8
   102          8
   103          2
   104          0
   108          8
   109          4
   110          6
   111          2
   112          2
   113          3
   114          1
   116          4
   117          1
   119          0
   120          0
   121          1
   122          0
   125          0
   126          2
   127          2
   128          8
   129          6
   130          0
   135          3
   136          3
   137          3
   138          2
   139          0
   150          0
   151          0
   153          0
   155         13
   156          1
   162          1
   163          0
   164          0
   189          1
   190          3
   191          1
   192          0
   226        110
   227         11
   228         57
   229          7
   230         10
   231          0