##TITLE=Library Entry 880
##JCAMP-DX=Revision 4.10 
##DATA TYPE=MASS SPECTRUM
##SAMPLE DESCRIPTION=Japan AIST/NIMC Database- Spectrum MS-NW-5440
##NAMES=HP
##CAS NAME=Phosphorylethanolamine
##MOLFORM=C2H8NO4P
##CAS REGISTRY NO=1071-23-4
##MP= -300
##BP= -300
##MW= 141
##$RETENTION INDEX=0
##$CONDENSED SPECTRUM=NO
##NPOINTS= 70
##XYDATA=(XY..XY) 1 
    12          1
    13          2
    14          8
    15         44
    16         10
    17         15
    18         24
    25          1
    26          9
    27         31
    28        148
    29         39
    30        999
    31         43
    32          2
    33          1
    36          1
    38          4
    39          7
    40         12
    41         29
    42         90
    43         34
    44          9
    45          3
    47          6
    51          1
    53          1
    54          1
    55          4
    56          3
    57          3
    58          3
    59          3
    60         13
    61         76
    62          3
    63          7
    64          2
    65          6
    66          1
    67          2
    68          1
    69          3
    70          1
    71          2
    73          1
    77          2
    78          3
    79          1
    80          2
    81         32
    82          1
    83          2
    84          1
    85          2
    91          1
    92          1
    93          6
    94          1
    95          2
    96          1
    97          1
    98         19
   106          2
   109          1
   111          1
   121          2
   122          2
   123          3