##TITLE=Library Entry 11512
##JCAMP-DX=Revision 4.10 
##DATA TYPE=MASS SPECTRUM
##SAMPLE DESCRIPTION=Chemical Concepts
##NAMES=HP
##CAS NAME=Ursa-9(11),12-dien-28-oic acid, 3-(acetyloxy)-, methyl ester, (3.
beta.)-
##MOLFORM=C33H50O4
##CAS REGISTRY NO=107180-44-9
##MP= -300
##BP= -300
##MW= 510
##$RETENTION INDEX=0
##$CONDENSED SPECTRUM=NO
##NPOINTS= 376
##XYDATA=(XY..XY) 1 
    27          5
    28          3
    29         19
    39          4
    40          1
    41         88
    42          8
    43        999
    44         11
    45          7
    47          1
    49          4
    51          2
    53         13
    54          2
    55        312
    56          9
    57         31
    58          2
    59         22
    60          2
    61          6
    63          1
    64          1
    65          5
    66          2
    67         46
    68          6
    69        316
    70         12
    71         21
    72          4
    73          3
    74          0
    75          2
    77         19
    78          4
    79         47
    80          7
    81         74
    82         11
    83         45
    84          7
    85         32
    86          3
    87          3
    89          2
    91         57
    92         10
    93         82
    94         11
    95         96
    96         11
    97         18
    98          3
    99          5
   100          1
   101          2
   102          1
   103          6
   104          4
   105         96
   106         16
   107         94
   108         13
   109         60
   110          7
   111         12
   112          3
   113          6
   114          2
   115         13
   116          8
   117         28
   118         11
   119        325
   120         25
   121         70
   122         11
   123         40
   124          6
   125          8
   126          3
   127          9
   128         19
   129         36
   130         16
   131         72
   132         21
   133         90
   134         18
   135         50
   136          7
   137         12
   138          3
   139          9
   140          3
   141         22
   142         23
   143         55
   144         21
   145         82
   146         21
   147         50
   148         10
   149         38
   150          7
   151          9
   152          6
   153         19
   154         12
   155         37
   156         22
   157         57
   158         19
   159         67
   160         18
   161         39
   162          9
   163         32
   164          7
   165         24
   166         11
   167         33
   168         18
   169         54
   170         22
   171         51
   172         15
   173         59
   174         19
   175         72
   176         15
   177         73
   178         15
   179         16
   180         10
   181         20
   182         11
   183         40
   184         14
   185         36
   186         11
   187         91
   188         31
   189         94
   190         21
   191         16
   192          8
   193         12
   194          8
   195         34
   196         10
   197         29
   198         10
   199         33
   200         17
   201         74
   202         20
   203         46
   204         11
   205         10
   206          6
   207         11
   208          6
   209         19
   210          7
   211         21
   212          8
   213         26
   214          9
   215         69
   216         14
   217         11
   218          4
   219          8
   220          4
   221         12
   222          5
   223         15
   224          6
   225         20
   226          6
   227         16
   228          6
   229         17
   230          4
   231          6
   232          3
   233          8
   234          8
   235         10
   236          4
   237         31
   238          9
   239        101
   240         25
   241         18
   242          5
   243          7
   244          2
   245          5
   246          4
   247         67
   248         46
   249         15
   250          4
   251         11
   252          6
   253         40
   254         20
   255         30
   256          7
   257          6
   258          2
   259          5
   260         37
   261         14
   262          4
   263          9
   264          4
   265         15
   266          7
   267         18
   268         11
   269         16
   270          4
   271          3
   272          1
   273          2
   274          3
   275          2
   276          4
   277          6
   278          3
   279         31
   280          9
   281         14
   282          6
   283          4
   284          2
   285          3
   286          1
   287          3
   288          1
   289          1
   290          1
   291          5
   292          2
   293         11
   294          5
   295         11
   296          3
   297         15
   298          4
   299        131
   300         34
   301          6
   302          2
   303          1
   304          1
   305          8
   306          3
   307          8
   308          5
   309          6
   310          9
   311          7
   312          3
   313         34
   314         26
   315         10
   316          2
   317          8
   318          2
   319          5
   320          3
   321          8
   322          5
   323          7
   324          3
   325         10
   326          4
   327          9
   328          8
   329          6
   330          1
   331          1
   332          1
   333          5
   334          2
   335          4
   336          2
   337          4
   338          2
   339         53
   340         14
   341          8
   342          3
   343          1
   345          1
   347          2
   348          1
   349          2
   350          1
   351          5
   352          2
   353          3
   354          4
   355          2
   359          1
   361          1
   365          8
   366          3
   367          4
   368         11
   369          4
   371          3
   372          3
   373          4
   374          3
   375         67
   376         22
   377          5
   378          1
   379          4
   380          3
   381          6
   382          3
   383          2
   387          1
   389          6
   390          5
   391         14
   392          5
   393         18
   394          7
   395          5
   396          3
   397          4
   398          4
   399          3
   403          3
   404          1
   405          1
   406          1
   407          7
   408          3
   409          1
   411          1
   417          1
   419          1
   420          1
   421          3
   422          1
   433          2
   435        103
   436         35
   437          6
   438          1
   448          3
   449         16
   450         68
   451         49
   452         13
   453          3
   463          2
   464          1
   467          1
   495          4
   496          1
   508          3
   510        153
   511         66
   512         14
   513          2