##TITLE=Library Entry 96998
##JCAMP-DX=Revision 4.10 
##DATA TYPE=MASS SPECTRUM
##SAMPLE DESCRIPTION=Chemical Concepts
##NAMES=HP
##CAS NAME=Tridecanoic acid, 3-hydroxy-, ethyl ester
##MOLFORM=C15H30O3
##CAS REGISTRY NO=107141-15-1
##MP= -300
##BP= -300
##MW= 258
##$RETENTION INDEX=1539
##$CONDENSED SPECTRUM=NO
##NPOINTS= 119
##XYDATA=(XY..XY) 1 
    29         21
    30         12
    39         33
    40          8
    41        250
    42         62
    43        266
    44         53
    45         55
    46          2
    47         16
    53         12
    54         25
    55        169
    56         47
    57         97
    58         15
    59          6
    60         75
    61         64
    62          2
    65          2
    66          2
    67         40
    68         25
    69         85
    70         47
    71        279
    72         11
    73         19
    74          2
    75         62
    76          3
    77          2
    79          6
    80          4
    81         39
    82         21
    83         53
    84         27
    85         22
    86          3
    87          9
    88        208
    89        170
    90          7
    91          2
    93          4
    94          3
    95         31
    96         35
    97         48
    98         21
    99         12
   100          5
   101         29
   102          5
   103          4
   107          2
   108          2
   109         13
   110         20
   111         18
   112          4
   113          6
   114          6
   115         30
   116         11
   117        999
   118         62
   119          9
   121          2
   123          8
   124          7
   125          4
   126          3
   127          7
   128          8
   129          6
   130          3
   131          2
   132          1
   135          1
   137          5
   138          3
   139          3
   141          5
   142          6
   143          8
   144          1
   150          4
   151          4
   152         31
   153         10
   155          6
   156          2
   157          5
   158          1
   165          2
   166          3
   168          1
   169         35
   170          6
   171          7
   172          2
   176          3
   177          7
   178          1
   184          1
   194         23
   195         19
   196          2
   197          2
   211          1
   213         12
   214          2
   240         10
   241          3
   257          2