##TITLE=Library Entry 24859
##JCAMP-DX=Revision 4.10 
##DATA TYPE=MASS SPECTRUM
##SAMPLE DESCRIPTION=Exported from NIST MS Search
##NAMES=HP
##CAS NAME=Heptane, 2,2-dimethyl-
##MOLFORM=C9H20
##CAS REGISTRY NO=1071-26-7
##MP= -300
##BP= -300
##MW= 128
##$RETENTION INDEX=816
##$CONDENSED SPECTRUM=NO
##NPOINTS= 63
##XYDATA=(XY..XY) 1 
    12          2
    13          1
    14          3
    15         36
    16          2
    25          1
    26         13
    27        169
    28         28
    29        224
    30          5
    31          1
    37          2
    38          6
    39        113
    40         19
    41        300
    42         31
    43        179
    44          6
    45          1
    46          1
    47          1
    48          1
    49          1
    50          3
    51          7
    52          3
    53         20
    54          5
    55         59
    56        456
    57        999
    58         44
    59          1
    62          1
    63          1
    64          1
    65          2
    66          1
    67          5
    68          1
    69         13
    70         10
    71        148
    72          8
    73          1
    77          1
    78          1
    79          1
    80          1
    81          1
    82          1
    83          1
    84          1
    85          2
    91          1
    97          1
   112          2
   113         50
   114          5
   115          1
   128          1