##TITLE=Library Entry 46207
##JCAMP-DX=Revision 4.10 
##DATA TYPE=MASS SPECTRUM
##SAMPLE DESCRIPTION=Exported from NIST MS Search
##NAMES=HP
##CAS NAME=2-Butynedinitrile
##MOLFORM=C4N2
##CAS REGISTRY NO=1071-98-3
##MP= -300
##BP= -300
##MW= 76
##$RETENTION INDEX=0
##$CONDENSED SPECTRUM=NO
##NPOINTS= 26
##XYDATA=(XY..XY) 1 
    12        172
    14         30
    15          1
    24         65
    25          3
    26         57
    27          2
    36         61
    37          3
    38        279
    39          9
    40          6
    41         10
    42          1
    43          1
    45          1
    48         21
    49          1
    50        165
    51         13
    52          5
    62        100
    63          7
    76        999
    77         53
    78          7