##TITLE=Library Entry 90336
##JCAMP-DX=Revision 4.10 
##DATA TYPE=MASS SPECTRUM
##SAMPLE DESCRIPTION=RADIAN CORP
##NAMES=HP
##CAS NAME=Propanenitrile, 3-(dichloromethylsilyl)-
##MOLFORM=C4H7Cl2NSi
##CAS REGISTRY NO=1071-21-2
##MP= -300
##BP= -300
##MW= 167
##$RETENTION INDEX=0
##$CONDENSED SPECTRUM=NO
##NPOINTS= 72
##XYDATA=(XY..XY) 1 
    14          2
    15         10
    26         20
    27         45
    28         22
    29          5
    35          3
    37          2
    38          5
    39         10
    40         17
    41         12
    42         14
    43         17
    51         10
    52         21
    53         17
    54         40
    55          4
    63        216
    64         17
    65         82
    66          6
    67          4
    69          2
    76          4
    77         19
    78         20
    79         14
    80          6
    90          4
    98         50
    99         28
   100         36
   101         18
   102          7
   103          7
   104         39
   105          3
   106         13
   109          5
   111          7
   112         37
   113        999
   114         91
   115        688
   116         60
   117        131
   118         11
   119          4
   124        117
   125         13
   126         82
   127         10
   128         17
   131          2
   132         33
   133          3
   134         11
   139          2
   140          9
   141          1
   142          5
   152         48
   153          4
   154         33
   156          5
   167        244
   168         27
   169        170
   170         17
   171         32