##TITLE=Library Entry 50680
##JCAMP-DX=Revision 4.10 
##DATA TYPE=MASS SPECTRUM
##SAMPLE DESCRIPTION=M. Ando, Dep. Chem., Tohoku Univ., Sendai, Japan
##NAMES=HP
##CAS NAME=2H-Cyclohepta[b]furan-2,8-dione, octahydro-3-methyl-, (3.beta.,3a
.alpha.,8a.alpha.)-
##MOLFORM=C10H14O3
##CAS REGISTRY NO=107115-60-6
##MP= -300
##BP= -300
##MW= 182
##$RETENTION INDEX=0
##$CONDENSED SPECTRUM=NO
##NPOINTS= 15
##XYDATA=(XY..XY) 1 
    55        800
    56        270
    67        330
    68        400
    69        310
    70        230
    81        999
    82        480
    97        580
   111        590
   112        970
   125        360
   154        820
   182        210
   183         23