##TITLE=Library Entry 24865
##JCAMP-DX=Revision 4.10 
##DATA TYPE=MASS SPECTRUM
##SAMPLE DESCRIPTION=NIST Mass Spectrometry Data Center, 1990.
##NAMES=HP
##CAS NAME=2,2,7,7-Tetramethyloctane
##MOLFORM=C12H26
##CAS REGISTRY NO=1071-31-4
##MP= -300
##BP= -300
##MW= 170
##$RETENTION INDEX=1036
##$CONDENSED SPECTRUM=NO
##NPOINTS= 29
##XYDATA=(XY..XY) 1 
    27         44
    28         32
    29        124
    39         67
    41        344
    42         27
    43        128
    44          7
    51          3
    53         21
    55        127
    56        493
    57        999
    58         41
    65          3
    67         12
    69         64
    70         20
    71        137
    72          9
    83         12
    85        140
    86         10
    97          4
    99         68
   100          5
   112         20
   113          8
   155         19