##TITLE=Library Entry 28566
##JCAMP-DX=Revision 4.10 
##DATA TYPE=MASS SPECTRUM
##SAMPLE DESCRIPTION=Div. of Experiment Therapeutics WRAIR, WRAMC, Washingto
n DC 20307
##NAMES=HP
##CAS NAME=4-[[7-Chloro-4-quinolinyl]amino]-2-[[diethylamino]methyl]-6-[phen
ylmethyl]phenol, Nquin-oxide
##MOLFORM=C27H28ClN3O2
##CAS REGISTRY NO=107244-87-1
##MP= -300
##BP= -300
##MW= 461
##$RETENTION INDEX=0
##$CONDENSED SPECTRUM=NO
##NPOINTS= 229
##XYDATA=(XY..XY) 1 
    41         74
    42        144
    43         70
    44        252
    45         11
    46          2
    47         27
    48          7
    52          9
    53          6
    54         14
    55         23
    56         82
    57         62
    58        999
    59         48
    60          2
    63          5
    65         11
    66          5
    67          8
    68         13
    69         18
    70         15
    71         29
    72        242
    73        382
    74         91
    75          9
    76          3
    77         22
    78         26
    79          6
    80          2
    81          4
    82          7
    83         12
    84         24
    85         14
    86         31
    87          2
    88          4
    89          5
    91         50
    92          4
    94          6
    95          3
    96          3
    97          9
    98          3
    99         10
   100          3
   101          3
   102          6
   103          4
   105         16
   106          9
   107          6
   109          3
   110          2
   111          6
   113          4
   114          3
   115         24
   116          6
   117          2
   121          4
   123          3
   124          3
   125          4
   126          7
   127         12
   128          9
   129          4
   133          6
   134          3
   135         14
   136          3
   137          5
   138          2
   139          7
   140          5
   141          9
   142          2
   143          2
   146          2
   147          3
   148          2
   149          4
   150          4
   151          6
   152         17
   153         15
   154          6
   155          5
   158          2
   159          8
   161          3
   162         12
   163          8
   164         10
   165         29
   166         14
   167         11
   168          9
   170          4
   171          3
   173          3
   176          5
   177          6
   178          9
   179          6
   180          5
   181          8
   182          3
   185          4
   186         14
   187          7
   188          3
   189          5
   190          4
   191          5
   192          4
   193          4
   194          4
   195         12
   196          3
   201          2
   202          3
   203          4
   204          4
   205          5
   210          2
   215          7
   216          4
   217          6
   218         10
   219          3
   223         15
   226          2
   227          3
   228          2
   229          4
   230          4
   231          8
   232          7
   239          4
   240          3
   241          4
   242          2
   252         10
   253         10
   254          6
   255          4
   260          2
   265          7
   266          5
   267          7
   268          4
   269          3
   279          3
   280          5
   281         15
   282          5
   283          8
   284          2
   292          4
   293          7
   294          6
   295          5
   296          2
   297          3
   305          4
   306          5
   307          6
   308          6
   309          4
   316          2
   327          4
   328          6
   329          5
   330          2
   335          3
   336          4
   337          4
   338          2
   339          2
   340          2
   341          6
   342          4
   343         11
   344          4
   345          4
   355          3
   356          2
   357          5
   358          2
   359          3
   369          4
   371        247
   372        334
   373        165
   374        121
   375         32
   376          6
   385          3
   386          8
   387         16
   388         65
   389         20
   390         22
   391          6
   404          3
   414          4
   415          2
   416          5
   428          2
   430          2
   443         25
   444         24
   445        162
   446         54
   447         58
   448         15
   449          2
   459          3
   461          7
   462          2
   463          2