##TITLE=Library Entry 68836
##JCAMP-DX=Revision 4.10 
##DATA TYPE=MASS SPECTRUM
##SAMPLE DESCRIPTION=Japan AIST/NIMC Database- Spectrum MS-NW-6108
##NAMES=HP
##CAS NAME=Benzene, 1-bromo-2-fluoro-
##MOLFORM=C6H4BrF
##CAS REGISTRY NO=1072-85-1
##MP= -300
##BP= -300
##MW= 174
##$RETENTION INDEX=960
##$CONDENSED SPECTRUM=NO
##NPOINTS= 103
##XYDATA=(XY..XY) 1 
    12          1
    20          2
    24          1
    25          3
    26          6
    27          7
    28          8
    31         25
    32          1
    33          2
    36          6
    37         35
    38         30
    39         23
    40          1
    44          3
    45          7
    46          1
    47         20
    48          3
    49         25
    50        118
    51         50
    52          3
    55          3
    56         15
    57         12
    59          1
    60          5
    61         23
    62         27
    63         23
    64          5
    65          5
    67          1
    68         81
    69         79
    70          6
    71          1
    72          2
    73         18
    74         81
    75        360
    76         31
    77          6
    78          5
    79         12
    80          7
    81         11
    82          6
    83          1
    85          1
    86          2
    87         48
    88         47
    91          2
    92         18
    93         29
    94         96
    95        999
    96         66
    97          2
   104          1
   106          1
   107          1
   109          2
   110          1
   111          3
   113          1
   116          1
   117          2
   118          1
   119          2
   122          1
   124          1
   127          1
   128          3
   129          1
   130          3
   131          1
   135          2
   137          3
   141          3
   142          3
   143          4
   145          1
   148          2
   149          1
   150          2
   155          2
   156          2
   157          1
   158          2
   159          1
   161          1
   170          1
   172          9
   173          6
   174        966
   175         71
   176        944
   177         62
   178          2