##TITLE=Library Entry 56132
##JCAMP-DX=Revision 4.10 
##DATA TYPE=MASS SPECTRUM
##SAMPLE DESCRIPTION=L.E.GUSEL'NIKOV, TOPCHIEV INST. PETROCHEM. SYNTH., MOSC
OW,USSR
##NAMES=HP
##CAS NAME=1,1-Dimethyl-1-silacyclopentane
##MOLFORM=C6H14Si
##CAS REGISTRY NO=1072-54-4
##MP= -300
##BP= -300
##MW= 114
##$RETENTION INDEX=0
##$CONDENSED SPECTRUM=NO
##NPOINTS= 37
##XYDATA=(XY..XY) 1 
    27         30
    29         60
    31         40
    32        180
    39         20
    40         10
    41         20
    42         40
    43        210
    44         40
    45         80
    53         30
    55         50
    56         10
    57         30
    58        480
    59        250
    60         30
    67         10
    69         10
    70         20
    71        250
    72         60
    73         30
    83         10
    85         30
    86        999
    87         90
    88         30
    95         10
    97        100
    98         10
    99        430
   100         50
   101         20
   114        180
   115         20