##TITLE=Library Entry 96397
##JCAMP-DX=Revision 4.10 
##DATA TYPE=MASS SPECTRUM
##SAMPLE DESCRIPTION=NIST Mass Spectrometry Data Center, 2011
##NAMES=HP
##CAS NAME=4H-Thiopyran-4-one, tetrahydro-
##MOLFORM=C5H8OS
##CAS REGISTRY NO=1072-72-6
##MP= -300
##BP= -300
##MW= 116
##$RETENTION INDEX=1017
##$CONDENSED SPECTRUM=NO
##NPOINTS= 70
##XYDATA=(XY..XY) 1 
    14          2
    15          3
    25          4
    26         48
    27        149
    28        353
    29         18
    31          1
    32          6
    33          6
    34          8
    35          7
    36          1
    37          6
    38         10
    39         31
    40          4
    41         19
    42         88
    43         99
    44          9
    45        276
    46        429
    47         50
    48         22
    49          5
    50         12
    51         10
    52          4
    53         22
    54          7
    55        121
    56         16
    57         52
    58        160
    59        270
    60        610
    61         50
    62         30
    63          4
    65          2
    67          1
    68          1
    69          7
    70          3
    71          5
    72          1
    73         18
    74          8
    75          1
    81          1
    82          3
    83          5
    84          1
    85          5
    86          4
    87          9
    88        511
    89         24
    90         24
    91          1
    93          1
    97          2
    98          1
    99          1
   101          1
   116        999
   117         67
   118         50
   119          3