##TITLE=Library Entry 70979
##JCAMP-DX=Revision 4.10 
##DATA TYPE=MASS SPECTRUM
##SAMPLE DESCRIPTION=Japan AIST/NIMC Database- Spectrum MS-IW- 959
##NAMES=HP
##CAS NAME=3-Isoxazolamine, 5-methyl-
##MOLFORM=C4H6N2O
##CAS REGISTRY NO=1072-67-9
##MP= -300
##BP= -300
##MW= 98
##$RETENTION INDEX=0
##$CONDENSED SPECTRUM=NO
##NPOINTS= 51
##XYDATA=(XY..XY) 1 
    13          1
    14          4
    15         18
    16          2
    18          1
    25          2
    26         10
    27         20
    28        257
    29         39
    30          8
    32          3
    33          2
    34          1
    36          1
    37          9
    38         17
    39         55
    40         18
    41         50
    42         38
    43        335
    44         19
    45          2
    49          2
    50          2
    51          6
    52         10
    53         12
    54         48
    55        539
    56         90
    57          4
    58          5
    63          1
    64          2
    65          5
    66         20
    67         37
    68          7
    69          7
    70          1
    71          4
    81          1
    82          2
    83         24
    84          1
    97         40
    98        999
    99         74
   100          6