##TITLE=Library Entry 52575
##JCAMP-DX=Revision 4.10 
##DATA TYPE=MASS SPECTRUM
##SAMPLE DESCRIPTION=Chemical Concepts
##NAMES=HP
##CAS NAME=1,3-Dioxan-4-one, 2-(1,1-dimethylethyl)-5,6-dimethyl-, [2R-(2.alp
ha.,5.alpha.,6.alpha.)]-
##MOLFORM=C10H18O3
##CAS REGISTRY NO=107289-14-5
##MP= -300
##BP= -300
##MW= 186
##$RETENTION INDEX=0
##$CONDENSED SPECTRUM=NO
##NPOINTS= 87
##XYDATA=(XY..XY) 1 
    26         16
    27        164
    28         61
    29        276
    30          8
    31         28
    38          7
    39        133
    40         24
    41        443
    42         37
    43        200
    44         18
    45        203
    46          5
    50          6
    51          9
    52          3
    53         29
    54         13
    55        370
    56        872
    57        551
    58         26
    59          8
    65          4
    67          8
    68          5
    69        111
    70         20
    71        104
    72         13
    73        124
    74          7
    75          2
    76          3
    77          5
    78          3
    79          5
    81          6
    82          6
    83        999
    84        108
    85        156
    86         24
    87        333
    88         21
    89          2
    91          5
    93          4
    95          5
    96          3
    97          8
    98          2
    99          6
   100          5
   101         22
   102          2
   103          6
   104          2
   105          4
   109          3
   110          4
   111          6
   112          4
   115          7
   121          3
   123          2
   127          3
   128          4
   129        374
   130         28
   131         11
   132          1
   140          3
   141         15
   142         15
   143          4
   153          1
   154          3
   155          6
   156          1
   169          4
   170          0
   185          4
   186          5
   187          0