##TITLE=Library Entry 38441
##JCAMP-DX=Revision 4.10 
##DATA TYPE=MASS SPECTRUM
##SAMPLE DESCRIPTION=James Little, Eastman Chemical Co.
##NAMES=HP
##CAS NAME=2-Hexyldecyl butyrate
##MOLFORM=C20H40O2
##CAS REGISTRY NO=1072782-00-3
##MP= -300
##BP= -300
##MW= 312
##$RETENTION INDEX=0
##$CONDENSED SPECTRUM=NO
##NPOINTS= 149
##XYDATA=(XY..XY) 1 
    26          3
    27         69
    28         13
    29        123
    30          4
    31          4
    37          1
    38          2
    39         48
    40         12
    41        404
    42         97
    43        861
    44         31
    45          6
    51          1
    52          1
    53         24
    54         53
    55        435
    56        459
    57        619
    58         29
    59          2
    60         13
    61          1
    65          6
    66          7
    67         86
    68         88
    69        423
    70        317
    71        999
    72         47
    73         11
    74         18
    75          1
    77          4
    78          1
    79         14
    80          5
    81         63
    82        100
    83        393
    84        192
    85        181
    86         31
    87         57
    88         34
    89        207
    90          9
    91          3
    93          3
    94          2
    95         31
    96         71
    97        313
    98        191
    99         73
   100          8
   101         14
   102         42
   103         10
   104          1
   107          1
   108          1
   109         12
   110         90
   111        383
   112        128
   113         37
   114          6
   115          1
   122          1
   123          5
   124         27
   125         87
   126        158
   127         67
   128         11
   129          1
   137          4
   138         43
   139        141
   140         58
   141         17
   142          7
   143          1
   149          1
   150          1
   151          1
   152         12
   153         21
   154         79
   155         41
   156          6
   157          1
   163          1
   165          1
   166          4
   167         10
   168         10
   169          5
   170          5
   171          1
   177          1
   179          1
   180          2
   181          8
   182          8
   183          6
   184          2
   185          2
   194          1
   195          5
   196         30
   197          5
   198          2
   199          4
   200          1
   209          4
   210          6
   211          3
   213          2
   214          1
   222          2
   223         24
   224         70
   225         17
   226          2
   227          3
   228          8
   229          1
   233          1
   237          1
   238          2
   239          1
   240          1
   241          3
   242          1
   251          9
   252          2
   256          4
   257          1
   269         17
   270          3
   281          1
   294          3
   295          1