##TITLE=Library Entry 37412
##JCAMP-DX=Revision 4.10 
##DATA TYPE=MASS SPECTRUM
##SAMPLE DESCRIPTION=Chemical Concepts
##NAMES=HP
##CAS NAME=Hexanedial
##MOLFORM=C6H10O2
##CAS REGISTRY NO=1072-21-5
##MP= -300
##BP= -300
##MW= 114
##$RETENTION INDEX=0
##$CONDENSED SPECTRUM=NO
##NPOINTS= 77
##XYDATA=(XY..XY) 1 
    25          1
    26         83
    27        525
    28        144
    29        550
    30         41
    31        110
    32          7
    33          1
    36          1
    37         31
    38         65
    39        467
    40        112
    41        709
    42        168
    43        399
    44        444
    45         84
    46          3
    47          4
    49          6
    50         36
    51         40
    52         15
    53         87
    54         48
    55        133
    56         21
    57        756
    58        188
    59          8
    60          9
    61         15
    62         11
    63         21
    64          4
    65         74
    66         64
    67        586
    68        181
    69         98
    70        999
    71        178
    72         15
    73         16
    74          2
    77         10
    78         13
    79         43
    80          7
    81         41
    82         11
    83         29
    84         10
    85         13
    86         26
    87          2
    91          3
    92          3
    93          9
    94          7
    95        129
    96        282
    97         49
    98         68
    99          6
   105          1
   106          1
   107          1
   108          1
   109          4
   110          3
   111          5
   112          7
   113          3
   114          3