##TITLE=Library Entry 7664
##JCAMP-DX=Revision 4.10 
##DATA TYPE=MASS SPECTRUM
##SAMPLE DESCRIPTION=Exported from NIST MS Search
##NAMES=HP
##CAS NAME=Heptane, 2,6-dimethyl-
##MOLFORM=C9H20
##CAS REGISTRY NO=1072-05-5
##MP= -300
##BP= -300
##MW= 128
##$RETENTION INDEX=827
##$CONDENSED SPECTRUM=NO
##NPOINTS= 63
##XYDATA=(XY..XY) 1 
    24          1
    25          1
    26          9
    27        240
    28         32
    29        195
    30          4
    37          3
    38          6
    39        136
    40         25
    41        343
    42        265
    43        999
    44         34
    45          3
    48          2
    49          1
    50          2
    51          6
    52          3
    53         19
    54          6
    55         66
    56        137
    57        464
    58         20
    59          1
    63          1
    64          1
    65          2
    66          1
    67          4
    68          2
    69         30
    70         15
    71        243
    72         13
    73          1
    77          1
    78          1
    79          1
    80          1
    81          1
    82          1
    83          1
    84         37
    85        132
    86         11
    87          1
    91          1
    97          1
    98          1
    99          2
   111          1
   112          9
   113         80
   114          7
   115          1
   126          1
   127          1
   128         28
   129          2