##TITLE=Library Entry 25112
##JCAMP-DX=Revision 4.10 
##DATA TYPE=MASS SPECTRUM
##SAMPLE DESCRIPTION=Chemical Concepts
##NAMES=HP
##CAS NAME=1,3-Dioxan-4-one, 2-(1,1-dimethylethyl)-5-methyl-, (2s-cis)-
##MOLFORM=C9H16O3
##CAS REGISTRY NO=107289-32-7
##MP= -300
##BP= -300
##MW= 172
##$RETENTION INDEX=1251
##$CONDENSED SPECTRUM=NO
##NPOINTS= 48
##XYDATA=(XY..XY) 1 
    26         15
    27        129
    28         23
    29        223
    30          7
    31        162
    38          7
    39        119
    40         26
    41        485
    42        140
    43        164
    44         10
    45         36
    47          9
    50          1
    51          2
    52          1
    53          8
    54          1
    55         31
    56         82
    57        999
    58         50
    59        158
    60          4
    67          2
    68          2
    69        834
    70         47
    71        120
    72          7
    73          3
    74          3
    85         59
    86         33
    87        436
    88         28
    89          3
   103          7
   114          3
   115        383
   116         22
   117          5
   128          2
   131          1
   171          0
   173          0