##TITLE=Library Entry 67347
##JCAMP-DX=Revision 4.10 
##DATA TYPE=MASS SPECTRUM
##SAMPLE DESCRIPTION=GEORGE R. WALLER AND BOBBY R. JOHNSON, OKLAHOMA STATE U
NIV, USA
##NAMES=HP
##CAS NAME=Ethanone, 1-(1H-pyrrol-2-yl)-
##MOLFORM=C6H7NO
##CAS REGISTRY NO=1072-83-9
##MP= -300
##BP= -300
##MW= 109
##$RETENTION INDEX=1064
##$CONDENSED SPECTRUM=NO
##NPOINTS= 40
##XYDATA=(XY..XY) 1 
    27         30
    29         10
    31         10
    37         30
    38         80
    39        310
    40         80
    41         40
    42         10
    43        110
    46         10
    47         10
    49         10
    50         20
    51         30
    52         30
    53         20
    54         10
    57         20
    61         10
    62         10
    63         10
    64         20
    65         30
    66        530
    67         60
    68         10
    76         10
    80         30
    91         10
    92         10
    93         30
    94        999
    95         60
    96         10
   104         10
   107         10
   108         10
   109        750
   110         60