##TITLE=Library Entry 7625
##JCAMP-DX=Revision 4.10 
##DATA TYPE=MASS SPECTRUM
##SAMPLE DESCRIPTION=MPI,H2303-G1693,20-JUL-68 (ID=4, PURITY=4)
##NAMES=HP
##CAS NAME=Octane, 2,7-dimethyl-
##MOLFORM=C10H22
##CAS REGISTRY NO=1072-16-8
##MP= -300
##BP= -300
##MW= 142
##$RETENTION INDEX=928
##$CONDENSED SPECTRUM=NO
##NPOINTS= 63
##XYDATA=(XY..XY) 1 
    24          0
    25          1
    26          5
    27        116
    28         11
    29        147
    30          3
    36          1
    37          1
    38          2
    39         79
    40         15
    41        344
    42        200
    43        999
    44         30
    45          0
    46          0
    47          0
    48          0
    49          0
    50          0
    51          2
    52          1
    53         16
    54          6
    55         82
    56        166
    57        924
    58         41
    59          0
    63          0
    65          1
    66          1
    67          4
    68          3
    69         42
    70         29
    71        297
    72         16
    73          0
    75          0
    77          0
    78          0
    79          0
    80          0
    81          0
    82          0
    83          7
    84          5
    85        171
    86         11
    87          0
    98          7
    99        160
   100         12
   101          0
   111          1
   113          0
   126          1
   127         10
   128          0
   142          0