##TITLE=Library Entry 29534
##JCAMP-DX=Revision 4.10 
##DATA TYPE=MASS SPECTRUM
##SAMPLE DESCRIPTION=Japan AIST/NIMC Database- Spectrum MS-NW-7433
##NAMES=HP
##CAS NAME=Glyoxal dithiosemicarbazone
##MOLFORM=C4H8N6S2
##CAS REGISTRY NO=1072-12-4
##MP= -300
##BP= -300
##MW= 204
##$RETENTION INDEX=0
##$CONDENSED SPECTRUM=NO
##NPOINTS= 183
##XYDATA=(XY..XY) 1 
    12         20
    13         25
    14         21
    15         33
    16        619
    17        865
    18        142
    24          5
    25         12
    26         86
    27        283
    28        500
    29         77
    30         59
    31         58
    32        583
    33        179
    34        318
    35         11
    36         19
    37          4
    38         42
    39         42
    40         98
    41        144
    42        368
    43        560
    44        212
    45        166
    46         66
    47         67
    48         37
    49          4
    50          6
    51         11
    52         28
    53         37
    54         19
    55         33
    56         60
    57        113
    58        246
    59        999
    60        655
    61         67
    62         33
    63          3
    64         69
    65          5
    66          9
    67         23
    68         31
    69         64
    70         43
    71         27
    72         32
    73         42
    74        283
    75         38
    76        595
    77         33
    78         59
    79          6
    80          7
    81          8
    82         11
    83         14
    84         47
    85        132
    86         27
    87         13
    88          5
    89          2
    90          5
    91        129
    92          6
    93          9
    94          5
    95          6
    96         11
    97          6
    98          9
    99         14
   100         42
   101        203
   102        147
   103         89
   104         10
   105          7
   106          2
   107          2
   108          3
   109          5
   110          4
   111         13
   112         43
   113        105
   114         19
   115        101
   116         74
   117         20
   118          9
   119          3
   120          3
   121          3
   122          2
   123          2
   124          3
   125          4
   126         25
   127         23
   128        106
   129        122
   130         23
   131         16
   132         20
   133        185
   134         12
   135         19
   136          5
   137          2
   138          2
   139          2
   140          6
   141         10
   142         11
   143         12
   144          6
   145        157
   146         10
   147         16
   148          2
   149          2
   150          3
   151          3
   152         16
   153         11
   154          4
   155          4
   156          1
   157          6
   158          9
   159          3
   160         15
   161          2
   162          2
   163          1
   164          2
   165          2
   166          2
   167          7
   168         13
   169          4
   170         11
   171          2
   172          4
   173          3
   174          1
   175          3
   176          1
   177          2
   178          1
   179          1
   180          1
   181          1
   182          2
   183          3
   184          4
   185         29
   186          3
   187        114
   188          9
   189         10
   190          1
   198          1
   199          3
   200          6
   201          1
   202          3
   204         22
   205          3
   206          2
   207          1