##TITLE=Library Entry 91121
##JCAMP-DX=Revision 4.10 
##DATA TYPE=MASS SPECTRUM
##SAMPLE DESCRIPTION=LAC, NIDDK, NIH, Bethesda, MD 20892
##NAMES=HP
##CAS NAME=7,11-Dihydroxysolasodine
##MOLFORM=C27H43NO4
##CAS REGISTRY NO=107204-61-5
##MP= -300
##BP= -300
##MW= 445
##$RETENTION INDEX=0
##$CONDENSED SPECTRUM=NO
##NPOINTS= 177
##XYDATA=(XY..XY) 1 
    41        264
    42        114
    43        385
    44         74
    45         18
    47        127
    48         18
    49        353
    51        135
    53         75
    54         33
    55        433
    57        281
    58         19
    59          8
    65         33
    67        154
    68         69
    69        102
    70         59
    71         33
    72         14
    73         14
    77         76
    79        124
    80          9
    81        131
    82         35
    83         33
    84        229
    86        114
    88         18
    91        153
    93        174
    95        164
    96         77
    97         13
    98        211
    99         12
   103         17
   104          3
   105        133
   106         11
   107        153
   108         58
   109         49
   110         63
   111         53
   113        272
   114        999
   115         77
   117         65
   119         66
   121         84
   122         35
   123         35
   124        110
   125        135
   126         21
   127         11
   128         23
   129         26
   130          5
   131         63
   133         70
   134         26
   135         41
   136         34
   138        738
   139         79
   140         19
   141         17
   142         15
   143         41
   144          4
   145         76
   146         15
   147         49
   148         22
   149         24
   150         26
   151          7
   152         33
   153         10
   154         22
   155         24
   156          8
   157         40
   158          4
   159         33
   160         11
   161         34
   162         28
   163         15
   164         49
   165         12
   166         44
   167          9
   168         19
   169         16
   170          3
   171         28
   172          3
   173         25
   174         11
   175         15
   176         17
   177          8
   178         25
   179         12
   180         13
   181         12
   182          8
   183         17
   184         11
   185         11
   186         11
   187         15
   188          8
   189          7
   190          7
   192         12
   193         11
   194          2
   195         19
   197         19
   198          2
   199         13
   201          2
   204          2
   206          5
   207          6
   208         23
   209         14
   211         14
   213         16
   215          2
   218          2
   221          3
   223          9
   224          2
   225          3
   226          3
   227          8
   228          4
   234          2
   236          2
   237          9
   239          5
   241          5
   246         14
   249         10
   252          4
   253          5
   263         16
   264          4
   267         17
   270         12
   278         11
   279         16
   281         13
   285         11
   296         30
   297         38
   298          9
   299          8
   314         48
   315         17
   389          5
   416         16
   417         24
   418          5
   428          9
   430          9
   444          8
   445         43
   446         13