##TITLE=Library Entry 66927
##JCAMP-DX=Revision 4.10 
##DATA TYPE=MASS SPECTRUM
##SAMPLE DESCRIPTION=NIST Mass Spectrometry Data Center, 1990.
##NAMES=HP
##CAS NAME=N-Vinylimidazole
##MOLFORM=C5H6N2
##CAS REGISTRY NO=1072-63-5
##MP= -300
##BP= -300
##MW= 94
##$RETENTION INDEX=0
##$CONDENSED SPECTRUM=NO
##NPOINTS= 35
##XYDATA=(XY..XY) 1 
    12          5
    13          6
    14         10
    15         13
    24          2
    25         16
    26        119
    27        201
    28        170
    29          3
    36          3
    37         30
    38         74
    39        212
    40        411
    41        563
    42         51
    43          4
    47          5
    50          5
    51         34
    52         73
    53         21
    54         25
    63          6
    64         12
    65         10
    66         49
    67        313
    68         58
    69          3
    79         18
    94        999
    95         64
    96          1