##TITLE=Library Entry 46044
##JCAMP-DX=Revision 4.10 
##DATA TYPE=MASS SPECTRUM
##SAMPLE DESCRIPTION=Japan AIST/NIMC Database- Spectrum MS-IW-2037
##NAMES=HP
##CAS NAME=1,3,2-Dithiastannolane,2,2-dimethyl-
##MOLFORM=C4H10S2Sn
##CAS REGISTRY NO=1072-55-5
##MP= -300
##BP= -300
##MW= 242
##$RETENTION INDEX=0
##$CONDENSED SPECTRUM=NO
##NPOINTS= 172
##XYDATA=(XY..XY) 1 
    14          2
    15         11
    25          1
    26         12
    27         33
    28          8
    29          7
    31          1
    32          9
    33          3
    34          7
    35          2
    39          2
    41         62
    42          2
    44         16
    45         62
    46         20
    47         59
    48          3
    49          6
    57          7
    58         38
    59         83
    60         30
    61         12
    62          1
    64          8
    73          3
    74          1
    75        999
    76         45
    77         50
    78          2
    92          5
    94          3
   105          1
   112          3
   113          1
   114          2
   115          2
   116         54
   117         49
   118        101
   119         67
   120        134
   121         48
   122         16
   123          6
   124         21
   125          9
   127          5
   128          1
   129          7
   130         13
   131         85
   132         59
   133        136
   134         66
   135        167
   136          5
   137         24
   138          4
   139         29
   141          1
   142          2
   143          3
   144          4
   145          7
   146         17
   147         13
   148         59
   149         80
   150        118
   151        113
   152        127
   153        121
   154         22
   155         22
   156         16
   157         21
   158          1
   159          5
   160          1
   161          9
   162         15
   163         71
   164         53
   165        115
   166         58
   167        130
   168         11
   169         25
   170          5
   171         22
   172          1
   173          3
   174          2
   175         14
   176         11
   177         28
   178         19
   179         48
   180         69
   181         64
   182        112
   183         69
   184        135
   185         26
   186         30
   187          7
   188         22
   189          4
   190          2
   191          1
   192          2
   193          4
   194          6
   195          9
   196          9
   197         13
   198          8
   199          9
   200          2
   201          4
   202          1
   203          2
   204          1
   205          1
   206          3
   207          8
   208         16
   209         18
   210         26
   211         22
   212         27
   213          7
   214          8
   215          4
   216          5
   217          1
   218          1
   219         18
   220          1
   221         16
   222          9
   223        290
   224        168
   225        516
   226        206
   227        692
   228         49
   229        153
   230          8
   231        123
   232          6
   233         10
   234          9
   235          1
   236          7
   237          4
   238        139
   239         83
   240        249
   241        104
   242        339
   243         27
   244         73
   245          4
   246         60
   247          4
   248          5