##TITLE=Library Entry 29158
##JCAMP-DX=Revision 4.10 
##DATA TYPE=MASS SPECTRUM
##SAMPLE DESCRIPTION=Div. of Experiment Therapeutics WRAIR, WRAMC, Washingto
n DC 20307
##NAMES=HP
##CAS NAME=N-[3-[[Diethylamino]methyl]-4-hydroxy-5-[1-methylethyl]phenyl]ace
tamide
##MOLFORM=C16H26N2O2
##CAS REGISTRY NO=107244-64-4
##MP= -300
##BP= -300
##MW= 278
##$RETENTION INDEX=0
##$CONDENSED SPECTRUM=NO
##NPOINTS= 171
##XYDATA=(XY..XY) 1 
    41         96
    42        137
    43        777
    44        189
    45          7
    46         10
    47         19
    48          9
    52         25
    53         57
    54         37
    55         31
    56         57
    57         10
    58        999
    59         39
    60          4
    61          1
    62          2
    63         12
    64          7
    65         54
    66         50
    67         47
    68         15
    69         12
    70         17
    71          0
    72        644
    73         81
    74        657
    75         33
    76          5
    77        103
    78         39
    79         48
    80         35
    81         18
    82         12
    83          5
    84          7
    85          5
    86         74
    87          6
    88          8
    89         10
    90          2
    91        139
    92         29
    93         48
    94         41
    95         20
    96          6
    97          2
    98          1
    99          1
   100          0
   101          1
   102          8
   103         31
   104         25
   105         28
   106         63
   107         33
   108         21
   109         14
   110         23
   112          1
   115         18
   116         11
   117         33
   118         53
   119         46
   120        169
   121         82
   122         29
   123         19
   124         17
   125          2
   127          2
   128          4
   129          3
   130         19
   131         19
   132         20
   133         22
   134         56
   135         63
   136         93
   137         12
   138          1
   139          2
   141          0
   142          1
   143          2
   144          9
   145         10
   146         58
   147         48
   148        103
   149         34
   150         13
   151         33
   152          7
   153          0
   157          0
   158          1
   159          1
   160         11
   161         17
   162         72
   163        801
   164        214
   165         38
   166          4
   172          1
   173          2
   174          4
   175          3
   176          5
   177         10
   178          6
   179          4
   180          0
   186          0
   187          2
   188          5
   189          4
   190         32
   191          8
   192          2
   193         26
   194          4
   195          0
   202          1
   203          5
   204         29
   205        377
   206        259
   207         78
   208         10
   209          0
   217          1
   218          1
   219          5
   220          8
   221          1
   231          0
   233          8
   234          2
   235         48
   236          8
   237          0
   247          4
   248          2
   249         25
   250          4
   251          0
   259          0
   261          4
   262          1
   263        128
   264         23
   265          2
   275          5
   276          5
   277          3
   278        762
   279        113
   280         16
   281          3