##TITLE=Library Entry 29995
##JCAMP-DX=Revision 4.10 
##DATA TYPE=MASS SPECTRUM
##SAMPLE DESCRIPTION=RADIAN CORP
##NAMES=HP
##CAS NAME=Silane, hexyl-
##MOLFORM=C6H16Si
##CAS REGISTRY NO=1072-14-6
##MP= -300
##BP= -300
##MW= 116
##$RETENTION INDEX=0
##$CONDENSED SPECTRUM=NO
##NPOINTS= 61
##XYDATA=(XY..XY) 1 
    15          2
    26          6
    27         61
    28         20
    29         84
    30         13
    31         77
    32          1
    33          3
    38          3
    39         57
    40          9
    41        102
    42         21
    43        125
    44         24
    45         79
    46          6
    47          3
    50          1
    51          4
    52          1
    53         21
    54          9
    55         64
    56         58
    57         70
    58        126
    59        999
    60         87
    61         38
    63          1
    65          6
    66          4
    67         10
    68          2
    69         16
    70          6
    71         16
    72         17
    73         51
    74          5
    75          2
    79          2
    81          2
    83         15
    84         20
    85         38
    86        107
    87         50
    88         63
    89          7
    90          2
    93          7
    95          3
    97          5
    99         19
   100          2
   114         35
   115         18
   116         10