##TITLE=Library Entry 54761
##JCAMP-DX=Revision 4.10 
##DATA TYPE=MASS SPECTRUM
##SAMPLE DESCRIPTION=Chemical Concepts
##NAMES=HP
##CAS NAME=4H-1,3-Dioxin-4-one, 2-(1,1-dimethylethyl)-6-methyl-, (R)-
##MOLFORM=C9H14O3
##CAS REGISTRY NO=107289-20-3
##MP= -300
##BP= -300
##MW= 170
##$RETENTION INDEX=0
##$CONDENSED SPECTRUM=NO
##NPOINTS= 57
##XYDATA=(XY..XY) 1 
    26          6
    27         51
    28          4
    29         70
    30          1
    31          9
    37          1
    38          2
    39         36
    40          4
    41         99
    42         11
    43        238
    44          5
    45          4
    50          0
    51          1
    52          0
    53          2
    54          1
    55          8
    56          6
    57        178
    58          9
    59          0
    65          0
    67          2
    68          2
    69         45
    70          3
    71         43
    72          2
    83          0
    84         18
    85        999
    86         45
    87         13
    88          0
    95          0
    97          0
   103          0
   111          0
   112          1
   113        213
   114         12
   115          2
   127          0
   142         28
   143          2
   144          0
   154          0
   155          4
   156          0
   169          0
   170         35
   171          7
   172          0