##TITLE=Library Entry 67346
##JCAMP-DX=Revision 4.10 
##DATA TYPE=MASS SPECTRUM
##SAMPLE DESCRIPTION=Organic Synthesis Lab, MSU, Moscow.TRC 659
##NAMES=HP
##CAS NAME=3-Acetyl-1H-pyrroline
##MOLFORM=C6H7NO
##CAS REGISTRY NO=1072-82-8
##MP= -300
##BP= -300
##MW= 109
##$RETENTION INDEX=0
##$CONDENSED SPECTRUM=NO
##NPOINTS= 33
##XYDATA=(XY..XY) 1 
    26          7
    27         26
    29          7
    33          4
    37         30
    38         83
    39        264
    40         32
    41         16
    42          9
    43         59
    44         10
    47         30
    49          4
    50         19
    51         19
    52         13
    53         52
    55          2
    57          1
    62          3
    63          7
    64          4
    65         17
    66        334
    67         31
    78          2
    80         12
    93         22
    94        999
    95         56
   109        507
   110         36