##TITLE=Library Entry 28535
##JCAMP-DX=Revision 4.10 
##DATA TYPE=MASS SPECTRUM
##SAMPLE DESCRIPTION=Div. of Experiment Therapeutics WRAIR, WRAMC, Washingto
n DC 20307
##NAMES=HP
##CAS NAME=2-[[4-Chlorophenyl]thio]-4-[[7-chloro-4-quinolinyl]amino]-6-[[die
thylamino]methyl]phenol
##MOLFORM=C26H25Cl2N3OS
##CAS REGISTRY NO=107244-84-8
##MP= -300
##BP= -300
##MW= 497
##$RETENTION INDEX=0
##$CONDENSED SPECTRUM=NO
##NPOINTS= 85
##XYDATA=(XY..XY) 1 
    42        147
    43         39
    44        211
    45         10
    49          7
    50          4
    51          8
    52          5
    53          1
    54         11
    55          8
    56         52
    57         24
    58        999
    59         30
    63          4
    65          4
    68          8
    69          9
    70          7
    71          5
    72        145
    73        300
    74         34
    75          4
    77          8
    78          7
    82          2
    83          3
    84          8
    86         41
    87          3
    95          1
    97          1
    99          8
   100          3
   106          3
   108         15
   109         15
   111          4
   112          7
   114          1
   124          5
   135          5
   143          9
   144         27
   145          1
   146         14
   162          4
   164          4
   179          4
   190          1
   200          1
   215          1
   217          5
   218         10
   219          1
   246          1
   248          3
   249          3
   250          5
   252         12
   253          8
   254          5
   255          3
   281          5
   283          2
   285          3
   286          1
   288          1
   320         12
   322          4
   389          1
   423          1
   424         58
   425         20
   426         46
   427         14
   428         12
   497         23
   498          7
   499         17
   500          5
   501          3
   502          1