##TITLE=Library Entry 15918
##JCAMP-DX=Revision 4.10 
##DATA TYPE=MASS SPECTRUM
##SAMPLE DESCRIPTION=Japan AIST/NIMC Database- Spectrum MS-NW-9362
##NAMES=HP
##CAS NAME=1,3-Dioxolane, 4-methyl-
##MOLFORM=C4H8O2
##CAS REGISTRY NO=1072-47-5
##MP= -300
##BP= -300
##MW= 88
##$RETENTION INDEX=628
##$CONDENSED SPECTRUM=NO
##NPOINTS= 44
##XYDATA=(XY..XY) 1 
    13          1
    14         11
    15         72
    16         10
    17          2
    18          7
    25          2
    26         29
    27        105
    28        165
    29        255
    30         26
    31        364
    32          9
    33          2
    37          3
    38          6
    39         40
    40          9
    41        163
    42         28
    43        215
    44        999
    45        307
    46          9
    47          7
    53          1
    55          7
    56          2
    57         89
    58        530
    59        176
    60         17
    61          9
    71          3
    72          1
    73        109
    74          9
    75          1
    85          1
    86          1
    87        684
    88         41
    89          6