##TITLE=Library Entry 95380
##JCAMP-DX=Revision 4.10 
##DATA TYPE=MASS SPECTRUM
##SAMPLE DESCRIPTION=Japan AIST/NIMC Database- Spectrum MS-IW-1787
##NAMES=HP
##CAS NAME=Dodecyl isothiocyanate
##MOLFORM=C13H25NS
##CAS REGISTRY NO=1072-32-8
##MP= -300
##BP= -300
##MW= 227
##$RETENTION INDEX=0
##$CONDENSED SPECTRUM=NO
##NPOINTS= 134
##XYDATA=(XY..XY) 1 
    15          1
    26          3
    27         79
    28         33
    29        177
    30         23
    32          6
    34          1
    38          1
    39         64
    40         12
    41        443
    42         93
    43        495
    44         26
    45         10
    46          1
    47          1
    51          3
    52          2
    53         28
    54         40
    55        462
    56        135
    57        290
    58         15
    59         10
    60         20
    61          2
    62          6
    65          4
    66          3
    67         46
    68         35
    69        240
    70         96
    71         87
    72        152
    73         12
    74         29
    75         25
    76          9
    77          4
    78          1
    79          9
    80          3
    81         28
    82         64
    83         96
    84         33
    85         31
    86         20
    87          9
    88          8
    89          5
    90          1
    91          2
    93          8
    94          4
    95         20
    96        145
    97         53
    98         14
    99          6
   100         42
   101        119
   102         12
   103          7
   104          1
   107          5
   108          5
   109         10
   110         59
   111         17
   112         12
   113          5
   114         94
   115        999
   116         76
   117         47
   118          3
   121          5
   122          6
   123          6
   124         23
   125          4
   126          5
   127          4
   128        134
   129        151
   130         18
   131          7
   135          2
   136          3
   137          3
   138         16
   139          2
   140          3
   141          1
   142         32
   143          9
   144          2
   150          2
   151          1
   152         12
   153          2
   154          2
   155          1
   156         15
   157          2
   158          1
   164          1
   165          1
   166         13
   167          2
   168          1
   170          9
   171          1
   177          3
   178          1
   180          2
   184          9
   185          2
   186          1
   192          2
   194        853
   195        123
   196          8
   198          8
   199          1
   212          4
   226         16
   227         11
   228          2