##TITLE=Library Entry 30379
##JCAMP-DX=Revision 4.10 
##DATA TYPE=MASS SPECTRUM
##SAMPLE DESCRIPTION=Chemical Concepts
##NAMES=HP
##CAS NAME=Hexaethylene glycol dimethyl ether
##MOLFORM=C14H30O7
##CAS REGISTRY NO=1072-40-8
##MP= -300
##BP= -300
##MW= 310
##$RETENTION INDEX=0
##$CONDENSED SPECTRUM=NO
##NPOINTS= 92
##XYDATA=(XY..XY) 1 
    25          1
    26          8
    27         24
    28         60
    29        120
    30          8
    31        141
    32          2
    33          4
    34          0
    39          0
    41         13
    42         15
    43         82
    44         44
    45        203
    46          5
    47          1
    55          0
    56          2
    57         14
    58        235
    59        999
    60         33
    61          3
    68          0
    69          1
    70         13
    71         11
    72         37
    73         46
    74          2
    75          7
    76          0
    77          1
    83          0
    84          0
    85          1
    86          7
    87         83
    88         20
    89         65
    90          3
    91          1
    99          1
   100          1
   101         18
   102         30
   103        258
   104         15
   105          3
   107          0
   113          1
   114          1
   115          5
   116          2
   117         10
   118          1
   119          1
   121          2
   129          0
   131         19
   132          2
   133         22
   134          1
   135          0
   145          2
   146          0
   147         33
   148          2
   149          0
   158          0
   159          2
   160          0
   161          0
   162          0
   163          1
   165          0
   175          5
   176          0
   177          4
   178          0
   189          0
   191          2
   192          0
   201          0
   203          0
   206          0
   207          1
   219          0
   221          2
   265          1