##TITLE=Library Entry 22119
##JCAMP-DX=Revision 4.10 
##DATA TYPE=MASS SPECTRUM
##SAMPLE DESCRIPTION=Japan AIST/NIMC Database- Spectrum MS-NW-1152
##NAMES=HP
##CAS NAME=1-Aziridineethanol
##MOLFORM=C4H9NO
##CAS REGISTRY NO=1072-52-2
##MP= -300
##BP= -300
##MW= 87
##$RETENTION INDEX=1353
##$CONDENSED SPECTRUM=NO
##NPOINTS= 46
##XYDATA=(XY..XY) 1 
    12          1
    13          3
    14         13
    15        128
    16          2
    17          9
    18         35
    19          2
    25          4
    26         36
    27        128
    28        229
    29        116
    30        109
    31        109
    32         11
    37          1
    38          4
    39         12
    40         31
    41        110
    42        582
    43        244
    44        503
    45         66
    46          1
    51          2
    52          5
    53          1
    54         29
    55         17
    56        999
    57         78
    58         39
    59         67
    60          3
    63          1
    68          3
    69          2
    70          4
    71          3
    72          1
    74          1
    86          6
    87          9
    88          1