##TITLE=Library Entry 4378
##JCAMP-DX=Revision 4.10 
##DATA TYPE=MASS SPECTRUM
##SAMPLE DESCRIPTION=Exported from NIST MS Search
##NAMES=HP
##CAS NAME=Aziridine, 1-methyl-
##MOLFORM=C3H7N
##CAS REGISTRY NO=1072-44-2
##MP= -300
##BP= -300
##MW= 57
##$RETENTION INDEX=519
##$CONDENSED SPECTRUM=NO
##NPOINTS= 38
##XYDATA=(XY..XY) 1 
     2          5
    12         16
    13         29
    14         87
    15        489
    16          7
    17          1
    18          2
    20          1
    24          3
    25         16
    26        100
    27        183
    28        269
    29         51
    30         57
    31          3
    32          1
    36          1
    37          1
    38         14
    39         21
    40         65
    41        114
    42        999
    43         27
    44          2
    47          1
    50          2
    51          9
    52         15
    53          2
    54         24
    55         16
    56         26
    57        327
    58         12
    59          1