##TITLE=Library Entry 88037
##JCAMP-DX=Revision 4.10 
##DATA TYPE=MASS SPECTRUM
##SAMPLE DESCRIPTION=D.FELIX VARIAN AG. RES. LAB., ZURICH, SWITZERLAND
##NAMES=HP
##CAS NAME=2(3H)-Furanone, 5-ethenyldihydro-5-methyl-
##MOLFORM=C7H10O2
##CAS REGISTRY NO=1073-11-6
##MP= -300
##BP= -300
##MW= 126
##$RETENTION INDEX=1043
##$CONDENSED SPECTRUM=NO
##NPOINTS= 42
##XYDATA=(XY..XY) 1 
    26         40
    27        255
    28        200
    29         50
    38         20
    39        140
    40         25
    41        160
    42         80
    43        510
    44         30
    45          5
    50         25
    51         35
    52         15
    53         70
    54         40
    55        620
    56        310
    57         20
    65         45
    66         10
    67        320
    68         20
    69         20
    70         25
    71        410
    72         15
    77          5
    79         20
    81         40
    82         20
    83        220
    84         40
    93         15
    98        210
    99        255
   100         15
   111        999
   112         65
   126         95
   127         20