##TITLE=Library Entry 64754
##JCAMP-DX=Revision 4.10 
##DATA TYPE=MASS SPECTRUM
##SAMPLE DESCRIPTION=N.R. NATALE, DEP. CHEM., UNIV. IDAHO, MOSCOW, USA
##NAMES=HP
##CAS NAME=3,5-Dimethyl-4-[2,6-bis(methoxycarbonyl)-3-benzylamino-5-methylcy
clohexa-2,4-dienyl]isoxazole
##MOLFORM=C23H26N2O5
##CAS REGISTRY NO=107378-04-1
##MP= -300
##BP= -300
##MW= 410
##$RETENTION INDEX=0
##$CONDENSED SPECTRUM=NO
##NPOINTS= 15
##XYDATA=(XY..XY) 1 
    59         36
    65         66
    77         18
    91        999
   106         49
   174         22
   222         20
   242         52
   278         25
   301         20
   310         41
   319        126
   351        304
   379         22
   410        162