##TITLE=Library Entry 9639
##JCAMP-DX=Revision 4.10 
##DATA TYPE=MASS SPECTRUM
##SAMPLE DESCRIPTION=G. Lange, Inst. Org. Chem., Univ. Wurzburg, Germany
##NAMES=HP
##CAS NAME=Carbamic acid, cyclohexyl-, (3,4,4-trimethyl-1,2-dioxetan-3-yl)me
thyl ester
##MOLFORM=C13H23NO4
##CAS REGISTRY NO=107323-95-5
##MP= -300
##BP= -300
##MW= 257
##$RETENTION INDEX=0
##$CONDENSED SPECTRUM=NO
##NPOINTS= 79
##XYDATA=(XY..XY) 1 
    38         11
    39         85
    40         17
    41        223
    42        143
    43        999
    44         46
    45         14
    46          6
    51          4
    53         31
    54         60
    55        329
    56        174
    57        115
    58        167
    59         11
    62          8
    65          4
    66          4
    67         73
    68         21
    69         38
    70         27
    71          7
    72          3
    73          5
    74         36
    75        110
    76         40
    77          7
    79         14
    80          6
    81         59
    82        258
    83        442
    84         34
    85          7
    88          4
    95          1
    96         13
    97         24
    98         77
    99         60
   100         35
   101         23
   102          2
   110          1
   112          2
   113         41
   114         21
   115          2
   116          1
   118         51
   119          2
   124          4
   125         29
   126         97
   127          8
   128          4
   132         13
   133          1
   142        190
   143         18
   144         25
   145          1
   156        115
   157         54
   158          5
   169          1
   170          1
   174          6
   181          9
   182          1
   184          1
   199         50
   200          6
   225          3
   257          0