##TITLE=Library Entry 59713
##JCAMP-DX=Revision 4.10 
##DATA TYPE=MASS SPECTRUM
##SAMPLE DESCRIPTION=Chemical Concepts
##NAMES=HP
##CAS NAME=2-p-toluenesulfonyl-4-(p-toluenesulfonylimino)-1-naphthalenone
##MOLFORM=C24H19NO5S2
##CAS REGISTRY NO=107379-26-0
##MP= -300
##BP= -300
##MW= 465
##$RETENTION INDEX=0
##$CONDENSED SPECTRUM=NO
##NPOINTS= 172
##XYDATA=(XY..XY) 1 
    35          1
    36          2
    37          6
    38         16
    39        118
    41         31
    42          3
    43          7
    44         12
    45         45
    46          1
    47          8
    48         19
    49          7
    50         51
    51         77
    52         27
    53         29
    54          3
    55          6
    56          2
    57          9
    58          5
    59          3
    60          7
    61         13
    62         32
    63         93
    64         46
    65        381
    66         24
    67         38
    68          5
    69         25
    70          9
    71         13
    72          1
    73          3
    74         19
    75         38
    76         48
    77        134
    78         44
    79         51
    80         23
    81          5
    82          8
    83         24
    84          8
    85         25
    86          8
    87          9
    88          4
    89         88
    90         43
    91        999
    92        278
    93         21
    94          4
    95         11
    96          4
    97          6
    98          3
    99          4
   100          5
   101         31
   102         86
   103         40
   104         14
   105          7
   106          3
   107         62
   108         41
   109         13
   110          5
   111         15
   112          2
   113          4
   114          3
   115          9
   116          5
   117          6
   118          2
   119          2
   120          1
   121         20
   122         13
   123         35
   124         69
   125          8
   126          4
   127          9
   128         31
   129        175
   130        114
   131          9
   132          1
   133          1
   135          1
   137          1
   138          2
   139        229
   140         39
   141         13
   142          3
   145          9
   146          7
   147          2
   148          1
   149          1
   151          2
   152          2
   153          1
   155        201
   156        145
   157         89
   158         23
   159          3
   163          1
   165          5
   166          1
   167          1
   171          3
   174          1
   176          1
   177          1
   178          1
   189          4
   190          2
   191          4
   192          4
   193          6
   202          2
   203          7
   204         11
   205          9
   206          2
   207          1
   216          2
   217          5
   218         14
   219         11
   220          9
   221          1
   230         12
   231          4
   232         77
   233         15
   234          3
   235          2
   236          3
   237         13
   238          1
   245          3
   246         81
   247        122
   248         22
   249          5
   250          1
   310          2
   311          6
   312         23
   313         41
   314          8
   315          1
   322          8
   323          1
   336          4
   337         22
   338          5
   401          6
   402          1