##TITLE=Library Entry 47534
##JCAMP-DX=Revision 4.10 
##DATA TYPE=MASS SPECTRUM
##SAMPLE DESCRIPTION=G. Lange, Inst. Org. Chem., Univ. Wurzburg, Germany
##NAMES=HP
##CAS NAME=3,4,5-Triazatricyclo[5.2.1.0(2,6)]dec-3-en-9-one, 5-phenyl-
##MOLFORM=C13H13N3O
##CAS REGISTRY NO=107300-53-8
##MP= -300
##BP= -300
##MW= 227
##$RETENTION INDEX=0
##$CONDENSED SPECTRUM=NO
##NPOINTS= 97
##XYDATA=(XY..XY) 1 
    37          5
    38         20
    39        181
    40         52
    41        103
    42         20
    43          6
    50         48
    51        360
    52         62
    53         75
    54         36
    55         60
    56          3
    63         36
    64         39
    65        104
    66        139
    67        113
    68         28
    69          3
    70          3
    71         16
    72          3
    74          7
    75         17
    76         40
    77        999
    78        152
    79        353
    80        192
    81         20
    83         13
    84         15
    85          9
    89         15
    90         16
    91         51
    92         96
    93        336
    94         53
    95         27
    96         20
    97          5
   102          9
   103         37
   104        269
   105         40
   106         50
   107         37
   108          7
   115         33
   116         17
   117         83
   118         32
   119         38
   120         26
   121          3
   127         19
   128         63
   129         58
   130        317
   131         38
   132         28
   141          8
   142         18
   143         93
   144        234
   145         65
   146         14
   147          7
   153         10
   154         40
   155         34
   156        255
   157         79
   158         24
   159          5
   167         13
   168         34
   169         37
   170        575
   171        261
   172         48
   173         12
   180          5
   181          4
   182          9
   183          6
   184         23
   185          3
   196          2
   197          9
   198        221
   199        280
   200         41
   201          8