##TITLE=Library Entry 12621
##JCAMP-DX=Revision 4.10 
##DATA TYPE=MASS SPECTRUM
##SAMPLE DESCRIPTION=G. Lange, Inst. Org. Chem., Univ. Wurzburg, Germany
##NAMES=HP
##CAS NAME=Carbamic acid, 4-chlorophenyl-, (3,4,4-trimethyl-1,2-dioxetan-3-y
l)methyl ester
##MOLFORM=C13H16ClNO4
##CAS REGISTRY NO=107323-97-7
##MP= -300
##BP= -300
##MW= 285
##$RETENTION INDEX=0
##$CONDENSED SPECTRUM=NO
##NPOINTS= 76
##XYDATA=(XY..XY) 1 
    36          5
    37         18
    38         33
    39         59
    40         10
    41         25
    42         76
    43        999
    44         40
    45          9
    49         11
    50         31
    51         21
    52         12
    55          5
    57         72
    58        154
    59         10
    61          9
    62         23
    63         76
    64         39
    65         17
    73         41
    74         44
    75         92
    76         25
    77         12
    84          5
    85          5
    87          5
    89         14
    90         75
    91         34
    92         10
    98          6
    99        110
   100         14
   101         38
   102          9
   106         21
   107         18
   111         71
   112          7
   113         23
   119          8
   124          6
   125         78
   126        227
   127        139
   128         80
   129         35
   130          7
   132          6
   137          9
   139          7
   140         28
   141         20
   142         13
   143          5
   150          6
   152         26
   153        636
   154        226
   155        220
   156         70
   157          5
   164          7
   185         26
   187          8
   209         19
   211          5
   227        142
   228         15
   229         45
   230          4