##TITLE=Library Entry 8072
##JCAMP-DX=Revision 4.10 
##DATA TYPE=MASS SPECTRUM
##SAMPLE DESCRIPTION=G. Lange, Inst. Org. Chem., Univ. Wurzburg, Germany
##NAMES=HP
##CAS NAME=Formic acid, chloro-, (3,4,4-trimethyl-1,2-dioxetan-3-yl)methyl e
ster
##MOLFORM=C7H11ClO4
##CAS REGISTRY NO=107323-92-2
##MP= -300
##BP= -300
##MW= 194
##$RETENTION INDEX=0
##$CONDENSED SPECTRUM=NO
##NPOINTS= 36
##XYDATA=(XY..XY) 1 
    35          8
    36         13
    37         12
    38         20
    39         36
    40          6
    41         22
    42         94
    43        999
    44         62
    45          7
    49          7
    51          2
    53          5
    55         15
    56          6
    57         90
    58        127
    59          5
    62          5
    63         56
    64          2
    65         17
    77          2
    78          1
    92          3
    93          7
    94          1
    95          2
   100         24
   101         21
   102          0
   121          0
   128          0
   136          8
   138          2