##TITLE=Library Entry 48647
##JCAMP-DX=Revision 4.10 
##DATA TYPE=MASS SPECTRUM
##SAMPLE DESCRIPTION=D.HENNEBERG, MAX-PLANCK INSTITUTE, MULHEIM, WEST GERMAN
Y
##NAMES=HP
##CAS NAME=1,4-Cyclooctadiene
##MOLFORM=C8H12
##CAS REGISTRY NO=1073-07-0
##MP= -300
##BP= -300
##MW= 108
##$RETENTION INDEX=0
##$CONDENSED SPECTRUM=NO
##NPOINTS= 41
##XYDATA=(XY..XY) 1 
    27        428
    28        179
    29         68
    37         24
    38         47
    39        730
    40         81
    41        544
    42         23
    43         11
    44         51
    50         88
    51        175
    52        113
    53        148
    54        267
    55         31
    62         15
    63         52
    64         16
    65        181
    66        223
    67        784
    75         38
    76         14
    77        389
    78        158
    79        999
    80        606
    81         49
    90         12
    91        198
    92         27
    93        402
    94         23
   103          8
   105         10
   106          2
   107         28
   108        270
   109         18