##TITLE=Library Entry 68835
##JCAMP-DX=Revision 4.10 
##DATA TYPE=MASS SPECTRUM
##SAMPLE DESCRIPTION=Japan AIST/NIMC Database- Spectrum MS-NW-6461
##NAMES=HP
##CAS NAME=Benzene, 1-bromo-3-fluoro-
##MOLFORM=C6H4BrF
##CAS REGISTRY NO=1073-06-9
##MP= -300
##BP= -300
##MW= 174
##$RETENTION INDEX=933
##$CONDENSED SPECTRUM=NO
##NPOINTS= 98
##XYDATA=(XY..XY) 1 
    12          2
    20          1
    24          1
    25          2
    26          6
    27          6
    28          2
    31         23
    33          1
    36          8
    37         34
    38         31
    39         14
    40          1
    41          1
    43          1
    44          3
    45          8
    47         13
    48          3
    49         24
    50        118
    51         45
    52          3
    55          2
    56          9
    57         15
    58          1
    59          1
    60          4
    61         21
    62         22
    63         19
    64          4
    65          1
    67          1
    68         63
    69         65
    70          5
    72          2
    73         16
    74         67
    75        310
    76         26
    77          4
    78          3
    79          9
    80          4
    81          8
    82          4
    83          4
    84          7
    85          1
    86          1
    87         28
    88         24
    91          2
    92         14
    93         24
    94         78
    95        999
    96         67
    97          3
   104          1
   105          1
   106          2
   107          1
   108          1
   109          2
   110          1
   111         19
   112          2
   116          1
   117          2
   118          1
   119          2
   126          1
   127          1
   128          2
   129          1
   130          2
   135          1
   137          1
   141          2
   143          3
   146          1
   148          1
   153          1
   155          2
   157          1
   161          1
   163          1
   173          9
   174        698
   175         58
   176        680
   177         48
   178          2