##TITLE=Library Entry 91133
##JCAMP-DX=Revision 4.10 
##DATA TYPE=MASS SPECTRUM
##SAMPLE DESCRIPTION=LAC, NIDDK, NIH, Bethesda, MD 20892
##NAMES=HP
##CAS NAME=7.alpha.,11.alpha.-Dihydroxy-tomatidine
##MOLFORM=C27H45NO4
##CAS REGISTRY NO=107329-05-5
##MP= -300
##BP= -300
##MW= 447
##$RETENTION INDEX=0
##$CONDENSED SPECTRUM=NO
##NPOINTS= 108
##XYDATA=(XY..XY) 1 
    41         85
    42         29
    43         92
    44         23
    45          4
    53         17
    54         17
    55        123
    56         23
    57         61
    58         26
    65          3
    67         62
    68         35
    69         57
    70         36
    71         16
    73          3
    77         19
    79         59
    80         14
    81         62
    82         22
    83         33
    84         22
    85          3
    86         16
    91         52
    92          7
    93         72
    94         22
    95         52
    96         30
    97         20
    98         96
    99          8
   105         47
   106         16
   107         56
   108         27
   109         34
   110         35
   111         69
   112         20
   113        461
   114        999
   115         78
   117         15
   119         30
   120         15
   121         33
   122         22
   123         17
   124         53
   125         99
   126         20
   129         13
   131         24
   132          4
   133         22
   134          7
   135         16
   136          3
   137          4
   138        689
   139        122
   140         19
   143         16
   144          3
   145         23
   146          3
   147         20
   148         10
   149         11
   150         14
   151          3
   152         75
   153         16
   157         14
   159         17
   161         18
   162         13
   163          7
   164         18
   166         25
   168          3
   169          3
   171          6
   173          4
   175         10
   178         13
   180         26
   181          3
   183          3
   192          7
   208         11
   402         19
   403         24
   404          7
   416          3
   418         22
   419         31
   420          3
   430         11
   431         24
   432         14
   447         21
   448          6