##TITLE=Library Entry 98446
##JCAMP-DX=Revision 4.10 
##DATA TYPE=MASS SPECTRUM
##SAMPLE DESCRIPTION=ASES Database, Dalian Institute, P.R. China
##NAMES=HP
##CAS NAME=4-Phenyl-thiazolidine
##MOLFORM=C9H11NS
##CAS REGISTRY NO=107326-18-1
##MP= -300
##BP= -300
##MW= 165
##$RETENTION INDEX=0
##$CONDENSED SPECTRUM=NO
##NPOINTS= 15
##XYDATA=(XY..XY) 1 
    51        127
    63        110
    65        110
    77        221
    78        120
    89        161
    91        667
   103        109
   104        100
   105          9
   118        999
   119        710
   135        298
   136         79
   165        150