##TITLE=Library Entry 31513
##JCAMP-DX=Revision 4.10 
##DATA TYPE=MASS SPECTRUM
##SAMPLE DESCRIPTION=A.A.Kutin, Moscow, Russia
##NAMES=HP
##CAS NAME=Toluene, 5-nitro-2-(4-nitrobenzylidenamino)-
##MOLFORM=C14H11N3O4
##CAS REGISTRY NO=107379-90-8
##MP= -300
##BP= -300
##MW= 285
##$RETENTION INDEX=0
##$CONDENSED SPECTRUM=NO
##NPOINTS= 181
##XYDATA=(XY..XY) 1 
    34         22
    35         10
    36         42
    37         77
    38        234
    39        970
    40        332
    41        161
    42         67
    43         99
    44        280
    45         47
    46        146
    47          4
    48         11
    50        569
    51        917
    52        314
    53        119
    54         56
    55         58
    56         22
    57         39
    58         10
    59          6
    60         23
    61         50
    62        321
    63        999
    64        296
    65        446
    66         78
    67         27
    68         11
    69         41
    70         44
    71         23
    72          3
    73         19
    74        140
    75        197
    76        282
    77        603
    78        280
    79         87
    80         30
    81         48
    82         67
    83         50
    84         29
    85         20
    86         53
    87         86
    88         86
    89        782
    90        365
    91        304
    92         77
    93         84
    94         25
    96         52
    97         13
    98         10
    99         14
   100         13
   101         28
   102         57
   103         71
   104        105
   105         58
   106         57
   107         61
   108         17
   109         13
   110         12
   111          4
   113         32
   114         41
   115         89
   116        170
   117        799
   118        104
   119         21
   120         22
   121         20
   122         18
   123          9
   124          3
   125         10
   126         27
   127         52
   128         50
   129         13
   130         10
   131         18
   132         51
   133         51
   134          9
   135         25
   136         13
   137         14
   138         12
   139         67
   140         51
   141         30
   142         18
   143          6
   144          2
   146         62
   147          5
   148          2
   149          9
   150         43
   151         76
   152        100
   153         51
   154         38
   155          9
   156          1
   157          0
   161          6
   162         52
   163        291
   164         93
   165        197
   166         72
   167         46
   168         31
   169          9
   170          1
   171          1
   176         11
   177         43
   178         82
   179         31
   180        161
   181         47
   182         12
   188          1
   189          8
   190         63
   191        140
   192        196
   193        138
   194         32
   195          8
   196          2
   197          4
   200          4
   205          1
   206          6
   207         20
   208         52
   209        111
   210         21
   211          0
   221          1
   222          5
   223          3
   224         28
   225         12
   226          2
   236          6
   237         18
   238        125
   239         41
   240          6
   252          8
   254         44
   255         92
   256         13
   267          4
   268          4
   269         10
   280          2
   282         49
   283         37
   284         84
   285        340
   286         45
   287          6