##TITLE=Library Entry 223
##JCAMP-DX=Revision 4.10 
##DATA TYPE=MASS SPECTRUM
##SAMPLE DESCRIPTION=E.Lloyd ET AL.Aust.J.Chem., 30,569(1977)
##NAMES=HP
##CAS NAME=1,3,2-Dioxathiane, 2,2-dioxide
##MOLFORM=C3H6O4S
##CAS REGISTRY NO=1073-05-8
##MP= -300
##BP= -300
##MW= 138
##$RETENTION INDEX=0
##$CONDENSED SPECTRUM=NO
##NPOINTS= 30
##XYDATA=(XY..XY) 1 
    14         18
    15         56
    16          5
    17         18
    18         61
    24         11
    25         18
    26         83
    27        163
    28        999
    29        225
    30        107
    31         59
    39         28
    40         16
    41         18
    42         34
    43         32
    48         34
    55         17
    56         23
    57         30
    58        614
    59         22
    63         13
    64         22
    65         25
    81         25
    83         13
   138         17