##TITLE=Library Entry 29065
##JCAMP-DX=Revision 4.10 
##DATA TYPE=MASS SPECTRUM
##SAMPLE DESCRIPTION=NIST Mass Spectrometry Data Center, 2013
##NAMES=HP
##CAS NAME=(.+/-.)-BDB
##MOLFORM=C11H15NO2
##CAS REGISTRY NO=107447-03-0
##MP= -300
##BP= -300
##MW= 193
##$RETENTION INDEX=1620
##$CONDENSED SPECTRUM=NO
##NPOINTS= 95
##XYDATA=(XY..XY) 1 
    15          2
    18          6
    26          3
    27         17
    28         39
    29         22
    30         75
    31          2
    37          1
    38          5
    39         26
    40          4
    41        102
    42         25
    43         25
    44          3
    49          1
    50         15
    51         73
    52         16
    53         15
    54          7
    55          3
    56         22
    57          8
    58        999
    59         37
    60          1
    61          1
    62          6
    63         16
    64          4
    65         11
    66          4
    67          5
    68          1
    70          2
    71          1
    74          4
    75          4
    76          9
    77         84
    78         29
    79         22
    80          5
    81         52
    87          1
    88          1
    89          7
    90          3
    91          7
    92          2
    93          2
    94          1
    95          1
   102          2
   103          4
   104         11
   105         20
   106         31
   107         10
   108          1
   115          4
   116          5
   117          4
   118          2
   119          1
   120          1
   121          6
   122          2
   127          1
   130          1
   131          3
   132          2
   133          2
   134         13
   135        113
   136        169
   137         15
   138          1
   145          2
   146          1
   147          3
   148          2
   150          1
   161          1
   162          2
   163          5
   164         19
   165          2
   176          1
   191          1
   192          1
   193          8
   194          1