##TITLE=Library Entry 78764
##JCAMP-DX=Revision 4.10 
##DATA TYPE=MASS SPECTRUM
##SAMPLE DESCRIPTION=Japan AIST/NIMC Database- Spectrum MS-NW-2412
##NAMES=HP
##CAS NAME=Phenylglyoxal
##MOLFORM=C8H6O2
##CAS REGISTRY NO=1074-12-0
##MP= -300
##BP= -300
##MW= 134
##$RETENTION INDEX=0
##$CONDENSED SPECTRUM=NO
##NPOINTS= 45
##XYDATA=(XY..XY) 1 
    14          1
    16          2
    17          1
    18          3
    25          1
    26          5
    27         21
    28         19
    29         30
    36          2
    37         15
    38         18
    39         20
    40          1
    43          2
    44          4
    48          1
    49         11
    50        111
    51        296
    52         21
    53          4
    56          1
    60          1
    61          7
    62          9
    63          8
    64          1
    73          9
    74         34
    75         20
    76         27
    77        865
    78         64
    79          2
    85          1
    86          2
    87          1
    89          3
    90          1
   102          2
   104          3
   105        999
   106        120
   107          8