##TITLE=Library Entry 109618
##JCAMP-DX=Revision 4.10 
##DATA TYPE=MASS SPECTRUM
##SAMPLE DESCRIPTION=Japan AIST/NIMC Database- Spectrum MS-NW-8427
##NAMES=HP
##CAS NAME=Benzene, (1,2-dichloroethyl)-
##MOLFORM=C8H8Cl2
##CAS REGISTRY NO=1074-11-9
##MP= -300
##BP= -300
##MW= 174
##$RETENTION INDEX=1249
##$CONDENSED SPECTRUM=NO
##NPOINTS= 72
##XYDATA=(XY..XY) 1 
    26          4
    27         17
    35          2
    36         15
    37          6
    38         16
    39         44
    40          3
    41          1
    43         10
    44          2
    49         11
    50         63
    51        150
    52         27
    53          5
    60          1
    61          9
    62         17
    63         49
    64          7
    65         10
    68          1
    69          2
    73         10
    74         25
    75         30
    76         24
    77        164
    78         75
    79         17
    80          1
    85          2
    86          3
    87          5
    88          1
    89         59
    90         13
    91          3
    97          2
    98          3
    99         19
   100          1
   101         19
   102         44
   103        316
   104        124
   105         17
   106          1
   107         23
   108          2
   111          1
   112          1
   120          2
   121          1
   122          5
   125        999
   126         76
   127        323
   128         24
   137          3
   138         12
   139        217
   140         22
   141         69
   142          6
   174        183
   175         15
   176        116
   177          9
   178         18
   179          1