##TITLE=Library Entry 47650
##JCAMP-DX=Revision 4.10 
##DATA TYPE=MASS SPECTRUM
##SAMPLE DESCRIPTION=A.A.Kutin, Moscow, Russia
##NAMES=HP
##CAS NAME=Benzenesulfonamide, N-(5-chloropyrid-2-yl)-
##MOLFORM=C11H9ClN2O2S
##CAS REGISTRY NO=107491-42-9
##MP= -300
##BP= -300
##MW= 268
##$RETENTION INDEX=0
##$CONDENSED SPECTRUM=NO
##NPOINTS= 167
##XYDATA=(XY..XY) 1 
    33          8
    35          4
    36         20
    37         37
    38        142
    39         81
    40         54
    41         20
    43         16
    44         21
    45         12
    47         13
    48         19
    49         28
    50        103
    51        490
    52         37
    53         18
    55         13
    57         16
    59          3
    60          8
    61          4
    62          9
    63         22
    64        103
    65         48
    66         26
    67          4
    69         16
    70          4
    71         20
    73        207
    75        131
    77        999
    78         72
    79          5
    81          7
    82          3
    83          3
    85         14
    86          2
    87          4
    88          2
    89          4
    91         13
    92         61
    93          9
    94          5
    95          2
    97         19
    99         11
   100         75
   101         47
   102         27
   103         15
   104          3
   105          1
   106          0
   107          1
   108          2
   109          7
   110          9
   112         12
   113          3
   114          6
   115         13
   116          2
   117          2
   118          1
   119          0
   120          0
   121          1
   122          0
   123          1
   125         14
   127         50
   128         36
   129         21
   130         11
   131          1
   132          0
   133          0
   134          0
   135          2
   136          1
   137          0
   138          0
   141         42
   142         11
   143          2
   144          0
   145          0
   146          0
   147          0
   148          1
   149          2
   150          1
   151          1
   152          1
   153          0
   154          0
   155          0
   156          0
   157          0
   159          0
   160          0
   161          0
   162          0
   163          0
   164          0
   165          0
   166          1
   167          4
   168         18
   169          8
   170          1
   171          0
   172          0
   173          0
   174          0
   175          2
   176          1
   177          3
   178          0
   179          1
   180          0
   181          0
   182          0
   183          0
   184          0
   185          0
   187          0
   188          0
   189          0
   190          0
   191          1
   192          0
   193          0
   194          1
   195          0
   198          0
   203        574
   204         71
   205        177
   206         22
   208          0
   209          0
   210          0
   212          0
   214          0
   216          0
   233          0
   234          0
   241          0
   245          0
   247          0
   251          0
   252          0
   265          0
   266          1
   268         41
   269          5
   270         14
   271          1
   272          0
   273          0