##TITLE=Library Entry 81119
##JCAMP-DX=Revision 4.10 
##DATA TYPE=MASS SPECTRUM
##SAMPLE DESCRIPTION=Japan AIST/NIMC Database- Spectrum MS-NW-3995
##NAMES=HP
##CAS NAME=Benzene, 1-methyl-4-propyl-
##MOLFORM=C10H14
##CAS REGISTRY NO=1074-55-1
##MP= -300
##BP= -300
##MW= 134
##$RETENTION INDEX=1040
##$CONDENSED SPECTRUM=NO
##NPOINTS= 58
##XYDATA=(XY..XY) 1 
    15          1
    26          2
    27         22
    28          2
    29          5
    38          3
    39         27
    40          3
    41         14
    50          8
    51         21
    52          7
    53         10
    55          1
    57          2
    58          1
    61          1
    62          4
    63         13
    64          5
    65         21
    66          2
    74          3
    75          3
    76          3
    77         62
    78         18
    79         48
    80          3
    86          1
    87          1
    89          7
    90          2
    91         54
    92         17
    93          3
   101          1
   102          5
   103         33
   104         19
   105        999
   106         90
   107          4
   115         12
   116          4
   117         12
   118          3
   119         12
   120          1
   127          1
   128          2
   129          1
   131          1
   132          1
   133          2
   134        231
   135         25
   136          1