##TITLE=Library Entry 89789
##JCAMP-DX=Revision 4.10 
##DATA TYPE=MASS SPECTRUM
##SAMPLE DESCRIPTION=MUS218 A. Mujsce, AT&T Bell Labs., Murray Hill, N.J., U
SA
##NAMES=HP
##CAS NAME=Phenyltrichlorogermane
##MOLFORM=C6H5Cl3Ge
##CAS REGISTRY NO=1074-29-9
##MP= -300
##BP= -300
##MW= 256
##$RETENTION INDEX=0
##$CONDENSED SPECTRUM=NO
##NPOINTS= 125
##XYDATA=(XY..XY) 1 
    27         18
    35         14
    36          3
    37         14
    38         16
    39         19
    41          3
    43          5
    49         15
    50        148
    51        302
    52         13
    55          3
    60          1
    61          4
    62          6
    70         23
    71          2
    72         29
    73         25
    74        105
    75         62
    76         55
    77        410
    78         28
    81          3
    83          3
    84          4
    85          6
    86          2
    87          2
    94          3
    95         30
    96          3
    97         41
    98         15
    99         46
   100          4
   101         11
   105        156
   107        266
   108         66
   109        383
   110         30
   111        175
   112        999
   113         90
   114        334
   115         24
   116          2
   118          2
   119         13
   120          4
   121         26
   122         12
   123         37
   124          9
   125         18
   126          3
   127          4
   129          1
   131          1
   137          1
   140         16
   142         29
   143         11
   144         40
   145         12
   146         31
   147         16
   148          9
   149         14
   150          5
   151         12
   153          3
   155          1
   157          1
   158          1
   164          1
   166          1
   169          2
   175         26
   177         53
   178         10
   179         86
   180          9
   181         70
   182          6
   183         29
   184          8
   185         10
   186          9
   187          4
   188          6
   190          1
   191          1
   193          2
   195          1
   196          1
   197          1
   199          1
   205          1
   209          1
   212          1
   217        276
   219        555
   220        156
   221        777
   222        120
   223        458
   224         46
   225        130
   226          9
   227         12
   228          2
   252        143
   254        311
   255         77
   256        486
   257         83
   258        352
   259         40
   260        140
   261         10
   262         24