##TITLE=Library Entry 81118
##JCAMP-DX=Revision 4.10 
##DATA TYPE=MASS SPECTRUM
##SAMPLE DESCRIPTION=Japan AIST/NIMC Database- Spectrum MS-NW-3635
##NAMES=HP
##CAS NAME=Benzene, 1-methyl-3-propyl-
##MOLFORM=C10H14
##CAS REGISTRY NO=1074-43-7
##MP= -300
##BP= -300
##MW= 134
##$RETENTION INDEX=1037
##$CONDENSED SPECTRUM=NO
##NPOINTS= 59
##XYDATA=(XY..XY) 1 
    15          2
    18          1
    26          2
    27         34
    28          2
    29          8
    37          1
    38          5
    39         45
    40          5
    41         23
    42          1
    43          1
    50          9
    51         31
    52          9
    53         13
    54          1
    55          2
    57          3
    58          2
    61          2
    62          6
    63         20
    64          7
    65         32
    66          4
    74          4
    75          4
    76          4
    77         80
    78         25
    79         65
    80          4
    86          1
    87          1
    89          9
    90          3
    91         86
    92         56
    93          7
   101          1
   102          6
   103         41
   104         20
   105        999
   106        134
   107          9
   115         18
   116          6
   117         17
   118          5
   119         37
   120          4
   132          1
   133          4
   134        265
   135         29
   136          1