##TITLE=Library Entry 56180
##JCAMP-DX=Revision 4.10 
##DATA TYPE=MASS SPECTRUM
##SAMPLE DESCRIPTION=O. TIMOFEEV,PHYS. CHEM. INST.,ACAD. SCI.,ODESSA,USSR
##NAMES=HP
##CAS NAME=1,4,12-Trioxa-7,9,15,17-tetraazacyclononadecane-8,16-dithione
##MOLFORM=C12H24N4O3S2
##CAS REGISTRY NO=107447-41-6
##MP= -300
##BP= -300
##MW= 336
##$RETENTION INDEX=0
##$CONDENSED SPECTRUM=NO
##NPOINTS= 96
##XYDATA=(XY..XY) 1 
    54        100
    55        259
    56        236
    57        318
    58        141
    59        364
    60        500
    61        191
    62        232
    67         86
    68         73
    69        418
    70        250
    71        177
    72        200
    73        177
    74        114
    83        114
    84         86
    85        255
    86        999
    87        218
    88        209
    99         96
   100         96
   101        255
   102        300
   103        423
   104        100
   112         59
   113        250
   114         77
   115        182
   116        246
   117        105
   125         82
   126         77
   127        241
   128        373
   129        409
   130        386
   131        109
   144         46
   145        305
   146        355
   147        500
   148         68
   156         23
   157        118
   158         36
   159         46
   160        146
   161         41
   162         23
   163         36
   164         50
   165        100
   171         50
   172         82
   173        100
   174         86
   175         32
   189         68
   190         68
   191        259
   207         27
   208         32
   209        332
   210         23
   215         23
   216         32
   217        132
   218         23
   231         23
   232         50
   233         19
   234         41
   235         36
   250         36
   259         18
   260         23
   262         32
   269         32
   273         23
   274         18
   275         18
   276         41
   293        132
   294         41
   302         65
   303         32
   304         18
   306         46
   336        368
   337         96
   338         55