##TITLE=Library Entry 89862
##JCAMP-DX=Revision 4.10 
##DATA TYPE=MASS SPECTRUM
##SAMPLE DESCRIPTION=CAR 0005
##NAMES=HP
##CAS NAME=Cyclooctanone, oxime
##MOLFORM=C8H15NO
##CAS REGISTRY NO=1074-51-7
##MP= -300
##BP= -300
##MW= 141
##$RETENTION INDEX=0
##$CONDENSED SPECTRUM=NO
##NPOINTS= 89
##XYDATA=(XY..XY) 1 
    12          5
    13          3
    14        111
    15         50
    16         55
    19          9
    20          7
    26         70
    27        425
    29        327
    30         90
    31         49
    33         11
    36         11
    37         25
    38         41
    39        487
    40        200
    41        956
    42        277
    43        182
    45         37
    46         68
    50         24
    51         51
    52         59
    53        216
    54        381
    55        584
    56        136
    57        381
    58         46
    59        139
    60         33
    63         12
    64         13
    65         39
    66         52
    67        531
    68        143
    69        106
    70        102
    71         26
    72         93
    73        735
    74         35
    77         37
    78         16
    79         98
    80        104
    81        240
    82        160
    83         66
    84         92
    85        273
    86        389
    87        134
    88         10
    91         25
    92         11
    93         37
    94         61
    95         59
    96        102
    97         49
    98        323
    99        292
   100         95
   101          6
   105          8
   106          5
   107         15
   108         58
   109        332
   110         40
   111         13
   112        425
   113        999
   114         76
   115          7
   122         25
   123          9
   124        137
   125         17
   126         75
   127          7
   140         22
   141        119
   142         12