##TITLE=Library Entry 36333
##JCAMP-DX=Revision 4.10 
##DATA TYPE=MASS SPECTRUM
##SAMPLE DESCRIPTION=A.Mazepa, Phys.-Chem.Institute, Odessa, Ukraine
##NAMES=HP
##CAS NAME=2-Allyl-1-trifluoromethylbutandione-1,3
##MOLFORM=C8H9F3O2
##CAS REGISTRY NO=107426-51-7
##MP= -300
##BP= -300
##MW= 194
##$RETENTION INDEX=0
##$CONDENSED SPECTRUM=NO
##NPOINTS= 61
##XYDATA=(XY..XY) 1 
    50          3
    51          8
    52         13
    53         76
    54         87
    55        300
    56        254
    57         24
    58          3
    62          1
    63          3
    64          1
    65          3
    66          3
    67         38
    68          4
    69        999
    70         36
    71          8
    73          1
    75          2
    77         43
    78          4
    79         66
    80         13
    81         16
    82         53
    83         84
    84         18
    85         30
    89          9
    91         20
    94          1
    95         35
    96          3
    97         72
    98         11
    99          9
   100          4
   105          4
   106          1
   107         39
   109          3
   118          1
   119        100
   120         10
   123          2
   125        126
   126          6
   127          5
   132          1
   138          6
   139        572
   140         19
   152          5
   165         94
   166         15
   174         46
   175          3
   176          6
   194         42