##TITLE=Library Entry 11278
##JCAMP-DX=Revision 4.10 
##DATA TYPE=MASS SPECTRUM
##SAMPLE DESCRIPTION=LAC, NIDDK, NIH, Bethesda, MD 20892
##NAMES=HP
##CAS NAME=9.alpha.-Hydroxysolasodine, o,N-diacetate
##MOLFORM=C31H47NO5
##CAS REGISTRY NO=107459-22-3
##MP= -300
##BP= -300
##MW= 513
##$RETENTION INDEX=0
##$CONDENSED SPECTRUM=NO
##NPOINTS= 208
##XYDATA=(XY..XY) 1 
    41         89
    43        999
    44         25
    45          6
    47          4
    49         10
    51          4
    53         23
    55        191
    56         11
    57         24
    58         16
    60         13
    61          4
    65         10
    67         73
    68         33
    69         47
    70         32
    71         13
    72         14
    73         13
    77         34
    79         71
    81         66
    82         16
    83         17
    84         28
    86         26
    88          1
    91         82
    92         14
    93         96
    95         76
    96         30
    97         14
    98         15
    99          1
   100          6
   101          6
   103          8
   105        133
   106         21
   107         56
   108         56
   109         31
   110         30
   111         11
   112         17
   113          7
   114        238
   115         23
   117         27
   118          9
   119         37
   120         89
   121         45
   122         18
   123         13
   124         23
   125         16
   126         15
   127         18
   128         12
   129         16
   130          7
   131         27
   132          7
   133         23
   134         12
   135         38
   136         15
   137          7
   138         37
   139          3
   140         24
   141         14
   142         11
   143         40
   144         21
   145         42
   146         13
   147         23
   148         10
   149         31
   150         10
   151          4
   152         17
   153          4
   155        154
   156         91
   157         38
   158         11
   159         16
   160          2
   161         18
   162         34
   163         22
   164         15
   165          5
   166         36
   167         11
   168         10
   169         10
   170          2
   171         13
   172          4
   173          7
   174          4
   175         11
   176          8
   177          8
   178         11
   179          5
   180         36
   181         12
   182          2
   183         12
   184          4
   185          9
   186          4
   187          5
   188          3
   189          4
   190          2
   191          3
   192          4
   193          4
   194          5
   195         11
   196          2
   197         24
   198          4
   199          4
   201          2
   202          2
   203          3
   204          1
   205          3
   206          3
   207          3
   208          3
   209          7
   210          6
   211          8
   212         13
   213         16
   214          3
   215          1
   218          1
   220          1
   221          2
   222         14
   223         16
   224          5
   225          4
   226          3
   227          1
   230          1
   234          1
   235          7
   236          4
   237          3
   238          1
   239          2
   241          1
   248          1
   249          4
   250          3
   251         34
   252          8
   253          3
   263          1
   264          1
   265         15
   266          3
   267          4
   269          3
   279          4
   280         10
   281         23
   282          5
   298          3
   306          1
   307          4
   308          3
   309          2
   311          6
   340          1
   341          4
   342          1
   350          3
   413          3
   420          2
   438          2
   444         13
   445          4
   452          2
   453          2
   470          6
   471          2
   497          1
   498         31
   499         10
   500          1
   513         10
   514          7
   515          1