##TITLE=Library Entry 61822
##JCAMP-DX=Revision 4.10 
##DATA TYPE=MASS SPECTRUM
##SAMPLE DESCRIPTION=NIST Mass Spectrometry Data Center
##NAMES=HP
##CAS NAME=2-Bromophenethyl alcohol
##MOLFORM=C8H9BrO
##CAS REGISTRY NO=1074-16-4
##MP= -300
##BP= -300
##MW= 200
##$RETENTION INDEX=0
##$CONDENSED SPECTRUM=NO
##NPOINTS= 101
##XYDATA=(XY..XY) 1 
    15          1
    26          4
    27         10
    29         21
    31         75
    37          7
    38         20
    39         70
    40          9
    41          9
    42          2
    43         10
    44          3
    45          5
    46          2
    49          6
    50         54
    51         76
    52         12
    53          7
    55          2
    59          3
    60          4
    61         17
    62         56
    63        157
    64         48
    65         97
    66          8
    67          1
    73          6
    74         33
    75         34
    76         21
    77         88
    78         21
    79          6
    80          3
    81          4
    82          3
    83          1
    85          7
    86         15
    87         15
    89        373
    90        384
    91        999
    92         88
    93         47
    94          4
    95          1
    97          1
    98          3
    99          1
   101          8
   102         29
   103         41
   104         15
   105          3
   106          1
   107          1
   116          1
   117          8
   118          4
   119         20
   120         94
   121        584
   122         53
   123          3
   128          1
   129          2
   130          1
   131          2
   141          1
   143         11
   144          1
   145          9
   146          1
   155          1
   156          5
   157          2
   158          5
   159          1
   167          1
   169        482
   170        327
   171        492
   172        311
   173         22
   174          1
   180          1
   181          1
   182          6
   183          2
   184          5
   185          1
   200        111
   201         12
   202        108
   203          9
   204          1