##TITLE=Library Entry 11277
##JCAMP-DX=Revision 4.10 
##DATA TYPE=MASS SPECTRUM
##SAMPLE DESCRIPTION=LAC, NIDDK, NIH, Bethesda, MD 20892
##NAMES=HP
##CAS NAME=9-Hydroxytomatidine, o,N-diacetate
##MOLFORM=C31H49NO5
##CAS REGISTRY NO=107459-21-2
##MP= -300
##BP= -300
##MW= 515
##$RETENTION INDEX=0
##$CONDENSED SPECTRUM=NO
##NPOINTS= 232
##XYDATA=(XY..XY) 1 
    41        130
    43        999
    45         11
    47          2
    49          7
    51          3
    53         32
    55        312
    56         36
    57         35
    58         20
    60         23
    61         30
    65         12
    67        118
    69         99
    70         48
    71         33
    72         26
    73         19
    74          4
    77         30
    79         92
    81        143
    82         32
    83         28
    84         82
    86         57
    87          2
    91         88
    93        180
    95        185
    96         47
    97         25
    98         15
   100         16
   101         10
   103          6
   105        110
   107        143
   108         49
   109         62
   110         46
   112         70
   114        319
   115         24
   117         26
   119         46
   121        106
   122         55
   123         35
   124         46
   125         33
   126         36
   127         23
   128         16
   129          9
   131         36
   133         57
   135         58
   136         16
   138         53
   140         47
   141          9
   143         36
   145         83
   147         79
   149         75
   150         17
   152         51
   153          9
   155        247
   156        160
   157         38
   159         34
   161         42
   162        134
   163         56
   164         34
   165          5
   166         81
   168         35
   169          6
   171         15
   172          7
   173         20
   174         14
   175         47
   176         20
   177         15
   178         18
   180         64
   181         14
   183         19
   184          2
   185         25
   186          6
   187         16
   188          3
   189         10
   190          4
   191          5
   192          6
   194         12
   195          8
   197         13
   199         13
   200          1
   201          6
   202          2
   203          7
   204          9
   205          3
   206          9
   208          8
   209          6
   210          7
   211          7
   212          5
   213         11
   214          8
   215         27
   216          8
   217          5
   218          2
   220          4
   222         67
   223         43
   224         19
   225          7
   226          3
   227          8
   228          2
   229          2
   231          1
   232          3
   233          2
   234          7
   235          3
   236          1
   237          5
   238          2
   239          2
   241          1
   243          2
   246          2
   248          3
   251          6
   253        133
   254         29
   255          5
   260          1
   262          3
   263          3
   264         14
   265          3
   267         11
   269          6
   271          4
   272          2
   274          8
   275          3
   276         16
   277          4
   281          3
   282          5
   283         35
   284          8
   285          2
   287          2
   288          2
   290          3
   297          2
   300          3
   304          2
   308          2
   309          8
   310          2
   311          2
   312          4
   313         54
   314         13
   315          3
   318          2
   326          2
   327          5
   328          2
   330          2
   342          7
   343         12
   344          3
   346          1
   352          1
   368          2
   369          8
   370          1
   384          5
   385          5
   386          3
   404          3
   415         26
   416         10
   417          3
   437          2
   438          5
   440          2
   443          5
   444          6
   445          7
   446         59
   447         18
   448          2
   454          2
   455          1
   456          8
   457          3
   458          5
   459          3
   472         10
   473          5
   487          3
   497          3
   498          8
   499          2
   500        115
   501         26
   502          3
   514          3
   515         47
   516         16
   517          3
   518          0