##TITLE=Library Entry 97207
##JCAMP-DX=Revision 4.10 
##DATA TYPE=MASS SPECTRUM
##SAMPLE DESCRIPTION=L. Cohen, LC, NIDDK, NIH, Bethesda, MD 20892
##NAMES=HP
##CAS NAME=Imidazole, 4-[(2-bromo-1,1,2,2-tetrafluoro)ethyl]-
##MOLFORM=C5H3BrF4N2
##CAS REGISTRY NO=107553-28-6
##MP= -300
##BP= -300
##MW= 246
##$RETENTION INDEX=0
##$CONDENSED SPECTRUM=NO
##NPOINTS= 107
##XYDATA=(XY..XY) 1 
    41         13
    42          2
    43          5
    44         14
    45          3
    46         13
    49          1
    50         30
    51         17
    52         24
    53          3
    55          8
    56         13
    57          3
    58          3
    59          1
    62          5
    63         13
    64          1
    65          2
    66         13
    67         15
    68          2
    69         29
    70        124
    71         18
    72          2
    74         14
    75         31
    76          3
    77          1
    79         12
    81         14
    82          2
    83          1
    84          0
    85          0
    86          2
    87          1
    88          5
    89         37
    90        318
    91         12
    92          0
    93         26
    94          8
    95          1
    97          1
    98          4
    99          3
   100         15
   101          4
   102          2
   106          1
   108          1
   110          3
   111          1
   112          7
   113          3
   115          5
   116          8
   117        999
   118         58
   119          2
   120          7
   121         13
   122          1
   128          1
   129         23
   130          1
   131         19
   132          0
   135          0
   137          0
   139          3
   140          1
   141          1
   143          1
   146          1
   147          1
   148         67
   149          5
   150          1
   152          1
   153          1
   155          1
   160          1
   162          1
   166          1
   167         55
   168         12
   169          1
   170          3
   173          0
   177          4
   179          4
   191          1
   193          0
   195          2
   197          2
   227          9
   229          9
   246         92
   247         13
   248         86
   249         12
   250          0