##TITLE=Library Entry 67251
##JCAMP-DX=Revision 4.10 
##DATA TYPE=MASS SPECTRUM
##SAMPLE DESCRIPTION=V.A.Korolev, Moscow, Russia
##NAMES=HP
##CAS NAME=3-Amino-N-(pyridin-4-yl)propanamide
##MOLFORM=C8H11N3O
##CAS REGISTRY NO=107551-92-8
##MP= -300
##BP= -300
##MW= 165
##$RETENTION INDEX=0
##$CONDENSED SPECTRUM=NO
##NPOINTS= 72
##XYDATA=(XY..XY) 1 
    30         70
    37          6
    38          8
    39        164
    40        201
    41        192
    42        197
    43        374
    44        261
    45         86
    50         30
    51        127
    52         57
    53         25
    54         25
    55        151
    56         38
    57        115
    58         21
    59         11
    60          8
    63          3
    64         21
    65         24
    66         49
    67        246
    68         31
    69         48
    70         66
    71         63
    72         23
    73         16
    77          6
    78         73
    79         21
    80         13
    81         14
    82         11
    83         38
    84         24
    85         13
    87          5
    91          7
    92          9
    93         77
    94        999
    95        981
    96         53
    97         18
    98         10
   105          5
   107         27
   108          9
   109          6
   111         10
   112         28
   113         12
   119          7
   120         20
   121         45
   122         12
   123          3
   125          5
   129          8
   135        119
   136         91
   137          7
   147          4
   148         15
   149         15
   165        176
   166         17