##TITLE=Library Entry 85101
##JCAMP-DX=Revision 4.10 
##DATA TYPE=MASS SPECTRUM
##SAMPLE DESCRIPTION=Japan AIST/NIMC Database- Spectrum MS-IW-3421
##NAMES=HP
##CAS NAME=dl-Erythro-1-phenyl-1,2-propanediol
##MOLFORM=C9H12O2
##CAS REGISTRY NO=1075-04-3
##MP= -300
##BP= -300
##MW= 152
##$RETENTION INDEX=2363
##$CONDENSED SPECTRUM=NO
##NPOINTS= 82
##XYDATA=(XY..XY) 1 
    14          1
    15          7
    17          1
    18          7
    19          7
    26          4
    27         40
    28          7
    29         32
    30          1
    31          9
    37          2
    38          8
    39         42
    40          4
    41          9
    42          6
    43         48
    44          4
    45        132
    46          3
    49          2
    50         37
    51        110
    52         31
    53         24
    54          1
    55          7
    56          6
    57         11
    58          3
    59          4
    60          1
    61          3
    62          9
    63         25
    64          7
    65         19
    66          3
    67          1
    68          1
    69          1
    71          1
    73          2
    74         12
    75          9
    76          9
    77        365
    78         78
    79        861
    80         72
    81          3
    86          2
    87          2
    88          1
    89         34
    90         62
    91         78
    92         10
    93          2
    94          1
   102          1
   103          8
   104          2
   105        102
   106         23
   107        965
   108        999
   109         81
   110          5
   115          8
   116          2
   117         10
   118          7
   119         18
   120          3
   121          1
   131          1
   133          6
   134          8
   135          3
   152          1