##TITLE=Library Entry 78689
##JCAMP-DX=Revision 4.10 
##DATA TYPE=MASS SPECTRUM
##SAMPLE DESCRIPTION=James Little,Eastman Chem.Co.,Kingsport,TN
##NAMES=HP
##CAS NAME=Ethanone, 2,2-dihydroxy-1-phenyl-
##MOLFORM=C8H8O3
##CAS REGISTRY NO=1075-06-5
##MP= -300
##BP= -300
##MW= 152
##$RETENTION INDEX=0
##$CONDENSED SPECTRUM=NO
##NPOINTS= 21
##XYDATA=(XY..XY) 1 
    27         19
    28         82
    29         54
    37         29
    38         30
    39         24
    49         25
    50        155
    51        320
    52         21
    61         16
    62         16
    63         13
    73         18
    74         62
    75         30
    76         35
    77        862
    78         65
   105        999
   106         86