##TITLE=Library Entry 51077
##JCAMP-DX=Revision 4.10 
##DATA TYPE=MASS SPECTRUM
##SAMPLE DESCRIPTION=Chemical Concepts
##NAMES=HP
##CAS NAME=2-Oxabicyclo[2.2.2]octan-6-one, 1,3,3-trimethyl-
##MOLFORM=C10H16O2
##CAS REGISTRY NO=107598-08-3
##MP= -300
##BP= -300
##MW= 168
##$RETENTION INDEX=1217
##$CONDENSED SPECTRUM=NO
##NPOINTS= 79
##XYDATA=(XY..XY) 1 
    26          6
    27         78
    28         22
    29         51
    31         13
    38          6
    39        132
    40         27
    41        288
    42         35
    43        567
    44         19
    45         16
    50          9
    51         22
    52         18
    53         66
    54         28
    55        183
    56         33
    57         17
    58         49
    59         32
    60          2
    63          4
    65         15
    66         10
    67        239
    68         41
    69        212
    70         48
    71         76
    72          6
    73          2
    77         16
    78          5
    79         36
    80          7
    81         52
    82        999
    83        147
    84         40
    85         12
    86          2
    91         11
    92          2
    93         29
    94          7
    95         14
    96         11
    97         86
    98         17
    99          7
   105          3
   107         32
   108         37
   109         35
   110         10
   111        102
   112         15
   113          2
   121          2
   122          8
   123          4
   124          5
   125         29
   126         18
   127          2
   135          5
   140        256
   141         27
   142          1
   149          6
   151          2
   153          3
   166          2
   168         82
   169         11
   170          2