##TITLE=Library Entry 97208
##JCAMP-DX=Revision 4.10 
##DATA TYPE=MASS SPECTRUM
##SAMPLE DESCRIPTION=L. Cohen, LC, NIDDK, NIH, Bethesda, MD 20892
##NAMES=HP
##CAS NAME=Imidazole, 2-[2-bromo-1,1,2,2-tetrafluoroethyl]-
##MOLFORM=C5H3BrF4N2
##CAS REGISTRY NO=107553-24-2
##MP= -300
##BP= -300
##MW= 246
##$RETENTION INDEX=0
##$CONDENSED SPECTRUM=NO
##NPOINTS= 119
##XYDATA=(XY..XY) 1 
    41         46
    42          5
    43          8
    44         13
    45          7
    46         14
    47          0
    49          1
    50         25
    51         13
    52         18
    53          7
    54          0
    55         10
    56          4
    57          5
    58          4
    59          1
    62          5
    63         13
    64          1
    65          2
    66         14
    67          6
    68          1
    69         30
    70        100
    71         11
    72          1
    74         17
    75         11
    76         11
    77          4
    78          0
    79         10
    80          0
    81         11
    82          3
    83          3
    84          1
    85          1
    86          2
    88          5
    89         36
    90        264
    91         11
    92          0
    93         43
    94         12
    95          2
    96          0
    97         15
    98          6
    99          3
   100         28
   101          5
   102          3
   105          0
   106          1
   107          2
   108          4
   110          3
   111          1
   112         12
   113          2
   114          0
   115          0
   116         11
   117        999
   118         70
   119          3
   120          6
   121         18
   122          1
   124          0
   125          0
   126          0
   127          1
   128          0
   129         26
   130          0
   131         25
   136          0
   138          0
   139          5
   140          1
   141          3
   143          2
   145          0
   146          0
   147          8
   148         77
   149          6
   150          0
   152          0
   153          1
   155          2
   160          2
   162          2
   167         68
   168         11
   169          0
   170          5
   177          2
   179          4
   181          3
   191          1
   193          1
   195          2
   197          1
   207          2
   209          2
   227          3
   229          2
   246         80
   247         12
   248         89
   249         13
   250          0