##TITLE=Library Entry 77018
##JCAMP-DX=Revision 4.10 
##DATA TYPE=MASS SPECTRUM
##SAMPLE DESCRIPTION=D.HENNEBERG, MAX-PLANCK INSTITUTE, MULHEIM, WEST GERMAN
Y
##NAMES=HP
##CAS NAME=Benzene, 4-pentenyl-
##MOLFORM=C11H14
##CAS REGISTRY NO=1075-74-7
##MP= -300
##BP= -300
##MW= 146
##$RETENTION INDEX=1140
##$CONDENSED SPECTRUM=NO
##NPOINTS= 94
##XYDATA=(XY..XY) 1 
    26         43
    27        110
    28        157
    29         52
    30          1
    31          1
    32         16
    34          0
    37          4
    38         16
    39        185
    40         22
    41         67
    42          8
    43          3
    44          6
    45          1
    48          0
    49          2
    50         39
    51        115
    52         28
    53         36
    54         10
    55         52
    56          5
    57          5
    58          2
    61          2
    62         14
    63         50
    64         14
    65        188
    66         14
    67         27
    68         25
    69          3
    70          1
    72          0
    73          2
    74         10
    75         10
    76         10
    77        138
    78         79
    79         92
    80          4
    81          1
    83          1
    84          0
    85          1
    86          1
    87          4
    88          2
    89         26
    90         16
    91        815
    92        371
    93         25
    96          0
    97          0
    98          1
   100          1
   102         11
   103         72
   104        999
   105        304
   106         23
   107          0
   108          0
   112          0
   113          1
   114          2
   115         36
   116         12
   117         93
   118         30
   119          4
   120          1
   121          0
   127          4
   128         12
   129          7
   130          4
   131         38
   132          7
   134          0
   139          0
   141          3
   142          1
   143          1
   145          4
   146         64
   147          8