##TITLE=Library Entry 32344
##JCAMP-DX=Revision 4.10 
##DATA TYPE=MASS SPECTRUM
##SAMPLE DESCRIPTION=NIST Mass Spectrometry Data Center
##NAMES=HP
##CAS NAME=1,1-Cyclopentanediacetimide
##MOLFORM=C9H13NO2
##CAS REGISTRY NO=1075-89-4
##MP= -300
##BP= -300
##MW= 167
##$RETENTION INDEX=0
##$CONDENSED SPECTRUM=NO
##NPOINTS= 71
##XYDATA=(XY..XY) 1 
    14          5
    15         49
    18          2
    26         46
    27        322
    28        114
    29         59
    30         18
    37         13
    39        689
    40        193
    41        476
    42        216
    43         86
    44         56
    45          9
    46         11
    48          6
    50         46
    51        105
    52         89
    53        253
    54        434
    55        193
    56         32
    57          8
    59         44
    60         30
    63         23
    64         10
    65         79
    67        999
    68        232
    69         33
    70         52
    77         77
    78         22
    79        137
    80        110
    81        592
    82        635
    83         71
    84         32
    85         13
    91         15
    93         13
    94         26
    95        218
    96        345
    97         93
    98         31
    99         14
   106         53
   107         21
   108         87
   109        139
   110         29
   111         26
   112         58
   113         16
   122         28
   124        181
   125        277
   126        308
   127         25
   138         18
   139         97
   150         21
   152         20
   167        441
   168         47