##TITLE=Library Entry 34406
##JCAMP-DX=Revision 4.10 
##DATA TYPE=MASS SPECTRUM
##SAMPLE DESCRIPTION=Chemical Concepts
##NAMES=HP
##CAS NAME=2-Hexanol, 1-mercapto-
##MOLFORM=C6H14OS
##CAS REGISTRY NO=107513-39-3
##MP= -300
##BP= -300
##MW= 134
##$RETENTION INDEX=0
##$CONDENSED SPECTRUM=NO
##NPOINTS= 93
##XYDATA=(XY..XY) 1 
    25          1
    26         11
    27        170
    28         69
    29        156
    30          7
    31         94
    32         10
    33          6
    34         16
    35          7
    36          0
    37          2
    38          8
    39         96
    40         33
    41        720
    42         55
    43        195
    44         56
    45        135
    46         24
    47        130
    48        125
    49         94
    50         11
    51         12
    52          2
    53         24
    54          9
    55        108
    56         19
    57         82
    58         30
    59        186
    60         55
    61         27
    62          3
    63          4
    64          0
    65          5
    66          2
    67         60
    68         12
    69        999
    70         58
    71         10
    72          2
    73         17
    74         43
    75         12
    76         12
    77         80
    78          2
    79          6
    80          1
    81         10
    82         36
    83         25
    84         65
    85          5
    86         39
    87        345
    88         19
    89          1
    90          0
    91          0
    93          0
    94          0
    95          1
    96          1
    97          1
    98          1
    99          0
   100          2
   101          4
   102          5
   103         13
   104          1
   105          1
   113          0
   114          0
   115          2
   116         31
   117         12
   118          1
   119          1
   131          0
   132          0
   133          2
   134         19
   135          1
   136          0