##TITLE=Library Entry 11298
##JCAMP-DX=Revision 4.10 
##DATA TYPE=MASS SPECTRUM
##SAMPLE DESCRIPTION=LAC, NIDDK, NIH, Bethesda, MD 20892
##NAMES=HP
##CAS NAME=7.alpha.,11.alpha.-Dihydroxytomatidine, O,O,O,N-tetraacetate
##MOLFORM=C35H53NO8
##CAS REGISTRY NO=107579-33-9
##MP= -300
##BP= -300
##MW= 615
##$RETENTION INDEX=0
##$CONDENSED SPECTRUM=NO
##NPOINTS= 232
##XYDATA=(XY..XY) 1 
    41        111
    42         75
    43        999
    44         55
    45         18
    47          7
    49         35
    51         12
    53         17
    54         18
    55        184
    56         36
    57         44
    58         29
    60         31
    61         26
    65          7
    67         80
    68         36
    69         95
    70         58
    71         44
    72         24
    73         18
    77         22
    78          6
    79         74
    80         11
    81        103
    82         30
    83         43
    84         76
    85         14
    86         53
    91         77
    92         17
    93        103
    94         33
    95         96
    96         43
    97         26
    98         28
    99          8
   100         18
   101         10
   103          5
   104          5
   105         87
   106         25
   107         83
   108         40
   109         66
   110         47
   111         34
   112         54
   113         30
   114        277
   115         26
   116          6
   117         28
   118         23
   119         57
   120         14
   121         63
   122         23
   123         23
   124         47
   125         37
   126         39
   127         37
   128         28
   129         25
   130         12
   131         55
   132         19
   133         39
   134         18
   135         27
   136         13
   137         10
   138         58
   139         18
   140         76
   141         22
   142         16
   143         54
   144         18
   145         57
   146         17
   147         38
   148         22
   149         44
   150         23
   151          9
   152         50
   153         14
   155        258
   156        208
   157         59
   158         15
   159         39
   160         15
   161         31
   162         59
   163         41
   164         32
   165         38
   166        100
   167         28
   168         40
   169         26
   170         14
   171         22
   172         14
   173         21
   174         13
   175         18
   176         15
   177          7
   178         13
   179          7
   180         58
   181         23
   182         14
   183         28
   184         11
   185         15
   186         13
   187         11
   188         10
   189         11
   190          7
   191          6
   192          6
   193          6
   194          9
   195         16
   196          5
   197         23
   198          8
   199         11
   200          5
   201          5
   202          7
   203          8
   204         12
   205         10
   206          6
   207          6
   208         11
   209         17
   210         15
   211         18
   212         10
   213         13
   214          6
   215          7
   218          5
   220          5
   221          5
   222         34
   223         24
   224         11
   225          9
   226          5
   235          8
   237          7
   249         14
   250          8
   251         38
   252         13
   253         17
   262          8
   263          5
   265         11
   267          9
   279         12
   280          9
   281         27
   282          7
   283          7
   288          6
   307          7
   309         11
   311         94
   312         20
   313         19
   314          5
   339          6
   340         10
   341         21
   342          7
   343          5
   364          6
   366          6
   367          7
   371         20
   372          5
   436          9
   486          8
   488         15
   494          5
   495          9
   496         10
   497          5
   498          6
   512          6
   514         10
   515         15
   516          6
   540          9
   542         34
   543         14
   544          8
   546         51
   547         14
   553          6
   554         13
   555         11
   556         24
   557         20
   558         13
   572         16
   573          8
   598         15
   599          7
   600        115
   601         41
   602         10
   615         41
   616         13
   617          5