##TITLE=Library Entry 77711
##JCAMP-DX=Revision 4.10 
##DATA TYPE=MASS SPECTRUM
##SAMPLE DESCRIPTION=F. TURECEK,HEYROVSKY INST PHYS CHEM & ELECTROCHEM,PRAGU
E,CZECH
##NAMES=HP
##CAS NAME=5,6,7,8,9,10-Hexahydrobenzocyclooctene
##MOLFORM=C12H16
##CAS REGISTRY NO=1076-69-3
##MP= -300
##BP= -300
##MW= 160
##$RETENTION INDEX=0
##$CONDENSED SPECTRUM=NO
##NPOINTS= 64
##XYDATA=(XY..XY) 1 
    27         60
    29         20
    38         10
    39        110
    40         20
    41         80
    42         10
    43         10
    50         30
    51         80
    52         30
    53         40
    54         10
    55         30
    62         10
    63         50
    64         30
    65        100
    66         10
    67         50
    68         40
    69         20
    74         10
    75         10
    76         20
    77        140
    78        150
    79         90
    80         30
    81         20
    82         20
    89         40
    90         10
    91        540
    92        150
    93         20
    94         10
   101         10
   102         30
   103        140
   104        999
   105        440
   106        110
   107         10
   115        240
   116        110
   117        770
   118        290
   119         90
   120         20
   121         10
   127         30
   128         70
   129         60
   130         40
   131        500
   132        160
   133         30
   134         10
   145        180
   146         20
   160        840
   161        110
   162         20