##TITLE=Library Entry 50612
##JCAMP-DX=Revision 4.10 
##DATA TYPE=MASS SPECTRUM
##SAMPLE DESCRIPTION=NIST Mass Spectrometry Data Center, 1994
##NAMES=HP
##CAS NAME=1,4-Cyclohexanedicarboxylic acid
##MOLFORM=C8H12O4
##CAS REGISTRY NO=1076-97-7
##MP= -300
##BP= -300
##MW= 172
##$RETENTION INDEX=0
##$CONDENSED SPECTRUM=NO
##NPOINTS= 78
##XYDATA=(XY..XY) 1 
    12          5
    16          0
    17          4
    18         12
    19          1
    26         24
    27        321
    28         81
    29         90
    30          0
    37          8
    38         41
    39        505
    40         86
    41        485
    42         68
    43        232
    44          0
    45        419
    46         22
    47         24
    50         48
    51        113
    52         48
    53        225
    54        349
    55        362
    56         39
    57         62
    58         14
    60         19
    63         19
    65         57
    66        101
    67        346
    68        112
    69         75
    70         14
    71         22
    72         14
    73        157
    75         11
    77        107
    78         25
    79        345
    80        545
    81        999
    82        104
    83         28
    84         21
    85         24
    86         94
    87         21
    91         21
    92         10
    93          7
    94         32
    95         47
    96          7
    97         95
    98         23
    99         30
   100         15
   104         19
   105         13
   108        794
   109        105
   110         20
   111         38
   112         64
   113          6
   121          5
   126        676
   127         67
   128         18
   136         55
   154         80
   155         12