##TITLE=Library Entry 67422
##JCAMP-DX=Revision 4.10 
##DATA TYPE=MASS SPECTRUM
##SAMPLE DESCRIPTION=NIST Mass Spectrometry Data Center
##NAMES=HP
##CAS NAME=(3S,4aR,8aR)-1,1,3,6-Tetramethyl-3-vinyl-3,4,4a,7,8,8a-hexahydro-
1H-isochromene
##MOLFORM=C15H24O
##CAS REGISTRY NO=107602-55-1
##MP= -300
##BP= -300
##MW= 220
##$RETENTION INDEX=1469
##$CONDENSED SPECTRUM=NO
##NPOINTS= 78
##XYDATA=(XY..XY) 1 
    27         19
    29         15
    31          3
    39         42
    40         10
    41        129
    42         12
    43        205
    44          4
    45         16
    50          3
    51         19
    52          9
    53         64
    54          9
    55        110
    57         10
    59         26
    64          3
    65         36
    66         14
    67         34
    69        202
    70         19
    71         34
    72          3
    77        151
    78         30
    79        362
    80         39
    81         49
    82         31
    85          8
    86          3
    89          5
    91        205
    92         42
    93        461
    94        999
    95         80
   105         98
   106         53
   107        228
   108         43
   113         10
   115         11
   116          5
   119         39
   120         16
   121         33
   122         20
   129          5
   133         10
   134         11
   135        673
   136         79
   137         40
   143          5
   145         15
   146          4
   147         65
   148          6
   149          6
   150         14
   158          5
   159         27
   162         12
   163          8
   174          5
   177         11
   187         25
   188          6
   193          2
   202         13
   203          2
   205        218
   206         35
   220          4