##TITLE=Library Entry 67421
##JCAMP-DX=Revision 4.10 
##DATA TYPE=MASS SPECTRUM
##SAMPLE DESCRIPTION=NIST Mass Spectrometry Data Center
##NAMES=HP
##CAS NAME=(3S,4aS,8aS)-1,1,3,6-Tetramethyl-3-vinyl-3,4,4a,7,8,8a-hexahydro-
1H-isochromene
##MOLFORM=C15H24O
##CAS REGISTRY NO=107602-54-0
##MP= -300
##BP= -300
##MW= 220
##$RETENTION INDEX=1447
##$CONDENSED SPECTRUM=NO
##NPOINTS= 82
##XYDATA=(XY..XY) 1 
    27         15
    29         15
    31          3
    39         37
    41        113
    42         11
    43        179
    44          5
    45         13
    50          2
    51         19
    52          9
    53         60
    55         75
    59         18
    63          5
    64          2
    65         35
    66         13
    67         41
    68         15
    69        131
    72          3
    75          1
    77        135
    78         35
    79        358
    80         34
    89          4
    91        210
    92         39
    93        333
    94        999
    95         95
   102          2
   103         13
   104          5
   105        110
   106         60
   107        173
   108         31
   113         11
   115         12
   116          5
   117         15
   118          3
   119         52
   120         17
   128          6
   130          2
   131         14
   132          3
   133         24
   134         15
   135        367
   136         42
   137         45
   138          5
   145         12
   146          3
   147         82
   148         61
   149         21
   150         15
   158          2
   159         18
   160          5
   162         53
   163          9
   164          3
   174          3
   176          2
   177          9
   187         15
   188          3
   191          7
   193          7
   202          8
   205        101
   206         16
   220         17
   221          4