##TITLE=Library Entry 36431
##JCAMP-DX=Revision 4.10 
##DATA TYPE=MASS SPECTRUM
##SAMPLE DESCRIPTION=NIST Mass Spectrometry Data Center, 2010
##NAMES=HP
##CAS NAME=3-Chloro-1,2-propanediol, bis(trifluoroacetate)
##MOLFORM=C7H5ClF6O4
##CAS REGISTRY NO=1076216-63-1
##MP= -300
##BP= -300
##MW= 302
##$RETENTION INDEX=0
##$CONDENSED SPECTRUM=NO
##NPOINTS= 112
##XYDATA=(XY..XY) 1 
    14          1
    15          7
    26          6
    27         35
    28         12
    29         62
    30          4
    31         11
    33          7
    35          1
    36          1
    37          3
    38          7
    39         58
    40          9
    41         27
    42         11
    43         95
    44          5
    45          4
    46          2
    47          4
    48          3
    49         53
    50         35
    51         21
    52          1
    53          1
    55          9
    56          5
    57         39
    59         67
    60          5
    61         12
    62          7
    63         13
    64          3
    65         43
    67          5
    69        999
    71          5
    72          1
    73          2
    74         22
    75        298
    76         19
    77        103
    78         42
    79          3
    81        164
    83         58
    85          5
    87          2
    89         17
    91         25
    92          1
    93         13
    95         19
    96          8
    97        177
    99        272
   101          1
   105          1
   109          3
   111          2
   112         26
   113          3
   115          4
   117          1
   119          9
   121          4
   125         65
   126          3
   127         34
   128          5
   129          1
   131          3
   133          9
   135         16
   139         36
   140        102
   141          6
   142          1
   146          2
   147          1
   148          1
   153        653
   154         36
   155          5
   159         12
   160          1
   161          2
   169          1
   175        370
   176         17
   177        123
   178          5
   179          1
   183          6
   188         46
   189         77
   190         18
   191         25
   192          1
   196          2
   197          1
   205          3
   225          2
   237          1
   253        477
   254         31
   255          5