##TITLE=Library Entry 67144
##JCAMP-DX=Revision 4.10 
##DATA TYPE=MASS SPECTRUM
##SAMPLE DESCRIPTION=NIST Mass Spectrometry Data Center
##NAMES=HP
##CAS NAME=(3S,4aS,8aR)-1,1,3,6-Tetramethyl-3-vinyl-3,4,4a,7,8,8a-hexahydro-
1H-isochromene
##MOLFORM=C15H24O
##CAS REGISTRY NO=107602-53-9
##MP= -300
##BP= -300
##MW= 220
##$RETENTION INDEX=1465
##$CONDENSED SPECTRUM=NO
##NPOINTS= 103
##XYDATA=(XY..XY) 1 
    26          1
    27         12
    29         11
    31          2
    38          1
    39         31
    40          8
    41         85
    42          9
    43        146
    44          4
    45         10
    50          2
    51         13
    52          7
    53         48
    54          5
    55         61
    56          3
    57          7
    58          2
    59         14
    60          1
    62          1
    63          4
    64          2
    65         27
    66          8
    67         41
    68         14
    69         65
    70          7
    71         21
    72          2
    75          1
    77        114
    78         28
    79        335
    80         31
    81         71
    82         17
    83          3
    84          1
    85          2
    86          1
    87          1
    89          3
    90          1
    91        158
    92         30
    93        269
    94        999
    95        102
    96          6
    97          2
    99          1
   102          1
   103          8
   104          3
   105         80
   106         42
   107         97
   108         19
   109         15
   110          2
   111          3
   113         13
   114          1
   116          3
   119         50
   120         14
   121         22
   122          7
   123          3
   125          1
   135        113
   136         14
   137         29
   138          3
   145          9
   147         64
   148         45
   149         23
   150          6
   151          2
   152          1
   162         30
   163          7
   164          2
   175          3
   176          9
   177         34
   178          5
   187          7
   188          1
   191          8
   192          2
   193          2
   205         69
   206         11
   207          1
   220          6
   221          1