##TITLE=Library Entry 35167
##JCAMP-DX=Revision 4.10 
##DATA TYPE=MASS SPECTRUM
##SAMPLE DESCRIPTION=A.Pleshkova, Nesmeyanov Inst.Org.Elem.Cpds, Moscow
##NAMES=HP
##CAS NAME=4,4,5,5,6,6,7,7,8,8,9,9,9-Tridecafluoro-1,2-nonanediol
##MOLFORM=C9H7F13O2
##CAS REGISTRY NO=107650-06-6
##MP= -300
##BP= -300
##MW= 394
##$RETENTION INDEX=0
##$CONDENSED SPECTRUM=NO
##NPOINTS= 70
##XYDATA=(XY..XY) 1 
    42         54
    43        305
    44         30
    45         47
    46         18
    49        519
    50         26
    51         85
    57        105
    58         10
    59         42
    61        788
    62         22
    63          4
    65        159
    66          3
    69        999
    70         12
    75        127
    76         31
    77        111
    78          5
    93        254
    94         18
    95        340
    96         23
    97          2
   100        215
   101         19
   102          2
   119        306
   120         13
   131        352
   132         12
   133         20
   134          1
   145         50
   146          3
   157         84
   158          6
   163         71
   164          3
   169        106
   170          9
   175         15
   176          7
   181         70
   182          3
   219         28
   220          2
   225         49
   226          3
   231        105
   232          6
   245         34
   246          1
   269         12
   275         46
   276         11
   295        308
   296         24
   297          4
   337         13
   363        488
   364         44
   365          3
   376          3
   377          2
   393          2
   394          2