##TITLE=Library Entry 43080
##JCAMP-DX=Revision 4.10 
##DATA TYPE=MASS SPECTRUM
##SAMPLE DESCRIPTION=J.M. Halket, Trace Anal. Unit (TAU), London, UK
##NAMES=HP
##CAS NAME=L-Valine, 2TBDMS derivative
##MOLFORM=C17H39NO2Si2
##CAS REGISTRY NO=107715-89-9
##MP= -300
##BP= -300
##MW= 345
##$RETENTION INDEX=1659
##$CONDENSED SPECTRUM=NO
##NPOINTS= 116
##XYDATA=(XY..XY) 1 
    39         33
    41        172
    42         15
    43         85
    44         21
    45        103
    46         10
    47         26
    52          1
    53          5
    55         41
    56         39
    57        193
    58         55
    59        196
    60         28
    61         17
    66          4
    67          3
    68          7
    69         13
    70         10
    71          8
    73        999
    74        106
    75        141
    76         11
    77          5
    81          3
    82          8
    83          7
    84          6
    85         19
    86         17
    87          9
    88          6
    89          1
    95          1
    96          3
    97          4
    98         10
    99         17
   100         12
   101          9
   102         10
   103         43
   104          5
   105          4
   108          1
   110          1
   112         13
   113          2
   114         42
   115         53
   116         12
   117         22
   118          9
   119         12
   120          1
   126          2
   128         32
   129         23
   130         29
   131         17
   132         63
   133         94
   134         17
   135          8
   142         17
   143          9
   144          5
   145         10
   147        266
   148         47
   149         32
   150          4
   156         29
   157          7
   158          6
   159          3
   160         37
   161          6
   162          4
   170          7
   171          3
   172          4
   173          3
   174          7
   175          3
   176          1
   183          1
   186        652
   187        109
   188         32
   189         16
   190          3
   198          1
   202          3
   216         14
   217          3
   218          5
   245          4
   258          2
   260        291
   261         71
   262         26
   263          4
   288        161
   289         41
   290         16
   291          3
   302         82
   303         21
   304          9
   330         12
   331          3