##TITLE=Library Entry 44333
##JCAMP-DX=Revision 4.10 
##DATA TYPE=MASS SPECTRUM
##SAMPLE DESCRIPTION=J.M. Halket, Trace Anal. Unit (TAU), London, UK
##NAMES=HP
##CAS NAME=L-Histidine, N,1-bis(tert-butyldimethylsilyl)-, tert-butyldimethy
lsilyl ester
##MOLFORM=C24H51N3O2Si3
##CAS REGISTRY NO=107716-00-7
##MP= -300
##BP= -300
##MW= 497
##$RETENTION INDEX=2584
##$CONDENSED SPECTRUM=NO
##NPOINTS= 163
##XYDATA=(XY..XY) 1 
    39          9
    41         49
    42          4
    43         18
    44          7
    45         45
    46          4
    47          8
    54          3
    55          7
    56         12
    57         61
    58         26
    59         77
    60          7
    61          5
    69          4
    70          4
    71          4
    73        999
    74         91
    75         84
    76          5
    77          3
    81          8
    82         10
    83         13
    84         15
    85         13
    86          6
    87          5
    96          3
    97          5
    98          8
    99         11
   100          8
   101          2
   102          2
   103          6
   110          5
   111          6
   112         13
   113         12
   114          4
   115         20
   116          5
   117          6
   118          3
   119          4
   120          9
   121          2
   125          4
   128          3
   130          7
   131          8
   132         29
   133         27
   134          6
   135          4
   138          3
   139         10
   140         25
   141          4
   142          5
   145          2
   146          9
   147         45
   148          9
   149          6
   150          4
   151          4
   152          4
   154          2
   155          2
   156          3
   158          2
   159          3
   160         17
   161          4
   162          4
   165          3
   166         22
   167          8
   168          6
   169          3
   170          2
   174          2
   181          5
   182          3
   183          3
   188          2
   189          3
   192          2
   193          2
   194          7
   196        536
   197        122
   198         30
   199          5
   208          4
   209          4
   213          3
   216          4
   218          2
   223          4
   224         13
   225          8
   226          3
   240          4
   241          3
   245         10
   246          2
   254          2
   266          3
   268         11
   269          3
   270          2
   280         38
   281         13
   282          9
   283          4
   298          2
   299         33
   300          9
   301          4
   302         48
   303         13
   304          5
   308         26
   309          8
   310          5
   311          2
   322          4
   323          2
   326          2
   336          4
   338        177
   339         54
   340         21
   341          6
   350          4
   383          2
   412         29
   413         11
   414          5
   422         13
   423          6
   424          3
   425          2
   440        777
   441        295
   442        135
   443         32
   444          6
   454          3
   482         60
   483         23
   484         11
   485          3
   496          3
   497         13
   498          6
   499          3