##TITLE=Library Entry 44317
##JCAMP-DX=Revision 4.10 
##DATA TYPE=MASS SPECTRUM
##SAMPLE DESCRIPTION=NIST Mass Spectrometry Data Center
##NAMES=HP
##CAS NAME=L-Glutamic acid, 3TBDMS derivative
##MOLFORM=C23H51NO4Si3
##CAS REGISTRY NO=107715-97-9
##MP= -300
##BP= -300
##MW= 489
##$RETENTION INDEX=2264
##$CONDENSED SPECTRUM=NO
##NPOINTS= 253
##XYDATA=(XY..XY) 1 
    27          2
    29         11
    31          1
    39          5
    40          1
    41         37
    42          2
    43          7
    44          2
    45         23
    46          2
    47          8
    53          1
    54          2
    55         18
    56         31
    57         62
    58         24
    59         83
    60         12
    61          9
    62          1
    66          1
    67          1
    68          6
    69          3
    70          2
    71          2
    73        999
    74        100
    75        184
    76         13
    77          6
    81          1
    82          2
    83          4
    84         92
    85         23
    86         10
    87          7
    88          4
    89          2
    94          1
    95          5
    96          2
    97          4
    98         10
    99         27
   100         78
   101         23
   102          9
   103         23
   104          3
   105          2
   108          1
   110          2
   111          1
   112          9
   113          6
   114         30
   115         52
   116         18
   117         20
   118          6
   119         10
   120          2
   121          1
   124          1
   125          1
   126          4
   127          1
   128          9
   129         61
   130         18
   131         25
   132         42
   133        121
   134         22
   135         14
   136          2
   137          1
   139          1
   140         10
   141          4
   142         22
   143          8
   144          8
   145          6
   146         15
   147        334
   148         67
   149        146
   150         21
   151         11
   152          2
   153          1
   154          3
   155          4
   156          8
   157          6
   158         25
   159         12
   160         20
   161          6
   162          4
   163          1
   168          3
   169          3
   170         75
   171         16
   172         11
   173         16
   174         33
   175         10
   176          5
   177          7
   178          1
   179          1
   182          1
   183          1
   184          2
   185          2
   186          5
   187          3
   188          5
   189         21
   190          9
   191          8
   192          2
   193          1
   196          1
   198         19
   199          4
   200          5
   201          2
   202          8
   203          6
   204          2
   205          4
   206          4
   207         10
   208          3
   209          1
   213          1
   214          8
   215          2
   216         10
   217          2
   218          3
   219          1
   220          1
   221          8
   222          2
   223          1
   226          1
   228          2
   230          3
   231          2
   232          4
   233          1
   234          1
   242          1
   243          2
   244         20
   245         16
   246         21
   247          5
   248          2
   249          1
   256          5
   257          1
   258          7
   259          2
   260         12
   261          2
   262          1
   263          1
   270          1
   272        250
   273         62
   274         28
   275          5
   276          1
   284          1
   286          1
   287          1
   288          2
   289          1
   290          1
   291          1
   300         46
   301         13
   302         21
   303          6
   304          2
   305          1
   312          1
   314          7
   315          2
   316          2
   317          1
   318          3
   319          1
   328          3
   330        547
   331        157
   332         60
   333         11
   334          2
   340          1
   342         20
   343          6
   344          2
   345          1
   356          2
   358         82
   359         25
   360         10
   361          2
   374          2
   375          1
   376          1
   388          1
   404         88
   405         32
   406         15
   407          3
   408          1
   414          2
   415          1
   416          7
   417          4
   418          1
   419          1
   430          1
   432        772
   433        295
   434        135
   435         35
   436          8
   437          1
   446          4
   447          1
   448          1
   458          1
   474         33
   475         13
   476          6
   477          1
   489          9
   490          3
   491          2
   492          1