##TITLE=Library Entry 43881
##JCAMP-DX=Revision 4.10 
##DATA TYPE=MASS SPECTRUM
##SAMPLE DESCRIPTION=NIST Mass Spectrometry Data Center
##NAMES=HP
##CAS NAME=L-Lysine, 3TBDMS derivative
##MOLFORM=C24H56N2O2Si3
##CAS REGISTRY NO=107715-99-1
##MP= -300
##BP= -300
##MW= 488
##$RETENTION INDEX=2370
##$CONDENSED SPECTRUM=NO
##NPOINTS= 275
##XYDATA=(XY..XY) 1 
    27          1
    29          8
    30          3
    31          1
    39          5
    40          1
    41         22
    42          3
    43          7
    44          2
    45         19
    46          3
    47          4
    53          1
    54          3
    55          9
    56         42
    57         38
    58         24
    59        126
    60         17
    61          6
    62          1
    65          1
    66          1
    67          6
    68          2
    69          3
    70          8
    71          4
    73        999
    74        186
    75         94
    76          9
    77          3
    79          1
    80          1
    81          1
    82         12
    83          5
    84        216
    85         30
    86         28
    87         15
    88         73
    89          9
    90          4
    92          1
    93          1
    94         10
    95          2
    96          4
    97          5
    98         15
    99         24
   100         59
   101         14
   102         12
   103         31
   104         11
   105          3
   106          1
   107          1
   108          1
   109          2
   110          4
   111         12
   112         25
   113          9
   114         55
   115         43
   116         26
   117         19
   118          8
   119         10
   120          2
   121          1
   123          1
   124          5
   125          2
   126         12
   127          6
   128         22
   129          8
   130         82
   131         26
   132         55
   133        100
   134         20
   135          9
   136          5
   137          1
   138          3
   139          3
   140         56
   141         14
   142         52
   143         13
   144         73
   145         16
   146         29
   147        204
   148        102
   149         41
   150         11
   151          3
   152          2
   153          1
   154          4
   155          6
   156         22
   157         17
   158         26
   159         13
   160         17
   161          4
   162          4
   163          1
   165          1
   166          3
   167        101
   168         75
   169         15
   170        169
   171         29
   172         18
   173         16
   174         13
   175          4
   176          6
   177          1
   182          5
   183          4
   184         24
   185         10
   186         14
   187          5
   188         12
   189         11
   190          7
   191          2
   192          1
   196          6
   197          6
   198        329
   199         60
   200         20
   201          4
   202          5
   203          1
   204          4
   205          2
   206          4
   207          2
   208         14
   209          7
   210          5
   211          1
   212          3
   213          4
   214          7
   215          7
   216          7
   217          2
   218          2
   219          1
   220          1
   221          1
   222          1
   223          1
   224          2
   225         23
   226         14
   227          4
   228          2
   229          1
   230          4
   231          2
   232          2
   233          1
   234          1
   241          1
   242         13
   243          5
   244         12
   245          5
   246          3
   247          1
   248          1
   254          1
   255          1
   256         14
   257          5
   258          6
   259         14
   260          5
   261          2
   262          1
   269          1
   270          4
   271         15
   272        153
   273         40
   274         31
   275         11
   276          4
   277          1
   281          1
   282          3
   283          3
   284          3
   285          1
   286          2
   287          1
   288          4
   289          1
   290          1
   298          2
   299         96
   300        342
   301         93
   302         52
   303         15
   304          5
   305          1
   313          1
   314         34
   315         11
   316          7
   317          2
   318          1
   320          2
   321          1
   326          2
   327          1
   329        119
   330         37
   331         14
   332          3
   333          1
   339         21
   340         10
   341         22
   342         16
   343          5
   344          2
   345          1
   355          1
   356          3
   357          1
   358          1
   359          1
   373          1
   386          1
   403          2
   404          1
   413          1
   414          1
   415          1
   429          1
   431         96
   432         38
   433         17
   434          4
   435          1
   445          1
   473         10
   474          4
   475          2
   476          1
   488         52
   489         23
   490         10
   491          3
   492          1