##TITLE=Library Entry 43906
##JCAMP-DX=Revision 4.10 
##DATA TYPE=MASS SPECTRUM
##SAMPLE DESCRIPTION=J.M. Halket, Trace Anal. Unit (TAU), London, UK
##NAMES=HP
##CAS NAME=L-Tyrosine, 3TBDMS derivative
##MOLFORM=C27H53NO3Si3
##CAS REGISTRY NO=107716-01-8
##MP= -300
##BP= -300
##MW= 523
##$RETENTION INDEX=2650
##$CONDENSED SPECTRUM=NO
##NPOINTS= 167
##XYDATA=(XY..XY) 1 
    39         10
    41         53
    42          3
    43         13
    44          5
    45         40
    46          3
    47          7
    55          8
    56         18
    57         67
    58         20
    59         71
    60          7
    61          5
    69          1
    70          1
    71          1
    73        999
    74         93
    75         88
    76          5
    77          4
    83          1
    84          1
    85          8
    86          5
    87          5
    88          2
    89          3
    90          4
    91         17
    92          1
    97          1
    98          1
    99         11
   100          8
   101          2
   102          3
   103         21
   104          4
   105          7
   107         14
   115         43
   116          8
   117         11
   118          9
   119          8
   121          2
   128          4
   129          3
   130          7
   131         10
   132         41
   133         48
   134         10
   135         11
   136          1
   137          1
   142         15
   143          3
   144          2
   145          7
   146         11
   147        123
   148         25
   149         32
   150          5
   151          5
   158          2
   159          2
   160         40
   161         11
   162          7
   163         16
   164         11
   165         12
   166          2
   172          1
   173          3
   174          6
   175          5
   176         12
   177         11
   178          3
   179          8
   180          1
   188          3
   189          9
   190          5
   191          5
   192         14
   193          6
   194          1
   202          6
   203          2
   205          1
   206          1
   207          6
   208          1
   209          3
   216          2
   218         14
   219          5
   220          3
   221         45
   222         10
   223          6
   233          3
   234          4
   235          2
   237          2
   239          4
   244          2
   245         18
   246          5
   247          3
   248          4
   249          2
   250          6
   251          2
   260          3
   265          3
   266          6
   267          2
   287          2
   290          1
   292          4
   293          2
   294          4
   295          1
   299          2
   300          2
   302        772
   303        198
   304         74
   305         13
   306          6
   307          9
   308          7
   309          2
   322          3
   334          4
   335          2
   336          1
   348          3
   364         79
   365         25
   366         10
   367          2
   382          1
   411          1
   438         92
   439         38
   440         17
   441          4
   466        170
   467         68
   468         32
   469          8
   470          1
   480          7
   481          3
   508         26
   509         12
   510          6
   511          1