##TITLE=Library Entry 44117
##JCAMP-DX=Revision 4.10 
##DATA TYPE=MASS SPECTRUM
##SAMPLE DESCRIPTION=J.M. Halket, Trace Anal. Unit (TAU), London, UK
##NAMES=HP
##CAS NAME=L-Cystine, 4TBDMS derivative
##MOLFORM=C30H68N2O4S2Si4
##CAS REGISTRY NO=107716-02-9
##MP= -300
##BP= -300
##MW= 696
##$RETENTION INDEX=3180
##$CONDENSED SPECTRUM=NO
##NPOINTS= 236
##XYDATA=(XY..XY) 1 
    38          1
    39         12
    40          4
    41         36
    42          7
    43         15
    44         12
    45         35
    46          4
    47          9
    53          1
    54          4
    55         14
    56         10
    57         46
    58         17
    59         82
    60         11
    61          7
    69          3
    70          5
    71          2
    73        999
    74        101
    75        110
    76          8
    77          6
    82          1
    83          3
    84          4
    85          9
    86         10
    87          7
    88          5
    89          2
    90          2
    91          9
    92          1
    96          1
    97          3
    98          5
    99         16
   100        138
   101         38
   102         15
   103         34
   104          5
   105          7
   106         15
   107          2
   112          1
   113          3
   114          2
   115         67
   116         43
   117         14
   118         10
   119          4
   120          1
   121          1
   126          2
   128         10
   129         15
   130         14
   131         19
   132        128
   133         70
   134         18
   135          8
   136          1
   142         18
   143          3
   144         10
   145          4
   146         19
   147        176
   148         32
   149         31
   150          5
   151          3
   156          6
   157          7
   158          9
   159          7
   160         43
   161         13
   162          9
   163          2
   164          2
   165          2
   170          1
   171          3
   172          9
   173          8
   174         23
   175          6
   176          5
   177          2
   184          2
   185          2
   186          5
   188        323
   189         73
   190         51
   191         10
   192          5
   200          1
   201          1
   202         12
   203          3
   204          3
   205          1
   206          4
   207          8
   208          2
   214          6
   215          1
   216          7
   217          1
   218          8
   219          1
   220         13
   221          7
   222          4
   230         30
   231          9
   232          6
   233          1
   234         10
   235          3
   236          1
   242          8
   243          1
   244          8
   245         51
   246         19
   247          7
   248          4
   256          1
   258        444
   259        108
   260         45
   262        316
   263         73
   264         52
   265          9
   266          4
   272          1
   274          4
   275          2
   276          6
   277          5
   278          3
   281          1
   286          1
   287          4
   288          2
   289          1
   290         68
   291         19
   292         27
   293          6
   294          8
   295          2
   296          4
   297          1
   298          1
   299          1
   300         17
   302        506
   303        134
   304         54
   305         10
   306          4
   308          1
   314          1
   316         99
   317         28
   318         11
   319          3
   320          1
   322          1
   324          7
   325          1
   326          1
   330         11
   331          4
   332         19
   333         12
   334          6
   335          2
   336          1
   340          1
   344          6
   345          2
   346          6
   348        810
   349        234
   350        226
   351         53
   352         21
   353          4
   364          1
   365          2
   378          2
   380         10
   381         18
   382          8
   383          3
   404          2
   406          2
   407          1
   417          3
   418          1
   422          1
   439          3
   467          1
   507          8
   508          3
   509          2
   537         48
   538         22
   539         14
   540          5
   611          7
   612          3
   613          2
   639        140
   640         75
   641         46
   642         17
   643          7
   644          1
   681         10
   682          5
   683          3