##TITLE=Library Entry 43884
##JCAMP-DX=Revision 4.10 
##DATA TYPE=MASS SPECTRUM
##SAMPLE DESCRIPTION=NIST Mass Spectrometry Data Center
##NAMES=HP
##CAS NAME=L-Pyroglutamic acid, 2TBDMS derivative
##MOLFORM=C17H35NO3Si2
##CAS REGISTRY NO=107716-03-0
##MP= -300
##BP= -300
##MW= 357
##$RETENTION INDEX=1950
##$CONDENSED SPECTRUM=NO
##NPOINTS= 189
##XYDATA=(XY..XY) 1 
    27          4
    28          3
    29         22
    30          1
    31          3
    38          1
    39         11
    40          3
    41         60
    42          5
    43         24
    44          6
    45         53
    46          4
    47         14
    48          1
    49          1
    51          1
    52          1
    53          3
    54          3
    55         31
    56         20
    57         87
    58         58
    59        117
    60         14
    61         13
    62          1
    66         10
    67         18
    68          9
    69          6
    70          7
    71          5
    72         26
    73        999
    74         94
    75        153
    76         10
    77          5
    78          1
    80          2
    81          2
    82          3
    83          6
    84         48
    85         30
    86         29
    87          7
    88          2
    89          1
    93          6
    95          2
    96          2
    97          6
    98          9
    99         27
   100         23
   101          7
   102          4
   103         10
   104          2
   105          4
   107          6
   109          1
   110          4
   111          2
   112         19
   113         10
   114         10
   115         92
   116         14
   117         25
   118          5
   119         12
   120          2
   121         98
   124          2
   125          1
   126          7
   127          4
   128          4
   129         18
   130          4
   131         27
   132         13
   133        121
   134         19
   135         11
   136          1
   138          1
   139          3
   140         41
   141         27
   142         61
   143         12
   144          7
   145          3
   147        625
   148        102
   149         65
   150          7
   151          2
   152          1
   154          2
   155          1
   156          4
   157          5
   158         25
   159          8
   160          4
   161          1
   166          1
   168          6
   169          3
   170          7
   171          2
   172          2
   173          5
   174         25
   175          6
   176          2
   177          1
   180          1
   182          4
   183          2
   184          3
   185          1
   186         28
   187          6
   188          2
   189         42
   190          9
   191          4
   192          1
   196          2
   198        212
   199         37
   200         20
   201          5
   202          3
   203          4
   204          1
   212          1
   213          3
   214         59
   215         13
   216         13
   217          3
   218          1
   226          1
   228         10
   229          3
   230          2
   231          2
   232          1
   240          1
   242          3
   243          1
   244          3
   245          2
   246          1
   256          6
   257          2
   258          2
   270          1
   272        647
   273        160
   274         66
   275         11
   276          2
   284          1
   298          2
   300        775
   301        195
   302         76
   303         13
   304          2
   314         12
   315          3
   316          1
   342         66
   343         19
   344          7
   345          1
   356          1
   357          1
   358          1