##TITLE=Library Entry 43903
##JCAMP-DX=Revision 4.10 
##DATA TYPE=MASS SPECTRUM
##SAMPLE DESCRIPTION=J.M. Halket, Trace Anal. Unit (TAU), London, UK
##NAMES=HP
##CAS NAME=L-Phenylalanine, 2TBDMS derivative
##MOLFORM=C21H39NO2Si2
##CAS REGISTRY NO=107715-95-7
##MP= -300
##BP= -300
##MW= 393
##$RETENTION INDEX=2098
##$CONDENSED SPECTRUM=NO
##NPOINTS= 142
##XYDATA=(XY..XY) 1 
    39         31
    41        143
    42         11
    43         40
    44         16
    45         90
    46          8
    47         24
    50          1
    51          4
    52          2
    53          3
    54          1
    55         13
    56         13
    57        168
    58         46
    59        128
    60         16
    61         12
    62          1
    63          3
    65         29
    66          4
    67          1
    69          3
    70          4
    71          3
    73        999
    74         99
    75        136
    76         10
    77         10
    78          4
    79          1
    83          3
    84          6
    85         11
    86          8
    87          8
    88          4
    89          6
    91        138
    92         12
    93          3
    97          1
    98          1
    99         10
   100          9
   101          4
   102          8
   103         39
   104         12
   105          8
   107          2
   112          1
   113          1
   115         48
   116         10
   117         18
   118         11
   119         12
   120         17
   121         14
   122          2
   126          2
   128          7
   129          1
   130         33
   131         28
   132         74
   133         79
   134         17
   135         18
   136          3
   139          7
   142         11
   143          3
   144          4
   145         11
   146         13
   147        209
   148         40
   149         26
   150          4
   158          3
   160         59
   161         16
   162         22
   163          4
   172          2
   173          3
   174          6
   175          4
   176         15
   177         15
   178          8
   179          2
   188          3
   189         11
   190          3
   191          1
   193          1
   194          1
   195          2
   202          5
   204         16
   205          6
   206          7
   207          2
   216          2
   218         12
   219          3
   220          1
   232          1
   234        223
   235         46
   236         12
   237          1
   245         15
   246          5
   247          1
   278          1
   300          1
   302        283
   303         74
   304         26
   305          5
   306          1
   308        186
   309         55
   310         19
   311          4
   336        142
   337         42
   338         15
   339          3
   350          8
   351          3
   378         12
   379          4
   380          1