##TITLE=Library Entry 42690
##JCAMP-DX=Revision 4.10 
##DATA TYPE=MASS SPECTRUM
##SAMPLE DESCRIPTION=J.M. Halket, Trace Anal. Unit (TAU), London, UK
##NAMES=HP
##CAS NAME=Glycine, 2TBDMS derivative
##MOLFORM=C14H33NO2Si2
##CAS REGISTRY NO=107715-88-8
##MP= -300
##BP= -300
##MW= 303
##$RETENTION INDEX=1562
##$CONDENSED SPECTRUM=NO
##NPOINTS= 106
##XYDATA=(XY..XY) 1 
    39         41
    40          2
    41        177
    42         18
    43         77
    44         26
    45        137
    46         11
    47         38
    48          2
    49          1
    51          2
    52          4
    53          6
    54          2
    55         19
    56         39
    57        189
    58         94
    59        202
    60         24
    61         21
    62          1
    66         25
    69          4
    70          6
    71          5
    73        999
    74         98
    75        160
    76         11
    77          4
    79          1
    80         20
    83          4
    84          2
    85         17
    86         36
    87         44
    88         78
    89         10
    90          2
    94          7
    97          2
    98          1
    99         11
   100         13
   101          9
   102         11
   103         72
   104         29
   105         10
   106          1
   112          1
   113          2
   114          4
   115         50
   116         16
   117         47
   118         25
   119         33
   120          5
   121          2
   128          8
   129          1
   130          8
   131         20
   132         39
   133         94
   134         17
   135          9
   142          1
   144        108
   145         22
   146         28
   147        764
   148        131
   149         60
   150          6
   158          3
   159          5
   160         13
   161          3
   162          5
   173          1
   174         17
   175          7
   176          1
   189         77
   190         18
   191          7
   216          6
   218        480
   219         96
   220         39
   221          5
   231          4
   244          1
   246        273
   247         62
   248         24
   249          4
   260          9
   261          2
   288         13
   289          3