##TITLE=Library Entry 74411
##JCAMP-DX=Revision 4.10 
##DATA TYPE=MASS SPECTRUM
##SAMPLE DESCRIPTION=Chemical Concepts
##NAMES=HP
##CAS NAME=Pentanoic acid, 2-(hydroxymethyl)-4-methyl-, ethyl ester
##MOLFORM=C9H18O3
##CAS REGISTRY NO=107749-62-2
##MP= -300
##BP= -300
##MW= 174
##$RETENTION INDEX=0
##$CONDENSED SPECTRUM=NO
##NPOINTS= 99
##XYDATA=(XY..XY) 1 
    26         28
    27        357
    28         34
    29        578
    30         27
    31        196
    38         13
    39        184
    40         41
    41        563
    42        151
    43        446
    44         54
    45        139
    46          9
    47         22
    50         11
    51         25
    52         11
    53         58
    54         53
    55        655
    56        255
    57        321
    58         82
    59         66
    60         21
    61         12
    62          4
    63         20
    64          4
    65         33
    66          9
    67         67
    68         37
    69        148
    70         93
    71         86
    72        113
    73        736
    74         51
    75         13
    76         12
    77         14
    78          9
    79         11
    80          5
    81         53
    82         66
    83        561
    84         55
    85        200
    86         75
    87         31
    88         34
    89        103
    90         18
    91        164
    92         94
    93         14
    95         41
    96          7
    97         25
    98         65
    99         70
   100        289
   101        999
   102         76
   103         17
   104         11
   105          8
   109         11
   110         22
   111         15
   113        107
   114         84
   115         66
   116         11
   117        127
   118        692
   119         47
   120          8
   122         46
   123          5
   128         13
   129        340
   130         30
   131         19
   141         25
   142          6
   143         19
   144        167
   145         17
   155          6
   156         20
   157          4
   159         18
   160          5
   173          2