##TITLE=Library Entry 23875
##JCAMP-DX=Revision 4.10 
##DATA TYPE=MASS SPECTRUM
##SAMPLE DESCRIPTION=Chemical Concepts
##NAMES=HP
##CAS NAME=Palladium, [(1,2-.eta.)-1,3-butadiene][1,2-ethanediylbis[bis(1,1-
dimethylethyl)phosphine]-P,P']-
##MOLFORM=C22H46P2Pd
##CAS REGISTRY NO=107730-80-3
##MP= -300
##BP= -300
##MW= 478
##$RETENTION INDEX=0
##$CONDENSED SPECTRUM=NO
##NPOINTS= 287
##XYDATA=(XY..XY) 1 
    24        122
    26         59
    27        168
    28        141
    29        287
    30          8
    31          1
    36          3
    37         23
    38         34
    39        352
    40         21
    41        376
    42         59
    43         36
    44          1
    45         17
    46          2
    47          5
    48          8
    49         15
    50         57
    51         55
    52         23
    53        212
    54        169
    55         66
    56         41
    57        999
    58         27
    59         17
    60          2
    61         48
    62          4
    63          5
    64          2
    65          8
    66          1
    67          4
    68          0
    69          7
    70          0
    71          6
    72          1
    73         18
    74          1
    75         10
    76          1
    77          4
    78          4
    79          7
    81          1
    82          1
    83          1
    85          3
    86          1
    87         16
    88          2
    89         14
    90          4
    91         13
    92         27
    93        166
    94          4
    97          1
    99          1
   100          0
   101          4
   103          5
   104          2
   105          5
   106          2
   107          4
   108          3
   109          1
   113          0
   115          6
   116          8
   117         16
   118          2
   119          3
   120          7
   121          7
   129          0
   131          0
   133          5
   134          1
   135          2
   139          1
   140          0
   143          0
   144          0
   145          2
   146          2
   147         10
   148         20
   149        223
   150         14
   151          4
   152          2
   153          3
   154          1
   155          3
   156          1
   157          1
   158          0
   159          1
   160          3
   161          8
   162          4
   163          6
   164          3
   165          5
   166          4
   167         13
   168         15
   169         15
   170         11
   171         10
   172          6
   173         11
   174          2
   175          2
   176          0
   177          1
   178          1
   179          2
   180          1
   181          2
   182          1
   183          2
   184          1
   185          2
   186          0
   187          2
   188          0
   189          1
   190          0
   191          1
   192          1
   193          4
   194          3
   195          7
   196          9
   197         18
   198         14
   199         26
   200         10
   201         25
   202          3
   203          8
   204          3
   205        214
   206         33
   207          3
   208          2
   209          4
   210          2
   211          8
   212          9
   213         15
   214         11
   215         30
   216          2
   217         17
   218          0
   219          4
   220          0
   221          1
   222          1
   223          3
   224          2
   225          4
   226          3
   227          4
   228          1
   229          2
   230          1
   231          2
   232          0
   237          1
   238          1
   239          3
   240          1
   241          3
   243          1
   247          3
   249          0
   250          0
   251          3
   252          4
   253          9
   254          9
   255         11
   256          4
   257         14
   258          3
   259          6
   261        352
   262         51
   263          4
   264          1
   265          1
   266          1
   267          4
   268          5
   269          7
   270          2
   271          6
   272          1
   273          2
   275          0
   281          0
   282          0
   283          1
   284          0
   285          0
   286          1
   287          1
   288          1
   289          0
   290          0
   291          0
   293          1
   294          0
   295          1
   297          1
   299          0
   303          1
   307          2
   308          3
   309         23
   310         40
   311         47
   312          8
   313         33
   314          6
   315         13
   316          3
   317          2
   318          2
   319          2
   320          1
   322          1
   323          4
   324          7
   325          8
   326          1
   327          6
   328          1
   329          3
   330          0
   350          1
   351          1
   353          1
   354          0
   355          1
   363          4
   364          1
   365         36
   366         96
   367        153
   368         42
   369        135
   370         33
   371         51
   372         13
   373          1
   409          0
   420          4
   421          1
   422         48
   423        114
   424        139
   425         26
   426        109
   427         21
   428         41
   429          8
   430          1
   476          1
   477          3
   478          4
   479          0
   480          3
   481          1
   482          2