##TITLE=Library Entry 43812
##JCAMP-DX=Revision 4.10 
##DATA TYPE=MASS SPECTRUM
##SAMPLE DESCRIPTION=J.M. Halket, Trace Anal. Unit (TAU), London, UK
##NAMES=HP
##CAS NAME=L-Methionine, 2TBDMS derivative
##MOLFORM=C17H39NO2SSi2
##CAS REGISTRY NO=107715-92-4
##MP= -300
##BP= -300
##MW= 377
##$RETENTION INDEX=1973
##$CONDENSED SPECTRUM=NO
##NPOINTS= 157
##XYDATA=(XY..XY) 1 
    35         10
    39         26
    41        150
    42         13
    43         43
    44         19
    45        108
    46         13
    47         42
    48          4
    49          5
    53          4
    54          7
    55         22
    56         66
    57        157
    58         55
    59        193
    60         34
    61        208
    62          8
    63          9
    66          4
    67          1
    68          2
    69          4
    70          6
    71          5
    73        999
    74        110
    75        201
    76         15
    77         13
    80          1
    82          4
    83          5
    84          7
    85         19
    86         17
    87         11
    88          8
    89          4
    90          2
    91         10
    92          1
    93          2
    96          3
    97          4
    98         21
    99         19
   100         41
   101          8
   102         11
   103         39
   104          6
   105         56
   106          7
   107          7
   110          2
   112         13
   113         11
   114         40
   115         38
   116         11
   117         18
   118         10
   119         10
   120          1
   126          2
   128         10
   129         12
   130         25
   131         26
   132         50
   133         85
   134         19
   135          8
   140          3
   141          4
   142         11
   143          6
   144         12
   145         10
   147        300
   148         52
   149         32
   150          4
   151          4
   154          3
   156          5
   157         17
   158         11
   159          7
   160         29
   161          6
   162          6
   163          1
   165          3
   170         97
   171         16
   172         10
   173          7
   174         24
   175          7
   176          2
   178          5
   179          6
   186          2
   188         26
   189         15
   190          5
   191          1
   192          4
   202         14
   203          3
   204          1
   205          2
   214          1
   215          1
   216          7
   218        325
   219         56
   220         27
   221          4
   230          6
   231          1
   244         68
   245         20
   246          9
   247          3
   248          1
   258          1
   272          5
   273          3
   292        334
   293         82
   294         45
   295          8
   296          2
   302         12
   303         12
   304          4
   305          4
   316          3
   317          1
   318          1
   320        188
   321         49
   322         27
   323          6
   334         10
   335          3
   362         10
   363          3
   364          1
   377          5
   378          1