##TITLE=Library Entry 62543
##JCAMP-DX=Revision 4.10 
##DATA TYPE=MASS SPECTRUM
##SAMPLE DESCRIPTION=NIST Mass Spectrometry Data Center, 1998.
##NAMES=HP
##CAS NAME=Benzenesulfonamide, N-ethyl-2-methyl-
##MOLFORM=C9H13NO2S
##CAS REGISTRY NO=1077-56-1
##MP= -300
##BP= -300
##MW= 199
##$RETENTION INDEX=0
##$CONDENSED SPECTRUM=NO
##NPOINTS= 111
##XYDATA=(XY..XY) 1 
    15          4
    18          3
    26          1
    27         10
    28         22
    29         26
    30          8
    37          1
    38          6
    39         88
    40         10
    41         28
    42         21
    43          6
    44        173
    45         13
    46          1
    47          1
    48          3
    49          1
    50         20
    51         52
    52         14
    53          6
    54          1
    55          1
    56          1
    57          2
    58         13
    59          1
    60          1
    61          3
    62         21
    63         88
    64         43
    65        297
    66         20
    67          1
    69          4
    70          1
    71          1
    73          1
    74          5
    75          5
    76          4
    77         62
    78         24
    79         12
    80          5
    81          1
    82          1
    83          1
    84          1
    85          1
    86          3
    87          3
    88          1
    89        121
    90        262
    91        999
    92        123
    93          8
    94          1
    95          1
    96          1
    97          1
   103          1
   104          3
   105          5
   106         61
   107         22
   108         12
   109         24
   110          3
   111          7
   112          1
   115          1
   117          2
   118          8
   119          3
   120        100
   121         18
   122          2
   123          1
   125          1
   126          1
   132          1
   134         28
   135          5
   136          6
   137         64
   138          6
   139          4
   140          1
   141          1
   150          1
   153          1
   154         13
   155        320
   156         29
   157         17
   158          1
   171          1
   184        111
   185          8
   186          4
   187          1
   199        171
   200         20
   201          9
   202          1