##TITLE=Library Entry 44271
##JCAMP-DX=Revision 4.10 
##DATA TYPE=MASS SPECTRUM
##SAMPLE DESCRIPTION=NIST Mass Spectrometry Data Center
##NAMES=HP
##CAS NAME=L-Aspartic acid, 3TBDMS derivative
##MOLFORM=C22H49NO4Si3
##CAS REGISTRY NO=107715-96-8
##MP= -300
##BP= -300
##MW= 475
##$RETENTION INDEX=2146
##$CONDENSED SPECTRUM=NO
##NPOINTS= 244
##XYDATA=(XY..XY) 1 
    27          2
    28          1
    29         17
    31          2
    39          7
    40          2
    41         44
    42          4
    43         12
    44          4
    45         31
    46          3
    47         10
    48          1
    53          2
    54          4
    55         13
    56         15
    57         81
    58         27
    59         85
    60         11
    61          8
    66          1
    67          1
    68          1
    69          2
    70          8
    71          3
    73        999
    74        121
    75        147
    76         11
    77          5
    82          1
    83          3
    84          4
    85         14
    86         10
    87          8
    88          4
    89          1
    95          1
    96          1
    97          3
    98          6
    99         27
   100         64
   101         15
   102          8
   103         23
   104          3
   105          3
   110          1
   111          1
   112          2
   113          5
   114          4
   115        105
   116         24
   117        100
   118         15
   119         14
   120          2
   121          1
   126          4
   127          2
   128         31
   129         13
   130         66
   131         28
   132         61
   133        125
   134         25
   135         14
   136          2
   137          1
   140          1
   141          1
   142         30
   143          7
   144         12
   145          7
   146         16
   147        294
   148         54
   149         55
   150          8
   151          3
   154          1
   155          1
   156          3
   157          5
   158         14
   159         21
   160         36
   161         11
   162          6
   163          1
   168          1
   170          3
   171          2
   172         10
   173         16
   174         23
   175          9
   176          6
   177          7
   178          2
   179          1
   180          1
   184         21
   185          5
   186          5
   187          3
   188         23
   189         53
   190         14
   191         12
   192          4
   193          2
   200          3
   201          2
   202         40
   203         10
   204         21
   205          6
   206         10
   207         12
   208          3
   209          2
   213          3
   214          3
   215          1
   216         28
   217          6
   218         10
   219          3
   220          2
   221          9
   222          2
   223          1
   228          1
   229          1
   230          4
   231          5
   232          3
   233          5
   234          2
   235          2
   242          1
   244        147
   245         41
   246         35
   247          7
   248          3
   249          2
   256          1
   257          2
   258         56
   259         14
   260          9
   261          2
   262          1
   263          1
   270          1
   272         13
   273          8
   274          3
   275          1
   276          1
   277         12
   278          3
   279          1
   286         50
   287         46
   288         16
   289         12
   290          3
   291          1
   299          1
   300          7
   302        646
   303        177
   304         70
   305         12
   306          2
   314          1
   316        364
   317        111
   318         43
   319         11
   320          3
   321          1
   328          3
   329          2
   330          1
   332          2
   333          1
   334          1
   344          2
   345          1
   346         16
   347          5
   348          3
   349          1
   360          1
   361          2
   362          1
   374          2
   376         90
   377         29
   378         14
   379          3
   380          1
   388          1
   390        292
   391         98
   392         46
   393         11
   394          3
   400          6
   401          3
   402          3
   403          1
   416          1
   418        726
   419        260
   420        119
   421         28
   422          6
   423          1
   432          9
   433          3
   434          1
   442          1
   443          2
   444          1
   460         42
   461         17
   462          7
   463          2
   475          2
   476          1