##TITLE=Library Entry 43915
##JCAMP-DX=Revision 4.10 
##DATA TYPE=MASS SPECTRUM
##SAMPLE DESCRIPTION=J.M. Halket, Trace Anal. Unit (TAU), London, UK
##NAMES=HP
##CAS NAME=L-Threonine, 3TBDMS derivative
##MOLFORM=C22H51NO3Si3
##CAS REGISTRY NO=107715-94-6
##MP= -300
##BP= -300
##MW= 461
##$RETENTION INDEX=2029
##$CONDENSED SPECTRUM=NO
##NPOINTS= 147
##XYDATA=(XY..XY) 1 
    39         14
    41         86
    42          6
    43         19
    44          8
    45         53
    46          5
    47         13
    53          2
    54          2
    55          9
    56         30
    57        122
    58         37
    59        104
    60         14
    61          9
    68          2
    69          8
    70          3
    73        999
    74         92
    75         99
    76          7
    77          3
    81          1
    82          1
    83          2
    84          5
    85         13
    86          9
    87         13
    88         17
    89          3
    97          2
    98          7
    99         13
   100         10
   101          8
   102         14
   103         91
   104          9
   105          5
   112          3
   114         40
   115        107
   116         18
   117         12
   118          6
   119          7
   120          1
   128          5
   129          1
   130         17
   131         26
   132         51
   133         69
   134         13
   135          8
   142         18
   143          5
   144          5
   145          5
   146          4
   147         86
   148         27
   149         20
   150          3
   151          1
   156          3
   157          2
   159         92
   160         43
   161          9
   162          4
   170          4
   171          8
   172          6
   173          6
   174          6
   175          2
   176          1
   177         11
   178          2
   186          5
   187          2
   188          9
   189          9
   190          4
   191          1
   200          2
   201          1
   202          7
   203          2
   204          4
   205          2
   206          2
   207          3
   216          3
   218          4
   219          1
   221          6
   222          2
   228          1
   230          2
   232         14
   233          3
   234          1
   244         15
   245         12
   246         12
   247          3
   248          1
   272          4
   273          2
   274          3
   275          4
   276          1
   286          3
   287         13
   288          5
   289          2
   300          1
   302        134
   303        202
   304         58
   305         18
   306          3
   314          3
   330          2
   332          2
   376         74
   377         24
   378         11
   379          3
   404        115
   405         39
   406         17
   407          4
   408          1
   417         44
   418         21
   419         10
   420          3
   446         13
   447          5
   448          2