##TITLE=Library Entry 24309
##JCAMP-DX=Revision 4.10 
##DATA TYPE=MASS SPECTRUM
##SAMPLE DESCRIPTION=N.Chernjak
##NAMES=HP
##CAS NAME=3,5-Dimethyldodecane
##MOLFORM=C14H30
##CAS REGISTRY NO=107770-99-0
##MP= -300
##BP= -300
##MW= 198
##$RETENTION INDEX=0
##$CONDENSED SPECTRUM=NO
##NPOINTS= 55
##XYDATA=(XY..XY) 1 
    15          4
    27         72
    29        209
    39         50
    40         26
    41        310
    42         65
    43        500
    53         18
    54          8
    55        140
    56        132
    57        999
    58         43
    65          2
    66          1
    67         11
    68          7
    69         60
    70         30
    71        390
    72         19
    81          3
    82          7
    83         23
    84         19
    85        325
    86         15
    95          1
    96          3
    97         21
    98         66
    99        113
   100         10
   111          4
   112          4
   113         25
   114          2
   125          5
   126         43
   127         35
   128          3
   139          1
   140         17
   141         19
   142          1
   155          1
   156          2
   168          4
   169         49
   170          6
   182          1
   183          8
   184          1
   198          2