##TITLE=Library Entry 60659
##JCAMP-DX=Revision 4.10 
##DATA TYPE=MASS SPECTRUM
##SAMPLE DESCRIPTION=CONTINENTAL OIL CO., PONCA CITY, OKLA, USA
##NAMES=HP
##CAS NAME=Benzene, hexyl-
##MOLFORM=C12H18
##CAS REGISTRY NO=1077-16-3
##MP= -300
##BP= -300
##MW= 162
##$RETENTION INDEX=1247
##$CONDENSED SPECTRUM=NO
##NPOINTS= 98
##XYDATA=(XY..XY) 1 
    25          0
    26          5
    27         74
    28         10
    29         62
    30          1
    36          0
    37          1
    38          4
    39         61
    40          6
    41         63
    42          9
    43        100
    44          3
    49          0
    50         10
    51         34
    52         10
    53          8
    54          1
    55         20
    56          6
    57          3
    58          0
    61          0
    62          3
    63         18
    64          5
    65         77
    66          5
    67          2
    68          0
    69          2
    70          3
    71         13
    72          1
    73          0
    74          6
    75          7
    76          7
    77         67
    78         69
    79         36
    80          4
    81          0
    82          0
    83          0
    84          1
    85          1
    86          1
    87          2
    88          1
    89         21
    90         16
    91        999
    92        768
    93         59
    94          3
    95          0
    96          1
    97          0
    99          0
   101          1
   102          7
   103         29
   104         37
   105        101
   106         15
   107          1
   108          1
   109          0
   113          0
   114          0
   115         17
   116          5
   117         14
   118          3
   119         21
   120          4
   121          0
   126          0
   127          1
   128          3
   129          1
   130          0
   131          0
   132          0
   133         36
   134          5
   135          0
   141          0
   147          2
   148          0
   160          0
   162        244
   163         31
   164          1