##TITLE=Library Entry 43172
##JCAMP-DX=Revision 4.10 
##DATA TYPE=MASS SPECTRUM
##SAMPLE DESCRIPTION=J.M. Halket, Trace Anal. Unit (TAU), London, UK
##NAMES=HP
##CAS NAME=Isoleucine, 2TBDMS derivative
##MOLFORM=C18H41NO2Si2
##CAS REGISTRY NO=107715-90-2
##MP= -300
##BP= -300
##MW= 359
##$RETENTION INDEX=1748
##$CONDENSED SPECTRUM=NO
##NPOINTS= 128
##XYDATA=(XY..XY) 1 
    39         36
    41        234
    42         17
    43         45
    44         24
    45         97
    46         10
    47         24
    48          1
    52          1
    53          6
    54          4
    55         24
    56         49
    57        281
    58         57
    59        187
    60         29
    61         15
    62          1
    66          5
    67          4
    68          8
    69         27
    70          7
    71          4
    73        999
    74        112
    75        142
    76         10
    77          5
    79          1
    80          8
    82          5
    83          6
    84          8
    85         19
    86         28
    87         11
    88          8
    89          2
    96          6
    97          6
    98         10
    99         20
   100         12
   101          6
   102          8
   103         34
   104          5
   105          6
   107          3
   110          2
   111          1
   112          7
   113          6
   114         21
   115         53
   116         10
   117         20
   118          8
   119         11
   120          2
   122          3
   124          1
   126          5
   128         43
   129          7
   130         13
   131         15
   132         62
   133         94
   134         17
   135          8
   142         30
   143         23
   144         16
   145         11
   147        231
   148         40
   149         25
   150          3
   156          3
   157          3
   158          5
   159          3
   160         42
   161         11
   162          5
   170         24
   171          6
   172          3
   173          3
   174          8
   175          3
   184          6
   185          2
   186          4
   188          6
   189         11
   190          2
   191          1
   198          3
   200        618
   201        107
   202         30
   203          4
   212          1
   216         15
   217          4
   218          6
   230          1
   245          5
   246          2
   272          2
   274        244
   275         59
   276         24
   277          4
   300          1
   302        224
   303         58
   304         22
   305          4
   316         10
   317          3
   344          8
   345          3