##TITLE=Library Entry 42250
##JCAMP-DX=Revision 4.10 
##DATA TYPE=MASS SPECTRUM
##SAMPLE DESCRIPTION=Chemical Concepts
##NAMES=HP
##CAS NAME=Silane, (3,3-dimethyl-1-cyclopropene-1,2-diyl)bis[trimethyl-
##MOLFORM=C11H24Si2
##CAS REGISTRY NO=107736-03-8
##MP= -300
##BP= -300
##MW= 212
##$RETENTION INDEX=0
##$CONDENSED SPECTRUM=NO
##NPOINTS= 93
##XYDATA=(XY..XY) 1 
    26          1
    27         10
    28          5
    29         38
    30          2
    31         20
    38          2
    39         18
    40          3
    41         14
    42         11
    43        155
    44         38
    45        309
    46         20
    47          9
    51          2
    52          1
    53         29
    54          5
    55         33
    56          6
    57         17
    58         20
    59         49
    60          4
    61          1
    63          1
    65          2
    66          7
    67         46
    68          6
    69         48
    70          8
    71         14
    73        999
    74         80
    75         35
    76          1
    77          2
    78          1
    79          8
    80          1
    81         17
    82          5
    83         47
    84          6
    85         14
    86          1
    87          1
    91          1
    93         12
    94          2
    95         11
    96          6
    97         85
    98          9
    99         12
   100          3
   101          2
   105          1
   107          6
   109        165
   110         21
   111          8
   113          2
   115          1
   121          1
   123         51
   124        509
   125         69
   126         20
   127          3
   129          2
   137          1
   139          2
   140          1
   141          3
   142          1
   155         80
   156         15
   157          7
   158          0
   167          0
   169          3
   181          1
   197         17
   198          2
   199          2
   212         36
   213         11
   214          4
   215          1