##TITLE=Library Entry 65201
##JCAMP-DX=Revision 4.10 
##DATA TYPE=MASS SPECTRUM
##SAMPLE DESCRIPTION=NIST Mass Spectrometry Data Center, 1990.
##NAMES=HP
##CAS NAME=Benzene, heptyl-
##MOLFORM=C13H20
##CAS REGISTRY NO=1078-71-3
##MP= -300
##BP= -300
##MW= 176
##$RETENTION INDEX=1368
##$CONDENSED SPECTRUM=NO
##NPOINTS= 75
##XYDATA=(XY..XY) 1 
    14          0
    15          2
    16          1
    17          0
    18          1
    26          7
    27         80
    28         20
    29         85
    30          2
    37          1
    39         83
    40         15
    41        122
    42         20
    43        190
    44          4
    49          1
    50         16
    51         41
    52         13
    53         14
    54          3
    55         27
    56         14
    57         22
    62          4
    63         25
    65        129
    66          9
    67          4
    69          8
    70          5
    74          3
    75          3
    76          5
    77         60
    78         68
    79         38
    80          5
    82          1
    84          2
    85          7
    86          1
    89         21
    91        989
    92        999
    93         82
    94          7
   101          1
   102          5
   103         32
   104         48
   105         91
   106         16
   107          2
   108          1
   115         19
   116          5
   117         18
   118          4
   119         25
   120          8
   122          2
   127          1
   128          2
   129          1
   133         55
   134         16
   135          2
   147          9
   148          2
   176        198
   177         36
   178          2