##TITLE=Library Entry 64867
##JCAMP-DX=Revision 4.10 
##DATA TYPE=MASS SPECTRUM
##SAMPLE DESCRIPTION=A.A.Kutin, Moscow, Russia
##NAMES=HP
##CAS NAME=Propanedinitrile, 2-[2-(4-methylphenylazo)-2-(4-methylphenylhydra
zono)-1-phenylethylidene]-
##MOLFORM=C25H20N6
##CAS REGISTRY NO=107836-26-0
##MP= -300
##BP= -300
##MW= 404
##$RETENTION INDEX=0
##$CONDENSED SPECTRUM=NO
##NPOINTS= 153
##XYDATA=(XY..XY) 1 
    33         13
    34          0
    37          0
    39         50
    40         21
    41         23
    42          1
    43          3
    44          3
    50          8
    51         32
    52         18
    53         11
    54          2
    55          1
    57          0
    59          1
    62          3
    63         17
    65        180
    66         10
    67          0
    69          0
    71          0
    72          0
    73          0
    74          1
    75          4
    77        130
    78         45
    79         70
    80          6
    81          0
    87          1
    88          2
    89         19
    91        999
    92         64
    99          0
   100          2
   101          1
   102          4
   103          5
   104         27
   105         19
   106         58
   107          8
   112          0
   113          1
   114          1
   115          2
   116          9
   117          8
   119         47
   120          4
   125          0
   126         12
   127          9
   128          3
   129          1
   131         12
   132          8
   133          2
   139          1
   140          2
   141          2
   142          0
   151          1
   152          3
   153         27
   154          3
   155          1
   156          0
   158          0
   164          0
   165          2
   166          0
   167          1
   168          0
   169          0
   171          0
   176          0
   178          0
   179          0
   180          7
   181          3
   182          1
   187          0
   188          0
   189          0
   190          0
   191          0
   192          0
   194          1
   195          0
   196          1
   197          0
   202          2
   203          1
   205          0
   207          0
   208          1
   214          2
   215          0
   216          2
   218          0
   219          0
   221          0
   227          0
   228          0
   229          2
   230          3
   231          1
   232          0
   241          1
   242          4
   243          8
   244          3
   245          1
   247          2
   255          0
   256          3
   257          3
   258          7
   259          1
   268          2
   269          6
   270          9
   271          3
   272          0
   282          0
   283          8
   284          4
   285         19
   286          5
   287          0
   299          0
   300          0
   301          0
   348          0
   360          0
   361          4
   362          0
   374          0
   375          7
   376          2
   399          0
   400          2
   401          3
   403        259
   404         98
   405         17
   406          2