##TITLE=Library Entry 85038
##JCAMP-DX=Revision 4.10 
##DATA TYPE=MASS SPECTRUM
##SAMPLE DESCRIPTION=Japan AIST/NIMC Database- Spectrum MS-IW-7365
##NAMES=HP
##CAS NAME=(3Ar)-(+)-8,8-dimethyl-4,5,6,7-tetrahydro-3H-3a,6-methano-2,1-ben
zisothiazole 2,2-dioxide
##MOLFORM=C10H15NO2S
##CAS REGISTRY NO=107869-45-4
##MP= -300
##BP= -300
##MW= 213
##$RETENTION INDEX=0
##$CONDENSED SPECTRUM=NO
##NPOINTS= 92
##XYDATA=(XY..XY) 1 
    15          1
    26          2
    27         40
    28         15
    29         23
    30          4
    32          1
    38          3
    39         68
    40         17
    41        121
    42         51
    43         55
    44          4
    45          1
    48         11
    50          4
    51         17
    52         11
    53         54
    54         27
    55         76
    56         12
    57          6
    58          1
    59          3
    60          1
    62          1
    63          5
    64         46
    65         26
    66         19
    67        211
    68         38
    69         39
    70          9
    71          1
    76          2
    77         50
    78         11
    79         95
    80         33
    81         49
    82        200
    83         28
    84          2
    89          1
    90          1
    91         66
    92         15
    93        415
    94         83
    95         24
    96          3
   103          2
   104          3
   105         13
   106         65
   107         89
   108        999
   109        338
   110         24
   111          1
   115          2
   116          1
   117         16
   118          4
   119          6
   120         35
   121         32
   122          6
   123          2
   130          1
   131          4
   132         11
   133          5
   134        320
   135         33
   136          1
   145          1
   146          1
   147          1
   148         55
   149        118
   150         13
   151          2
   170          1
   171          2
   198          1
   213         17
   214          8
   215          1