##TITLE=Library Entry 27143
##JCAMP-DX=Revision 4.10 
##DATA TYPE=MASS SPECTRUM
##SAMPLE DESCRIPTION=A.Mazepa, Phys.-Chem.Institute, Odessa, Ukraine
##NAMES=HP
##CAS NAME=1,3-Bis-(tert-butoxycarbonyl)-2-methyl-thiopseudourea
##MOLFORM=C12H22N2O4S
##CAS REGISTRY NO=107819-90-9
##MP= -300
##BP= -300
##MW= 290
##$RETENTION INDEX=0
##$CONDENSED SPECTRUM=NO
##NPOINTS= 103
##XYDATA=(XY..XY) 1 
    50          5
    51          8
    54          5
    55         29
    56         88
    57        999
    58         54
    59         56
    60          6
    61          5
    62          5
    68          3
    69         34
    70          8
    71          6
    72          4
    73         14
    74         20
    75          7
    76          3
    77          5
    78          4
    79          4
    80          3
    84          4
    85          6
    86          6
    87         36
    88          5
    89          4
    90          8
    91         11
    92          6
    93          2
    94          2
    95         11
    96         12
    97          3
    98          3
    99          8
   100          2
   101          2
   114          2
   115          2
   116          3
   117         21
   118          4
   119          4
   120          2
   121          3
   122          3
   123          3
   124          2
   125          3
   131          4
   132          2
   133          3
   134         59
   135         23
   136          6
   137          2
   138          2
   139          1
   140          2
   141          3
   142          2
   143          9
   144          2
   145          2
   146          2
   147          2
   148          2
   158          1
   159          2
   160          2
   161         85
   162          4
   163          6
   164          2
   173          2
   175         19
   176          2
   177          6
   178        118
   179         11
   180          7
   181          1
   182          1
   183          1
   184          2
   215          1
   216          1
   217          4
   218          1
   219          1
   233          3
   234         55
   235          4
   236          2
   237          1
   290         16
   291          2
   292          2