##TITLE=Library Entry 38316
##JCAMP-DX=Revision 4.10 
##DATA TYPE=MASS SPECTRUM
##SAMPLE DESCRIPTION=V.G.Zaikin, Petrochem. Synth. Inst., Moscow
##NAMES=HP
##CAS NAME=Butyric acid, 2-pentadecyl ester
##MOLFORM=C19H38O2
##CAS REGISTRY NO=107853-73-6
##MP= -300
##BP= -300
##MW= 298
##$RETENTION INDEX=0
##$CONDENSED SPECTRUM=NO
##NPOINTS= 74
##XYDATA=(XY..XY) 1 
    26         18
    27        141
    28         34
    29        192
    30          3
    31          5
    38         10
    39         85
    40         28
    41        418
    42        122
    43        699
    44         29
    45         35
    51          7
    53         25
    54         41
    55        272
    56        143
    57        257
    58         28
    60         41
    61          3
    66          3
    67         49
    68         35
    69        175
    70        118
    71        999
    72         45
    73         18
    79          6
    80          4
    81         25
    82         45
    83        119
    84         65
    85         71
    86         38
    87         11
    88         48
    89        171
    90          9
    91          9
    93          2
    95         12
    96         35
    97        102
    98         39
    99         23
   110         19
   111         51
   112         32
   113         11
   115        125
   116          8
   124         11
   125         22
   126         19
   127          4
   138          7
   139         11
   140         17
   141          8
   153          7
   154          7
   168          5
   169          3
   182         12
   183          3
   210         69
   211         29
   227          5
   253          2