##TITLE=Library Entry 61000
##JCAMP-DX=Revision 4.10 
##DATA TYPE=MASS SPECTRUM
##SAMPLE DESCRIPTION=G. Lange, Inst. Org. Chem., Univ. Wurzburg, Wurzburg, G
ermany
##NAMES=HP
##CAS NAME=6-Methyl-1,2,3,5,8,8a-hexahydronaphthalene
##MOLFORM=C11H16
##CAS REGISTRY NO=107914-86-3
##MP= -300
##BP= -300
##MW= 148
##$RETENTION INDEX=0
##$CONDENSED SPECTRUM=NO
##NPOINTS= 67
##XYDATA=(XY..XY) 1 
    38          5
    39        213
    40         36
    41        284
    42         16
    43          6
    50         16
    51         93
    52         50
    53        131
    54         15
    55        101
    56          5
    57          9
    58         34
    59         18
    63         31
    64         36
    65        153
    66         33
    67        120
    68         14
    69         12
    70          7
    71         12
    75          7
    76          7
    77        267
    78        105
    79        335
    80        133
    81         40
    89         14
    90          5
    91        999
    92        263
    93        161
    94         54
    95          5
   102         11
   103         53
   104         33
   105        980
   106        407
   107        137
   108          9
   115         67
   116         25
   117         71
   118         28
   119        288
   120        200
   121         18
   127         10
   128         30
   129         24
   130          7
   131         36
   132          7
   133        487
   134         52
   145          6
   146         10
   147         44
   148        850
   149         99
   150          5