##TITLE=Library Entry 9811
##JCAMP-DX=Revision 4.10 
##DATA TYPE=MASS SPECTRUM
##SAMPLE DESCRIPTION=Chemical Concepts
##NAMES=HP
##CAS NAME=Hexane, 1-(3-butenyloxy)-
##MOLFORM=C10H20O
##CAS REGISTRY NO=107995-55-1
##MP= -300
##BP= -300
##MW= 156
##$RETENTION INDEX=0
##$CONDENSED SPECTRUM=NO
##NPOINTS= 66
##XYDATA=(XY..XY) 1 
    25         35
    26         32
    27        192
    28         26
    29        208
    30          6
    31         17
    37          2
    38          5
    39        108
    40         20
    41        214
    42         53
    43        999
    44         38
    45         22
    46          0
    49          0
    50          3
    51          6
    52          3
    53         27
    54         18
    55        183
    56         53
    57        127
    58          5
    59          1
    60          1
    61          0
    62          0
    63          0
    64          0
    65          1
    66          0
    67         10
    68          2
    69         13
    70          2
    71          5
    72          2
    73          1
    75          0
    77          0
    78          0
    79          0
    81          1
    82          3
    83         92
    84         13
    85        515
    86         34
    87          1
    91          0
    93          0
    95          0
    96          0
    97          0
    99          0
   109          0
   110          0
   111          0
   113          0
   115         46
   116          3
   156          0