##TITLE=Library Entry 30539
##JCAMP-DX=Revision 4.10 
##DATA TYPE=MASS SPECTRUM
##SAMPLE DESCRIPTION=ASES Database, Dalian Institute, P.R. China
##NAMES=HP
##CAS NAME=2,3-Dimethyl-5,6-dihydro-1,4-oxathiine
##MOLFORM=C6H10OS
##CAS REGISTRY NO=107954-65-4
##MP= -300
##BP= -300
##MW= 130
##$RETENTION INDEX=0
##$CONDENSED SPECTRUM=NO
##NPOINTS= 7
##XYDATA=(XY..XY) 1 
    43        250
    45         40
    58         50
    59        999
    74         59
   102        218
   130        439