##TITLE=Library Entry 41981
##JCAMP-DX=Revision 4.10 
##DATA TYPE=MASS SPECTRUM
##SAMPLE DESCRIPTION=Association of Official Racing Chemists
##NAMES=HP
##CAS NAME=Guaifenesin, 2TMS derivative
##MOLFORM=C16H30O4Si2
##CAS REGISTRY NO=107966-19-8
##MP= -300
##BP= -300
##MW= 342
##$RETENTION INDEX=0
##$CONDENSED SPECTRUM=NO
##NPOINTS= 159
##XYDATA=(XY..XY) 1 
    46         13
    47         37
    48          1
    49          1
    50          8
    51         24
    52         42
    53         10
    54          3
    55         15
    56          3
    57         12
    58         25
    59        131
    60         13
    61         22
    62          3
    63         13
    64         16
    65         35
    66         10
    67         13
    68          1
    69          0
    70          5
    71         11
    73        999
    74         87
    75        164
    76         16
    77        110
    78         10
    79         11
    80         16
    81         11
    82          1
    83          2
    84          1
    85         10
    86          1
    87          8
    88          5
    89         29
    90          4
    91         20
    92         32
    93          9
    95         59
    96          5
    97          1
    98          1
    99          7
   101        118
   103        379
   104         37
   105         28
   106          2
   107          6
   108          5
   109         25
   110          2
   111          1
   113          5
   115         22
   116         15
   117         90
   118         10
   119         13
   120          5
   121         34
   122         44
   123        117
   124         61
   125          5
   126          1
   127          1
   129        107
   130         21
   131        124
   132         18
   133         71
   134         12
   135         30
   136         22
   137         19
   138          4
   139          1
   141          0
   142          0
   143          0
   144          0
   145          2
   147        193
   148         38
   149        217
   150         25
   151         57
   152          9
   153          5
   154          0
   159          1
   161          3
   163        113
   164         14
   166        135
   167         19
   168          9
   169          1
   175          2
   177          6
   179          8
   181        145
   182         22
   183          7
   184          0
   189          6
   190          1
   191          1
   192          1
   193          3
   194          4
   196        253
   197         40
   198         12
   199          1
   203          9
   204          7
   205         25
   206          5
   207          4
   208          3
   209          5
   210          1
   211          4
   212          1
   217          3
   219         66
   220         14
   221          6
   222          1
   223          2
   224          0
   225          5
   226          2
   227          1
   237         17
   238          5
   239          5
   240          3
   241          1
   252          0
   254          3
   255          2
   297          0
   342        104
   343         31
   344         14
   345          2
   346          0