##TITLE=Library Entry 91139
##JCAMP-DX=Revision 4.10 
##DATA TYPE=MASS SPECTRUM
##SAMPLE DESCRIPTION=LAC, NIDDK, NIH, Bethesda, MD 20892
##NAMES=HP
##CAS NAME=7.beta.-Hydroxy-dihydrosolasodine
##MOLFORM=C27H45NO3
##CAS REGISTRY NO=107965-43-5
##MP= -300
##BP= -300
##MW= 431
##$RETENTION INDEX=0
##$CONDENSED SPECTRUM=NO
##NPOINTS= 134
##XYDATA=(XY..XY) 1 
    41        113
    42         30
    43        125
    44         26
    45         16
    53         20
    54         19
    55        157
    56         30
    57         61
    58         16
    59          5
    60          2
    65         13
    66          1
    67         80
    68         35
    69         68
    70         33
    71         20
    73          8
    77         23
    78          4
    79         65
    80         15
    81         75
    82         30
    83         38
    84         23
    85         10
    86          9
    91        141
    92         17
    93         76
    94         27
    95         65
    96         34
    97         25
    98        127
    99         16
   101          4
   103          1
   105         47
   106         14
   107         55
   108         30
   109         41
   110         32
   111         88
   112         34
   113        427
   114        999
   115         73
   116          7
   117         12
   118          3
   119         31
   120         27
   121         37
   122         24
   123         17
   124         58
   125         72
   126         26
   127         19
   128         12
   129         11
   130         10
   131         17
   132          8
   133         24
   134         14
   135         17
   136         13
   137          8
   138        612
   139         95
   140         14
   141          6
   142          4
   143         12
   144          1
   145         20
   146          6
   147         17
   148         11
   149         15
   150         19
   151          7
   152         40
   153         10
   154          9
   155          3
   157          9
   159         16
   160          4
   161         13
   162         13
   163         10
   164         19
   165          9
   166         28
   167          8
   168          9
   171          6
   173          8
   174          7
   175         14
   176          8
   178         12
   180         10
   187          4
   188         51
   189         10
   192         11
   232         38
   233          7
   271          7
   285          3
   289          7
   332         11
   374          4
   398          4
   401          1
   402         13
   403         38
   404         10
   414          7
   415          1
   416         10
   429          4
   430         13
   431         33
   432         15