##TITLE=Library Entry 8133
##JCAMP-DX=Revision 4.10 
##DATA TYPE=MASS SPECTRUM
##SAMPLE DESCRIPTION=P. VAINIOTALO, DEPT. CHEM., UNIV. JOENSUU, JOENSUU, FIN
LAND
##NAMES=HP
##CAS NAME=1,4-Oxathiin, 5,6-dihydro-3-(hydroxymethyl)-2-methyl-
##MOLFORM=C6H10O2S
##CAS REGISTRY NO=107954-67-6
##MP= -300
##BP= -300
##MW= 146
##$RETENTION INDEX=0
##$CONDENSED SPECTRUM=NO
##NPOINTS= 21
##XYDATA=(XY..XY) 1 
    15        120
    17        120
    27        118
    39         51
    41         60
    43        999
    45        248
    46         79
    47         57
    58        903
    59        145
    60        103
    61         63
    72         70
    75        144
    87         50
   100         64
   118        109
   128        239
   129         64
   146        623