##TITLE=Library Entry 13096
##JCAMP-DX=Revision 4.10 
##DATA TYPE=MASS SPECTRUM
##SAMPLE DESCRIPTION=A.M. LAKSHIN,A.A. ZHDANOV LENINGRAD STATE UNIV.,LENINGR
AD,USSR
##NAMES=HP
##CAS NAME=Furan, 2-methoxy-5-methyl-4-phenyl-
##MOLFORM=C12H12O2
##CAS REGISTRY NO=107939-25-3
##MP= -300
##BP= -300
##MW= 188
##$RETENTION INDEX=0
##$CONDENSED SPECTRUM=NO
##NPOINTS= 21
##XYDATA=(XY..XY) 1 
    39         50
    43        999
    44         50
    51        120
    63         60
    74         60
    76         50
    77        130
   102        150
   103         60
   105        150
   115         80
   117         80
   127         90
   128        140
   129        340
   130         50
   145        210
   173        880
   174        110
   188        810