##TITLE=Library Entry 13201
##JCAMP-DX=Revision 4.10 
##DATA TYPE=MASS SPECTRUM
##SAMPLE DESCRIPTION=F. TURECEK,HEYROVSKY INST PHYS CHEM & ELECTROCHEM,PRAGU
E,CZECH
##NAMES=HP
##CAS NAME=2,6-Dimethyl-3,5-diacetyl-1,4-dihydropyridine
##MOLFORM=C11H15NO2
##CAS REGISTRY NO=1079-95-4
##MP= -300
##BP= -300
##MW= 193
##$RETENTION INDEX=0
##$CONDENSED SPECTRUM=NO
##NPOINTS= 98
##XYDATA=(XY..XY) 1 
    26         20
    27         80
    29         25
    30         10
    38         25
    39        155
    40         30
    41        100
    42        200
    43        999
    44         30
    50         35
    51         85
    52         45
    53         60
    54         20
    55         45
    56         10
    58         55
    62         20
    63         70
    64         35
    65        100
    66         45
    67         70
    68         15
    69         35
    70         15
    71         30
    75         40
    76         10
    77        120
    78         40
    79        100
    80         25
    81         40
    82         10
    83         20
    89         15
    91         50
    92         30
    93         45
    94         30
    95         30
    96         10
    97         20
   103         10
   104         20
   105         35
   106        340
   107        170
   108        180
   109         35
   111         10
   112         10
   115         20
   117         30
   118         15
   119         20
   120         40
   121         20
   122         45
   123         10
   128         15
   129         15
   130         20
   131         20
   132         35
   133         25
   134        125
   135         40
   136         95
   137         15
   148         45
   149        145
   150        325
   151         40
   152         10
   157         10
   158         15
   159          6
   160         20
   162         10
   163         10
   164         20
   165         10
   174         25
   175         10
   176        320
   177         45
   178        620
   179         85
   180         10
   191        105
   192        600
   193        400
   194         57
   195         10