##TITLE=Library Entry 14249
##JCAMP-DX=Revision 4.10 
##DATA TYPE=MASS SPECTRUM
##SAMPLE DESCRIPTION=R.L. Blankespoor, Dep. Chem., Calvin Coll., Grand Rapid
s, Mich., USA
##NAMES=HP
##CAS NAME=9,10-Anthracenedione, 2-[(acetyloxy)methyl]-1,8-dimethoxy-
##MOLFORM=C19H16O6
##CAS REGISTRY NO=107960-77-0
##MP= -300
##BP= -300
##MW= 340
##$RETENTION INDEX=0
##$CONDENSED SPECTRUM=NO
##NPOINTS= 17
##XYDATA=(XY..XY) 1 
    43        999
    76        120
   139        110
   151        120
   152        180
   165        120
   237        100
   250        200
   251        110
   253        110
   267        280
   268        440
   280        120
   283        130
   297        150
   298        120
   340         10