##TITLE=Library Entry 3674
##JCAMP-DX=Revision 4.10 
##DATA TYPE=MASS SPECTRUM
##SAMPLE DESCRIPTION=O.D. Dailey, S Reg. Res. Cent., Agric. Res. Serv., US D
ep. Agric., New Orleans, USA
##NAMES=HP
##CAS NAME=2-Cyclohexene-1-carboxylic acid, 2,6,6-trimethyl-, ethyl ester, .
+/-.-
##MOLFORM=C12H20O2
##CAS REGISTRY NO=107941-55-9
##MP= -300
##BP= -300
##MW= 196
##$RETENTION INDEX=0
##$CONDENSED SPECTRUM=NO
##NPOINTS= 16
##XYDATA=(XY..XY) 1 
    39        510
    41        999
    43        560
    53        270
    55        330
    67        380
    69        340
    81        710
    82        370
   107        520
   122        610
   123        550
   139         80
   181         30
   196        180
   197         24