##TITLE=Library Entry 82970
##JCAMP-DX=Revision 4.10 
##DATA TYPE=MASS SPECTRUM
##SAMPLE DESCRIPTION=A.A.Kutin, Moscow, Russia
##NAMES=HP
##CAS NAME=Urea, 1-methyl-3-(3-nitrophenyl)-1-phenyl-
##MOLFORM=C14H13N3O3
##CAS REGISTRY NO=107921-11-9
##MP= -300
##BP= -300
##MW= 271
##$RETENTION INDEX=0
##$CONDENSED SPECTRUM=NO
##NPOINTS= 186
##XYDATA=(XY..XY) 1 
    33          0
    34          1
    35          7
    36         24
    37         29
    38         87
    39        214
    40         40
    41         37
    42         28
    43          6
    44          7
    46         16
    47          0
    48          1
    50        117
    51        247
    52         85
    53         27
    54         18
    55          8
    56         10
    57          2
    58          2
    59          0
    61         15
    62         41
    63        159
    64        149
    65        220
    66         65
    67          7
    68          2
    69          1
    70          1
    71          1
    73          4
    74         26
    75         56
    76        122
    77        646
    78        119
    79        144
    80         33
    81          3
    82          1
    83          2
    84          2
    85          0
    86          1
    87          2
    88          5
    89          7
    90         63
    91         93
    92        100
    93         39
    94          4
    95          0
    96          0
    97          1
    98          1
    99          1
   100          2
   101          0
   102          1
   104         67
   106        999
   107        563
   108         46
   109          2
   110          1
   111          1
   112         14
   114          4
   115          1
   116          1
   117          2
   118         10
   119         60
   120          6
   121          2
   122          9
   123          1
   124          0
   125          0
   126          0
   127          2
   128          1
   129          0
   130          0
   131          1
   132         10
   134        851
   135         77
   137         22
   138         46
   139          5
   140          4
   141          2
   142          1
   143          0
   144          0
   145          0
   147          4
   148          4
   149         10
   150          1
   151          0
   152          1
   153          1
   154          2
   155          0
   156          0
   157          0
   158          0
   161          0
   162          0
   164         10
   165         13
   166          5
   167          5
   168          3
   169         13
   170          2
   171          4
   172          0
   173          0
   176          0
   177          1
   178          2
   179          1
   180          1
   181          3
   182          1
   183          1
   184          1
   185          0
   186          0
   193          0
   194          0
   195          2
   196          1
   197          0
   198          0
   199          3
   200          1
   201          1
   202          0
   207          0
   208          1
   209          1
   210          1
   211          6
   212          1
   213          0
   214          0
   216          0
   218          0
   221          0
   222          0
   223          3
   224          6
   225          2
   226          0
   227          0
   228          1
   229          0
   238          0
   239          0
   240          3
   241          6
   242          1
   244          0
   252          0
   253          0
   254          2
   255          2
   256          0
   257          0
   267          3
   269          7
   271        330
   272         50
   273          6
   274          0