##TITLE=Library Entry 81056
##JCAMP-DX=Revision 4.10 
##DATA TYPE=MASS SPECTRUM
##SAMPLE DESCRIPTION=A.A.Kutin, Moscow, Russia
##NAMES=HP
##CAS NAME=2-Benzoyl-4,4-dimethyl-5-phenyl-4H-1,3-diazol-1-ium-1-olate
##MOLFORM=C18H16N2O2
##CAS REGISTRY NO=107946-03-2
##MP= -300
##BP= -300
##MW= 292
##$RETENTION INDEX=0
##$CONDENSED SPECTRUM=NO
##NPOINTS= 90
##XYDATA=(XY..XY) 1 
    33          2
    34          3
    36          1
    39        122
    40         60
    41        130
    42         34
    43         21
    44         22
    45          5
    46          1
    48          0
    50         99
    51        311
    52         34
    53         55
    54          6
    55         10
    56         11
    57          7
    58          8
    59          1
    60          1
    62         17
    63         39
    64         18
    65         34
    66          6
    68         35
    69          5
    70          3
    71          2
    73          2
    74         20
    75         32
    77        884
    78         62
    79          7
    80          1
    81          1
    83         22
    84          3
    85          1
    91        254
    92         18
    93          3
    94          0
   105        999
   106         73
   107          4
   108          0
   115        115
   116         80
   117          8
   118          3
   129         62
   131        949
   132        109
   133          6
   134          0
   137          0
   159          1
   161        111
   162         11
   163          1
   164          0
   171          2
   173         25
   174          1
   178          0
   187          8
   188          2
   189          2
   190          0
   191          0
   205          7
   206          1
   207          0
   261         21
   262          7
   263          1
   264          0
   275          4
   276         67
   277         13
   278          1
   292         74
   293         14
   294          1
   295          0