##TITLE=Library Entry 61618
##JCAMP-DX=Revision 4.10 
##DATA TYPE=MASS SPECTRUM
##SAMPLE DESCRIPTION=NIST Mass Spectrometry Data Center
##NAMES=HP
##CAS NAME=Myrtenyl acetate
##MOLFORM=C12H18O2
##CAS REGISTRY NO=1079-01-2
##MP= -300
##BP= -300
##MW= 194
##$RETENTION INDEX=1327
##$CONDENSED SPECTRUM=NO
##NPOINTS= 101
##XYDATA=(XY..XY) 1 
    14          1
    15          5
    26          1
    27         22
    28          3
    29         15
    30          1
    31          2
    37          1
    38          3
    39         67
    40         12
    41        113
    42         16
    43        335
    44         10
    45          3
    50          9
    51         36
    52         19
    53         63
    54          9
    55         48
    56          8
    57          7
    58          2
    59          3
    60          1
    61          6
    62          3
    63         14
    64          4
    65         63
    66         18
    67         52
    68         16
    69         28
    70          7
    71          2
    72          1
    73         10
    74          2
    75          2
    77        144
    78         77
    79        169
    80         24
    81         34
    82          9
    83         11
    84          8
    85         15
    86          1
    87          1
    89          7
    91        999
    92        419
    93        159
    94         16
    95         20
    96         18
    97          4
    98          4
    99          1
   101          1
   102          3
   103         30
   104         15
   105        134
   106         65
   107         39
   108        192
   109         39
   110          7
   111         12
   112          1
   115         18
   116          5
   117         56
   119        538
   120         58
   121         21
   122          2
   123          5
   124          2
   125          1
   127          1
   128          1
   129          1
   131          3
   132          1
   133         15
   134        163
   135         24
   136          2
   137          6
   138          1
   150          5
   151          3
   152         38
   153          5