##TITLE=Library Entry 21516
##JCAMP-DX=Revision 4.10 
##DATA TYPE=MASS SPECTRUM
##SAMPLE DESCRIPTION=ASES Database, Dalian Institute, P.R. China
##NAMES=HP
##CAS NAME=1-Bromo-4-(2-methylamino-4-nitrophenoxy)-butane
##MOLFORM=C11H15BrN2O3
##CAS REGISTRY NO=107954-02-9
##MP= -300
##BP= -300
##MW= 302
##$RETENTION INDEX=0
##$CONDENSED SPECTRUM=NO
##NPOINTS= 12
##XYDATA=(XY..XY) 1 
    43        308
    52        219
    55        999
   109        197
   121        250
   122        289
   135        905
   137        757
   167        239
   168        327
   302        169
   304        178