##TITLE=Library Entry 87114
##JCAMP-DX=Revision 4.10 
##DATA TYPE=MASS SPECTRUM
##SAMPLE DESCRIPTION=Japan AIST/NIMC Database- Spectrum MS-NW-3087
##NAMES=HP
##CAS NAME=Benzenethiol
##MOLFORM=C6H6S
##CAS REGISTRY NO=108-98-5
##MP= -300
##BP= -300
##MW= 110
##$RETENTION INDEX=966
##$CONDENSED SPECTRUM=NO
##NPOINTS= 68
##XYDATA=(XY..XY) 1 
    17          1
    18          7
    26          4
    27         10
    28         10
    32          4
    33          3
    34          1
    36          2
    37         14
    38         21
    39         86
    40          6
    44          7
    45         57
    46          1
    47          3
    48          1
    49          6
    50         53
    51         94
    52          9
    53          4
    54         12
    55         20
    56          2
    57         14
    58         26
    59          7
    60          3
    61          9
    62         11
    63         22
    64          4
    65        106
    66        309
    67         16
    68          3
    69         69
    70          8
    71         17
    72          1
    73          6
    74         19
    75         11
    76         10
    77        122
    78         24
    79          1
    80          1
    81         12
    82         21
    83         10
    84        135
    85          7
    86          6
    92          1
    93          4
    95          8
   105          2
   106          2
   107          2
   108         24
   109        240
   110        999
   111         83
   112         47
   113          3