##TITLE=Library Entry 27804
##JCAMP-DX=Revision 4.10 
##DATA TYPE=MASS SPECTRUM
##SAMPLE DESCRIPTION=RADIAN CORP
##NAMES=HP
##CAS NAME=2-Propanol, 1-(dimethylamino)-
##MOLFORM=C5H13NO
##CAS REGISTRY NO=108-16-7
##MP= -300
##BP= -300
##MW= 103
##$RETENTION INDEX=0
##$CONDENSED SPECTRUM=NO
##NPOINTS= 39
##XYDATA=(XY..XY) 1 
    15         15
    18          2
    19          1
    26          2
    27         16
    28         16
    29         28
    30         69
    31         13
    38          2
    39         12
    40          8
    41         27
    42        144
    43         57
    44         96
    45         25
    46          3
    54          2
    55          3
    56         21
    57         34
    58        999
    59         50
    60          1
    68          3
    70          9
    71         11
    72          8
    73          3
    84          6
    85          2
    86         12
    87          4
    88         55
    89          2
   102          8
   103         41
   104          2