##TITLE=Library Entry 53528
##JCAMP-DX=Revision 4.10 
##DATA TYPE=MASS SPECTRUM
##SAMPLE DESCRIPTION=Chemical Concepts
##NAMES=HP
##CAS NAME=5-Methyl-2-pyrrolidinone
##MOLFORM=C5H9NO
##CAS REGISTRY NO=108-27-0
##MP= -300
##BP= -300
##MW= 99
##$RETENTION INDEX=0
##$CONDENSED SPECTRUM=NO
##NPOINTS= 33
##XYDATA=(XY..XY) 1 
    26          5
    27         25
    28         95
    29         14
    30          8
    38          4
    39         25
    40         12
    41        284
    42         54
    43         31
    44        136
    45          4
    51          5
    52          4
    53          8
    54         11
    55         73
    56        100
    57         14
    58         13
    69          5
    70         10
    71          4
    77          4
    81          4
    83          4
    84        999
    85         31
    97          4
    98         25
    99        154
   100         22