##TITLE=Library Entry 80909
##JCAMP-DX=Revision 4.10 
##DATA TYPE=MASS SPECTRUM
##SAMPLE DESCRIPTION=Japan AIST/NIMC Database- Spectrum MS-NW- 659
##NAMES=HP
##CAS NAME=Mesitylene
##MOLFORM=C9H12
##CAS REGISTRY NO=108-67-8
##MP= -300
##BP= -300
##MW= 120
##$RETENTION INDEX=972
##$CONDENSED SPECTRUM=NO
##NPOINTS= 62
##XYDATA=(XY..XY) 1 
    15          3
    26          3
    27         35
    28          2
    29          3
    37          3
    38          9
    39         68
    40          7
    41         41
    42          2
    43          1
    49          1
    50         17
    51         52
    52         17
    53         26
    54          2
    55          2
    57          9
    58         13
    59         15
    60          2
    61          3
    62          9
    63         27
    64          5
    65         36
    66          5
    67          3
    73          1
    74          8
    75          6
    76          4
    77         99
    78         35
    79         67
    80          5
    86          2
    87          2
    89          7
    90          2
    91         78
    92         15
    93          7
    94          1
    98          1
   101          2
   102          9
   103         52
   104         27
   105        999
   106         91
   107          3
   115         23
   116          6
   117         22
   118          9
   119        149
   120        700
   121         66
   122          3