##TITLE=Library Entry 57723
##JCAMP-DX=Revision 4.10 
##DATA TYPE=MASS SPECTRUM
##SAMPLE DESCRIPTION=Japan AIST/NIMC Database- Spectrum MS-NW- 977
##NAMES=HP
##CAS NAME=Butanoic acid, 3-methyl-, ethyl ester
##MOLFORM=C7H14O2
##CAS REGISTRY NO=108-64-5
##MP= -300
##BP= -300
##MW= 130
##$RETENTION INDEX=854
##$CONDENSED SPECTRUM=NO
##NPOINTS= 67
##XYDATA=(XY..XY) 1 
    14          4
    15         33
    16          1
    17          1
    18          4
    19          1
    25          1
    26         28
    27        291
    28         63
    29        885
    30         18
    31         21
    32          3
    37          3
    38         11
    39        176
    40         28
    41        500
    42        112
    43        321
    44         15
    45        263
    46          5
    47          3
    50          4
    51          6
    52          2
    53         11
    54          4
    55         66
    56        100
    57        911
    58         42
    59        166
    60        581
    61        314
    62          9
    63          1
    67          1
    68          2
    69         46
    70        225
    71         17
    72          5
    73         84
    74         19
    75          2
    82          1
    83          9
    84          7
    85        818
    86         43
    87        155
    88        999
    89         46
    90          3
   100          7
   101         13
   102         39
   103         48
   104          2
   115        102
   116          7
   129          2
   130         14
   131          3