##TITLE=Library Entry 4846
##JCAMP-DX=Revision 4.10 
##DATA TYPE=MASS SPECTRUM
##SAMPLE DESCRIPTION=D.J.MANNING NATIONAL INSTIT. FOR RES. IN DAIRYING, READ
ING, UK
##NAMES=HP
##CAS NAME=2H-Pyran-2,6(3H)-dione, dihydro-
##MOLFORM=C5H6O3
##CAS REGISTRY NO=108-55-4
##MP= -300
##BP= -300
##MW= 114
##$RETENTION INDEX=0
##$CONDENSED SPECTRUM=NO
##NPOINTS= 74
##XYDATA=(XY..XY) 1 
    25          5
    26         46
    27         74
    29         21
    30          2
    31          3
    32          2
    33          1
    34          5
    35          3
    36          2
    37         10
    38         16
    39         74
    40         28
    41         78
    42        999
    43         42
    44        181
    45          8
    46          1
    47          0
    48          1
    49          1
    50          1
    51          1
    52          1
    53          2
    54          1
    55         15
    56          3
    57          3
    58          3
    59          1
    60          6
    61          0
    62          0
    63          0
    64          1
    65          0
    66          0
    67          1
    68          8
    69          2
    70        392
    71         10
    72          3
    73          3
    74          0
    75          0
    76          0
    77          1
    78          1
    79          1
    80          0
    81          1
    82          1
    83          1
    84          0
    85          1
    86          8
    87          2
    88          0
    89          0
    90          0
    91          0
    92          0
    93          0
    94          0
    95          1
    96          0
    97          1
   114          6
   115          0