##TITLE=Library Entry 16901
##JCAMP-DX=Revision 4.10 
##DATA TYPE=MASS SPECTRUM
##SAMPLE DESCRIPTION=Japan AIST/NIMC Database- Spectrum MS-NW-5539
##NAMES=HP
##CAS NAME=Diisopropyl ether
##MOLFORM=C6H14O
##CAS REGISTRY NO=108-20-3
##MP= -300
##BP= -300
##MW= 102
##$RETENTION INDEX=570
##$CONDENSED SPECTRUM=NO
##NPOINTS= 30
##XYDATA=(XY..XY) 1 
    14          2
    15         22
    18          1
    26          4
    27         71
    28          3
    29          9
    31         25
    37          2
    38          5
    39         47
    40          9
    41        121
    42         31
    43        401
    44         15
    45        999
    46         23
    47          2
    57          2
    58          7
    59        103
    60          3
    69         25
    70          1
    72          1
    84          1
    87        222
    88         12
   102          5