##TITLE=Library Entry 7629
##JCAMP-DX=Revision 4.10 
##DATA TYPE=MASS SPECTRUM
##SAMPLE DESCRIPTION=Exported from NIST MS Search
##NAMES=HP
##CAS NAME=Pentane, 2,4-dimethyl-
##MOLFORM=C7H16
##CAS REGISTRY NO=108-08-7
##MP= -300
##BP= -300
##MW= 100
##$RETENTION INDEX=630
##$CONDENSED SPECTRUM=NO
##NPOINTS= 61
##XYDATA=(XY..XY) 1 
    12          1
    13          1
    14          2
    15         44
    16          3
    26          7
    27        207
    28         24
    29        190
    30          4
    31          1
    33          1
    34          1
    35          1
    36          1
    37          2
    38          6
    39        136
    40         27
    41        403
    42        252
    43        999
    44         34
    45          1
    46          1
    47          1
    48          1
    49          1
    50          2
    51          5
    52          2
    53         14
    54          4
    55         36
    56        361
    57        673
    58         29
    59          1
    64          1
    65          2
    66          1
    67          4
    68          1
    69         20
    70          3
    71          9
    72          1
    77          1
    78          1
    79          1
    80          1
    81          1
    82          1
    83          3
    84          5
    85        166
    86         11
    87          1
    99          1
   100         11
   101          1