##TITLE=Library Entry 87945
##JCAMP-DX=Revision 4.10 
##DATA TYPE=MASS SPECTRUM
##SAMPLE DESCRIPTION=Japan AIST/NIMC Database- Spectrum MS-NW-6938
##NAMES=HP
##CAS NAME=Isocytosine
##MOLFORM=C4H5N3O
##CAS REGISTRY NO=108-53-2
##MP= -300
##BP= -300
##MW= 111
##$RETENTION INDEX=0
##$CONDENSED SPECTRUM=NO
##NPOINTS= 53
##XYDATA=(XY..XY) 1 
    12          3
    13          6
    14          9
    15          5
    16          4
    24          1
    25          4
    26         15
    27         25
    28        125
    29         20
    30          1
    37          1
    38         21
    39         35
    40        117
    41         84
    42        156
    43        386
    44         22
    46          1
    50          2
    51          9
    52         15
    53         28
    54          6
    55         21
    56         41
    57          2
    64          1
    65          5
    66         17
    67         60
    68         69
    69        100
    70        336
    71         13
    72          1
    77          1
    78          1
    82         10
    83        205
    84         21
    85          1
    92          1
    93          3
    94         24
    95         31
    96          2
   110          3
   111        999
   112         59
   113          4