##TITLE=Library Entry 84853
##JCAMP-DX=Revision 4.10 
##DATA TYPE=MASS SPECTRUM
##SAMPLE DESCRIPTION=NIST Mass Spectrometry Data Center, 2010
##NAMES=HP
##CAS NAME=1,3-Phenylenediamine
##MOLFORM=C6H8N2
##CAS REGISTRY NO=108-45-2
##MP= -300
##BP= -300
##MW= 108
##$RETENTION INDEX=1303
##$CONDENSED SPECTRUM=NO
##NPOINTS= 59
##XYDATA=(XY..XY) 1 
    15          1
    16          1
    17          1
    18          5
    26          4
    27         15
    28         41
    29          4
    30          6
    36          1
    37         10
    38         25
    39         60
    40         28
    41         49
    42         26
    43          6
    44          8
    48          1
    49          3
    50         16
    51         31
    52         68
    53        120
    54        104
    55         11
    56          4
    57          1
    60          1
    61          7
    62         14
    63         33
    64         38
    65         42
    66         24
    67         29
    68         12
    69          8
    73          7
    74          2
    76          7
    77          4
    78         16
    79         14
    80        460
    81        256
    82         20
    83          1
    88          2
    89          2
    90         12
    91         55
    93          5
    94          1
   105          9
   107        107
   108        999
   109         70
   110          2