##TITLE=Library Entry 8057
##JCAMP-DX=Revision 4.10 
##DATA TYPE=MASS SPECTRUM
##SAMPLE DESCRIPTION=NIST Mass Spectrometry Data Center, 1990.
##NAMES=HP
##CAS NAME=Methyl Isobutyl Ketone
##MOLFORM=C6H12O
##CAS REGISTRY NO=108-10-1
##MP= -300
##BP= -300
##MW= 100
##$RETENTION INDEX=735
##$CONDENSED SPECTRUM=NO
##NPOINTS= 51
##XYDATA=(XY..XY) 1 
    13          2
    14         12
    15         76
    16          1
    18          1
    25          1
    26         17
    27        106
    28         15
    29        119
    30          4
    31          5
    37          6
    38         21
    39        130
    40         26
    41        251
    42        103
    43        999
    44         21
    45          5
    49          1
    50          7
    51          7
    52          2
    53          7
    54          2
    55         12
    56          1
    57        237
    58        332
    59         20
    60          2
    61          0
    62          1
    63          0
    65          2
    67         19
    68          1
    69          5
    70          0
    71          2
    72          5
    79          0
    81          0
    83          1
    85        136
    86          7
   100        115
   101          7
   102          0