##TITLE=Library Entry 44853
##JCAMP-DX=Revision 4.10 
##DATA TYPE=MASS SPECTRUM
##SAMPLE DESCRIPTION=Japan AIST/NIMC Database- Spectrum MS-NW-4948
##NAMES=HP
##CAS NAME=1,3,4-Thiadiazol-2-amine, 5-methyl-
##MOLFORM=C3H5N3S
##CAS REGISTRY NO=108-33-8
##MP= -300
##BP= -300
##MW= 115
##$RETENTION INDEX=0
##$CONDENSED SPECTRUM=NO
##NPOINTS= 61
##XYDATA=(XY..XY) 1 
    12          5
    13          9
    14         11
    15         31
    16          5
    17          1
    24          2
    25          8
    26         39
    27         61
    28        125
    29         26
    30          9
    32         23
    33         17
    34          6
    35          2
    36         14
    38          8
    39         13
    40         33
    41         51
    42        123
    43         27
    44         20
    45         57
    46         30
    47         95
    48          8
    49          4
    52          2
    53          3
    54          5
    55          7
    56         52
    57         21
    58         66
    59        264
    60        160
    61         16
    62          8
    64          2
    69          2
    70          4
    71          5
    72         45
    73         49
    74        999
    75         31
    76         45
    77          1
    81          1
    82          4
    84          1
    85          1
    86          1
   114          2
   115        506
   116         28
   117         23
   118          1