##TITLE=Library Entry 52167
##JCAMP-DX=Revision 4.10 
##DATA TYPE=MASS SPECTRUM
##SAMPLE DESCRIPTION=Japan AIST/NIMC Database- Spectrum MS-NW-3194
##NAMES=HP
##CAS NAME=Cyclohexane, bromo-
##MOLFORM=C6H11Br
##CAS REGISTRY NO=108-85-0
##MP= -300
##BP= -300
##MW= 162
##$RETENTION INDEX=1009
##$CONDENSED SPECTRUM=NO
##NPOINTS= 53
##XYDATA=(XY..XY) 1 
    15          4
    26          8
    27         57
    28          9
    29         33
    36          2
    37          2
    38          8
    39         88
    40         18
    41        241
    42         16
    43         19
    44          1
    49          1
    50          9
    51         14
    52          8
    53         33
    54         61
    55        505
    56         25
    57          1
    62          1
    63          2
    65          8
    66          4
    67         80
    68          5
    69          4
    74          1
    75          1
    77          7
    78          2
    79         12
    80          3
    81         71
    82         33
    83        999
    84         66
    85          2
    93          1
    95          1
   106          1
   107          1
   108          1
   119          2
   121          2
   161          6
   162          7
   163          5
   164          7
   165          1