##TITLE=Library Entry 30889
##JCAMP-DX=Revision 4.10 
##DATA TYPE=MASS SPECTRUM
##SAMPLE DESCRIPTION=Japan AIST/NIMC Database- Spectrum MS-NW- 412
##NAMES=HP
##CAS NAME=Imidodicarbonic diamide
##MOLFORM=C2H5N3O2
##CAS REGISTRY NO=108-19-0
##MP= -300
##BP= -300
##MW= 103
##$RETENTION INDEX=0
##$CONDENSED SPECTRUM=NO
##NPOINTS= 32
##XYDATA=(XY..XY) 1 
    15          5
    16         29
    17        144
    18         20
    26          2
    27          9
    28         29
    29         21
    30          4
    31         17
    32          5
    41          7
    42         36
    43        176
    44        677
    45          9
    46          1
    55          2
    56          2
    57          3
    59          9
    60        999
    61         19
    62          2
    69          2
    70         16
    71          1
    86          9
    87          4
   103        219
   104          8
   105          2