##TITLE=Library Entry 111623
##JCAMP-DX=Revision 4.10 
##DATA TYPE=MASS SPECTRUM
##SAMPLE DESCRIPTION=NIST Mass Spectrometry Data Center, 1998.
##NAMES=HP
##CAS NAME=m-Chloroaniline
##MOLFORM=C6H6ClN
##CAS REGISTRY NO=108-42-9
##MP= -300
##BP= -300
##MW= 127
##$RETENTION INDEX=1198
##$CONDENSED SPECTRUM=NO
##NPOINTS= 73
##XYDATA=(XY..XY) 1 
    15          1
    25          1
    26          5
    27          5
    28          4
    29          1
    30          1
    31          1
    35          3
    36          4
    37         26
    38         48
    39         81
    40         14
    41         36
    42         12
    43          1
    44         15
    45         51
    47          4
    48          3
    49         16
    50         34
    51         30
    52         59
    53          9
    54         11
    60         10
    61         38
    62         58
    63        125
    64         88
    65        307
    66         40
    67          6
    71          1
    72          7
    73         41
    74         23
    75         34
    76          8
    77          2
    78          4
    80          1
    84          3
    85          3
    86          8
    87          5
    88         11
    89          7
    90         31
    91         70
    92        206
    93         14
    96          1
    97          3
    98          2
    99         62
   100        116
   101         32
   102         40
   103          4
   110          3
   111          2
   112          2
   113          1
   125          2
   126         20
   127        999
   128         79
   129        331
   130         23
   131          1