##TITLE=Library Entry 17569
##JCAMP-DX=Revision 4.10 
##DATA TYPE=MASS SPECTRUM
##SAMPLE DESCRIPTION=Exported from NIST MS Search
##NAMES=HP
##CAS NAME=Bis(2-chloro-1-methylethyl) ether
##MOLFORM=C6H12Cl2O
##CAS REGISTRY NO=108-60-1
##MP= -300
##BP= -300
##MW= 170
##$RETENTION INDEX=1026
##$CONDENSED SPECTRUM=NO
##NPOINTS= 96
##XYDATA=(XY..XY) 1 
    14          2
    15         14
    16          1
    17          1
    18          1
    19          3
    25          1
    26          4
    27         25
    28          7
    29         17
    30          1
    31         10
    32          1
    33          1
    35          1
    36          2
    37          1
    38          4
    39         46
    40          8
    41        254
    42         25
    43         42
    44          6
    45        999
    46         23
    47          3
    48          2
    49         41
    50          3
    51         13
    52          1
    53          1
    54          1
    55          1
    56          1
    57          8
    58          5
    59          9
    60          1
    61          4
    62          1
    63          2
    64          1
    65          1
    67          1
    69          1
    71          2
    72          1
    73          1
    74          1
    75          4
    76          9
    77        129
    78          8
    79        101
    80          3
    81         19
    82          1
    83          1
    85          1
    87          1
    89          1
    91          1
    92          1
    93         14
    94          1
    95          5
    96          1
    97          1
   101          1
   103          1
   105          1
   107          3
   108          1
   109          1
   110          1
   111          1
   113          1
   119          1
   121        261
   122         15
   123         85
   124          5
   125          1
   127          1
   130          1
   133          1
   134          1
   135          1
   137          1
   138          1
   155          3
   156          1
   157          2