##TITLE=Library Entry 8078
##JCAMP-DX=Revision 4.10 
##DATA TYPE=MASS SPECTRUM
##SAMPLE DESCRIPTION=NIST Mass Spectrometry Data Center, 1990.
##NAMES=HP
##CAS NAME=1-Propen-2-ol, acetate
##MOLFORM=C5H8O2
##CAS REGISTRY NO=108-22-5
##MP= -300
##BP= -300
##MW= 100
##$RETENTION INDEX=609
##$CONDENSED SPECTRUM=NO
##NPOINTS= 37
##XYDATA=(XY..XY) 1 
    12          1
    13          6
    14         30
    15         82
    16          2
    17          0
    24          0
    25          4
    26         19
    27         48
    28         14
    29         29
    30          2
    31          3
    36          1
    37         11
    38         25
    39         96
    40         19
    41         94
    42        101
    43        999
    44         25
    45          4
    50          0
    51          0
    53          0
    55          1
    57         26
    58        134
    59          4
    60          0
    61          1
    72         82
    73          3
   100         44
   101          2