##TITLE=Library Entry 25846
##JCAMP-DX=Revision 4.10 
##DATA TYPE=MASS SPECTRUM
##SAMPLE DESCRIPTION=NIST Mass Spectrometry Data Center, 1998.
##NAMES=HP
##CAS NAME=4-Heptanone, 2,6-dimethyl-
##MOLFORM=C9H18O
##CAS REGISTRY NO=108-83-8
##MP= -300
##BP= -300
##MW= 142
##$RETENTION INDEX=943
##$CONDENSED SPECTRUM=NO
##NPOINTS= 56
##XYDATA=(XY..XY) 1 
    15          4
    26          3
    27         59
    29         93
    30          2
    31          2
    37          1
    38          5
    39        107
    40         19
    41        320
    42         68
    43        153
    44          5
    45          2
    50          3
    51          6
    52          2
    53         14
    54          5
    55         29
    56         24
    57        999
    58        242
    59         15
    60          1
    63          1
    65          3
    66          1
    67         12
    68          2
    69         27
    70          2
    71          9
    72          8
    77          2
    79          3
    81          2
    82          1
    83          5
    84          8
    85        758
    86         43
    87          3
    91          1
    95          1
    97          1
   100         26
   101          3
   109          2
   113          1
   127         56
   128          5
   142        135
   143         15
   144          1