##TITLE=Library Entry 5707
##JCAMP-DX=Revision 4.10 
##DATA TYPE=MASS SPECTRUM
##SAMPLE DESCRIPTION=Japan AIST/NIMC Database- Spectrum MS-NW-4918
##NAMES=HP
##CAS NAME=Propane, 1-nitro-
##MOLFORM=C3H7NO2
##CAS REGISTRY NO=108-03-2
##MP= -300
##BP= -300
##MW= 89
##$RETENTION INDEX=667
##$CONDENSED SPECTRUM=NO
##NPOINTS= 41
##XYDATA=(XY..XY) 1 
    12          1
    13          2
    14          8
    15         40
    16          3
    17          3
    18         10
    24          1
    25          5
    26         47
    27        714
    28         65
    29         49
    30         82
    31         29
    32          1
    36          1
    37         11
    38         22
    39        192
    40         37
    41        792
    42        160
    43        999
    44         36
    45          3
    46         22
    48          1
    50          1
    51          4
    52          6
    53          5
    54         20
    55          6
    56          5
    57         12
    58          2
    61         10
    71          3
    72          9
    73          1