##TITLE=Library Entry 16905
##JCAMP-DX=Revision 4.10 
##DATA TYPE=MASS SPECTRUM
##SAMPLE DESCRIPTION=Japan AIST/NIMC Database- Spectrum MS-NW- 634
##NAMES=HP
##CAS NAME=Acetaldehyde, tetramer
##MOLFORM=C8H16O4
##CAS REGISTRY NO=108-62-3
##MP= -300
##BP= -300
##MW= 176
##$RETENTION INDEX=1035
##$CONDENSED SPECTRUM=NO
##NPOINTS= 27
##XYDATA=(XY..XY) 1 
    13          3
    14         11
    15         71
    16          6
    18          3
    25          1
    26          8
    27         31
    28          8
    29         97
    31          6
    41          2
    42         14
    43        272
    44         57
    45        999
    46         20
    47          2
    58          3
    71          1
    72          2
    87         37
    88          6
    89        211
    90          9
   117         12
   131          6