##TITLE=Library Entry 61096
##JCAMP-DX=Revision 4.10 
##DATA TYPE=MASS SPECTRUM
##SAMPLE DESCRIPTION=NIST Mass Spectrometry Data Center, 1998.
##NAMES=HP
##CAS NAME=Benzene, 1,3-dimethyl-
##MOLFORM=C8H10
##CAS REGISTRY NO=108-38-3
##MP= -300
##BP= -300
##MW= 106
##$RETENTION INDEX=866
##$CONDENSED SPECTRUM=NO
##NPOINTS= 54
##XYDATA=(XY..XY) 1 
    15          3
    26          4
    27         22
    29          1
    37          6
    38         16
    39         87
    40         10
    41         11
    43          1
    45          1
    49          4
    50         46
    51        106
    52         48
    53         27
    54          2
    55          1
    60          1
    61         10
    62         27
    63         68
    64         13
    65         76
    66         10
    67          1
    73          3
    74         18
    75         12
    76         11
    77        135
    78         75
    79         74
    80          5
    85          2
    86          5
    87          5
    88          1
    89         27
    90          9
    91        999
    92         80
    93          3
    97          1
    98          3
    99          1
   101          2
   102         14
   103         68
   104         23
   105        232
   106        520
   107         46
   108          2