##TITLE=Library Entry 6487
##JCAMP-DX=Revision 4.10 
##DATA TYPE=MASS SPECTRUM
##SAMPLE DESCRIPTION=NIST Mass Spectrometry Data Center, 1998.
##NAMES=HP
##CAS NAME=Acetic anhydride
##MOLFORM=C4H6O3
##CAS REGISTRY NO=108-24-7
##MP= -300
##BP= -300
##MW= 102
##$RETENTION INDEX=706
##$CONDENSED SPECTRUM=NO
##NPOINTS= 19
##XYDATA=(XY..XY) 1 
    13          3
    14         15
    15         55
    16          1
    25          2
    26          3
    27          2
    29         19
    30          1
    31          1
    40          3
    41         21
    42        103
    43        999
    44         46
    45         20
    60          2
    87          6
   103          1