##TITLE=Library Entry 23927
##JCAMP-DX=Revision 4.10 
##DATA TYPE=MASS SPECTRUM
##SAMPLE DESCRIPTION=Japan AIST/NIMC Database- Spectrum MS-NW- 810
##NAMES=HP
##CAS NAME=Propylene Carbonate
##MOLFORM=C4H6O3
##CAS REGISTRY NO=108-32-7
##MP= -300
##BP= -300
##MW= 102
##$RETENTION INDEX=931
##$CONDENSED SPECTRUM=NO
##NPOINTS= 50
##XYDATA=(XY..XY) 1 
    13          2
    14         14
    15        132
    16          2
    17          1
    18          3
    25          6
    26         96
    27        263
    28        637
    29        373
    30        395
    31         56
    32          6
    36          1
    37          8
    38         14
    39         54
    40         13
    41         40
    42         46
    43        777
    44         54
    45         35
    46          1
    51          1
    53          3
    55         10
    56         16
    57        999
    58        135
    59         16
    69          3
    70          4
    71          7
    72          2
    73          7
    77          2
    78          3
    83          2
    84          3
    85          2
    86          3
    87        199
    88          7
    89          1
   101          5
   102         55
   103          9
   104          2