##TITLE=Library Entry 6808
##JCAMP-DX=Revision 4.10 
##DATA TYPE=MASS SPECTRUM
##SAMPLE DESCRIPTION=NIST Mass Spectrometry Data Center, 1994
##NAMES=HP
##CAS NAME=1-Methoxy-2-propyl acetate
##MOLFORM=C6H12O3
##CAS REGISTRY NO=108-65-6
##MP= -300
##BP= -300
##MW= 132
##$RETENTION INDEX=892
##$CONDENSED SPECTRUM=NO
##NPOINTS= 57
##XYDATA=(XY..XY) 1 
     4          3
     7          0
    12          1
    13          4
    14         32
    15        239
    16          6
    17          2
    18          1
    19          3
    24          0
    26         15
    27         65
    28         32
    29        191
    30         11
    31         38
    32          0
    33          5
    35          0
    37          2
    38          8
    39         58
    40         12
    41         90
    42          0
    43        999
    44         47
    45        497
    46         13
    47          1
    51          0
    53          1
    55          4
    57         36
    58        120
    59         11
    60          1
    61          8
    69          0
    71         32
    72        203
    73         23
    74          1
    75          2
    87         87
    88         36
    89         24
    90          1
    91          0
    92          0
   100          1
   101          0
   102          3
   103          0
   117          3
   118          0