##TITLE=Library Entry 15723
##JCAMP-DX=Revision 4.10 
##DATA TYPE=MASS SPECTRUM
##SAMPLE DESCRIPTION=Japan AIST/NIMC Database- Spectrum MS-NW-6357
##NAMES=HP
##CAS NAME=Piperazine, 2,6-dimethyl-
##MOLFORM=C6H14N2
##CAS REGISTRY NO=108-49-6
##MP= -300
##BP= -300
##MW= 114
##$RETENTION INDEX=0
##$CONDENSED SPECTRUM=NO
##NPOINTS= 73
##XYDATA=(XY..XY) 1 
    14          3
    15         38
    16          1
    17          9
    18         11
    26          9
    27         58
    28         19
    29         29
    30        339
    31         15
    36          2
    37          3
    38          8
    39         73
    40         31
    41        155
    42        374
    43        173
    44        999
    45         27
    46          1
    47          1
    48          7
    49          3
    50          1
    51          2
    52          6
    53          4
    54         20
    55         12
    56        292
    57         40
    58         38
    59          2
    64          1
    65          1
    66          3
    67          6
    68         39
    69         19
    70        389
    71        759
    72        183
    73         17
    74          1
    77          1
    78          3
    80          3
    81          4
    82         11
    83         28
    84         24
    85          9
    86          1
    93          1
    94          2
    95         10
    96          4
    97          8
    98         11
    99        351
   100         22
   101          1
   107          1
   108         24
   109          9
   110          9
   111          5
   112          4
   113         29
   114        116
   115          9