##TITLE=Library Entry 10070
##JCAMP-DX=Revision 4.10 
##DATA TYPE=MASS SPECTRUM
##SAMPLE DESCRIPTION=Japan AIST/NIMC Database- Spectrum MS-IW-3504
##NAMES=HP
##CAS NAME=4-Methyl-2-pentyl acetate
##MOLFORM=C8H16O2
##CAS REGISTRY NO=108-84-9
##MP= -300
##BP= -300
##MW= 144
##$RETENTION INDEX=876
##$CONDENSED SPECTRUM=NO
##NPOINTS= 57
##XYDATA=(XY..XY) 1 
    14          3
    15         31
    18          2
    26          3
    27         64
    28         11
    29         49
    30          1
    31          5
    37          1
    38          4
    39         72
    40         13
    41        232
    42         76
    43        999
    44         45
    45         65
    46          1
    50          2
    51          4
    52          1
    53         11
    54          3
    55         52
    56         63
    57         65
    58         74
    59         37
    60          5
    61         99
    62          2
    63          1
    65          2
    66          1
    67         11
    68          5
    69        582
    70         33
    71          6
    72          2
    82          1
    83         24
    84        370
    85         97
    86          9
    87        628
    88         29
    89          3
   100         30
   101         39
   102         69
   103          4
   105          1
   129         30
   130          2
   144          7