##TITLE=Library Entry 82848
##JCAMP-DX=Revision 4.10 
##DATA TYPE=MASS SPECTRUM
##SAMPLE DESCRIPTION=NIST Mass Spectrometry Data Center, 1998.
##NAMES=HP
##CAS NAME=Benzenamine, 3-methyl-
##MOLFORM=C7H9N
##CAS REGISTRY NO=108-44-1
##MP= -300
##BP= -300
##MW= 107
##$RETENTION INDEX=1075
##$CONDENSED SPECTRUM=NO
##NPOINTS= 59
##XYDATA=(XY..XY) 1 
    15          1
    26          5
    27         21
    28         19
    29          3
    30          7
    37         10
    38         28
    39         83
    40         17
    41         31
    42         18
    43          2
    44          1
    45          1
    49          5
    50         40
    51         72
    52         70
    53         72
    55          3
    56          1
    60          1
    61          9
    62         19
    63         44
    64         18
    65         49
    66         22
    67          9
    68          4
    73          3
    74         11
    75          9
    76         11
    77        176
    78         62
    79        154
    80         67
    81          9
    85          2
    86          3
    87          2
    88          1
    89         36
    90         25
    91         38
    92          9
    93          1
    99          1
   100          1
   102          2
   103          1
   104         29
   105          1
   106        999
   107        946
   108         74
   109          3