##TITLE=Library Entry 47489
##JCAMP-DX=Revision 4.10 
##DATA TYPE=MASS SPECTRUM
##SAMPLE DESCRIPTION=NIST Mass Spectrometry Data Center, 1998.
##NAMES=HP
##CAS NAME=Benzene, bromo-
##MOLFORM=C6H5Br
##CAS REGISTRY NO=108-86-1
##MP= -300
##BP= -300
##MW= 156
##$RETENTION INDEX=960
##$CONDENSED SPECTRUM=NO
##NPOINTS= 52
##XYDATA=(XY..XY) 1 
    25          2
    26          7
    27         11
    36          5
    37         33
    38         62
    39         27
    48          5
    49         44
    50        296
    51        353
    52         17
    60          4
    61         12
    62         13
    63          5
    72          4
    73         37
    74        133
    75         82
    76         62
    77        999
    78         92
    79         41
    80          5
    81         16
    82          4
    83          1
    91          1
    93          2
    95          1
   104          4
   105          2
   106          4
   107          2
   116          2
   117          5
   118          2
   119          5
   128          3
   129          4
   130          4
   131          4
   132          1
   141          5
   143          4
   154          1
   156        665
   157         50
   158        642
   159         43
   160          1