##TITLE=Library Entry 18590
##JCAMP-DX=Revision 4.10 
##DATA TYPE=MASS SPECTRUM
##SAMPLE DESCRIPTION=Japan AIST/NIMC Database- Spectrum MS-NW-1870
##NAMES=HP
##CAS NAME=Maleic anhydride
##MOLFORM=C4H2O3
##CAS REGISTRY NO=108-31-6
##MP= -300
##BP= -300
##MW= 98
##$RETENTION INDEX=830
##$CONDENSED SPECTRUM=NO
##NPOINTS= 29
##XYDATA=(XY..XY) 1 
    12         16
    13         32
    14         12
    16          5
    24         29
    25        126
    26        954
    27         27
    28         61
    29         25
    32          1
    36         13
    37         15
    38          2
    40          7
    41         35
    42          8
    44         40
    45          8
    52         22
    53        101
    54        999
    55         34
    56          2
    69          4
    82          2
    98        202
    99          9
   100          1