##TITLE=Library Entry 29841
##JCAMP-DX=Revision 4.10 
##DATA TYPE=MASS SPECTRUM
##SAMPLE DESCRIPTION=Japan AIST/NIMC Database- Spectrum MS-NW-4990
##NAMES=HP
##CAS NAME=Propanediamide
##MOLFORM=C3H6N2O2
##CAS REGISTRY NO=108-13-4
##MP= -300
##BP= -300
##MW= 102
##$RETENTION INDEX=1125
##$CONDENSED SPECTRUM=NO
##NPOINTS= 43
##XYDATA=(XY..XY) 1 
    12          3
    13          5
    14         25
    15         49
    16         30
    17         53
    18         21
    25          1
    26          3
    27         13
    28         68
    29         14
    30         51
    31         14
    32          1
    38          7
    39          9
    40         26
    41         80
    42        303
    43        334
    44        523
    45          9
    46          1
    53          1
    55          1
    56          2
    57          1
    58          6
    59        999
    60         28
    61          3
    66          4
    67          2
    68          8
    69         24
    70          1
    84          2
    85          3
    86          5
   102        152
   103          8
   104          1