##TITLE=Library Entry 52173
##JCAMP-DX=Revision 4.10 
##DATA TYPE=MASS SPECTRUM
##SAMPLE DESCRIPTION=Japan AIST/NIMC Database- Spectrum MS-NW-3722
##NAMES=HP
##CAS NAME=Cyclohexane, methyl-
##MOLFORM=C7H14
##CAS REGISTRY NO=108-87-2
##MP= -300
##BP= -300
##MW= 98
##$RETENTION INDEX=728
##$CONDENSED SPECTRUM=NO
##NPOINTS= 53
##XYDATA=(XY..XY) 1 
    15          9
    26          9
    27        128
    28         31
    29        110
    30          2
    36          1
    37          3
    38          9
    39        155
    40         28
    41        410
    42        285
    43         68
    44          2
    45          1
    46          2
    50          9
    51         18
    52          9
    53         45
    54         44
    55        762
    56        284
    57         49
    58          2
    61          1
    62          3
    63          4
    64          1
    65          9
    66          4
    67         44
    68         92
    69        224
    70        217
    71         13
    77          8
    78          2
    79          7
    80          1
    81         13
    82        144
    83        999
    84         69
    85          3
    91          2
    95          1
    96          1
    97         27
    98        368
    99         30
   100          1