##TITLE=Library Entry 15265
##JCAMP-DX=Revision 4.10 
##DATA TYPE=MASS SPECTRUM
##SAMPLE DESCRIPTION=D.HENNEBERG, MAX-PLANCK INSTITUTE, MULHEIM, WEST GERMAN
Y
##NAMES=HP
##CAS NAME=1,3,5-Triazine, hexahydro-1,3,5-trimethyl-
##MOLFORM=C6H15N3
##CAS REGISTRY NO=108-74-7
##MP= -300
##BP= -300
##MW= 129
##$RETENTION INDEX=0
##$CONDENSED SPECTRUM=NO
##NPOINTS= 48
##XYDATA=(XY..XY) 1 
    27         29
    28         47
    29          3
    30         23
    31          1
    32          2
    38          8
    39         11
    40         34
    41         61
    42        490
    43        201
    44        999
    45         85
    46          2
    49          0
    50         23
    51          0
    52          1
    53          0
    54          1
    55         10
    56          2
    57        113
    58          9
    59          0
    61          0
    69          1
    70          0
    71          4
    72          1
    73          4
    74          0
    75          1
    77          0
    83          2
    84          1
    85         28
    86        223
    87         14
    88          0
    96          0
    98          0
    99          0
   112          1
   128        124
   129         61
   130          3