##TITLE=Library Entry 70702
##JCAMP-DX=Revision 4.10 
##DATA TYPE=MASS SPECTRUM
##SAMPLE DESCRIPTION=Japan AIST/NIMC Database- Spectrum MS-NW-5510
##NAMES=HP
##CAS NAME=3H-Pyrazol-3-one, 2,4-dihydro-5-methyl-
##MOLFORM=C4H6N2O
##CAS REGISTRY NO=108-26-9
##MP= -300
##BP= -300
##MW= 98
##$RETENTION INDEX=0
##$CONDENSED SPECTRUM=NO
##NPOINTS= 57
##XYDATA=(XY..XY) 1 
    12          2
    13          4
    14         12
    15         37
    16          1
    17          2
    18          4
    24          2
    25          9
    26         44
    27         69
    28         68
    29         79
    30         15
    31          8
    32         33
    33          1
    35          1
    36          8
    37         44
    38         76
    39        343
    40         91
    41        507
    42         81
    43         28
    44         10
    45          3
    48          1
    49          5
    50          8
    51         13
    52         16
    53         19
    54        120
    55         45
    56        151
    57         13
    58          8
    59          2
    65          1
    66          9
    67        147
    68         25
    69        126
    70        132
    71          6
    79          3
    80          2
    81          9
    82          4
    83          8
    96          2
    97        116
    98        999
    99         55
   100          3