##TITLE=Library Entry 86999
##JCAMP-DX=Revision 4.10 
##DATA TYPE=MASS SPECTRUM
##SAMPLE DESCRIPTION=NIST Mass Spectrometry Data Center
##NAMES=HP
##CAS NAME=1,3-Benzenediol, diacetate
##MOLFORM=C10H10O4
##CAS REGISTRY NO=108-58-7
##MP= -300
##BP= -300
##MW= 194
##$RETENTION INDEX=1445
##$CONDENSED SPECTRUM=NO
##NPOINTS= 61
##XYDATA=(XY..XY) 1 
    14          1
    15          9
    26          2
    27          5
    28          2
    29          1
    37          1
    38          6
    39         13
    40          2
    41          4
    42         13
    43        285
    44          7
    45          1
    49          1
    50          7
    51         11
    52         13
    53         17
    54          5
    55          4
    61          1
    62          5
    63         17
    64         11
    65          7
    66          2
    67          1
    68          5
    69         14
    70          1
    71          1
    74          1
    75          1
    77          1
    79          1
    80          1
    81         31
    82         26
    83          2
    92          5
    93          7
    94          2
    95          3
   107          2
   108          1
   110        999
   111         85
   112          7
   121          1
   123          3
   124          1
   135          5
   136          1
   152        245
   153         21
   154          2
   194         44
   195          5
   196          1