##TITLE=Library Entry 65963
##JCAMP-DX=Revision 4.10 
##DATA TYPE=MASS SPECTRUM
##SAMPLE DESCRIPTION=Japan AIST/NIMC Database- Spectrum MS-NW-5548
##NAMES=HP
##CAS NAME=Pyridine, 3-methyl-
##MOLFORM=C6H7N
##CAS REGISTRY NO=108-99-6
##MP= -300
##BP= -300
##MW= 93
##$RETENTION INDEX=863
##$CONDENSED SPECTRUM=NO
##NPOINTS= 46
##XYDATA=(XY..XY) 1 
    14          1
    15          3
    25          3
    26         22
    27         31
    28         24
    31          9
    36          4
    37         40
    38         82
    39        299
    40        139
    41         33
    42          5
    43          1
    44          1
    45          8
    46          6
    48          1
    49          9
    50         34
    51         58
    52         31
    53         26
    54         27
    55          1
    60          4
    61         20
    62         35
    63         75
    64         34
    65        259
    66        393
    67        112
    68          5
    75          4
    76          4
    77          1
    78         38
    79          4
    90          1
    91         11
    92        304
    93        999
    94         71
    95          2