##TITLE=Library Entry 15179
##JCAMP-DX=Revision 4.10 
##DATA TYPE=MASS SPECTRUM
##SAMPLE DESCRIPTION=NIST Mass Spectrometry Data Center, 1998.
##NAMES=HP
##CAS NAME=2-Pentanamine, 4-methyl-
##MOLFORM=C6H15N
##CAS REGISTRY NO=108-09-8
##MP= -300
##BP= -300
##MW= 101
##$RETENTION INDEX=0
##$CONDENSED SPECTRUM=NO
##NPOINTS= 43
##XYDATA=(XY..XY) 1 
    15          5
    26          2
    27         26
    28         15
    29         13
    30         45
    31          1
    35          1
    37          1
    38          4
    39         44
    40          8
    41         75
    42         71
    43         62
    44        999
    45         31
    50          2
    51          3
    52          2
    53          5
    54          5
    55          7
    56         13
    57          9
    58         20
    59          1
    63          1
    65          1
    66          1
    67          2
    68          2
    69         19
    70          7
    71          1
    82          1
    84          5
    85          1
    86         33
    87          2
   100          5
   101          6
   102          1