##TITLE=Library Entry 3078
##JCAMP-DX=Revision 4.10 
##DATA TYPE=MASS SPECTRUM
##SAMPLE DESCRIPTION=Japan AIST/NIMC Database- Spectrum MS-NW-3537
##NAMES=HP
##CAS NAME=Butanoyl chloride, 3-methyl-
##MOLFORM=C5H9ClO
##CAS REGISTRY NO=108-12-3
##MP= -300
##BP= -300
##MW= 120
##$RETENTION INDEX=758
##$CONDENSED SPECTRUM=NO
##NPOINTS= 67
##XYDATA=(XY..XY) 1 
    12          2
    13          5
    14         20
    15         60
    16          2
    18          1
    25          3
    26         31
    27        277
    28         19
    29        319
    30          9
    31          1
    35          9
    36         41
    37         20
    38         41
    39        295
    40         58
    41        999
    42        273
    43        549
    44         18
    45          4
    48          1
    49         15
    50         15
    51         14
    52          4
    53         19
    54          5
    55         68
    56        123
    57        669
    58         28
    59          4
    60         19
    61          3
    62          1
    63         45
    65         13
    67          4
    68          5
    69        197
    70         10
    71          3
    74          9
    75          2
    76          4
    77         56
    78        175
    79         32
    80         57
    81          6
    83          7
    84         92
    85        553
    86         30
    87          5
    91          9
    92         61
    93          4
    94         21
   101          1
   105         63
   106          3
   107         21