##TITLE=Library Entry 83924
##JCAMP-DX=Revision 4.10 
##DATA TYPE=MASS SPECTRUM
##SAMPLE DESCRIPTION=Japan AIST/NIMC Database- Spectrum MS-NW- 652
##NAMES=HP
##CAS NAME=2,6-Lutidine
##MOLFORM=C7H9N
##CAS REGISTRY NO=108-48-5
##MP= -300
##BP= -300
##MW= 107
##$RETENTION INDEX=878
##$CONDENSED SPECTRUM=NO
##NPOINTS= 49
##XYDATA=(XY..XY) 1 
    14          1
    15         13
    26          9
    27         33
    28         12
    29          1
    30          1
    37         12
    38         37
    39        188
    40         47
    41         40
    42         54
    43          2
    49          3
    50         18
    51         31
    52         22
    53         27
    54          7
    55          2
    60          1
    61          7
    62         13
    63         39
    64         25
    65        151
    66        234
    67         44
    68          5
    74          2
    75          2
    76          3
    77         41
    78         15
    79         84
    80         29
    81          8
    89          3
    90          4
    91         10
    92        156
    93         10
   104          8
   105          5
   106        269
   107        999
   108         77
   109          3