##TITLE=Library Entry 69227
##JCAMP-DX=Revision 4.10 
##DATA TYPE=MASS SPECTRUM
##SAMPLE DESCRIPTION=Japan AIST/NIMC Database- Spectrum MS-IW-2328
##NAMES=HP
##CAS NAME=4H-Pyran-4-one
##MOLFORM=C5H4O2
##CAS REGISTRY NO=108-97-4
##MP= -300
##BP= -300
##MW= 96
##$RETENTION INDEX=972
##$CONDENSED SPECTRUM=NO
##NPOINTS= 47
##XYDATA=(XY..XY) 1 
    12          5
    13         19
    14         92
    15          5
    24          5
    25         22
    26         92
    27         16
    28         38
    29        123
    30          1
    34          9
    36          7
    37         34
    38         41
    39        107
    40         60
    41        109
    42        512
    43         17
    44          2
    45          5
    48          5
    49         12
    50         19
    51          8
    52          4
    53         53
    54         16
    55          4
    60          4
    61          2
    65          1
    66          3
    67          2
    68        259
    69        619
    70        499
    71         19
    72          2
    77          1
    79          1
    94          4
    95          9
    96        999
    97         62
    98          6