##TITLE=Library Entry 61886
##JCAMP-DX=Revision 4.10 
##DATA TYPE=MASS SPECTRUM
##SAMPLE DESCRIPTION=NIST Mass Spectrometry Data Center, 1998.
##NAMES=HP
##CAS NAME=Benzenethiol, 3-methyl-
##MOLFORM=C7H8S
##CAS REGISTRY NO=108-40-7
##MP= -300
##BP= -300
##MW= 124
##$RETENTION INDEX=0
##$CONDENSED SPECTRUM=NO
##NPOINTS= 82
##XYDATA=(XY..XY) 1 
    15          2
    26          5
    27         18
    28          1
    32          2
    33          6
    34          3
    36          1
    37         12
    38         26
    39        110
    40          8
    41          9
    43          2
    45        116
    46          4
    47          9
    48          1
    49          7
    50         42
    51         63
    52         19
    53         28
    54          2
    56          1
    57         13
    58         23
    59         11
    60         14
    61         29
    62         55
    63         88
    64         17
    65        104
    66         10
    67          1
    68          3
    69         65
    70         12
    71         20
    72          2
    73          5
    74         14
    75          8
    76          5
    77        102
    78         35
    79         85
    80         30
    81         16
    82         24
    83         11
    84         21
    85          9
    86         10
    87          7
    88          2
    89         65
    90         48
    91        999
    92         86
    93         18
    94          3
    95         16
    96          7
    97         42
    98          9
    99          2
   105          1
   106          2
   107          2
   108         23
   109         29
   110          3
   111          1
   121         39
   122          9
   123        118
   124        691
   125         66
   126         34
   127          3