##TITLE=Library Entry 25715
##JCAMP-DX=Revision 4.10 
##DATA TYPE=MASS SPECTRUM
##SAMPLE DESCRIPTION=NIST Mass Spectrometry Data Center, 1998.
##NAMES=HP
##CAS NAME=Cyclohexanol
##MOLFORM=C6H12O
##CAS REGISTRY NO=108-93-0
##MP= -300
##BP= -300
##MW= 100
##$RETENTION INDEX=880
##$CONDENSED SPECTRUM=NO
##NPOINTS= 62
##XYDATA=(XY..XY) 1 
    15          5
    19          1
    26         11
    27         88
    28         16
    29        107
    30          7
    31         45
    32          1
    37          4
    38         12
    39        140
    40         25
    41        220
    42         76
    43        142
    44        241
    45         37
    46          1
    47          1
    48          1
    49          2
    50         14
    51         23
    52          8
    53         50
    54        114
    55        108
    56        136
    57        999
    58         84
    59          9
    60          1
    61          1
    62          2
    63          4
    64          1
    65         10
    66          7
    67        256
    68         16
    69         18
    70         13
    71        129
    72         69
    73          3
    74          1
    77          9
    78          2
    79         20
    80          2
    81         49
    82        462
    83         36
    84          1
    85         12
    86          1
    97          1
    98          2
    99         13
   100         18
   101          1