##TITLE=Library Entry 67037
##JCAMP-DX=Revision 4.10 
##DATA TYPE=MASS SPECTRUM
##SAMPLE DESCRIPTION=NIST Mass Spectrometry Data Center, 1994
##NAMES=HP
##CAS NAME=Phenol
##MOLFORM=C6H6O
##CAS REGISTRY NO=108-95-2
##MP= -300
##BP= -300
##MW= 94
##$RETENTION INDEX=980
##$CONDENSED SPECTRUM=NO
##NPOINTS= 52
##XYDATA=(XY..XY) 1 
    12          1
    13          1
    14          1
    15          4
    17          0
    19          1
    24          1
    25          6
    26         27
    27         36
    29         24
    30          1
    31          6
    36          6
    37         52
    38         92
    39        243
    40        114
    41          9
    42         11
    43          6
    45          1
    46          8
    47         38
    49         14
    50         63
    51         52
    52          9
    53         35
    54          1
    55         79
    56          3
    60          6
    61         28
    62         43
    63         71
    64         27
    65        266
    66        387
    67         27
    68         10
    72          1
    73          9
    74         21
    75         10
    76          7
    77          8
    79         10
    91          1
    94        999
    95         68
    96          3