##TITLE=Library Entry 16818
##JCAMP-DX=Revision 4.10 
##DATA TYPE=MASS SPECTRUM
##SAMPLE DESCRIPTION=Exported from NIST MS Search
##NAMES=HP
##CAS NAME=2-Pentanol, 4-methyl-
##MOLFORM=C6H14O
##CAS REGISTRY NO=108-11-2
##MP= -300
##BP= -300
##MW= 102
##$RETENTION INDEX=758
##$CONDENSED SPECTRUM=NO
##NPOINTS= 57
##XYDATA=(XY..XY) 1 
    16          7
    17          6
    18         17
    19          9
    25          1
    26         13
    27        144
    28         40
    29         98
    30          4
    31         31
    32          4
    33          1
    35          1
    36          1
    37          5
    38         12
    39        107
    40         18
    41        176
    42         63
    43        283
    44         74
    45        999
    46         23
    47          3
    49          1
    50          4
    51          6
    52          2
    53          9
    54          2
    55         20
    56         43
    57         56
    58         15
    59         13
    60          1
    61          1
    62          1
    63          1
    65          2
    66          1
    67          4
    68          2
    69        135
    70          8
    71          7
    72          1
    83          2
    84         30
    85          9
    86          1
    87         48
    88          3
   101          2
   102          1