##TITLE=Library Entry 114933
##JCAMP-DX=Revision 4.10 
##DATA TYPE=MASS SPECTRUM
##SAMPLE DESCRIPTION=NIST Mass Spectrometry Data Center, 1998.
##NAMES=HP
##CAS NAME=Benzene, 1,3-diethenyl-
##MOLFORM=C10H10
##CAS REGISTRY NO=108-57-6
##MP= -300
##BP= -300
##MW= 130
##$RETENTION INDEX=1116
##$CONDENSED SPECTRUM=NO
##NPOINTS= 61
##XYDATA=(XY..XY) 1 
    15          1
    26          6
    27         22
    37          4
    38         11
    39         56
    40          4
    41          4
    49          5
    50         76
    51        159
    52         40
    53         13
    54          1
    57          2
    60          1
    61         11
    62         31
    63         97
    64         65
    65         51
    66          3
    73          6
    74         48
    75         46
    76         41
    77        132
    78         67
    79          6
    84          1
    85          4
    86         10
    87         14
    88          5
    89         37
    90          4
    91         20
    92          2
    97          2
    98         12
    99          5
   100          2
   101         18
   102         91
   103         78
   104         63
   105          5
   110          1
   111          1
   113          4
   114          8
   115        421
   116         41
   125          2
   126         28
   127        180
   128        413
   129        410
   130        999
   131        118
   132          5