##TITLE=Library Entry 61531
##JCAMP-DX=Revision 4.10 
##DATA TYPE=MASS SPECTRUM
##SAMPLE DESCRIPTION=Chemical Concepts
##NAMES=HP
##CAS NAME=Phosphonic acid, (phenylmethyl)-, diethyl ester
##MOLFORM=C11H17O3P
##CAS REGISTRY NO=1080-32-6
##MP= -300
##BP= -300
##MW= 228
##$RETENTION INDEX=0
##$CONDENSED SPECTRUM=NO
##NPOINTS= 129
##XYDATA=(XY..XY) 1 
    26          6
    27         50
    28          5
    29        109
    30          2
    31          2
    37          0
    38          3
    39         56
    40          4
    41         20
    42          2
    43          8
    44          0
    45         22
    46          0
    47         12
    48          1
    49          0
    50          5
    51         26
    52          8
    53          2
    55          0
    57          2
    61          0
    62          6
    63         34
    64         12
    65        205
    66         10
    67          0
    69          0
    73          0
    74          0
    75          1
    76          1
    77         20
    78          6
    79         13
    80         13
    81        176
    82          2
    83          2
    86          0
    87          1
    88          0
    89         48
    90         37
    91        999
    92        283
    93         47
    94          4
    95          0
    96         99
    97        145
    98          2
    99          1
   100          0
   102          0
   103          1
   104         13
   105        114
   106         10
   107         27
   108          3
   109        244
   110          7
   111          2
   115          1
   116          1
   117         31
   118        295
   119         68
   120          8
   121          3
   122          0
   123          0
   124        254
   125         10
   126          2
   131          0
   132          0
   133          5
   134          4
   135          0
   136          0
   137         11
   138          1
   139          0
   140          0
   141          1
   142          0
   146          9
   147          1
   152          0
   153          2
   154         17
   155          1
   156          1
   167          2
   170          0
   171          7
   172        180
   173         24
   174          2
   181          2
   182          1
   183          1
   184          0
   185         38
   186          3
   187          0
   198          0
   199         61
   200         92
   201         15
   202          1
   210          1
   211          3
   212          0
   213         18
   214          2
   215          0
   227         12
   228        293
   229         41
   230          3
   231          0