##TITLE=Library Entry 98528
##JCAMP-DX=Revision 4.10 
##DATA TYPE=MASS SPECTRUM
##SAMPLE DESCRIPTION=ASES Database, Dalian Institute, P.R. China
##NAMES=HP
##CAS NAME=Ethyl 1-ethoxy-benzimidazole-2-carboxylate
##MOLFORM=C12H14N2O3
##CAS REGISTRY NO=108047-49-0
##MP= -300
##BP= -300
##MW= 234
##$RETENTION INDEX=0
##$CONDENSED SPECTRUM=NO
##NPOINTS= 16
##XYDATA=(XY..XY) 1 
    88        191
    89        208
   100        320
   105        578
   106        417
   116        201
   117        129
   118        999
   133        179
   134        922
   144        421
   145        500
   160        219
   190        218
   216         59
   234        749