##TITLE=Library Entry 32983
##JCAMP-DX=Revision 4.10 
##DATA TYPE=MASS SPECTRUM
##SAMPLE DESCRIPTION=Chemical Concepts
##NAMES=HP
##CAS NAME=Hexanoic acid, 5-hexenyl ester
##MOLFORM=C12H22O2
##CAS REGISTRY NO=108058-81-7
##MP= -300
##BP= -300
##MW= 198
##$RETENTION INDEX=1655
##$CONDENSED SPECTRUM=NO
##NPOINTS= 85
##XYDATA=(XY..XY) 1 
    26          9
    27        171
    28         64
    29        232
    30          6
    31         11
    37          2
    38          6
    39        192
    40         30
    41        494
    42        133
    43        553
    44         25
    45         18
    50          5
    51          9
    52          7
    53         62
    54        641
    55        446
    56         51
    57         24
    58          9
    59          7
    60         43
    61         10
    62          1
    63          2
    65         17
    66         17
    67        999
    68         65
    69         64
    70         29
    71        400
    72         25
    73         58
    74          7
    75         10
    77          7
    78          1
    79         25
    80         10
    81         91
    82        932
    83        134
    84         26
    85         21
    86          4
    87         44
    88          3
    89         22
    91          1
    95          2
    96         10
    97         21
    98         13
    99        713
   100         72
   101         16
   109          3
   112          1
   113          4
   114         26
   115         11
   116          8
   117        137
   118         10
   119          1
   124          7
   125          2
   127         16
   128          4
   129          3
   141          1
   142          8
   143          3
   150          3
   155          6
   156          1
   157         18
   158          1
   168         10
   169          2