##TITLE=Library Entry 9833
##JCAMP-DX=Revision 4.10 
##DATA TYPE=MASS SPECTRUM
##SAMPLE DESCRIPTION=L. Cohen, LC, NIDDK, NIH, Bethesda, MD 20892
##NAMES=HP
##CAS NAME=7-Acetyl-1,3:2,5:4,6-trimethylene-d-glycero-d-mannoheptitol
##MOLFORM=C12H18O8
##CAS REGISTRY NO=108039-91-4
##MP= -300
##BP= -300
##MW= 290
##$RETENTION INDEX=0
##$CONDENSED SPECTRUM=NO
##NPOINTS= 132
##XYDATA=(XY..XY) 1 
    41         54
    42         91
    43        999
    44         65
    45        234
    46          5
    47          2
    49          2
    50          3
    51          6
    52          3
    53         18
    54         19
    55        119
    56         19
    57        218
    58         15
    59         17
    60          4
    61         21
    62          1
    63          1
    65          4
    66          2
    67          9
    68         36
    69        196
    70         53
    71         66
    72         35
    73        189
    74         10
    75          2
    77          4
    78         10
    79          3
    80          0
    81         36
    82         10
    83         25
    84         17
    85        245
    86         58
    87         50
    88          3
    89          4
    91          1
    93          0
    94          2
    95          9
    96          5
    97         66
    98         70
    99         67
   100         18
   101         11
   102          3
   103         13
   106          4
   107          1
   108          2
   109          5
   110          5
   111         19
   112         10
   113         13
   114         14
   115        107
   116         10
   117         19
   118          0
   122          1
   123          4
   124         14
   125          4
   126          7
   127         77
   128         58
   129         16
   130          2
   131          4
   133          0
   136          0
   139          4
   140          7
   141         14
   142         13
   143          3
   144         16
   145         83
   146          6
   147          0
   149          0
   152         13
   153          4
   154         10
   155          3
   156          0
   157         57
   158         17
   159          6
   168          0
   169          3
   170          9
   171          3
   172          0
   173          3
   174          1
   175          1
   182          3
   183          1
   184          2
   187         85
   188          8
   189          1
   199          2
   200         26
   201          7
   202          4
   212          4
   217         49
   218          5
   219          0
   229          0
   230         20
   231          3
   242         34
   243          4
   260          4
   289          1
   290          3
   291          0