##TITLE=Library Entry 54320
##JCAMP-DX=Revision 4.10 
##DATA TYPE=MASS SPECTRUM
##SAMPLE DESCRIPTION=Chemical Concepts
##NAMES=HP
##CAS NAME=Magnesium, bis(3-N,n-butylmethylaminopropyl)-
##MOLFORM=C16H36MgN2
##CAS REGISTRY NO=108023-38-7
##MP= -300
##BP= -300
##MW= 280
##$RETENTION INDEX=0
##$CONDENSED SPECTRUM=NO
##NPOINTS= 112
##XYDATA=(XY..XY) 1 
    27        204
    28         90
    29        244
    30         93
    31          2
    33          5
    34          2
    37          6
    38         20
    39        231
    40         38
    41        685
    42        743
    43        183
    44        556
    45         10
    50          4
    51         13
    52         18
    53         25
    54          9
    55         79
    56         67
    57        168
    58        378
    59         20
    65          9
    66         16
    67         90
    68         71
    69         28
    70        139
    71         45
    72         19
    73          0
    78          6
    79          3
    80         14
    81          8
    82         42
    83         12
    84        999
    85         76
    86        242
    87         20
    93          1
    94         24
    95         10
    96         30
    97         15
    98         84
    99         19
   100        512
   101         40
   105          5
   106          7
   108         23
   109         51
   110         39
   111         11
   112         51
   113          8
   114          7
   119          3
   123          6
   124         13
   125          9
   126        234
   127        107
   128        190
   129         19
   130          5
   136         12
   137          7
   138          8
   139          7
   140          5
   141          4
   142          4
   149          5
   150          4
   151          9
   152        990
   153        274
   154        186
   155         25
   156          1
   166          6
   167          9
   168         25
   169          5
   170          3
   171          2
   182          0
   195         81
   196         25
   197         16
   207          7
   213          4
   223         24
   224         15
   225          9
   237        129
   238         32
   239         23
   240          5
   265         22
   266         12
   267         10
   280         53
   281         15
   282          9