##TITLE=Library Entry 40175
##JCAMP-DX=Revision 4.10 
##DATA TYPE=MASS SPECTRUM
##SAMPLE DESCRIPTION=Chemical Concepts
##NAMES=HP
##CAS NAME=Magnesium, bis(3-N,N-ethylmethylaminopropyl)-
##MOLFORM=C12H28MgN2
##CAS REGISTRY NO=108023-37-6
##MP= -300
##BP= -300
##MW= 224
##$RETENTION INDEX=0
##$CONDENSED SPECTRUM=NO
##NPOINTS= 166
##XYDATA=(XY..XY) 1 
    24          1
    25          1
    26          0
    27        120
    28         74
    29        105
    30         73
    31          1
    36          0
    37          2
    38         11
    39         62
    40         14
    41         69
    42        145
    43         24
    44        286
    47          2
    48          0
    49          2
    50          2
    51          8
    52         11
    53          6
    54         15
    55         21
    56         50
    57         24
    58         61
    59          6
    60          1
    61          0
    62          2
    63          3
    64          0
    65          4
    66          6
    67         43
    68         26
    69         11
    70         43
    71         28
    72        999
    73         47
    74          2
    75          2
    76          5
    77          2
    78          2
    79          2
    80          6
    81         38
    82         40
    83         13
    84        143
    85         15
    86         20
    87          5
    88          3
    89          5
    91          1
    92          2
    93          2
    94         11
    95         11
    96         12
    97          8
    98        264
    99         54
   100        142
   101         43
   102          5
   104          0
   105          0
   106          0
   107          0
   108         11
   109          4
   110          4
   111          3
   112         10
   113          1
   114          3
   115          2
   119          0
   120          0
   121          1
   122          5
   123          9
   124        783
   125        176
   126        126
   127         13
   128          4
   129          0
   130          0
   133          0
   136          0
   137          1
   138          4
   139          3
   140          8
   141          3
   142          3
   143          1
   144          0
   145          0
   146          1
   147          1
   148          1
   149          1
   150          2
   151          3
   152          5
   153          4
   154          3
   155          1
   156          0
   158          0
   163          0
   164          1
   165          3
   166          4
   167         90
   168         24
   169         14
   170          2
   171          1
   174          0
   175          1
   176          5
   177          2
   178         36
   179          6
   180          1
   181        137
   182         41
   183         26
   184          3
   185          1
   186          0
   191          0
   193          1
   194          0
   195         21
   196          9
   197          4
   198          1
   200          2
   201          0
   207          4
   208          1
   209         21
   210          6
   211          5
   212          0
   214          0
   215          0
   216          2
   217          0
   222          1
   223          5
   224         84
   225         24
   226         14
   227          2