##TITLE=Library Entry 38883
##JCAMP-DX=Revision 4.10 
##DATA TYPE=MASS SPECTRUM
##SAMPLE DESCRIPTION=Chemical Concepts
##NAMES=HP
##CAS NAME=Butanoic acid, 5-hexenyl ester
##MOLFORM=C10H18O2
##CAS REGISTRY NO=108058-75-9
##MP= -300
##BP= -300
##MW= 170
##$RETENTION INDEX=1183
##$CONDENSED SPECTRUM=NO
##NPOINTS= 92
##XYDATA=(XY..XY) 1 
    25          1
    26          6
    27        107
    28         30
    29         61
    30          2
    31          9
    32          1
    37          2
    38          7
    39        155
    40         27
    41        357
    42         83
    43        529
    44         24
    45         15
    47          1
    49          1
    50          4
    51         10
    52          7
    53         53
    54        552
    55        269
    56         27
    57         15
    58          5
    59          1
    60         22
    61          2
    62          1
    63          2
    64          0
    65         14
    66         14
    67        931
    68         57
    69         22
    70         22
    71        999
    72         46
    73         32
    74          1
    77          7
    78          0
    79         28
    80          8
    81        109
    82        749
    83         84
    84         32
    85         15
    86         15
    87          8
    88         17
    89        177
    90          7
    91          1
    92          0
    93          0
    94          1
    95          2
    96          2
    97          4
    98          4
    99         12
   100         15
   101         16
   102          1
   105          1
   109          3
   110          1
   111          1
   112          2
   113          3
   114          4
   115          4
   116          0
   122          8
   123          2
   124          1
   125          1
   126          2
   127         36
   128          5
   129         23
   130          2
   140         23
   141          3
   142          5
   170          0