##TITLE=Library Entry 79420
##JCAMP-DX=Revision 4.10 
##DATA TYPE=MASS SPECTRUM
##SAMPLE DESCRIPTION=A.A.Kutin, Moscow, Russia
##NAMES=HP
##CAS NAME=Naphthalene, 2,6-bis(1,2-dioxo-2-phenylethyl)-
##MOLFORM=C26H16O4
##CAS REGISTRY NO=108057-53-0
##MP= -300
##BP= -300
##MW= 392
##$RETENTION INDEX=0
##$CONDENSED SPECTRUM=NO
##NPOINTS= 161
##XYDATA=(XY..XY) 1 
    34          2
    35          0
    36          0
    37          5
    38          9
    39         30
    40         34
    41         19
    42          9
    43         18
    44         23
    45          1
    46          0
    48          0
    49          4
    50         82
    51        335
    52         24
    53          8
    54          4
    55          8
    56          4
    57          7
    58          0
    59          0
    60          1
    61          0
    62          3
    63         19
    64          1
    65          3
    66          1
    67          2
    68          1
    69          4
    70          3
    71          3
    72          0
    73          1
    74         35
    75         32
    76         70
    77        852
    78         62
    79          3
    80          2
    81          1
    82          0
    83          2
    84          0
    85          1
    86          5
    87          9
    88          1
    90          1
    91          1
    92          1
    93          1
    94          1
    95          1
    96          0
    97          1
    98          6
    99          9
   100         21
   101          2
   102          2
   104         11
   105        999
   106         86
   107          7
   108          3
   109          1
   110          0
   111          2
   112          0
   113          0
   114          0
   115          1
   118          0
   120          0
   121          1
   122          1
   123          2
   125         22
   126        356
   127         41
   128          2
   129          0
   131          0
   133          0
   134          2
   135          0
   136          1
   137          2
   138          0
   139          0
   141          0
   147          0
   148          0
   149          6
   150          2
   151          3
   152          3
   153          5
   154        403
   155         53
   156          3
   157          0
   158          0
   160          0
   161          0
   162          0
   163          0
   164          0
   165          0
   166          0
   171          1
   174          0
   175          0
   176          1
   181          0
   182         61
   183         13
   184          0
   187          0
   188          0
   189          0
   193          0
   198          0
   200          3
   201          1
   202         11
   203          2
   212          0
   213          0
   214          0
   215          0
   216          0
   217          0
   219          0
   222          0
   229          0
   230          1
   231          3
   232          0
   257          0
   258          1
   259         13
   260          2
   273          0
   283          0
   285          0
   286          0
   287        232
   288         47
   289          5
   290          0
   392          4
   393          1
   394          0