##TITLE=Library Entry 84002
##JCAMP-DX=Revision 4.10 
##DATA TYPE=MASS SPECTRUM
##SAMPLE DESCRIPTION=Japan AIST/NIMC Database- Spectrum MS-IW-2286
##NAMES=HP
##CAS NAME=L-Tyrosine, methyl ester
##MOLFORM=C10H13NO3
##CAS REGISTRY NO=1080-06-4
##MP= -300
##BP= -300
##MW= 195
##$RETENTION INDEX=0
##$CONDENSED SPECTRUM=NO
##NPOINTS= 84
##XYDATA=(XY..XY) 1 
    15         15
    26          1
    27         13
    28         53
    29         12
    30         10
    31          2
    33         74
    36          1
    38          3
    39         27
    40          4
    41          7
    42         16
    43         17
    44          2
    45          1
    46          2
    50          6
    51         22
    52         12
    53         24
    54          6
    55         10
    56          4
    57         33
    58          9
    59          9
    60         17
    61          1
    62          3
    63         11
    64          4
    65         23
    66          6
    67         17
    68         44
    69          1
    74         43
    75          3
    76          2
    77         98
    78         21
    79         31
    80         12
    81          7
    88        409
    89        101
    90         12
    91        111
    92         11
    93          3
    94          9
    95          1
   101          1
   102          2
   104          2
   105          5
   106         15
   107        999
   108        452
   109         38
   110          2
   116          3
   117          7
   118         11
   119         43
   120         11
   121          1
   132          1
   133          5
   134         16
   135         36
   136        257
   137         23
   138          1
   147          5
   162          1
   178          7
   179          1
   193          2
   195        115
   196         17
   197          2