##TITLE=Library Entry 53439
##JCAMP-DX=Revision 4.10 
##DATA TYPE=MASS SPECTRUM
##SAMPLE DESCRIPTION=Chemical Concepts
##NAMES=HP
##CAS NAME=Acetamide, 2,2'-[(2-butyl-2-ethyl-1,3-propanediyl)bis(oxy)]bis[N,
N-dicyclohexyl-
##MOLFORM=C37H66N2O4
##CAS REGISTRY NO=108083-23-4
##MP= -300
##BP= -300
##MW= 602
##$RETENTION INDEX=0
##$CONDENSED SPECTRUM=NO
##NPOINTS= 81
##XYDATA=(XY..XY) 1 
    27         16
    28         12
    29         30
    30         65
    39         17
    41        167
    42         27
    43         62
    45         33
    48         15
    53         21
    54         56
    55        571
    56        102
    57         37
    58         42
    60         89
    67         94
    68         33
    69        160
    71         56
    72         26
    75         21
    77         76
    81        115
    82         63
    83        999
    84         76
    85         18
    88         37
    95         21
    96         19
    97         23
    98        176
   100         30
   101         14
   111         32
   112         36
   126        154
   127         17
   138         27
   139         13
   140        139
   141         50
   142         35
   156         53
   157         15
   158         93
   169         14
   177         26
   180        124
   181         19
   194         21
   208         40
   222         18
   223         22
   238         57
   239         24
   240         60
   252         33
   253          7
   282         10
   298         22
   312          9
   334          6
   350         24
   351         14
   364        165
   365        178
   366         41
   380        680
   381        166
   383         30
   394        169
   395         55
   396         10
   437          6
   519         20
   520          9
   602         74
   603         33