##TITLE=Library Entry 20961
##JCAMP-DX=Revision 4.10 
##DATA TYPE=MASS SPECTRUM
##SAMPLE DESCRIPTION=Div. of Experiment Therapeutics WRAIR, WRAMC, Washingto
n DC 20307
##NAMES=HP
##CAS NAME=5-[3-Butenoxy]-6-methoxy-4-methyl-8-nitroquinoline
##MOLFORM=C15H16N2O4
##CAS REGISTRY NO=108190-45-0
##MP= -300
##BP= -300
##MW= 288
##$RETENTION INDEX=0
##$CONDENSED SPECTRUM=NO
##NPOINTS= 179
##XYDATA=(XY..XY) 1 
    41         34
    42          6
    43          7
    44          1
    45          2
    46          5
    47          2
    48          1
    49         18
    50         22
    51         67
    52         37
    53        155
    54         34
    55        999
    56          4
    57          2
    58          1
    59          1
    60          0
    61          4
    62         22
    63         81
    64         32
    65         47
    66         11
    67          6
    68          3
    69         12
    70          1
    71          1
    72          0
    73          1
    74         12
    75         28
    76         32
    77         49
    78         35
    79          9
    80          3
    81          1
    82          1
    83          2
    84          7
    85          1
    86         10
    87         12
    88         27
    89        181
    90         59
    91         25
    92         19
    93         14
    94          2
    95          0
    97          0
    98          1
    99          3
   100          6
   101         25
   102         42
   103         29
   104         68
   105         14
   106          3
   107          3
   108          0
   111          0
   112          1
   113          4
   114         20
   115         28
   116        109
   117        113
   118         43
   119         14
   120         40
   121          3
   122          1
   126          1
   127          5
   128         34
   129         24
   130         50
   131         20
   132         18
   133          9
   134          1
   135          0
   136          1
   139          1
   140          7
   141          7
   142          6
   143         14
   144         45
   145         27
   146         21
   147          4
   148          1
   150          1
   152          0
   153          0
   154          1
   155          1
   156         11
   157          5
   158         13
   159         11
   160         28
   161         11
   162          1
   166          0
   167          1
   168          1
   169          6
   170          5
   171          3
   172         17
   173          8
   174         14
   175         13
   176          7
   177          0
   180          0
   181          0
   182          0
   183          1
   184          2
   185          4
   186          3
   187         26
   188         52
   189          7
   190          1
   191          5
   192          0
   195          1
   196          2
   197          1
   198          2
   199         18
   200          2
   201          0
   202          3
   203          3
   204         65
   205         11
   206          1
   209          1
   210          4
   211          8
   212          3
   213          1
   214          3
   215          1
   216         29
   217         23
   218          6
   219          8
   220          1
   224          0
   226          1
   227          2
   228          2
   229          0
   232          1
   233          5
   234         59
   235          7
   236          1
   241          0
   242         75
   243         12
   244          1
   258          1
   288         44
   289          7
   290          0