##TITLE=Library Entry 53624
##JCAMP-DX=Revision 4.10 
##DATA TYPE=MASS SPECTRUM
##SAMPLE DESCRIPTION=Japan AIST/NIMC Database- Spectrum MS-IW-1309
##NAMES=HP
##CAS NAME=Pyrrolidine, 1-[2-(4-bromophenoxy)ethyl]-
##MOLFORM=C12H16BrNO
##CAS REGISTRY NO=1081-73-8
##MP= -300
##BP= -300
##MW= 269
##$RETENTION INDEX=0
##$CONDENSED SPECTRUM=NO
##NPOINTS= 74
##XYDATA=(XY..XY) 1 
    15          3
    27          6
    28          9
    29          8
    30         11
    31          3
    36          1
    38          2
    39          7
    40          1
    41         19
    42         65
    43          9
    44          5
    50          4
    51          2
    53          3
    54          7
    55         34
    56         28
    57          4
    62          1
    63          6
    64          4
    65          6
    66          1
    67          4
    68          6
    69         13
    70          7
    74          1
    75          7
    76          7
    77          2
    78          1
    80          6
    81          3
    82         12
    83          3
    84        999
    85         60
    86          1
    91          4
    92          2
    93          4
    94          6
    95          1
    96         11
    97         11
    98         10
    99          1
   117          1
   119          1
   120          2
   126          1
   141          2
   143          3
   145          3
   155          5
   157          5
   169          1
   171          2
   172          6
   173          1
   174          5
   198          2
   200          2
   265          2
   267          3
   268          2
   269         14
   270          3
   271         13
   272          2