##TITLE=Library Entry 65182
##JCAMP-DX=Revision 4.10 
##DATA TYPE=MASS SPECTRUM
##SAMPLE DESCRIPTION=Chemical Concepts
##NAMES=HP
##CAS NAME=Benzene, 1,1'-(1,3-propanediyl)bis-
##MOLFORM=C15H16
##CAS REGISTRY NO=1081-75-0
##MP= -300
##BP= -300
##MW= 196
##$RETENTION INDEX=1633
##$CONDENSED SPECTRUM=NO
##NPOINTS= 98
##XYDATA=(XY..XY) 1 
    27         54
    29          0
    37          2
    38          8
    39        104
    40          6
    41         22
    42          1
    43          0
    45          0
    46          0
    48          0
    49          1
    50         28
    51         88
    52         22
    53         11
    54          0
    55          0
    56          0
    57          0
    58          0
    59          0
    60          0
    61          2
    62         10
    63         42
    64         10
    65        237
    66         10
    67          0
    73          0
    74          8
    75          8
    76         10
    77        197
    78         53
    79        121
    80          6
    81          0
    82          0
    83          0
    84          1
    85          1
    86          2
    87          2
    88          2
    89         21
    90         13
    91        616
    92        999
    93         49
    94          1
    98          2
    99          0
   100          0
   101          2
   102          8
   103         59
   104         70
   105        411
   106         24
   107          0
   113          0
   114          0
   115         17
   116          4
   117         23
   118         16
   119          1
   126          0
   127          0
   128          1
   129          0
   139          1
   141          1
   151          0
   152          3
   153          1
   154          0
   155          0
   163          0
   164          0
   165          5
   166          2
   167          4
   168          1
   176          0
   177          0
   178          2
   179          1
   189          0
   191          0
   193          0
   195          0
   196        233
   197         27
   198          2