##TITLE=Library Entry 37672
##JCAMP-DX=Revision 4.10 
##DATA TYPE=MASS SPECTRUM
##SAMPLE DESCRIPTION=Chemical Concepts
##NAMES=HP
##CAS NAME=1,3-Dioxaspiro[4.4]nonane-4,6-dione, 2-t-butyl-
##MOLFORM=C11H16O4
##CAS REGISTRY NO=108142-16-1
##MP= -300
##BP= -300
##MW= 212
##$RETENTION INDEX=0
##$CONDENSED SPECTRUM=NO
##NPOINTS= 108
##XYDATA=(XY..XY) 1 
    26         16
    27        112
    28         21
    29        148
    30          4
    31          6
    34          1
    35          7
    37          1
    38          5
    39         97
    40         22
    41        259
    42        511
    43        212
    44         24
    45          7
    49          3
    50          3
    51          6
    52          3
    53         27
    54         13
    55        114
    56         28
    57        649
    58         21
    59         21
    60          2
    61          2
    65          1
    66          1
    67          3
    68          8
    69        119
    70        999
    71        201
    72         11
    73          2
    77          1
    78          0
    79          1
    80          7
    81          8
    82         16
    83         12
    84          5
    85         13
    86         62
    87         30
    88          2
    91          1
    93          1
    95          3
    96          5
    97          7
    98        709
    99        645
   100         92
   101          6
   105          1
   107          2
   108         14
   109         10
   110         20
   111          8
   112          2
   113          3
   114          1
   115          4
   116          2
   119          1
   121          3
   122          1
   123          1
   124          1
   125          3
   126        315
   127         70
   128         31
   129          3
   133          1
   134          0
   135          5
   136          1
   139          2
   141          2
   142          1
   143          7
   144          3
   149          5
   150          0
   151          1
   155        200
   156         27
   157          5
   164          1
   166          1
   167          8
   168          2
   169          3
   170          0
   184          2
   185          6
   186          1
   212        204
   213         25
   214          3