##TITLE=Library Entry 28076
##JCAMP-DX=Revision 4.10 
##DATA TYPE=MASS SPECTRUM
##SAMPLE DESCRIPTION=Chemical Concepts
##NAMES=HP
##CAS NAME=3-Buten-1-amine, n-butyl-N-methyl-
##MOLFORM=C9H19N
##CAS REGISTRY NO=108144-19-0
##MP= -300
##BP= -300
##MW= 141
##$RETENTION INDEX=0
##$CONDENSED SPECTRUM=NO
##NPOINTS= 79
##XYDATA=(XY..XY) 1 
    27        277
    28         75
    29        404
    30         47
    31          1
    34          4
    35          1
    36          1
    37          7
    38         14
    39        193
    40         22
    41        297
    42        498
    43        116
    44        942
    45         26
    49          2
    50         13
    51         18
    52         11
    53         59
    54         42
    55        430
    56         48
    57        172
    58        999
    59         32
    60          0
    62          0
    63          1
    64          1
    65          3
    66          6
    67         11
    68         17
    69         13
    70         68
    71         12
    72          5
    77          1
    78          2
    79          1
    80          5
    81          5
    82         24
    83         11
    84         45
    85          4
    86          3
    87          2
    91          1
    92          1
    93          1
    94          5
    95          1
    96         18
    97          6
    98        275
    99         21
   100        909
   101         58
   102          2
   107          0
   108          1
   110          0
   112          3
   114          1
   123          0
   124          1
   125          0
   126          5
   127          2
   134          2
   136          1
   139          1
   140          6
   141         14
   142          1