##TITLE=Library Entry 65205
##JCAMP-DX=Revision 4.10 
##DATA TYPE=MASS SPECTRUM
##SAMPLE DESCRIPTION=Japan AIST/NIMC Database- Spectrum MS-NW-5132
##NAMES=HP
##CAS NAME=Benzene, nonyl-
##MOLFORM=C15H24
##CAS REGISTRY NO=1081-77-2
##MP= -300
##BP= -300
##MW= 204
##$RETENTION INDEX=1574
##$CONDENSED SPECTRUM=NO
##NPOINTS= 90
##XYDATA=(XY..XY) 1 
    15          1
    26          2
    27         37
    28          6
    29         60
    30          1
    36          1
    38          1
    39         31
    40          4
    41         95
    42         14
    43        131
    44          5
    50          4
    51         14
    52          4
    53          7
    54          4
    55         35
    56         15
    57        110
    58          5
    62          2
    63          7
    64          2
    65         47
    66          4
    67          6
    68          3
    69         13
    70         12
    71         58
    72          3
    74          1
    75          1
    76          2
    77         31
    78         45
    79         26
    80          7
    81          2
    82          5
    83         11
    84          5
    85          2
    89          7
    90          5
    91        731
    92        999
    93         81
    94          7
    95          1
    96          1
    97          2
    98          2
   102          2
   103         15
   104         38
   105         94
   106         20
   107          2
   108          1
   110          1
   112          2
   115          9
   116          3
   117         15
   118          6
   119         24
   120         11
   121          1
   127          1
   128          1
   129          2
   131          1
   132          2
   133         58
   134         15
   135          2
   138          1
   147          9
   148          3
   150          3
   161          7
   162          1
   175          2
   204        222
   205         39
   206          3