##TITLE=Library Entry 92808
##JCAMP-DX=Revision 4.10 
##DATA TYPE=MASS SPECTRUM
##SAMPLE DESCRIPTION=ASES Database, Dalian Institute, P.R. China
##NAMES=HP
##CAS NAME=N,N'-Dibutyl 4-thiodilycollic acid amide
##MOLFORM=C12H24N2O2S
##CAS REGISTRY NO=108199-20-8
##MP= -300
##BP= -300
##MW= 260
##$RETENTION INDEX=0
##$CONDENSED SPECTRUM=NO
##NPOINTS= 12
##XYDATA=(XY..XY) 1 
    60        227
    61        129
    73        559
   100        149
   114         50
   115        999
   159         30
   160         60
   161         29
   187         50
   188         50
   260         79