##TITLE=Library Entry 29779
##JCAMP-DX=Revision 4.10 
##DATA TYPE=MASS SPECTRUM
##SAMPLE DESCRIPTION=Chemical Concepts
##NAMES=HP
##CAS NAME=Tetrahydrofuran-2-one, 2-(1-hydroxy-1-methylethyl)-5-trifluoromet
hyl- , trans
##MOLFORM=C8H11F3O3
##CAS REGISTRY NO=108142-10-5
##MP= -300
##BP= -300
##MW= 212
##$RETENTION INDEX=0
##$CONDENSED SPECTRUM=NO
##NPOINTS= 153
##XYDATA=(XY..XY) 1 
    25          1
    26         15
    27         49
    28         26
    29         46
    30          1
    31         40
    33          0
    36          0
    37          3
    38          8
    39         50
    40          6
    41        213
    42         22
    43        977
    44          9
    45          6
    46          4
    47          1
    48          0
    49          0
    50          5
    51         14
    52          1
    53          9
    54          2
    55         36
    56         14
    57         25
    58         30
    59        999
    60         11
    61          1
    62          0
    63          2
    64         17
    65          5
    66          0
    67          7
    68          1
    69         43
    70          2
    71         11
    72          1
    73          2
    74          0
    75          7
    76          1
    77         21
    78          1
    79         10
    80          1
    81         17
    82          1
    83          3
    84          2
    85        410
    86          7
    87          9
    88          1
    89          8
    90         26
    91          6
    92          0
    93          2
    94          0
    95          9
    96          1
    97          8
    98          1
    99          2
   100          0
   101          1
   102          0
   103          1
   104          0
   105          1
   106          1
   107          8
   108          1
   109          3
   110         12
   111          2
   112          0
   113          2
   114          0
   115          9
   116          0
   117          1
   118          0
   119          0
   121          0
   122          0
   123          1
   124          0
   125         13
   126          2
   127          1
   128          0
   129          0
   130          0
   131          0
   132          0
   133          2
   134          0
   135          8
   136          0
   137          0
   138          0
   139          0
   141          1
   142          0
   143          1
   144          0
   145          0
   146          0
   147          0
   148          0
   149          1
   150          2
   151          2
   152          0
   153          6
   154         37
   155         20
   156          1
   157          0
   165          0
   166          1
   167          0
   168          0
   169          0
   175          1
   176          0
   177          0
   178          0
   179          0
   180          0
   181          0
   182          0
   183          0
   184          0
   190          0
   191          0
   192          0
   193          0
   194          9
   195          3
   196          0
   197         51
   198          3
   199          0