##TITLE=Library Entry 52218
##JCAMP-DX=Revision 4.10 
##DATA TYPE=MASS SPECTRUM
##SAMPLE DESCRIPTION=I.G. Zenkevich, A.A. Zhdanov Leningrad State Univ., Len
ingrad, USSR
##NAMES=HP
##CAS NAME=Diazene, 1-cyclohexyl-2-ethoxy-, 1-oxide
##MOLFORM=C8H16N2O2
##CAS REGISTRY NO=108201-46-3
##MP= -300
##BP= -300
##MW= 172
##$RETENTION INDEX=0
##$CONDENSED SPECTRUM=NO
##NPOINTS= 20
##XYDATA=(XY..XY) 1 
    27         80
    28         40
    29        170
    39         70
    41        290
    42         30
    43         50
    53         40
    54         70
    55        850
    56         50
    67        160
    81        110
    82        190
    83        999
    84         70
   114         30
   127        210
   155        150
   172         20