##TITLE=Library Entry 3145
##JCAMP-DX=Revision 4.10 
##DATA TYPE=MASS SPECTRUM
##SAMPLE DESCRIPTION=A.A.Kutin, Moscow, Russia
##NAMES=HP
##CAS NAME=1,4-Diazapine, 2,3-dihydro-6-(4-nitropyrazol-1-yl)-
##MOLFORM=C8H9N5O2
##CAS REGISTRY NO=108262-29-9
##MP= -300
##BP= -300
##MW= 207
##$RETENTION INDEX=0
##$CONDENSED SPECTRUM=NO
##NPOINTS= 99
##XYDATA=(XY..XY) 1 
    37        178
    38        451
    39        573
    40        422
    41        999
    42        245
    43         75
    44         68
    46        260
    47         18
    48          2
    49          5
    50         39
    51        306
    52        718
    53        246
    54        356
    55        208
    56         24
    57         14
    58          5
    62         16
    63         49
    64         87
    65        243
    66        871
    67        295
    68        101
    69         30
    70         12
    71         27
    74         11
    75          9
    76         37
    77         47
    78         63
    79        119
    80         96
    81        144
    82         38
    83         11
    89          2
    90         11
    91         33
    92         51
    93        149
    94         51
    95         33
    96         14
    97         18
   101          3
   103         15
   104         51
   105        130
   106        134
   107         69
   108         51
   109         17
   113          7
   114          5
   117          6
   118         24
   119          8
   120         54
   121         15
   122         26
   125         18
   126          8
   128          3
   130          6
   132         97
   133        447
   134         43
   135         16
   143          5
   144          4
   145         18
   147         29
   148          4
   151          4
   152          5
   153         11
   159         11
   160         51
   161         17
   163         10
   165         12
   166         10
   167          4
   174          2
   178        179
   179        157
   180         22
   185          2
   188          4
   190          8
   206        148
   207        628
   208         47