##TITLE=Library Entry 34263
##JCAMP-DX=Revision 4.10 
##DATA TYPE=MASS SPECTRUM
##SAMPLE DESCRIPTION=I.G. Zenkevich, A.A. Zhdanov Leningrad State Univ., Len
ingrad, USSR
##NAMES=HP
##CAS NAME=Diazene, 1-cyclopentyl-2-methoxy-, 1-oxide
##MOLFORM=C6H12N2O2
##CAS REGISTRY NO=108201-44-1
##MP= -300
##BP= -300
##MW= 144
##$RETENTION INDEX=0
##$CONDENSED SPECTRUM=NO
##NPOINTS= 14
##XYDATA=(XY..XY) 1 
    27         50
    29         40
    30         40
    39         90
    41        590
    42         40
    53         30
    67        180
    68        150
    69        999
    70         60
   113        140
   127         70
   144         20