##TITLE=Library Entry 91192
##JCAMP-DX=Revision 4.10 
##DATA TYPE=MASS SPECTRUM
##SAMPLE DESCRIPTION=Chemical Concepts
##NAMES=HP
##CAS NAME=Magnesium, bis(4-N,N-dipropylaminobutyl)-
##MOLFORM=C20H44MgN2
##CAS REGISTRY NO=108217-17-0
##MP= -300
##BP= -300
##MW= 336
##$RETENTION INDEX=0
##$CONDENSED SPECTRUM=NO
##NPOINTS= 217
##XYDATA=(XY..XY) 1 
    26          5
    27        106
    28         26
    29         50
    30        255
    31          3
    37          1
    38          2
    39         49
    41        159
    42        134
    43        229
    44         61
    45          1
    48          1
    49          0
    50          1
    51          5
    52          9
    53         23
    54         16
    55        209
    56         68
    57         11
    58         26
    59          1
    60          0
    61          3
    62          3
    63          0
    64          0
    65          2
    66          2
    67         11
    68         13
    69         27
    70         70
    71          8
    72        298
    73         14
    74          0
    75          1
    76          3
    77          1
    78          1
    79          2
    80          9
    81          3
    82         14
    83         42
    84         83
    85          7
    86        102
    87          6
    88          0
    89          1
    90          5
    91          1
    92          0
    93          0
    94          5
    95         30
    96         36
    97         12
    98         64
    99          6
   100          4
   101          0
   103          0
   104          2
   106          0
   107          0
   108          7
   109          2
   110          6
   111         14
   112         23
   113          4
   114        999
   115         78
   116          2
   118          0
   119          0
   120          3
   121          1
   122         36
   123         20
   124        434
   125         86
   126        273
   127         28
   130          5
   131          1
   132          3
   133          1
   134          4
   135          0
   136          8
   137         13
   138          8
   139          3
   140          7
   141          1
   146          0
   147          0
   148          0
   149          0
   150          1
   151          1
   152         44
   153         11
   154         37
   155         33
   156         50
   159          0
   160          0
   162          0
   163          0
   164          0
   165          1
   166          3
   167          0
   168          7
   169          1
   170          0
   174          0
   176          0
   177          0
   178          5
   179         27
   180        818
   181        210
   182        123
   183         15
   184          0
   186          1
   190          0
   191          1
   192          1
   193          1
   194          1
   195          1
   197          0
   206          1
   207          0
   208          1
   209          0
   210          0
   211          0
   214          0
   216          0
   217          0
   220          0
   221          0
   222          0
   223          1
   224          1
   225          1
   233          0
   234          0
   235          0
   236          0
   237          1
   238          1
   239          2
   240          1
   241          0
   242          0
   244          0
   249          0
   251         35
   252         11
   253          6
   254          2
   255          0
   256          1
   257          1
   258          1
   259          0
   263          0
   264          0
   265         19
   266          6
   267          5
   268          1
   274          0
   275          0
   276          0
   277          0
   278          0
   279         56
   280         18
   281         10
   282          2
   285          0
   291          0
   293         45
   294         22
   295         13
   296          2
   297          0
   307          0
   309          0
   311          1
   313          0
   314          2
   315          0
   316          0
   321          0
   323          0
   333          0
   335          1
   336         51
   337         21
   338         10
   339          6
   340          1