##TITLE=Library Entry 16435
##JCAMP-DX=Revision 4.10 
##DATA TYPE=MASS SPECTRUM
##SAMPLE DESCRIPTION=Patti Price, Georgia Bureau of Investigation, Decatur,
 Georgia
##NAMES=HP
##CAS NAME=Phenethylamine, 3,4,5-trimethoxy-.alpha.-methyl-
##MOLFORM=C12H19NO3
##CAS REGISTRY NO=1082-88-8
##MP= -300
##BP= -300
##MW= 225
##$RETENTION INDEX=0
##$CONDENSED SPECTRUM=NO
##NPOINTS= 99
##XYDATA=(XY..XY) 1 
    42         38
    43         10
    44        999
    45         26
    46          2
    50         10
    51         23
    52         30
    53         29
    54          5
    55          5
    56          5
    57          3
    61          1
    62          4
    63         19
    64         13
    65         29
    66         19
    67         12
    68          3
    69          5
    74          2
    75          4
    76          7
    77         38
    78         22
    79         31
    80         27
    81         10
    82          3
    83          1
    85          2
    89         14
    90         15
    91         19
    92         12
    93         15
    94          9
    95         21
    96          3
    97          3
   102          1
   103          2
   104          4
   105         15
   106         12
   107         25
   108          9
   109         11
   110          4
   115          1
   119          2
   120          9
   121         13
   123         14
   124         14
   125          5
   133          3
   134          4
   135          6
   136         27
   137         21
   138          8
   139         32
   144          1
   147          3
   148         37
   149          6
   150          2
   151         39
   152          8
   153          6
   161          1
   162          1
   163          2
   164          3
   165          6
   166          5
   167        159
   168         16
   169          1
   176          1
   177          1
   178          5
   179          1
   181         77
   182        500
   183         51
   184          4
   192          1
   193          2
   194          4
   195          1
   208          1
   209          1
   210          3
   224          1
   225         10