##TITLE=Library Entry 90576
##JCAMP-DX=Revision 4.10 
##DATA TYPE=MASS SPECTRUM
##SAMPLE DESCRIPTION=ASES Database, Dalian Institute, P.R. China
##NAMES=HP
##CAS NAME=O-Methyl,bis(O-1,2,2-trimethylpropyl) phosphate
##MOLFORM=C13H29O4P
##CAS REGISTRY NO=108202-69-3
##MP= -300
##BP= -300
##MW= 280
##$RETENTION INDEX=0
##$CONDENSED SPECTRUM=NO
##NPOINTS= 17
##XYDATA=(XY..XY) 1 
    39         77
    41        429
    43        358
    55        109
    57        156
    69        260
    84        109
    85        220
    95         50
    96        110
   113        999
   139        924
   140        925
   141        109
   197          9
   223         40
   224         59