##TITLE=Library Entry 64314
##JCAMP-DX=Revision 4.10 
##DATA TYPE=MASS SPECTRUM
##SAMPLE DESCRIPTION=M. Alvarez, Dep. Org. Chem. Pharm., Univ. Barcelona, Ba
rcelona, Spain
##NAMES=HP
##CAS NAME=1,3-Dithiane, 2-(5-bromopentyl)-2-(phenylmethyl)-
##MOLFORM=C16H23BrS2
##CAS REGISTRY NO=108296-19-1
##MP= -300
##BP= -300
##MW= 358
##$RETENTION INDEX=0
##$CONDENSED SPECTRUM=NO
##NPOINTS= 27
##XYDATA=(XY..XY) 1 
    41        500
    45        350
    55        400
    65        320
    73        230
    91        999
   106        170
   107        230
   115        330
   117        260
   119        250
   128        130
   129        170
   135        180
   145        130
   171         50
   189         40
   193         50
   195         50
   209         80
   221         50
   223         50
   267        530
   269        550
   315         10
   358         10
   360         10