##TITLE=Library Entry 63394
##JCAMP-DX=Revision 4.10 
##DATA TYPE=MASS SPECTRUM
##SAMPLE DESCRIPTION=Japan AIST/NIMC Database- Spectrum MS-NW-9594
##NAMES=HP
##CAS NAME=(-)-N,N'-Dibenzyl-d-tartramide
##MOLFORM=C18H20N2O4
##CAS REGISTRY NO=108321-43-3
##MP= -300
##BP= -300
##MW= 328
##$RETENTION INDEX=0
##$CONDENSED SPECTRUM=NO
##NPOINTS= 126
##XYDATA=(XY..XY) 1 
    15          1
    17          5
    18         19
    27          3
    28          7
    29          1
    30         19
    31          1
    38          1
    39         13
    40          1
    41          6
    42          4
    43          6
    44          2
    46          1
    50          4
    51         14
    52          5
    53          2
    54          1
    55          2
    56          1
    57          2
    58          2
    59          2
    60         14
    61          6
    62          1
    63          7
    64          2
    65         72
    66          4
    69          1
    70          3
    71         11
    72          1
    73          3
    74         39
    75          2
    76          3
    77         26
    78         10
    79         34
    80          3
    83          1
    85          1
    86          3
    87          1
    88          2
    89         10
    90          8
    91        999
    92        137
    93          8
    97          1
    98          1
    99          1
   100          2
   103          9
   104         19
   105         19
   106        369
   107        126
   108         20
   109          2
   115          1
   116         13
   117          4
   118          8
   119          4
   120          2
   121          8
   122          1
   128          1
   130          1
   131          3
   132          6
   133        165
   134         50
   135         13
   136         15
   137          1
   146          5
   147          6
   148         12
   149          7
   150          1
   151          2
   159          1
   160         24
   161          3
   162          1
   163          6
   164         19
   165        152
   166         15
   167          3
   175          3
   176         21
   177         55
   178         29
   179          4
   180          1
   181          1
   187          1
   193         13
   194        753
   195         91
   196          9
   203          3
   208          1
   221          3
   222          9
   223          1
   237          8
   238          1
   239          2
   278          2
   282          3
   300          1
   310          1
   326          1
   328        151
   329         38
   330          6