##TITLE=Library Entry 13451
##JCAMP-DX=Revision 4.10 
##DATA TYPE=MASS SPECTRUM
##SAMPLE DESCRIPTION=Div. of Experiment Therapeutics WRAIR, WRAMC, Washingto
n DC 20307
##NAMES=HP
##CAS NAME=1-[2,3-O-Isopropylidene-5-deoxy-5-azido-.beta.-d-ribofuranosyl]-[
1,2,4]triazole-3-carboxamide
##MOLFORM=C11H15N7O4
##CAS REGISTRY NO=108311-10-0
##MP= -300
##BP= -300
##MW= 309
##$RETENTION INDEX=0
##$CONDENSED SPECTRUM=NO
##NPOINTS= 135
##XYDATA=(XY..XY) 1 
    41        376
    42         60
    43        999
    44        350
    45         18
    46          1
    50          0
    51          4
    52         23
    53         78
    54        126
    55        293
    56        169
    57         92
    58         50
    59        309
    60         29
    61          8
    62          1
    63          0
    64          1
    65          3
    66         13
    67         47
    68        121
    69        141
    70        143
    71         49
    72         10
    73         27
    74          1
    76          4
    77          1
    78          3
    79         25
    80         13
    81         36
    82         72
    83         66
    84        284
    85        338
    86         16
    87          1
    90         11
    91          1
    92          1
    93          8
    94         36
    95         64
    96        187
    97         44
    98         14
    99          7
   100        169
   101         26
   102          1
   105          1
   106          3
   107          8
   108         13
   109         11
   110         22
   111         20
   112         57
   113        510
   114         24
   115          2
   119          1
   120          6
   121          9
   122         25
   123         23
   124         18
   125         48
   126         34
   127         25
   128          2
   129          3
   133          1
   134          5
   135          4
   136         36
   137         71
   138         62
   139         36
   140         52
   141         55
   142          6
   143          4
   148          1
   149          6
   150         89
   151         15
   152         25
   153         15
   154         10
   155         50
   156          3
   158          1
   161          5
   162         41
   163          4
   164          9
   165         11
   166          6
   167         91
   168         37
   169          3
   170          1
   177          6
   178         80
   179         49
   180          5
   181         94
   182         16
   183          1
   189          1
   191          9
   192          1
   195        977
   196        132
   197         13
   198          1
   206          2
   207          0
   209          1
   210          0
   239          6
   253         10
   254          2
   258          0
   294         21
   295          2
   309         14
   310          2