##TITLE=Library Entry 60678
##JCAMP-DX=Revision 4.10 
##DATA TYPE=MASS SPECTRUM
##SAMPLE DESCRIPTION=Japan AIST/NIMC Database- Spectrum MS-IW-4247
##NAMES=HP
##CAS NAME=Benzene, 1,1'-(1,4-butanediyl)bis-
##MOLFORM=C16H18
##CAS REGISTRY NO=1083-56-3
##MP= -300
##BP= -300
##MW= 210
##$RETENTION INDEX=1780
##$CONDENSED SPECTRUM=NO
##NPOINTS= 90
##XYDATA=(XY..XY) 1 
    27         11
    28          4
    29          1
    38          2
    39         42
    40          3
    41         48
    42          1
    44          1
    50          8
    51         36
    52          9
    53          6
    54          1
    55          1
    62          3
    63         19
    64          5
    65        125
    66          8
    74          2
    75          3
    76          4
    77         63
    78         38
    79         39
    80          4
    87          1
    88          1
    89         19
    90          8
    91        999
    92        767
    93         82
    94          3
   101          2
   102          6
   103         30
   104        157
   105        126
   106         48
   107          3
   115         33
   116          9
   117        172
   118         64
   119         90
   120          9
   127          2
   128          7
   129          8
   130         26
   131         21
   132         29
   133          4
   141          2
   142          2
   143          1
   144          3
   152          3
   153          1
   154          1
   155          2
   156          7
   157          1
   165          5
   166          2
   167         32
   168          9
   169          5
   178          2
   179          2
   180          2
   181         13
   182         11
   183          1
   191          2
   195          6
   196          1
   202          2
   203          3
   204          4
   205          3
   206          7
   207          1
   208          4
   209          3
   210        676
   211        117
   212          9