##TITLE=Library Entry 81754
##JCAMP-DX=Revision 4.10 
##DATA TYPE=MASS SPECTRUM
##SAMPLE DESCRIPTION=NIST Mass Spectrometry Data Center
##NAMES=HP
##CAS NAME=.beta.-Phenylpropiophenone
##MOLFORM=C15H14O
##CAS REGISTRY NO=1083-30-3
##MP= -300
##BP= -300
##MW= 210
##$RETENTION INDEX=1834
##$CONDENSED SPECTRUM=NO
##NPOINTS= 69
##XYDATA=(XY..XY) 1 
    27          6
    38          2
    39         18
    41          2
    50         28
    51        107
    52         13
    53          5
    55          7
    62          4
    63         18
    64          3
    65         41
    66          2
    74          9
    75          9
    76         18
    77        400
    78         57
    79         33
    80          2
    86          1
    87          1
    89         12
    90          3
    91        106
    92         10
   101          1
   102          9
   103         50
   104         61
   105        999
   106         86
   107          7
   115          9
   116          1
   118          2
   119          2
   128          1
   131         21
   132          7
   133          7
   139          1
   151          1
   152          5
   153          2
   165         10
   166          4
   167          5
   168          1
   176          1
   177          1
   178          5
   179          3
   181         11
   182          1
   189          3
   190          1
   191         14
   192         18
   193          4
   194          3
   195          4
   207          2
   208          1
   209         27
   210        436
   211         71
   212          6