##TITLE=Library Entry 16438
##JCAMP-DX=Revision 4.10 
##DATA TYPE=MASS SPECTRUM
##SAMPLE DESCRIPTION=Patti Price, Georgia Bureau of Investigation, Decatur,
 Georgia
##NAMES=HP
##CAS NAME=Phenethylamine, 2,4,5-trimethoxy-.alpha.-methyl-
##MOLFORM=C12H19NO3
##CAS REGISTRY NO=1083-09-6
##MP= -300
##BP= -300
##MW= 225
##$RETENTION INDEX=0
##$CONDENSED SPECTRUM=NO
##NPOINTS= 70
##XYDATA=(XY..XY) 1 
    40          2
    41         27
    42         80
    43         25
    44        999
    51         47
    52         32
    53         45
    55         15
    56          6
    57          5
    59         15
    63         40
    64         38
    65         68
    66         33
    67         50
    68          8
    69         77
    75          9
    76          9
    77         76
    78         39
    79         62
    80         57
    81         18
    82          3
    85          9
    89         21
    90         13
    91         52
    92         31
    93         51
    94         21
    95         58
    97          2
    98          2
   105         11
   106         26
   108         32
   109         25
   110          8
   119          7
   122         17
   124         26
   125          9
   133          5
   134         10
   135         15
   136         76
   137         30
   139         88
   140          9
   147          5
   149          4
   151         98
   152         18
   153          6
   163          6
   166          6
   167        234
   168         26
   180          4
   181         86
   182        484
   183         63
   184          6
   193          3
   224          1
   225         10