##TITLE=Library Entry 84119
##JCAMP-DX=Revision 4.10 
##DATA TYPE=MASS SPECTRUM
##SAMPLE DESCRIPTION=ASES Database, Dalian Institute, P.R. China
##NAMES=HP
##CAS NAME=(2S,6R,7S,8E)-(+)-2,7-Epoxy-4,8-megastigmadiene
##MOLFORM=C13H20O
##CAS REGISTRY NO=108342-25-2
##MP= -300
##BP= -300
##MW= 192
##$RETENTION INDEX=2187
##$CONDENSED SPECTRUM=NO
##NPOINTS= 11
##XYDATA=(XY..XY) 1 
    53         19
    55         20
    65         19
    77         39
    79         49
    91        149
    93         40
   107        999
   122        560
   134         19
   192         39