##TITLE=Library Entry 11249
##JCAMP-DX=Revision 4.10 
##DATA TYPE=MASS SPECTRUM
##SAMPLE DESCRIPTION=Div. of Experiment Therapeutics WRAIR, WRAMC, Washingto
n DC 20307
##NAMES=HP
##CAS NAME=1-[2,3,O-Isopropylidene-5-deoxy-5-acetylthio-.beta.-d-ribofuranos
yl]-
##MOLFORM=C13H18N4O5S
##CAS REGISTRY NO=108311-04-2
##MP= -300
##BP= -300
##MW= 342
##$RETENTION INDEX=0
##$CONDENSED SPECTRUM=NO
##NPOINTS= 184
##XYDATA=(XY..XY) 1 
    41        119
    42         73
    43        999
    44         98
    45         82
    46         17
    47         28
    48          2
    49          0
    50          0
    51          3
    52          5
    53         24
    54         19
    55         65
    56          8
    57         29
    58         19
    59        162
    60         23
    61         13
    62          0
    63          0
    64          0
    65          1
    66          3
    67         15
    68        104
    69         75
    70         50
    71         32
    72         11
    73         60
    74         13
    75          8
    76          4
    77          3
    78          0
    79          8
    80          3
    81         17
    82          6
    83         17
    84         96
    85        178
    86         16
    87         35
    88          3
    89         11
    91          0
    93          2
    94          7
    95         16
    96         70
    97         56
    98          8
    99          7
   100        145
   101        108
   102         88
   103         11
   104          4
   105          0
   106          0
   107          2
   108          3
   109          3
   110          3
   111         11
   112         30
   113        549
   114         27
   115          4
   116          0
   117          3
   118          0
   119          0
   120          2
   121          3
   122          5
   123          2
   124          1
   125          6
   126         16
   127         15
   128          1
   129         26
   130         53
   131         14
   132          3
   133          0
   134          1
   135          0
   136          3
   137          7
   138         10
   139         24
   140          2
   141         23
   142          2
   143          6
   144         14
   145          3
   146          0
   147          0
   148          0
   149          0
   150         14
   151          3
   152          1
   153          5
   154          3
   155         51
   156          4
   157          0
   158          0
   159          3
   160          0
   162          1
   163          0
   164          3
   165          0
   166          1
   167          8
   168          0
   169          1
   170          3
   171          3
   172         43
   173         59
   174          6
   175          3
   177          0
   178          7
   179          6
   180          4
   181          7
   182          0
   183          2
   185          0
   187          3
   188         14
   189          1
   190          0
   191         19
   192          2
   195         11
   196          1
   197          0
   199          0
   201          0
   202          0
   207          1
   209          1
   212          0
   215          5
   219          0
   224          6
   225          5
   226          0
   230         15
   231          3
   232          0
   241          6
   242          0
   243          0
   251          0
   253          1
   256          5
   267          3
   277          1
   278          0
   285          0
   299          2
   300         83
   301         12
   302          3
   303          0
   311          2
   327         10
   328          1
   341          1
   342          2
   343          0