##TITLE=Library Entry 85280
##JCAMP-DX=Revision 4.10 
##DATA TYPE=MASS SPECTRUM
##SAMPLE DESCRIPTION=Japan AIST/NIMC Database- Spectrum MS-IW-4925
##NAMES=HP
##CAS NAME=(2S)-Bornane-10,2-sultam
##MOLFORM=C10H17NO2S
##CAS REGISTRY NO=108448-77-7
##MP= -300
##BP= -300
##MW= 215
##$RETENTION INDEX=0
##$CONDENSED SPECTRUM=NO
##NPOINTS= 119
##XYDATA=(XY..XY) 1 
    15         13
    26          5
    27        120
    28        180
    29         87
    30        141
    31          9
    32          2
    33          1
    34          2
    37          1
    38          7
    39        201
    40         48
    41        436
    42         92
    43        486
    44        205
    45         22
    46          3
    47          1
    48          9
    49          1
    50         10
    51         44
    52         32
    53        161
    54         88
    55        209
    56        131
    57         51
    58         36
    59          9
    60          9
    61          2
    62          3
    63         14
    64         20
    65         71
    66         53
    67        318
    68        245
    69        265
    70        120
    71         21
    72          4
    74          1
    75          2
    76          3
    77        149
    78         37
    79        191
    80        119
    81        179
    82        520
    83        669
    84         63
    85         63
    86         16
    87          1
    89          3
    90          2
    91        243
    92         71
    93        725
    94        365
    95        305
    96        213
    97         31
    98          3
    99          1
   102          1
   103          8
   104          7
   105         80
   106         84
   107        157
   108        999
   109        237
   110        172
   111         16
   112          1
   115          4
   116          2
   117         14
   118          7
   119        750
   120         93
   121         38
   122        213
   123         86
   124         12
   125          1
   130          1
   131          3
   132        147
   133         29
   134        718
   135        111
   136        858
   137         88
   138          4
   145          3
   146          1
   147          1
   148          6
   149         14
   150        154
   151        846
   152         96
   153          5
   157          1
   160          2
   172          2
   200          4
   214          2
   215         22
   216          9
   217          2