##TITLE=Library Entry 52549
##JCAMP-DX=Revision 4.10 
##DATA TYPE=MASS SPECTRUM
##SAMPLE DESCRIPTION=Chemical Concepts
##NAMES=HP
##CAS NAME=Acetamide, 2,2'-[(1-methyl-1,3-propanediyl)bis(oxy)]bis[N,N-dicyc
lohexyl-
##MOLFORM=C32H56N2O4
##CAS REGISTRY NO=108444-72-0
##MP= -300
##BP= -300
##MW= 532
##$RETENTION INDEX=0
##$CONDENSED SPECTRUM=NO
##NPOINTS= 113
##XYDATA=(XY..XY) 1 
    27         23
    28         17
    29         42
    30         81
    31          9
    39         30
    41        197
    42         31
    43         70
    44         46
    45         26
    48          6
    53         22
    54         48
    55        632
    56        146
    57         68
    58         48
    59         15
    60         79
    65          7
    67         65
    68         34
    69         41
    70         30
    71         38
    72         14
    73         10
    74         52
    76        104
    79         23
    80         13
    81        106
    82         52
    83        999
    84         75
    85         25
    86         10
    88         55
    91         13
    95         20
    96         25
    97         29
    98        152
    99         20
   100         21
   102         14
   110         45
   111         14
   112         37
   113         10
   114          9
   124         11
   126        258
   127         23
   128         13
   130         20
   136         11
   138         41
   139         17
   140        147
   141         61
   142         39
   143          6
   152          7
   154         13
   156        117
   157         12
   158        120
   159         11
   166         13
   167         11
   168          7
   170         27
   178         32
   179         13
   180        139
   181         24
   182         10
   184         13
   192          7
   194         17
   205          5
   208         78
   209         13
   210         24
   212         79
   213         20
   214          6
   221         13
   222         16
   223         30
   228          5
   238        394
   239         64
   240        200
   241         31
   242          7
   252         25
   266         13
   292         10
   294        176
   295        186
   296         36
   310        199
   311         40
   312         10
   324         50
   325         15
   367          6
   449         12
   532         26
   533         11