##TITLE=Library Entry 69153
##JCAMP-DX=Revision 4.10 
##DATA TYPE=MASS SPECTRUM
##SAMPLE DESCRIPTION=Div. of Experiment Therapeutics WRAIR, WRAMC, Washingto
n DC 20307
##NAMES=HP
##CAS NAME=3,5-Dimethyl-4-carboethoxy-2H-1,3-oxazin-3H-2,6-dione
##MOLFORM=C9H11NO5
##CAS REGISTRY NO=108472-11-3
##MP= -300
##BP= -300
##MW= 213
##$RETENTION INDEX=0
##$CONDENSED SPECTRUM=NO
##NPOINTS= 155
##XYDATA=(XY..XY) 1 
    42        602
    43        137
    44         35
    45         35
    46          4
    47         39
    48         15
    49         14
    50          9
    51          6
    52         64
    53         54
    54         80
    55         70
    56         77
    57         43
    58         90
    59          6
    60          2
    62          1
    63          4
    64          8
    65         23
    66        120
    67        150
    68        119
    69        154
    70         83
    71          9
    72         18
    73          9
    74          7
    75          1
    76          0
    77          3
    78          3
    79          3
    80         13
    81         12
    82         21
    83         91
    84         12
    85         26
    86          6
    87          3
    88         14
    89          0
    90          1
    91          1
    92          1
    93          2
    94          8
    95         28
    96        999
    97         73
    98         26
    99          7
   100          6
   101         10
   102         20
   103          1
   104          2
   105          0
   106          1
   107          1
   108          2
   109          3
   110          6
   111         15
   112         54
   113         33
   114         15
   115          2
   116          4
   117          1
   119          0
   121          1
   122          2
   123          4
   124          9
   125         10
   126          9
   127         13
   128         33
   129         24
   130         11
   131          1
   135          0
   136          2
   137          2
   138         10
   139         13
   140         46
   141        273
   142        131
   143         14
   144         12
   145          1
   147          0
   148          2
   149          1
   150          1
   151         12
   152         29
   153         17
   154         55
   155         15
   156          6
   157          9
   158          3
   159          1
   160          0
   164          3
   165          1
   166          3
   167          6
   168         49
   169         11
   170         31
   171          6
   172          1
   174          0
   176          4
   177          1
   178          2
   179         29
   180         19
   181          5
   182          2
   183          2
   184          3
   185          7
   186          6
   187          1
   188          1
   192          1
   193          1
   194          0
   195          2
   196          1
   197          6
   198         22
   199          5
   200          2
   202          0
   205          2
   207          1
   208          0
   209          3
   210          3
   211          2
   212          6
   213        101
   214         10
   215          0