##TITLE=Library Entry 24609
##JCAMP-DX=Revision 4.10 
##DATA TYPE=MASS SPECTRUM
##SAMPLE DESCRIPTION=LAC, NIDDK, NIH, Bethesda, MD 20892
##NAMES=HP
##CAS NAME=Propionamide, .alpha.-t-butoxycarbonyl-amino-.beta.-[4-nitropheny
l]-N-[(1-carbamoyl)ethyl]
##MOLFORM=C17H24N4O6
##CAS REGISTRY NO=108415-05-0
##MP= -300
##BP= -300
##MW= 380
##$RETENTION INDEX=0
##$CONDENSED SPECTRUM=NO
##NPOINTS= 146
##XYDATA=(XY..XY) 1 
    41        136
    42         29
    43         42
    44        648
    45         20
    46          1
    50          2
    51          7
    52          2
    53          4
    54          4
    55         33
    57        999
    58         45
    59         51
    60          3
    62          1
    63          8
    64          4
    65         10
    66          0
    67          1
    69          1
    70         30
    71         12
    72         19
    73        111
    74          5
    75          1
    76          4
    77         13
    78         16
    79          2
    80          1
    83          3
    85          6
    87         25
    88          5
    89         36
    90         37
    91         32
    92          7
    93          1
    97          2
    99         68
   100         22
   101          4
   102          8
   103          8
   104          5
   105          1
   106         10
   107         20
   108          1
   115         30
   116         12
   117         19
   118         24
   119         45
   120         11
   121          8
   122          1
   126          2
   127        115
   128          9
   129          2
   130          6
   131          2
   132          0
   133          1
   134          1
   136          8
   137         76
   138          8
   143          0
   144        167
   145         32
   146          5
   147          1
   148         12
   149         16
   150          4
   155          0
   160          9
   161          1
   162          1
   163          6
   164          1
   165        484
   166         51
   167          4
   173          1
   174          2
   175          2
   176         13
   177          2
   183          1
   188        113
   189          8
   190          1
   191         15
   192         14
   193         15
   194          1
   200         10
   202          0
   203          7
   205          0
   208          9
   209        148
   210         26
   211          2
   218          0
   219         13
   220          9
   221         14
   222          1
   230          1
   234          8
   235          0
   236         26
   237         11
   244        103
   245         12
   246          2
   247          2
   262         51
   263          9
   264          3
   265         43
   266          9
   280         38
   281         13
   282          1
   290         30
   291          5
   293         17
   294          2
   306          8
   307         27
   308          6
   324          2
   325          6
   336         24
   337          4
   380          2