##TITLE=Library Entry 61017
##JCAMP-DX=Revision 4.10 
##DATA TYPE=MASS SPECTRUM
##SAMPLE DESCRIPTION=Chemical Concepts
##NAMES=HP
##CAS NAME=Cyclopropanecarboxylic acid, 2-methyl-1-(phenylmethyl)-
##MOLFORM=C12H14O2
##CAS REGISTRY NO=108546-95-8
##MP= -300
##BP= -300
##MW= 190
##$RETENTION INDEX=0
##$CONDENSED SPECTRUM=NO
##NPOINTS= 153
##XYDATA=(XY..XY) 1 
    26         12
    27         83
    28         14
    29         29
    30          1
    31          9
    34          2
    37          4
    38         15
    39        187
    40         26
    41        136
    42         16
    43         51
    44         16
    45         41
    46          2
    47          2
    49          2
    50         50
    51        151
    52         42
    53         54
    54         14
    55         35
    56         14
    57         20
    58         18
    59          7
    60          7
    61          3
    62         19
    63         78
    64         34
    65        220
    66         70
    67        178
    68         19
    69         28
    70         18
    71         28
    72          7
    73          7
    74         22
    75         26
    76         29
    77        162
    78        309
    79         75
    80          8
    81         14
    82          7
    83         20
    84         14
    85          6
    86         10
    87         14
    88          6
    89         53
    90         19
    91        999
    92        115
    93          9
    94         62
    95         26
    96          4
    97         40
    98          5
    99         14
   100          3
   101         11
   102         67
   103        117
   104         30
   105        769
   106         76
   107         35
   108          4
   109          4
   110          3
   111         44
   112        234
   113         36
   114         10
   115        272
   116        109
   117        268
   118         60
   119         15
   120         18
   121          4
   122          2
   123          2
   124          1
   125          3
   126          5
   127         44
   128        134
   129        382
   130        105
   131         99
   132         13
   133         62
   134          8
   135          5
   136          3
   137          2
   139          5
   140          2
   141         24
   142         12
   143         86
   144        157
   145        137
   146         26
   147        155
   148        119
   149         21
   150          3
   151          1
   152          2
   153          3
   154          3
   155          5
   156          2
   157         23
   158          4
   159          3
   160          2
   161         69
   162         10
   163          2
   164          1
   167          2
   169          2
   170          3
   171         55
   172         67
   173         17
   174          3
   175         34
   176          5
   177          2
   178          1
   181          2
   185          1
   186          1
   188          2
   189         67
   190        562
   191         87
   192          9
   193          1