##TITLE=Library Entry 47773
##JCAMP-DX=Revision 4.10 
##DATA TYPE=MASS SPECTRUM
##SAMPLE DESCRIPTION=A.A.Kutin, Moscow, Russia
##NAMES=HP
##CAS NAME=Pyrazolo[4,3-c]pyridine-4,6(5H,7H)-dione, 3-amino-2-phenyl-
##MOLFORM=C12H10N4O2
##CAS REGISTRY NO=108564-92-7
##MP= -300
##BP= -300
##MW= 242
##$RETENTION INDEX=0
##$CONDENSED SPECTRUM=NO
##NPOINTS= 134
##XYDATA=(XY..XY) 1 
    33          6
    34          7
    35         34
    36         82
    37         54
    38        156
    39        214
    40         72
    41         39
    42         80
    43         55
    44        108
    45          6
    46          1
    50        193
    51        535
    52        142
    53         55
    54         60
    55         19
    56          8
    57          2
    59          1
    60          1
    61          7
    62         32
    63        117
    64        214
    65        518
    66        726
    67         98
    68         51
    69         15
    70         29
    71          5
    74         61
    75         45
    77        999
    78        101
    79         40
    80         33
    81         24
    82          9
    83          2
    84          9
    85          2
    87          2
    88          8
    89         19
    90         30
    91         99
    92         90
    93         25
    94          7
    95          5
    98          8
    99          3
   100          3
   102         14
   103         45
   104         41
   105         43
   106          9
   107         19
   108         22
   109         14
   110          5
   112          1
   113          5
   114         12
   115         29
   116         23
   117         28
   119        166
   120         13
   122         16
   123          3
   128         17
   129         18
   130         12
   131         21
   132          7
   133          1
   136          2
   137          1
   140         11
   141         12
   142         28
   143         32
   144         37
   145         10
   146          3
   152          1
   153          5
   154          8
   155         12
   156         23
   157         10
   158         10
   159          5
   164          2
   166          0
   168         17
   169         16
   170         53
   171         36
   173          8
   174          3
   181          0
   182          4
   183         11
   184         15
   185         13
   186          4
   191          0
   195          3
   196         26
   197         28
   199        680
   200         38
   201          3
   208          0
   212          0
   213         12
   214          2
   217          4
   224         93
   225         37
   226          6
   237          0
   239          2
   242        910
   243         85
   244          6