##TITLE=Library Entry 9241
##JCAMP-DX=Revision 4.10 
##DATA TYPE=MASS SPECTRUM
##SAMPLE DESCRIPTION=G. Lange, Inst. Org. Chem., Univ. Wurzburg, Germany
##NAMES=HP
##CAS NAME=4-Hydroxymethyl-3,3,4-trimethyl-1,2-dioxetane, TMS derivative
##MOLFORM=C9H20O3Si
##CAS REGISTRY NO=108536-14-7
##MP= -300
##BP= -300
##MW= 204
##$RETENTION INDEX=0
##$CONDENSED SPECTRUM=NO
##NPOINTS= 51
##XYDATA=(XY..XY) 1 
    37          7
    38         12
    39         31
    40          6
    41         20
    42         77
    43        999
    44         47
    45        142
    46          6
    47         21
    53          5
    55         12
    56          3
    57         36
    58        175
    59        115
    60         15
    61         28
    62          2
    71          4
    72         11
    73        419
    74         40
    75        164
    76         11
    77         14
    78          2
    85          3
    87          3
    88          8
    89          4
    90         10
   100          2
   101         30
   102          3
   103        198
   104         21
   105          7
   115         19
   116         11
   117          3
   128          1
   129          2
   130          1
   131        247
   132         49
   133         12
   142          1
   147          5
   148          0