##TITLE=Library Entry 53120
##JCAMP-DX=Revision 4.10 
##DATA TYPE=MASS SPECTRUM
##SAMPLE DESCRIPTION=NIST Mass Spectrometry Data Center
##NAMES=HP
##CAS NAME=(E)-.gamma.-Atlantone
##MOLFORM=C15H22O
##CAS REGISTRY NO=108549-47-9
##MP= -300
##BP= -300
##MW= 218
##$RETENTION INDEX=1712
##$CONDENSED SPECTRUM=NO
##NPOINTS= 102
##XYDATA=(XY..XY) 1 
    27         18
    28          3
    29         38
    30          1
    38          2
    39         60
    40          8
    41         57
    42          4
    43         24
    44          1
    50          4
    51         16
    52          8
    53         46
    54          7
    55        208
    56          9
    57          3
    58          1
    62          1
    63          7
    64          3
    65         27
    66          6
    67         19
    68          2
    69         13
    70          1
    71          1
    74          1
    75          1
    76          2
    77         75
    78         17
    79         62
    80          7
    81         10
    82          7
    83        999
    84         57
    85         26
    86          2
    87          1
    89          3
    90          1
    91         90
    92         18
    93         77
    94          9
    98          5
    99         31
   100          3
   101          1
   102          2
   103         10
   104          4
   105        165
   106         18
   107         58
   108          6
   109          1
   111          7
   112          1
   115         16
   116          5
   117         12
   118          8
   119        334
   120        237
   121         45
   122          3
   126         10
   127          3
   128          7
   129          6
   130          1
   132          7
   133         12
   134         26
   135         19
   136          2
   149          2
   150          1
   152          1
   157         18
   158          3
   161          7
   162          9
   163          2
   169          1
   170          2
   171          2
   172          1
   176          1
   185         11
   187          1
   200         12
   201          2
   217          1
   218         15
   219          3