##TITLE=Library Entry 9888
##JCAMP-DX=Revision 4.10 
##DATA TYPE=MASS SPECTRUM
##SAMPLE DESCRIPTION=Div. of Experiment Therapeutics WRAIR, WRAMC, Washingto
n DC 20307
##NAMES=HP
##CAS NAME=2-Hydroxy-1,1,10-trimethyl-6,9-epidioxydecalin
##MOLFORM=C13H22O3
##CAS REGISTRY NO=108511-85-9
##MP= -300
##BP= -300
##MW= 226
##$RETENTION INDEX=0
##$CONDENSED SPECTRUM=NO
##NPOINTS= 149
##XYDATA=(XY..XY) 1 
    41        624
    42        133
    43        999
    44         80
    45         47
    47         23
    48         10
    52         13
    53        131
    54         36
    55        475
    56        139
    57        380
    58         43
    59         69
    60          8
    61          2
    62          1
    63          4
    64          2
    65         42
    66         18
    67        228
    68        128
    69        719
    70        236
    71        451
    72         83
    73         30
    74          4
    75          1
    76          2
    77         70
    78         22
    79        159
    80         39
    81        662
    82        140
    83        215
    84        251
    85        889
    86        179
    87         33
    88         11
    89          1
    90          1
    91         87
    92         15
    93        129
    94         28
    95        222
    96         41
    97         88
    98         72
    99         90
   100         80
   101         19
   102          1
   103          9
   104          4
   105         62
   106         47
   107        130
   108         63
   109        185
   110         65
   111        184
   112         28
   113         23
   114          4
   115          7
   116          5
   117          8
   118          3
   119         39
   120          4
   121         66
   122         14
   123        165
   124         34
   125         25
   126         29
   127         28
   128        180
   129         49
   130          4
   131         14
   132          3
   133         23
   134          6
   135         36
   136          9
   137         42
   138         21
   139         57
   140         13
   141         13
   142          4
   143          1
   144          0
   145          4
   146          1
   147         16
   148          3
   149         25
   150          4
   151         20
   152          8
   153          7
   154          0
   155          4
   156          1
   157          4
   158          0
   159          4
   160          0
   161          4
   162          0
   163         14
   164          2
   165         12
   166          4
   167          5
   168          1
   169          3
   170          1
   173          4
   175         23
   176          4
   177          4
   178          2
   179         22
   180          5
   181          5
   182          1
   183          1
   185          1
   191          3
   192          1
   193         21
   194          5
   195          4
   208          2
   209          2
   210          0
   211          5
   226        150
   227         22
   228          3