##TITLE=Library Entry 60633
##JCAMP-DX=Revision 4.10 
##DATA TYPE=MASS SPECTRUM
##SAMPLE DESCRIPTION=Chemical Concepts
##NAMES=HP
##CAS NAME=(1-Benzyl-cyclopropyl)-methanol
##MOLFORM=C11H14O
##CAS REGISTRY NO=108546-79-8
##MP= -300
##BP= -300
##MW= 162
##$RETENTION INDEX=0
##$CONDENSED SPECTRUM=NO
##NPOINTS= 96
##XYDATA=(XY..XY) 1 
    26          6
    27         79
    28          5
    29         30
    31         44
    37          3
    38         11
    39        129
    40         14
    41         85
    42         10
    43         58
    44          5
    45          4
    50         33
    51        104
    52         29
    53         54
    54         35
    55         63
    56         24
    57         26
    58          7
    61          3
    62         14
    63         56
    64         19
    65        182
    66         33
    67         18
    68          3
    69         11
    70         29
    71         62
    72          5
    73          5
    74         12
    75         15
    76         15
    77        118
    78        221
    79         88
    80          8
    81          4
    83         10
    84          7
    86          3
    87          6
    88          4
    89         41
    90         16
    91        999
    92        570
    93         50
    94          5
    95          5
   101          5
   102         21
   103         56
   104         59
   105        168
   106         29
   107         50
   108        112
   109         10
   113          3
   114          4
   115        160
   116        125
   117        106
   118         95
   119         16
   120          5
   121          3
   123          3
   126          4
   127         28
   128         84
   129        370
   130         52
   131         87
   132         25
   133         84
   134        158
   135         17
   136          3
   141         12
   142          8
   143         42
   144        337
   145         51
   146          5
   147          3
   161          3
   162         16
   163          3