##TITLE=Library Entry 13940
##JCAMP-DX=Revision 4.10 
##DATA TYPE=MASS SPECTRUM
##SAMPLE DESCRIPTION=Div. of Experiment Therapeutics WRAIR, WRAMC, Washingto
n DC 20307
##NAMES=HP
##CAS NAME=2-Acetoxy-1,1,10-trimethyl-6,9-epidioxy-.delta.7-octalin
##MOLFORM=C15H22O4
##CAS REGISTRY NO=108511-79-1
##MP= -300
##BP= -300
##MW= 266
##$RETENTION INDEX=0
##$CONDENSED SPECTRUM=NO
##NPOINTS= 138
##XYDATA=(XY..XY) 1 
    41        206
    43        999
    44         23
    45          9
    47         10
    48          4
    53         67
    54         26
    55        145
    56         18
    57         40
    58          3
    59          8
    60          2
    61         10
    63          5
    65         28
    66          5
    67         84
    68         38
    69        139
    70         26
    71         67
    72         24
    73          4
    76          0
    77         52
    78         12
    79         74
    80          6
    81        160
    82         78
    83         81
    84          6
    85         22
    86          3
    87          2
    88          5
    89          1
    91        105
    92         12
    93         70
    95        122
    96         40
    97         34
    98         15
    99          9
   100          8
   101          6
   103         12
   105        168
   106        128
   107        101
   108         18
   109         78
   110         37
   111         38
   112          6
   113          4
   114          5
   115         16
   117         74
   118        169
   119         71
   120         20
   121         43
   122         23
   123         65
   124         22
   125         34
   126         11
   127          8
   128          8
   129         11
   130          5
   131        147
   132         42
   133         60
   135         65
   136         15
   137         20
   138         32
   139          7
   140          0
   141          9
   142          8
   143          8
   144          2
   145         58
   146         21
   147         19
   148          2
   149         20
   150          8
   151          5
   152          8
   153          5
   154          4
   155          0
   157          5
   159        319
   160         36
   161         10
   163         20
   164          3
   165          3
   167          0
   168          8
   169          0
   171          0
   173         40
   174         89
   175         14
   177         59
   178         10
   179          2
   180          4
   181          3
   188         10
   189          2
   190          0
   191         15
   192          8
   195          0
   205          2
   206          5
   207          3
   209          1
   219         16
   220          1
   223          0
   233          1
   234        323
   235         42
   236          5
   248         44
   249          6
   266          3