##TITLE=Library Entry 80228
##JCAMP-DX=Revision 4.10 
##DATA TYPE=MASS SPECTRUM
##SAMPLE DESCRIPTION=Chemical Concepts
##NAMES=HP
##CAS NAME=1,1-Cyclopropanedimethanol, 2-methyl-.alpha.-phenyl-
##MOLFORM=C12H16O2
##CAS REGISTRY NO=108546-96-9
##MP= -300
##BP= -300
##MW= 192
##$RETENTION INDEX=0
##$CONDENSED SPECTRUM=NO
##NPOINTS= 148
##XYDATA=(XY..XY) 1 
    25          7
    26         32
    27        221
    28         71
    29        152
    30         10
    31        108
    36         15
    37         11
    38         24
    39        309
    40         88
    41        362
    42         69
    43        136
    44         26
    45         90
    47          8
    49         26
    50         94
    51        329
    52         96
    53        194
    54         37
    55        162
    56         39
    57         92
    58         48
    59         11
    60          8
    61          8
    62         23
    63         89
    64         36
    65        126
    66         44
    67        289
    68        328
    69         89
    70         33
    71         68
    72         18
    73         48
    74         39
    75         42
    76         54
    77        936
    78        316
    79        968
    80         78
    81         25
    82         17
    83         55
    84         18
    85         26
    86         12
    87         48
    88         16
    89         55
    90         28
    91        393
    92        128
    93         21
    94         17
    95         26
    96         17
    97         40
    98         12
    99          9
   101         16
   102         57
   103        518
   104        838
   105        999
   106        205
   107        762
   108         86
   109         14
   110          7
   111         15
   112          7
   113         19
   114         11
   115        294
   116         84
   117        191
   118        348
   119        106
   120         24
   121         16
   122          9
   123         10
   124          6
   125          9
   126         11
   127         63
   128        189
   129        325
   130        588
   131        520
   132        821
   133        185
   134        166
   135         54
   136          8
   137          7
   139         13
   140          7
   141         84
   142         34
   143        115
   144         34
   145        142
   146         61
   147        112
   148         95
   149        116
   150        249
   151         30
   152         12
   153         14
   154          9
   155         27
   156         38
   157         19
   158          0
   159         89
   160         16
   161         37
   162          8
   163         10
   164          6
   165          6
   166          5
   167          7
   168          6
   169          6
   170          6
   171          6
   172         11
   173         73
   174        164
   175         25
   176          6
   177          5
   191          6
   192         17
   193          5