##TITLE=Library Entry 107134
##JCAMP-DX=Revision 4.10 
##DATA TYPE=MASS SPECTRUM
##SAMPLE DESCRIPTION=Chemical Concepts
##NAMES=HP
##CAS NAME=Dichlofluanid
##MOLFORM=C9H11Cl2FN2O2S2
##CAS REGISTRY NO=1085-98-9
##MP= -300
##BP= -300
##MW= 332
##$RETENTION INDEX=1945
##$CONDENSED SPECTRUM=NO
##NPOINTS= 143
##XYDATA=(XY..XY) 1 
    26          2
    27         17
    28         33
    29          2
    30          2
    31          2
    35          0
    36          2
    37          3
    38         14
    39         36
    40          6
    41         18
    42         89
    43         37
    44        241
    45         22
    46          8
    47          0
    48          1
    49          0
    50          6
    51         54
    52         13
    53          2
    54          0
    56          0
    57          0
    58          0
    60          0
    61          1
    62          4
    63         31
    64         69
    65         53
    66          5
    67          2
    68          0
    69          1
    70          2
    71          0
    72          0
    74          0
    75          1
    76         10
    77        136
    78         16
    79          4
    80          5
    81          1
    82          0
    83          0
    84          1
    88          0
    89          0
    90          8
    91         80
    92        143
    93         13
    94         12
    95          2
    96         33
    97         11
    98          9
    99          0
   100          2
   101          7
   103          4
   105          0
   106          2
   107          4
   108         97
   109         12
   110         66
   111          3
   112         18
   113          0
   119          1
   120          1
   121         18
   122         23
   123        999
   124        121
   125         49
   126          5
   127          0
   133          4
   134          2
   135         29
   136          2
   138          5
   139          0
   140          0
   142          2
   143          1
   144          2
   145          0
   146          0
   151          1
   153          5
   154         72
   155          6
   156          4
   157          1
   158          0
   159          0
   166          0
   167        479
   168         49
   169         24
   170          6
   171          0
   172          1
   181          0
   188          2
   189         72
   190          7
   191         27
   192          1
   193          1
   199         13
   200          6
   201          0
   205          2
   207          1
   209          0
   224        349
   225         37
   226        241
   227         24
   228         47
   229          4
   230          1
   253          0
   268          2
   270          1
   332        103
   333         12
   334         76
   335          8
   336         17
   337          1
   338          0