##TITLE=Library Entry 57744
##JCAMP-DX=Revision 4.10 
##DATA TYPE=MASS SPECTRUM
##SAMPLE DESCRIPTION=Chemical Concepts
##NAMES=HP
##CAS NAME=Phospholane, 1-(1,1-dimethylethyl)-
##MOLFORM=C8H17P
##CAS REGISTRY NO=108568-39-4
##MP= -300
##BP= -300
##MW= 144
##$RETENTION INDEX=0
##$CONDENSED SPECTRUM=NO
##NPOINTS= 84
##XYDATA=(XY..XY) 1 
    26          8
    27         71
    28         14
    29        123
    30          1
    31          0
    33          0
    38          2
    39         64
    40          7
    41        219
    42         12
    43         39
    44          1
    45         31
    46          4
    48          7
    49          2
    50          2
    51          4
    53         14
    54         11
    55         81
    56         20
    57        599
    58         22
    59         62
    60        138
    61         27
    62        116
    63          2
    64          1
    65          1
    67          8
    68          2
    69          6
    70          5
    71         25
    72          7
    73         27
    74          8
    75          3
    76          2
    77         10
    78         29
    80          0
    81         10
    82          2
    83         16
    84          2
    85         33
    86          8
    87        156
    88        999
    89        165
    90         10
    91         11
    92          3
    97          2
    99          2
   101         11
   102         15
   103          2
   104          3
   105          1
   108          0
   112          1
   113          1
   114          2
   115          3
   116          2
   117          4
   118          8
   119          3
   120         16
   121          2
   127          2
   129         27
   130          1
   134          7
   143          6
   144        293
   145         27
   147          3