##TITLE=Library Entry 6435
##JCAMP-DX=Revision 4.10 
##DATA TYPE=MASS SPECTRUM
##SAMPLE DESCRIPTION=Div. of Experiment Therapeutics WRAIR, WRAMC, Washingto
n DC 20307
##NAMES=HP
##CAS NAME=2-Hydroxy-1,1,10-trimethyl-6,9-epidioxy-7-octalin
##MOLFORM=C13H20O3
##CAS REGISTRY NO=108511-80-4
##MP= -300
##BP= -300
##MW= 224
##$RETENTION INDEX=0
##$CONDENSED SPECTRUM=NO
##NPOINTS= 129
##XYDATA=(XY..XY) 1 
    41        697
    42         41
    43        999
    44        106
    45         50
    47          9
    48          3
    49         32
    50         11
    51         56
    52         18
    53        208
    54         72
    55        494
    57        279
    58          7
    59         62
    60          3
    62          2
    63         16
    64          8
    65         82
    66         25
    67        161
    68         32
    69        289
    70         21
    71        171
    72         36
    73         18
    75          2
    77        146
    79        191
    81        272
    82         23
    83        177
    84         98
    85         78
    86         46
    87         11
    88          4
    89          3
    91        322
    93        280
    94          4
    95        111
    96         33
    97         55
    98         29
    99         15
   100         25
   101          3
   102          2
   103         26
   104          6
   105        411
   106        330
   107        145
   108         18
   109        108
   111        240
   112         13
   113          5
   115         40
   116          5
   117        152
   118        250
   119        116
   120         85
   121         54
   122          2
   123         49
   124         18
   125         41
   126         13
   127         11
   128         14
   129         16
   130         18
   131        250
   132          6
   133        198
   134         33
   135        186
   136         28
   137         17
   138          8
   139          3
   140          6
   141          1
   142          5
   143          6
   144          4
   145         39
   146         18
   147          8
   148         44
   149         45
   150         16
   151          4
   152          0
   153          1
   154          0
   156          1
   157          3
   159        443
   160         45
   161         10
   162          1
   163          9
   164          2
   165          1
   167          0
   173         18
   174         80
   175         10
   177         27
   178          2
   179          0
   181          1
   188          2
   190          1
   191          3
   192        534
   193         59
   194          6
   206         23
   207          3
   224          6