##TITLE=Library Entry 85853
##JCAMP-DX=Revision 4.10 
##DATA TYPE=MASS SPECTRUM
##SAMPLE DESCRIPTION=Chemical Concepts
##NAMES=HP
##CAS NAME=1-Allyl-cyclopropanecarboxylic acid, 2,6-di-t-butyl-4-methyl-phen
yl ester
##MOLFORM=C22H32O2
##CAS REGISTRY NO=108546-69-6
##MP= -300
##BP= -300
##MW= 328
##$RETENTION INDEX=0
##$CONDENSED SPECTRUM=NO
##NPOINTS= 108
##XYDATA=(XY..XY) 1 
    27         17
    28          8
    29         28
    39         22
    40          6
    41        108
    42          5
    43         14
    44          8
    50          1
    51          5
    52          5
    53         65
    54          6
    55         38
    56          4
    57         87
    58          4
    60         10
    63          1
    65         14
    66          9
    67         27
    68          3
    69         11
    70          2
    71          3
    76          1
    77         23
    78          6
    79         91
    80         12
    81        604
    82         43
    83          8
    84          1
    85          2
    91         19
    92          2
    93          5
    95          3
    97          3
   103          2
   104          1
   105         17
   106          2
   107          6
   108          6
   109        999
   110         80
   111          5
   115          8
   116          3
   117          4
   118          1
   119         12
   120          3
   121          8
   122          2
   123          3
   127          2
   128          6
   129          7
   130          4
   131          6
   132          1
   133          8
   134          2
   135          6
   137          2
   141          6
   142          3
   143          2
   144          1
   145          6
   146          2
   147          4
   148          2
   155          3
   156          3
   157          1
   158          1
   159          2
   160          1
   161         17
   162          3
   163          5
   173          2
   175          2
   176          1
   177          3
   187          1
   189         15
   190          2
   191          1
   203          2
   204          2
   205          8
   206          1
   217          1
   220          1
   221          3
   259          1
   272          0
   288          0
   313          3
   328         20
   329          5