##TITLE=Library Entry 69700
##JCAMP-DX=Revision 4.10 
##DATA TYPE=MASS SPECTRUM
##SAMPLE DESCRIPTION=Chemical Concepts
##NAMES=HP
##CAS NAME=2-Cyclohexen-1-ol, 3-bromo-
##MOLFORM=C6H9BrO
##CAS REGISTRY NO=108585-64-4
##MP= -300
##BP= -300
##MW= 176
##$RETENTION INDEX=0
##$CONDENSED SPECTRUM=NO
##NPOINTS= 98
##XYDATA=(XY..XY) 1 
    25          1
    26         25
    27        118
    28         29
    29         85
    30          4
    31         29
    36          2
    37         22
    38         56
    39        288
    40         54
    41        378
    42         36
    43        123
    44         15
    45          3
    46          0
    47          8
    48          3
    49         12
    50         69
    51        114
    52         36
    53         89
    54         11
    55        161
    56         12
    57         39
    58          2
    60          1
    61          7
    62         11
    63         24
    64          4
    65         38
    66         20
    67        120
    68         33
    69        313
    70         31
    71          2
    73          3
    74          8
    75          7
    76          4
    77        111
    78         25
    79        229
    80         24
    81         22
    82         13
    83         10
    84          2
    89          0
    91          2
    92          1
    93          4
    94          8
    95         51
    96         23
    97        999
    98         75
    99          4
   103          2
   104          7
   105          4
   106          4
   107          4
   109          1
   111          4
   112          1
   115          1
   117          2
   119          4
   121          2
   131          1
   132          3
   133          3
   134          1
   135          2
   146          1
   147          0
   148         27
   149          2
   150         24
   151          1
   156          0
   157          3
   158         14
   159          4
   160         13
   161          0
   174          0
   175          8
   176          3
   177          8
   178          3