##TITLE=Library Entry 114899
##JCAMP-DX=Revision 4.10 
##DATA TYPE=MASS SPECTRUM
##SAMPLE DESCRIPTION=Chemical Concepts
##NAMES=HP
##CAS NAME=(1-Hydroxymethyl-2-phenyl-cyclopropyl)-phenyl-methanol
##MOLFORM=C17H18O2
##CAS REGISTRY NO=108546-97-0
##MP= -300
##BP= -300
##MW= 254
##$RETENTION INDEX=0
##$CONDENSED SPECTRUM=NO
##NPOINTS= 153
##XYDATA=(XY..XY) 1 
    26          4
    27         39
    28         13
    29         25
    31         29
    38          5
    39         83
    40          8
    41         43
    42          3
    43         17
    44          2
    45          2
    47          1
    50         26
    51        119
    52         30
    53         27
    54          3
    55         37
    56          2
    57         11
    59          1
    62          8
    63         42
    64         14
    65         72
    66          5
    67          2
    68          2
    69          6
    70          4
    71         16
    72          2
    73         10
    74          8
    75         15
    76         21
    77        497
    78        150
    79        483
    80         27
    81          3
    82          2
    83          2
    84          1
    85          3
    86          2
    87          4
    88          5
    89         42
    90         14
    91        419
    92         63
    93          4
    94          2
    95          3
    96          2
    97          1
   101         13
   102         31
   103        219
   104        740
   105        567
   106         72
   107        677
   108         51
   109          4
   110          2
   113          3
   114          5
   115        244
   116         48
   117         90
   118         22
   119          9
   120         60
   121          9
   126          4
   127         45
   128         89
   129        343
   130        999
   131        230
   132        420
   133         59
   134          6
   139          2
   140          2
   141          9
   142          3
   143          1
   144          5
   145         32
   146         10
   147         13
   148        435
   149         52
   150        205
   151         20
   152          6
   153          1
   157          4
   158          4
   159          2
   160          1
   161          1
   163          2
   164          1
   165         11
   166          3
   167          9
   168          2
   170          1
   176          2
   177          1
   178         12
   179          7
   180          6
   181          3
   182          1
   188          1
   189          6
   190          6
   191          6
   192          3
   193          4
   194          1
   196          1
   200          1
   201          2
   202         12
   203         12
   204          9
   205         50
   206         10
   207          5
   208          4
   209          1
   215          3
   216          1
   217          5
   218          5
   219          2
   220          2
   221          2
   233          1
   234          2
   235          2
   236         11
   237          2
   252          1
   254          0