##TITLE=Library Entry 53119
##JCAMP-DX=Revision 4.10 
##DATA TYPE=MASS SPECTRUM
##SAMPLE DESCRIPTION=NIST Mass Spectrometry Data Center
##NAMES=HP
##CAS NAME=(Z)-.gamma.-Atlantone
##MOLFORM=C15H22O
##CAS REGISTRY NO=108549-48-0
##MP= -300
##BP= -300
##MW= 218
##$RETENTION INDEX=1699
##$CONDENSED SPECTRUM=NO
##NPOINTS= 105
##XYDATA=(XY..XY) 1 
    26          1
    27         23
    28          3
    29         50
    30          1
    38          2
    39         78
    40         10
    41         72
    42          5
    43         18
    50          4
    51         20
    52         10
    53         59
    54          9
    55        264
    56         12
    57          3
    58          1
    62          1
    63          8
    64          3
    65         33
    66          8
    67         22
    68          2
    69         10
    70          1
    71          1
    74          1
    75          1
    76          1
    77         96
    78         22
    79         78
    80          8
    81         15
    82          8
    83        999
    84         57
    85         42
    86          3
    89          3
    90          1
    91        114
    92         25
    93         93
    94         10
    95          1
    98          6
    99         47
   100          4
   101          1
   102          2
   103         13
   104          6
   105        417
   106         44
   107         60
   108          6
   111         14
   112          1
   115         13
   116          3
   117         13
   118         10
   119        487
   120        360
   121         87
   122          7
   123          1
   125          1
   126         12
   127          2
   128          3
   129          3
   130          1
   131          1
   132          6
   133          8
   134         28
   135         19
   136          3
   143          3
   144          2
   147          5
   148          1
   149          1
   150          1
   157         12
   158          1
   161          7
   162         11
   163          2
   171          1
   175          2
   176          1
   185          9
   186          1
   200         12
   203         21
   204          3
   218         12
   219          2