##TITLE=Library Entry 78331
##JCAMP-DX=Revision 4.10 
##DATA TYPE=MASS SPECTRUM
##SAMPLE DESCRIPTION=Div. of Experiment Therapeutics WRAIR, WRAMC, Washingto
n DC 20307
##NAMES=HP
##CAS NAME=2-Benzoyloxy-1,1,10-trimethyl-6,9-epidioxy-7-octalin
##MOLFORM=C20H24O4
##CAS REGISTRY NO=108511-78-0
##MP= -300
##BP= -300
##MW= 328
##$RETENTION INDEX=0
##$CONDENSED SPECTRUM=NO
##NPOINTS= 128
##XYDATA=(XY..XY) 1 
    41        184
    43        133
    44          6
    45          5
    47          5
    48          1
    49         25
    50         19
    51        102
    53         56
    54         10
    55        108
    56         10
    57         17
    59          8
    62          1
    63          3
    64          1
    65         19
    66          4
    67         56
    68         30
    69         90
    70          3
    71         30
    72          1
    73          1
    74          3
    75          4
    76         18
    77        386
    79         77
    81         79
    82         47
    83         15
    84         30
    85          4
    86         10
    88          2
    89          0
    91         54
    93         42
    95         65
    96         19
    97         12
    98          3
    99          2
   101          0
   103          4
   105        999
   106         93
   107         43
   108          2
   109         42
   110         15
   111         10
   112          1
   114          0
   115          7
   117         21
   118         51
   119         32
   120          2
   121         29
   122         23
   123         33
   124          2
   125         15
   126          3
   127          1
   128          3
   129          5
   130          1
   131         37
   133         29
   135         24
   136          2
   137         13
   138         29
   139          3
   141          2
   143          4
   144          1
   145         13
   146          7
   147         13
   149         12
   150          6
   151          2
   153          4
   154          1
   157          1
   159         75
   160          6
   161          4
   162          6
   163          8
   164          2
   165          3
   173          7
   174         29
   175          5
   176          0
   177         11
   178          8
   179          1
   180          0
   188          1
   189          1
   190          1
   191          5
   192          0
   193          0
   195          0
   204          2
   205          1
   206          6
   207          2
   208          0
   223          3
   231          2
   281          2
   284          1
   295          0
   296         65
   297         13
   298          0
   328          0