##TITLE=Library Entry 42279
##JCAMP-DX=Revision 4.10 
##DATA TYPE=MASS SPECTRUM
##SAMPLE DESCRIPTION=Chemical Concepts
##NAMES=HP
##CAS NAME=Trimethyl-(non-1-enyloxy)-silane
##MOLFORM=C12H26OSi
##CAS REGISTRY NO=108612-95-9
##MP= -300
##BP= -300
##MW= 214
##$RETENTION INDEX=0
##$CONDENSED SPECTRUM=NO
##NPOINTS= 119
##XYDATA=(XY..XY) 1 
    26          0
    27         18
    28          4
    29         30
    30          0
    31          2
    39         12
    40          2
    41         44
    42          7
    43         41
    44         17
    45         56
    46          3
    47          7
    50          0
    51          0
    52          0
    53          6
    54         11
    55         24
    56         11
    57         21
    58          7
    59         33
    60          4
    61          9
    62          0
    63          0
    64          0
    65          1
    66          2
    67         17
    68         21
    69          9
    70          5
    71          5
    72          9
    73        999
    74         51
    75        245
    76         12
    77          5
    78          0
    79          2
    80          1
    81         26
    82         35
    83          7
    84          1
    85         12
    86          1
    87          2
    88          0
    89          4
    91         14
    92          1
    95         26
    96         27
    97          4
    98          8
    99         33
   100          3
   101         26
   102          2
   103          4
   104          0
   105          0
   109          3
   110          0
   111          4
   112          0
   113         17
   114          5
   115         37
   116         16
   117          3
   118          0
   123         27
   124         16
   125          2
   127          4
   128          1
   129        722
   130         85
   131         30
   132          1
   141          2
   142          3
   143         38
   144          5
   145          1
   147          1
   148          0
   149          0
   155          1
   156          0
   157         16
   158          2
   159          0
   160          0
   169          0
   171         72
   172         13
   173          3
   182          0
   183          0
   185         61
   186          7
   187          3
   188          0
   199        145
   200         26
   201          7
   202          0
   213          1
   214        104
   215         17
   216          4