##TITLE=Library Entry 43580
##JCAMP-DX=Revision 4.10 
##DATA TYPE=MASS SPECTRUM
##SAMPLE DESCRIPTION=Chemical Concepts
##NAMES=HP
##CAS NAME=Cyclohexene, 3-phenyl-1-(trimethylsilyloxy)-
##MOLFORM=C15H22OSi
##CAS REGISTRY NO=108643-81-8
##MP= -300
##BP= -300
##MW= 246
##$RETENTION INDEX=0
##$CONDENSED SPECTRUM=NO
##NPOINTS= 138
##XYDATA=(XY..XY) 1 
    27         22
    29         12
    31         10
    39         25
    41         29
    42          1
    43         44
    44         34
    45        218
    46         12
    47         36
    51         10
    52          6
    53         15
    55         53
    56          3
    57          9
    58         13
    59         53
    60          6
    61         28
    62          3
    63         10
    64          1
    65         22
    66          3
    67         10
    68          2
    69          5
    70          3
    71          6
    72         17
    73        999
    74         68
    75        588
    76         49
    77         18
    78         18
    79         13
    83          3
    85         16
    86          3
    87          5
    89         10
    91        124
    92         10
    93          3
    94          9
    95          3
    97          4
    99          8
   100          5
   101         31
   102         18
   103         82
   104         21
   105          7
   107          1
   108          3
   109          0
   111          7
   113          3
   114          0
   115         77
   116         23
   117         52
   118          6
   121          3
   125          7
   126          5
   127        151
   128         97
   129         82
   130         75
   131         24
   132          0
   133          1
   137          4
   139          6
   140         33
   141         67
   142         73
   143         20
   144         31
   145         14
   147          3
   152          7
   153         13
   154          9
   155         99
   156        148
   157         39
   158          5
   159          5
   161          6
   167          6
   168         65
   169        151
   170         24
   171          8
   172          0
   173          5
   174          4
   175          6
   177          0
   179          3
   185          4
   187          5
   189          5
   190          3
   197          1
   200          3
   201         30
   202          8
   203        404
   204         11
   205         25
   206          4
   211          2
   213          4
   215         12
   216          3
   217        250
   218        543
   219         99
   220         26
   221          1
   227          1
   229          1
   231        135
   232         25
   233          6
   244          2
   245        300
   246        977
   247        195
   248         51
   249          6