##TITLE=Library Entry 10836
##JCAMP-DX=Revision 4.10 
##DATA TYPE=MASS SPECTRUM
##SAMPLE DESCRIPTION=NIST Mass Spectrometry Data Center
##NAMES=HP
##CAS NAME=3-(Methoxymethoxy)butanoic acid
##MOLFORM=C6H12O4
##CAS REGISTRY NO=1086255-73-3
##MP= -300
##BP= -300
##MW= 148
##$RETENTION INDEX=1118
##$CONDENSED SPECTRUM=NO
##NPOINTS= 38
##XYDATA=(XY..XY) 1 
    27         17
    29         13
    31          9
    32          8
    38          8
    39         51
    40         15
    41         77
    42         66
    43        999
    44         41
    45        107
    46          3
    54          2
    55         11
    58         43
    59          5
    60         17
    61         70
    67          4
    68         57
    69         49
    71         85
    72          9
    73         18
    74          5
    79          3
    85         95
    86        174
    87         99
    88         11
    89          9
   100         18
   101          5
   102         20
   103        205
   104         14
   131         10