##TITLE=Library Entry 45502
##JCAMP-DX=Revision 4.10 
##DATA TYPE=MASS SPECTRUM
##SAMPLE DESCRIPTION=Chemical Concepts
##NAMES=HP
##CAS NAME=1-Pyrrolidinecarboxylic acid, 2-methoxy-4-(t-butyldimethylsilylox
y)-, methyl ester, (2R-trans)-
##MOLFORM=C13H27NO4Si
##CAS REGISTRY NO=108782-11-2
##MP= -300
##BP= -300
##MW= 289
##$RETENTION INDEX=0
##$CONDENSED SPECTRUM=NO
##NPOINTS= 215
##XYDATA=(XY..XY) 1 
    25          1
    26          5
    27         23
    29         43
    30          7
    31          8
    33          1
    36          0
    37          8
    38         21
    39         94
    40         23
    41         82
    42         51
    43         19
    44          9
    45         68
    46          4
    47         52
    48          2
    49          1
    50          3
    51          5
    52          3
    53         35
    54         19
    55         43
    56         24
    57         35
    58         15
    59        143
    60         16
    61         31
    62          2
    63          2
    64          3
    65          4
    66         51
    67         46
    68         15
    69          7
    70          3
    71          7
    72         11
    73        137
    74         18
    75        999
    76         92
    77         46
    78          5
    79          3
    80        107
    81         28
    82         22
    83          5
    84          3
    85          5
    86          7
    87          3
    88          5
    89        357
    90         29
    91         20
    92          1
    93          1
    94        111
    95          9
    96          1
    97          3
    98          6
    99          9
   100          7
   101         14
   102          3
   103          1
   104          0
   105          3
   106          0
   107         13
   108          1
   109          1
   110          0
   111          3
   112          4
   113          2
   114          3
   115         12
   116          5
   117          7
   118          1
   119          2
   120          0
   121          0
   122          0
   123          0
   124         14
   125        140
   126        314
   127         24
   128          4
   129          3
   130          1
   131         13
   132         23
   133          3
   134          1
   135          0
   136          0
   137          0
   138          0
   139          0
   140          2
   141          9
   142         30
   143          4
   144         19
   145          7
   146          1
   147          0
   148          0
   149          2
   150          0
   151          0
   152          0
   153          0
   154          0
   155          1
   156          4
   157          2
   158          6
   159          0
   160          0
   161          0
   162          0
   163          0
   164          0
   165          0
   166          0
   167          0
   168         35
   169          4
   170          2
   171          0
   172          1
   173          0
   174        167
   175         21
   176          7
   177          0
   180          0
   181          0
   182          1
   183          0
   184          0
   185          0
   186          0
   187          0
   188          0
   189          0
   190          0
   191          0
   192          0
   194          0
   195          0
   196          0
   197          0
   198          2
   199          1
   200         92
   201         13
   202          7
   203          0
   204          0
   205          0
   206          0
   207          0
   208          0
   210          0
   213          0
   214          0
   215          0
   216          4
   217          0
   218          0
   219          0
   223          0
   224          0
   226          1
   227          0
   228          0
   230          2
   231          0
   232         39
   233          5
   234          2
   235          0
   236          0
   237          0
   239          0
   240          0
   242          3
   243          0
   244          0
   254          0
   255          0
   256          0
   257          0
   258         17
   259          3
   260          1
   261          0
   274          1
   275          0
   288          0
   289          0