##TITLE=Library Entry 78308
##JCAMP-DX=Revision 4.10 
##DATA TYPE=MASS SPECTRUM
##SAMPLE DESCRIPTION=Japan AIST/NIMC Database- Spectrum MS-NW-5254
##NAMES=HP
##CAS NAME=Propanedioic acid, benzoyl-, diethyl ester
##MOLFORM=C14H16O5
##CAS REGISTRY NO=1087-97-4
##MP= -300
##BP= -300
##MW= 264
##$RETENTION INDEX=0
##$CONDENSED SPECTRUM=NO
##NPOINTS= 125
##XYDATA=(XY..XY) 1 
    12          1
    13          1
    14          3
    15         11
    16          3
    25          3
    26         19
    27         55
    28         15
    29         73
    30          7
    31        133
    32          2
    37          1
    38          3
    39         10
    40          1
    41          5
    42         10
    43         25
    44         81
    45         68
    46         23
    47          1
    49          1
    50         19
    51         62
    52          5
    53          2
    54          8
    55          2
    56          2
    57          3
    59          1
    60          3
    61          3
    62          5
    63          9
    64          2
    65          6
    69         18
    70          1
    71          1
    73          2
    74          6
    75          7
    76         12
    77        247
    78         20
    79          7
    81          4
    85          1
    86          2
    87          6
    88          5
    89          9
    90          3
    91          9
    92          1
    94          1
    97          1
    98          2
    99          1
   101          1
   102          6
   103          3
   104          7
   105        999
   106         80
   107          9
   115         12
   116          1
   118          1
   119          1
   120          5
   121          2
   122          8
   123          1
   127          1
   129          4
   130          1
   132          1
   133          9
   135          1
   139          2
   141          2
   145          1
   146         20
   147          9
   148          1
   149          2
   150          3
   151          1
   155          1
   160          1
   161          1
   162          1
   163          1
   164          1
   167          1
   169          1
   172          8
   173          2
   174          6
   175          1
   177          1
   179          1
   181          1
   183          1
   187          2
   190         12
   191          3
   192         12
   193          2
   197          1
   202          1
   207          2
   209          2
   215          1
   217          1
   218         14
   219          6
   220          2
   264          6
   265          1