##TITLE=Library Entry 15968
##JCAMP-DX=Revision 4.10 
##DATA TYPE=MASS SPECTRUM
##SAMPLE DESCRIPTION=Japan AIST/NIMC Database- Spectrum MS-NW-2042
##NAMES=HP
##CAS NAME=dl-Alanyl-l-phenylalanine
##MOLFORM=C12H16N2O3
##CAS REGISTRY NO=108740-86-9
##MP= -300
##BP= -300
##MW= 236
##$RETENTION INDEX=0
##$CONDENSED SPECTRUM=NO
##NPOINTS= 106
##XYDATA=(XY..XY) 1 
    15          9
    17          8
    18          1
    26          3
    27         14
    28         53
    29          5
    30          7
    37          1
    38          3
    39         19
    40          4
    41         10
    42         31
    43         21
    44        999
    45         29
    46          2
    50          6
    51         17
    52          5
    53          2
    54          2
    55          5
    56          9
    57          6
    58          2
    61          1
    62          3
    63          9
    64          3
    65         32
    66          2
    69          1
    70          3
    71         12
    72          2
    73          2
    74         14
    75          3
    76          3
    77         20
    78          9
    79          6
    83          5
    84          1
    87          1
    88          1
    89          8
    90          7
    91        315
    92         49
    93          4
    97          1
    98          1
    99         57
   100          3
   102          6
   103         18
   104         15
   105          6
   106          1
   107          3
   115          1
   116          2
   117          9
   118         14
   119         16
   120         46
   121          5
   126          2
   127         34
   128          7
   129          7
   130          5
   131         10
   132          5
   133          1
   144          1
   145          2
   146          6
   147         15
   148         20
   149          3
   157          1
   160          1
   171          1
   172          1
   173          1
   174          1
   175         17
   176          3
   188          1
   190          2
   191          1
   192          6
   193         40
   194          5
   200          1
   201          2
   216          1
   218         66
   219          9
   220          1
   235          1
   236          3