##TITLE=Library Entry 20214
##JCAMP-DX=Revision 4.10 
##DATA TYPE=MASS SPECTRUM
##SAMPLE DESCRIPTION=J.Sebedio ET AL.JAOCS,66,704(1989)
##NAMES=HP
##CAS NAME=Methyl trans-9-(2-butylcyclopentyl)nonanoate
##MOLFORM=C19H36O2
##CAS REGISTRY NO=108708-61-8
##MP= -300
##BP= -300
##MW= 296
##$RETENTION INDEX=0
##$CONDENSED SPECTRUM=NO
##NPOINTS= 126
##XYDATA=(XY..XY) 1 
    29        165
    33          6
    40         43
    41        537
    42         97
    44        338
    52          6
    54         49
    55        999
    56        238
    57        244
    59         10
    60        126
    66         15
    67        264
    68        110
    69        712
    70        121
    72         62
    73          3
    74        703
    75        196
    76         13
    77         17
    78          6
    79         45
    80         21
    81        170
    82        140
    83        453
    84        184
    86         49
    87        398
    89         28
    91         14
    92          7
    93         25
    94         14
    95        140
    96        151
    97        255
    98        153
    99         28
   100         10
   101         50
   102          8
   104          7
   105         11
   106          6
   108         25
   109         86
   110         69
   111        106
   112         41
   113         15
   114         13
   115         48
   116         27
   119         17
   121         28
   122         13
   123         74
   124         81
   125        126
   126         27
   127         13
   128         14
   129         66
   130        229
   131         20
   133         13
   134         14
   135         17
   136          7
   137         41
   138         38
   139         39
   140         28
   141         29
   143        126
   144         22
   145          4
   147         13
   148         13
   149         14
   150         18
   151         31
   152         27
   153         15
   157         18
   158          7
   161         10
   164         45
   165         31
   166         21
   167         15
   171         18
   172         29
   173         14
   179          8
   180         24
   181          6
   183          3
   188          4
   189         52
   193          7
   194         11
   203          4
   204          7
   207         45
   208         10
   212          4
   220         15
   221         14
   222         24
   235          3
   239         15
   246         34
   247         20
   253         28
   254          3
   264         35
   265         11
   294          6
   296         28
   297         11