##TITLE=Library Entry 4061
##JCAMP-DX=Revision 4.10 
##DATA TYPE=MASS SPECTRUM
##SAMPLE DESCRIPTION=Chemical Concepts
##NAMES=HP
##CAS NAME=2-(2,4-Dihydroxyphenyl)-5,7-dimethyl-1,3-diazatricyclo[3.3.1.1(3,
7)]decan-6-one
##MOLFORM=C16H20N2O3
##CAS REGISTRY NO=108790-66-5
##MP= -300
##BP= -300
##MW= 288
##$RETENTION INDEX=0
##$CONDENSED SPECTRUM=NO
##NPOINTS= 161
##XYDATA=(XY..XY) 1 
    33         10
    34          1
    36          1
    37          9
    39        403
    41        999
    42        548
    43        128
    44         43
    46          1
    49          2
    50         11
    51         71
    53        165
    55        347
    56         36
    58         14
    59          1
    60          1
    62          8
    63         34
    65        150
    66         66
    67         74
    69        349
    70         24
    71          5
    72          1
    74          5
    75          9
    77         60
    79         75
    80         67
    81         60
    82         62
    83         17
    84         31
    85          3
    86          1
    87          2
    88          1
    89          5
    90          9
    91         26
    92         30
    93         43
    94         62
    95         39
    96         23
    97          9
    98          5
    99          1
   101          1
   102          3
   103          7
   104         15
   105         12
   106         12
   107         36
   108         34
   109         47
   110         48
   111         35
   112          7
   113          1
   115          3
   116          4
   117          4
   118         16
   120         35
   121         48
   123        293
   124        478
   125         36
   126          8
   128          3
   129          2
   130          6
   131          8
   132          9
   134         63
   135         49
   136        152
   138        576
   139         34
   140          4
   142          1
   143          2
   144         20
   146         17
   148         66
   150        109
   151         41
   153         28
   154          2
   155          1
   158          3
   159          6
   160         16
   161         20
   162         41
   163         57
   164        106
   165         18
   166          4
   167          1
   170          1
   171          1
   173          3
   174          8
   175          9
   176         18
   177          8
   178          6
   185          2
   186          2
   187          3
   188          4
   189          9
   190         24
   191          6
   192          5
   199          1
   200          3
   201          4
   202          5
   203          4
   204          5
   205          3
   212          1
   213          2
   214          3
   216         11
   217          4
   218          9
   226          1
   227          3
   228          6
   229          9
   230          5
   232          1
   241          2
   242          4
   244         27
   245         22
   246         39
   247          3
   258          3
   259          6
   260          2
   271          1
   272          3
   273          1
   282          1
   283          3
   284          6
   285          6
   286         19
   288        204
   289         20
   290          2