##TITLE=Library Entry 79781
##JCAMP-DX=Revision 4.10 
##DATA TYPE=MASS SPECTRUM
##SAMPLE DESCRIPTION=Chemical Concepts
##NAMES=HP
##CAS NAME=Dibenzoylacetylene
##MOLFORM=C16H10O2
##CAS REGISTRY NO=1087-09-8
##MP= -300
##BP= -300
##MW= 234
##$RETENTION INDEX=0
##$CONDENSED SPECTRUM=NO
##NPOINTS= 171
##XYDATA=(XY..XY) 1 
    26          3
    27         30
    28         20
    29          2
    30          0
    31          0
    32          2
    34          3
    36          0
    37          1
    38          6
    39         25
    40          1
    41          3
    42          1
    43          6
    44          3
    45          0
    49          3
    50        107
    51        398
    52         24
    53         16
    54          2
    55          3
    56          2
    57          5
    58          1
    59          1
    60          0
    61          5
    62         13
    63         23
    64          2
    65          3
    66          0
    67          1
    68          1
    69          2
    70          1
    71          1
    72          0
    73          6
    74         53
    75        100
    76        102
    77        894
    78         74
    79          3
    80          2
    81          1
    82          1
    83          1
    84          1
    85          2
    86          7
    87          9
    88         17
    89         48
    90          1
    91          1
    92          0
    93          0
    94          4
    95          1
    96          0
    97          1
    98          9
    99          6
   100          9
   101         40
   102         13
   103          7
   104         14
   105        999
   106         79
   107          5
   108          0
   109          1
   110          2
   111          2
   112          1
   113          7
   114          1
   115          3
   116          0
   117         18
   118          0
   121          1
   122          1
   123          1
   124          1
   125          2
   126          9
   127          4
   128          9
   129        439
   130         43
   131         11
   132          1
   133          0
   134          1
   135          1
   136          1
   137          2
   138          2
   139          5
   140          1
   141          0
   147          1
   148          0
   149          2
   150         11
   151         23
   152         32
   153          8
   154          4
   155          2
   156          1
   157          8
   158          1
   159          3
   160          0
   161          1
   162          1
   163          3
   164          1
   165          5
   166          0
   167          0
   171          0
   173          0
   174          2
   175          8
   176         52
   177         45
   178        522
   179         86
   180          9
   181          5
   182          4
   183          2
   185          0
   186          0
   187          2
   188          2
   189          7
   190          1
   191          3
   192          4
   193          1
   200          1
   201          0
   202          5
   203          1
   204          7
   205         89
   206        119
   207         24
   208         10
   209          2
   217          1
   218          0
   219          0
   232          2
   233         27
   234        600
   235         99
   236         39
   237          5
   238          0