##TITLE=Library Entry 46042
##JCAMP-DX=Revision 4.10 
##DATA TYPE=MASS SPECTRUM
##SAMPLE DESCRIPTION=Chemical Concepts
##NAMES=HP
##CAS NAME=1-Pyrrolidinecarboxylic acid, 2-cyano-4-t-butyldimethylsilyloxy-,
 methyl ester
##MOLFORM=C13H24N2O3Si
##CAS REGISTRY NO=108782-06-5
##MP= -300
##BP= -300
##MW= 284
##$RETENTION INDEX=0
##$CONDENSED SPECTRUM=NO
##NPOINTS= 194
##XYDATA=(XY..XY) 1 
    26          8
    27         41
    28         40
    29         82
    30         10
    31         16
    37          2
    38          3
    39         53
    40         21
    41        224
    42         99
    43         57
    44         17
    45         83
    46          4
    47         64
    48          2
    49          2
    50          2
    51          5
    52          5
    53         12
    54         23
    55         40
    56         29
    57         61
    58         36
    59        367
    60         29
    61         36
    62          2
    63          1
    64          1
    65          5
    66         13
    67         64
    68         63
    69         13
    70         12
    71         13
    72         11
    73        324
    74         33
    75        999
    76         76
    77         42
    78          4
    79          3
    80         13
    81         15
    82        174
    83         19
    84         67
    85         24
    86         33
    87         10
    88          7
    89        359
    90         31
    91         26
    92          4
    93          6
    94        173
    95         13
    96          3
    97          6
    98         13
    99         27
   100         36
   101        120
   102        102
   103         14
   104          4
   105          9
   106          1
   107          6
   108          1
   109          3
   110          3
   111          7
   112         22
   113         10
   114         18
   115         36
   116         14
   117         18
   118          3
   119          2
   120          2
   121          1
   122          4
   123          2
   124         49
   125         15
   126        217
   127         22
   128         23
   129          5
   130          3
   131          4
   132          2
   133          2
   134          1
   135          2
   136          1
   137          1
   138          2
   139          4
   140         12
   141         27
   142        418
   143         55
   144         38
   145          5
   147          2
   148          1
   149          5
   150          1
   151          7
   152          3
   153          5
   154          2
   155          1
   156          9
   157          2
   158          8
   159          4
   160          1
   163          1
   165          1
   166          2
   167         13
   168        123
   169         18
   170          8
   171          1
   172          3
   173          3
   174         58
   175          7
   176          6
   180          2
   182          3
   183          8
   184          6
   185          2
   186          3
   187          0
   190          2
   191          1
   195          5
   196          1
   197          2
   198          3
   199          4
   200        150
   201         39
   202         10
   203          2
   209          1
   210          2
   211          1
   212          1
   213          1
   216          1
   217          1
   221          2
   222          1
   223          0
   224          1
   225          1
   226          2
   227        854
   228        143
   229         46
   230          4
   237          1
   242         20
   243          3
   244          1
   253         18
   254          3
   255          1
   258          6
   259          1
   260          0
   269         24
   270          4
   271          1
   272          0
   280          1
   281          0
   285          0