##TITLE=Library Entry 60685
##JCAMP-DX=Revision 4.10 
##DATA TYPE=MASS SPECTRUM
##SAMPLE DESCRIPTION=Div. of Experiment Therapeutics WRAIR, WRAMC, Washingto
n DC 20307
##NAMES=HP
##CAS NAME=Benzene, 1,1'-(1,6-hexanediyl)bis-
##MOLFORM=C18H22
##CAS REGISTRY NO=1087-49-6
##MP= -300
##BP= -300
##MW= 238
##$RETENTION INDEX=0
##$CONDENSED SPECTRUM=NO
##NPOINTS= 97
##XYDATA=(XY..XY) 1 
    41         61
    42          3
    43         10
    49          1
    50          9
    51         38
    52         11
    53         10
    54          2
    55         12
    56          2
    57          4
    62          3
    63         20
    64          7
    65        134
    66          9
    67          6
    68          2
    69          8
    70          1
    71          2
    74          2
    75          3
    76          5
    77         74
    78         42
    79         42
    80          6
    81          2
    82          1
    83          2
    84          1
    85          1
    89         24
    90         18
    91        999
    92        621
    93         49
    94          3
    95          1
    97          1
   101          0
   102          7
   103         40
   104        112
   105        109
   106         15
   107          3
   109          0
   111          0
   115         28
   116          7
   117         53
   118         12
   119         20
   120          3
   121          1
   127          2
   128          4
   129          4
   130          5
   131         14
   132          4
   133         29
   134         38
   135          4
   141          1
   142          1
   143          3
   144         53
   145         12
   146         10
   147         30
   148          3
   152          2
   156          1
   157          8
   158          7
   159          3
   160          2
   165          3
   166          1
   167          8
   168          1
   172          0
   181          4
   182          0
   183          1
   184          2
   195          1
   209          1
   210          2
   237          0
   238        380
   239         76
   240          7