##TITLE=Library Entry 68842
##JCAMP-DX=Revision 4.10 
##DATA TYPE=MASS SPECTRUM
##SAMPLE DESCRIPTION=Chemical Concepts
##NAMES=HP
##CAS NAME=Tricyclohexylborane
##MOLFORM=C18H33B
##CAS REGISTRY NO=1088-01-3
##MP= -300
##BP= -300
##MW= 260
##$RETENTION INDEX=0
##$CONDENSED SPECTRUM=NO
##NPOINTS= 128
##XYDATA=(XY..XY) 1 
    26         28
    27        101
    28          6
    29         54
    30          1
    34          0
    35          1
    36          5
    37         21
    38         27
    39        142
    40        138
    41        552
    42         28
    43         11
    44          0
    47          3
    48          0
    49          1
    50         17
    51         53
    52         93
    53        353
    54         54
    55        133
    56         11
    57          1
    58          0
    59          0
    60          0
    61          1
    62          3
    63         14
    64         36
    65         94
    66        119
    67        412
    68         23
    69         14
    70          0
    71          0
    72          0
    73          0
    74          0
    75          2
    76         10
    77         29
    78         20
    79         60
    80         80
    81        338
    82         52
    83         53
    84          3
    85          0
    86          0
    87          1
    88          3
    89         10
    90          9
    91         26
    92         19
    93         46
    94        193
    95        999
    96         66
    97          7
    98          0
   101          0
   102          1
   103          2
   104          1
   105          5
   106          7
   107         19
   108         37
   109        147
   110         12
   111          2
   112          0
   113          0
   114          0
   115          0
   117          0
   118          1
   119          2
   120          6
   121         22
   122          3
   123          0
   124          0
   126          0
   127          1
   128          0
   131          0
   132          0
   133          2
   134          7
   135         27
   136          3
   137          0
   147          1
   148          1
   149          3
   150          0
   154          0
   155          1
   161          0
   162          1
   163          1
   164          0
   173          0
   174          0
   175          8
   176        212
   177        798
   178        106
   179          6
   180          0
   193          1
   194          0
   208          0
   209          1
   221          0
   259         17
   260         62
   261         13
   262          1