##TITLE=Library Entry 79135
##JCAMP-DX=Revision 4.10 
##DATA TYPE=MASS SPECTRUM
##SAMPLE DESCRIPTION=K. CHMIELENSKA, INST. CHEM., UNIV. WROCLAW, WROCLAW, PO
L.
##NAMES=HP
##CAS NAME=1-Acetyl-2,6-naphthalenediol dibenzoate
##MOLFORM=C26H18O5
##CAS REGISTRY NO=108804-53-1
##MP= -300
##BP= -300
##MW= 410
##$RETENTION INDEX=0
##$CONDENSED SPECTRUM=NO
##NPOINTS= 18
##XYDATA=(XY..XY) 1 
    43         32
    44         11
    51         59
    76         11
    77        263
    78         45
   105        999
   106         79
   107          5
   115         31
   129          1
   130          3
   157          1
   200          5
   263          4
   305          6
   410         52
   411         10