##TITLE=Library Entry 66420
##JCAMP-DX=Revision 4.10 
##DATA TYPE=MASS SPECTRUM
##SAMPLE DESCRIPTION=Chemical Concepts
##NAMES=HP
##CAS NAME=2-Pentalenecarboxanilide, 1,2,3,3a,4,5,6,6a-octahydro-
##MOLFORM=C15H19NO
##CAS REGISTRY NO=108839-92-5
##MP= -300
##BP= -300
##MW= 229
##$RETENTION INDEX=0
##$CONDENSED SPECTRUM=NO
##NPOINTS= 139
##XYDATA=(XY..XY) 1 
    26          2
    27         54
    29         28
    31          0
    37          0
    38          4
    39         60
    41         93
    42          8
    43         15
    50          2
    51         18
    52          7
    53         25
    54          7
    55         50
    56          0
    57          0
    61          0
    62          2
    63          4
    64          7
    65         57
    66         31
    67        246
    68         16
    69          5
    71          1
    74          0
    76          2
    77         58
    78          7
    79         46
    80         11
    81         31
    82          2
    83          1
    84          0
    85          0
    86          0
    89          0
    90          0
    91         17
    92         29
    93        999
    94        105
    95          8
    96          0
    97          0
   103          2
   104          2
   105          2
   106          6
   107         12
   108          5
   109        250
   110         23
   115          0
   116          0
   117          4
   118          2
   119         11
   120         18
   121          2
   122          1
   123          1
   127          0
   128          1
   129          1
   130          3
   131          1
   132          4
   133          0
   134          2
   135         25
   136         14
   137         19
   138          2
   139          0
   141          0
   142          0
   143          1
   144          1
   145          0
   146          3
   147          2
   148        139
   149         18
   150          1
   151          0
   154          0
   155          0
   156          1
   157          0
   158          1
   159          0
   160          1
   161          2
   163          1
   168          0
   169          0
   170          1
   171          1
   172          2
   173          0
   174          1
   175          0
   177          2
   178          0
   179          0
   181          0
   182          0
   183          1
   184          0
   185          0
   186          3
   187          0
   188          3
   189          1
   191          0
   193          0
   197          0
   200          2
   201          1
   205          0
   207          1
   209          1
   210          0
   211          0
   212          0
   215          1
   217          0
   219          1
   224          0
   227          1
   228          6
   229        212
   230         45
   231          3