##TITLE=Library Entry 78856
##JCAMP-DX=Revision 4.10 
##DATA TYPE=MASS SPECTRUM
##SAMPLE DESCRIPTION=K. CHMIELENSKA, INST. CHEM., UNIV. WROCLAW, WROCLAW, PO
L.
##NAMES=HP
##CAS NAME=1-Acetyl-2-naphthalenol benzoate
##MOLFORM=C19H14O3
##CAS REGISTRY NO=108804-52-0
##MP= -300
##BP= -300
##MW= 290
##$RETENTION INDEX=0
##$CONDENSED SPECTRUM=NO
##NPOINTS= 24
##XYDATA=(XY..XY) 1 
    43        132
    44         36
    75        145
    76         15
    77        341
    78         24
   105        999
   113          9
   114         43
   115         39
   116          1
   142          5
   143          6
   144          7
   184          8
   185         11
   186          4
   187          3
   247          4
   248         38
   249          8
   290         90
   291         28
   292          4