##TITLE=Library Entry 74384
##JCAMP-DX=Revision 4.10 
##DATA TYPE=MASS SPECTRUM
##SAMPLE DESCRIPTION=Institute of Organic Chemistry, Novosibirsk, USSR 1988
##NAMES=HP
##CAS NAME=Methyl 3,6-di-O-acetyl-2-acetamido-2-deoxy-4-O-methyl-.alpha.-d-g
lucopyranoside
##MOLFORM=C14H23NO8
##CAS REGISTRY NO=108850-21-1
##MP= -300
##BP= -300
##MW= 333
##$RETENTION INDEX=0
##$CONDENSED SPECTRUM=NO
##NPOINTS= 81
##XYDATA=(XY..XY) 1 
    57         34
    58         59
    59        207
    60         50
    61         18
    69         27
    70         51
    71        429
    72         61
    73        113
    74         86
    75         37
    80         88
    81         13
    83        112
    84         49
    85         34
    86         94
    87        179
    88         25
    95         24
    96         37
    97         27
    98        179
    99         45
   100         11
   101        999
   102         99
   103         10
   108         23
   110         27
   111         94
   112         88
   113         18
   114         62
   115         62
   116         50
   117         35
   128        361
   129         50
   130         87
   131          5
   138         17
   139         18
   140         64
   141          9
   142          4
   143        399
   144         94
   145         31
   146         11
   152         11
   153         24
   154         39
   155          7
   156         25
   157          8
   158         36
   168         11
   169         24
   170         25
   171         27
   172         22
   173          4
   181          0
   182         27
   183          5
   198          0
   199          2
   200         18
   201          5
   213         11
   214         10
   230          1
   242         69
   243          5
   260          0
   274         75
   275          8
   302          5
   334          2