##TITLE=Library Entry 78383
##JCAMP-DX=Revision 4.10 
##DATA TYPE=MASS SPECTRUM
##SAMPLE DESCRIPTION=K. CHMIELENSKA, INST. CHEM., UNIV. WROCLAW, WROCLAW, PO
L.
##NAMES=HP
##CAS NAME=1,4-Diacetyl-2,3-naphthalenediol dibenzoate
##MOLFORM=C28H20O6
##CAS REGISTRY NO=108804-55-3
##MP= -300
##BP= -300
##MW= 452
##$RETENTION INDEX=0
##$CONDENSED SPECTRUM=NO
##NPOINTS= 18
##XYDATA=(XY..XY) 1 
    43        143
    44         90
    51         54
    77        296
    78         86
   105        999
   106         91
   121         13
   199         31
   200          1
   225          1
   242         19
   243          2
   347         19
   348          6
   452         99
   453         29
   454          6