##TITLE=Library Entry 38725
##JCAMP-DX=Revision 4.10 
##DATA TYPE=MASS SPECTRUM
##SAMPLE DESCRIPTION=T. MOLENAAR-LANGEVELD, LAB. ORG. CHEM., UNIV. AMSTERDAM
, NETH.
##NAMES=HP
##CAS NAME=3-Methoxyhex-1-ene
##MOLFORM=C7H14O
##CAS REGISTRY NO=108811-41-2
##MP= -300
##BP= -300
##MW= 114
##$RETENTION INDEX=0
##$CONDENSED SPECTRUM=NO
##NPOINTS= 26
##XYDATA=(XY..XY) 1 
    26         10
    27         40
    28         20
    29         30
    32         10
    39         40
    40         10
    41         70
    42         20
    43         30
    45         70
    53         30
    54         20
    55         80
    56         10
    57         10
    58         10
    67         30
    71        999
    72         50
    82         50
    83         20
    85         40
    86         30
    87         10
   114         10