##TITLE=Library Entry 59236
##JCAMP-DX=Revision 4.10 
##DATA TYPE=MASS SPECTRUM
##SAMPLE DESCRIPTION=Dennis Rohrbaugh, CBDCOM/ERDEC, Edgewood, MD
##NAMES=HP
##CAS NAME=Ethane, 1-(benzylthio)-2-(2-chloroethylthio)-
##MOLFORM=C11H15ClS2
##CAS REGISTRY NO=108862-10-8
##MP= -300
##BP= -300
##MW= 246
##$RETENTION INDEX=0
##$CONDENSED SPECTRUM=NO
##NPOINTS= 40
##XYDATA=(XY..XY) 1 
    39        108
    45        245
    46         36
    47         42
    50         26
    51         68
    59         87
    60         72
    61         93
    63        152
    64         52
    65        241
    73         27
    77         62
    78         21
    79         16
    89         35
    91        999
    92         94
    93         11
    99         12
   105         27
   106         13
   109         31
   111         10
   119        101
   121         42
   122        153
   123        139
   125         28
   127         36
   137         21
   150         12
   151         17
   155         63
   157         24
   184          9
   246         16
   247          3
   248          7