##TITLE=Library Entry 89137
##JCAMP-DX=Revision 4.10 
##DATA TYPE=MASS SPECTRUM
##SAMPLE DESCRIPTION=A.A.Kutin, Moscow, Russia
##NAMES=HP
##CAS NAME=Benzo[d]1,3-dioxolane-5-carboxylic acid, 6-(2-thenoylamino)-, met
hyl ester
##MOLFORM=C14H11NO5S
##CAS REGISTRY NO=108848-05-1
##MP= -300
##BP= -300
##MW= 305
##$RETENTION INDEX=0
##$CONDENSED SPECTRUM=NO
##NPOINTS= 131
##XYDATA=(XY..XY) 1 
    33         36
    34          1
    36          0
    39         82
    40         16
    42          3
    44          7
    45          4
    49          0
    50          6
    51         10
    52         13
    53         12
    54          2
    55          1
    56          2
    57          3
    58          4
    59          4
    60          0
    61          0
    62          1
    63          1
    64          2
    65          3
    66          1
    67          1
    68          3
    69          2
    70          1
    71          0
    72          0
    73          0
    74          0
    76          6
    77          7
    78         10
    79          5
    80          4
    81          2
    83         44
    84          3
    85          3
    86          0
    88          0
    89          0
    90          1
    91          5
    92          1
    93          1
    94          0
    96          0
   102          0
   104          4
   105          3
   106          5
   111        999
   113         39
   115          0
   116          0
   117          0
   119          5
   120          2
   121          1
   122          0
   131          1
   132          2
   133          2
   134          8
   135          5
   136          5
   137          1
   138          0
   144          0
   145          5
   147          3
   148          0
   149          0
   158          0
   159          1
   160          2
   161          1
   163         13
   164         19
   167          0
   172          0
   173          0
   174          0
   175          0
   176          0
   187          1
   188          2
   190         16
   191          0
   192          1
   193          0
   194          3
   195          2
   196          4
   199          0
   202          0
   204          0
   206          0
   215          0
   216          0
   217          2
   218          0
   221          0
   228          1
   229          4
   230          0
   231          0
   243          0
   244          3
   245         10
   246         14
   247          1
   248          0
   271          1
   273         30
   274          7
   275          2
   276          0
   297          0
   299          0
   301          4
   303          6
   305        315
   306         40
   307         17
   308          1