##TITLE=Library Entry 60796
##JCAMP-DX=Revision 4.10 
##DATA TYPE=MASS SPECTRUM
##SAMPLE DESCRIPTION=Japan AIST/NIMC Database- Spectrum MS-IW-2919
##NAMES=HP
##CAS NAME=(+-)-Ethyl 4-methyl-5-phenylvalerate
##MOLFORM=C14H20O2
##CAS REGISTRY NO=108965-11-3
##MP= -300
##BP= -300
##MW= 220
##$RETENTION INDEX=0
##$CONDENSED SPECTRUM=NO
##NPOINTS= 124
##XYDATA=(XY..XY) 1 
    15          2
    26          3
    27         39
    28         12
    29        111
    30          3
    31          4
    38          2
    39         52
    40          6
    41         88
    42         13
    43         70
    44          3
    45         28
    46          1
    50          8
    51         35
    52          9
    53         13
    54          4
    55        247
    56         37
    57         23
    58          4
    59        105
    60         49
    61         53
    62          5
    63         22
    64          9
    65        126
    66          8
    67          7
    68          4
    69         16
    70         52
    71         15
    72          1
    73         73
    74         22
    75          9
    76          5
    77         44
    78         27
    79         19
    80          1
    81          2
    82          6
    83        299
    84         17
    85          5
    86          1
    87         41
    88        326
    89         45
    90         15
    91        999
    92        241
    93         17
    95          2
    96          2
    97          3
    99          2
   100          2
   101        729
   102         53
   103         26
   104         63
   105         78
   106          8
   107          6
   113          4
   114          1
   115         44
   116         17
   117        109
   118         83
   119         34
   120          7
   121          2
   126          1
   127          5
   128         15
   129        317
   130         34
   131        134
   132        144
   133        111
   134         10
   135          2
   138          1
   139          1
   140          1
   141          5
   142          6
   143         20
   144          4
   145         23
   146         58
   147         15
   148          2
   149          2
   155          2
   156         40
   157         81
   158          9
   159         12
   160         24
   161         10
   162          1
   163          1
   164          1
   173          7
   174        674
   175        275
   176         31
   177          3
   178          1
   191          1
   192          1
   205          1
   220         57
   221          9