##TITLE=Library Entry 35992
##JCAMP-DX=Revision 4.10 
##DATA TYPE=MASS SPECTRUM
##SAMPLE DESCRIPTION=NIST Mass Spectrometry Data Center
##NAMES=HP
##CAS NAME=Neocurdione
##MOLFORM=C15H24O2
##CAS REGISTRY NO=108944-67-8
##MP= -300
##BP= -300
##MW= 236
##$RETENTION INDEX=1762
##$CONDENSED SPECTRUM=NO
##NPOINTS= 159
##XYDATA=(XY..XY) 1 
    26          6
    27         97
    28         15
    29         63
    30          2
    32         15
    38          5
    39        219
    40         50
    41        490
    42         97
    43        234
    44         14
    45          6
    46          1
    47          1
    48          1
    49          3
    50         10
    51         44
    52         36
    53        254
    54         47
    55        576
    56         83
    57         43
    58          5
    59          7
    60          2
    62          5
    63         30
    64         14
    65         97
    66         94
    67        503
    68        573
    69        999
    70        147
    71         45
    72          9
    73          7
    76          5
    77        131
    78         30
    79        162
    80         42
    81        220
    82        347
    83        123
    84         55
    85          6
    86          6
    87         10
    89          5
    91         79
    92         14
    93        137
    94        111
    95        294
    96        131
    97        190
    98         26
    99          3
   100          3
   102         32
   103         28
   104         15
   105         73
   106         16
   107        200
   108         90
   109        815
   110        170
   111        156
   112         66
   113         11
   115         48
   116         27
   117         39
   118         20
   119        126
   120          8
   121        167
   122        170
   123        151
   124         53
   125         66
   126         44
   127         26
   128         19
   129         24
   130          5
   131         53
   133         38
   134         24
   135         83
   136         32
   137        104
   138        113
   139        153
   140         16
   141          9
   142          7
   143         17
   145         21
   146         10
   147         10
   149         29
   150         26
   151         31
   152         42
   153         35
   154         50
   155         25
   157          6
   158          9
   159         26
   160         17
   161         53
   162         52
   163         42
   164         11
   165        185
   166         30
   167        552
   168         50
   169         18
   171          2
   172         15
   173         55
   174         42
   175         39
   176         19
   177         10
   178          5
   179         14
   180        764
   181         83
   182         13
   183         12
   184          3
   185          6
   186          3
   187         13
   188         11
   191          7
   192          6
   193         34
   194         12
   195          4
   204          1
   205         22
   208         39
   209         10
   210          3
   221          5
   236         46
   237          9
   238          2