##TITLE=Library Entry 79594
##JCAMP-DX=Revision 4.10 
##DATA TYPE=MASS SPECTRUM
##SAMPLE DESCRIPTION=A.A.Kutin, Moscow, Russia
##NAMES=HP
##CAS NAME=Pentanoic acid, 5-(3-benzoylaminothien-2-yl)-3-methyl-
##MOLFORM=C17H19NO3S
##CAS REGISTRY NO=108976-27-8
##MP= -300
##BP= -300
##MW= 317
##$RETENTION INDEX=0
##$CONDENSED SPECTRUM=NO
##NPOINTS= 197
##XYDATA=(XY..XY) 1 
    33          1
    34          0
    35          0
    36          1
    37          1
    39         28
    40         12
    41         27
    42          9
    43          9
    44         15
    45         30
    47          2
    50         21
    51         64
    52         13
    53         13
    54          6
    55         12
    56          1
    57          3
    58         10
    59         10
    60          6
    61          1
    62          1
    63          3
    65          9
    66          3
    67         10
    69         11
    70          4
    71          8
    72          2
    73          3
    74          4
    77        430
    78         25
    80         14
    81          3
    82          2
    83          3
    84          7
    85          8
    86          2
    87          1
    88          0
    89          1
    90          1
    91          8
    93          8
    94          2
    95          4
    96          5
    97         11
    98          3
    99          9
   100          2
   101          1
   105        999
   106         59
   107          5
   108          3
   110         19
   111         11
   112         51
   113          7
   114          3
   115          2
   116          0
   117          1
   118          2
   119          3
   120          2
   121          3
   122          5
   123          4
   124         10
   125         30
   126          6
   127          5
   128          1
   129          0
   130          0
   131          0
   132          0
   134          3
   135          3
   136          7
   137         10
   138         31
   139          3
   140          1
   141          0
   142          0
   143          0
   144          0
   145          0
   147          0
   148          0
   149          2
   150          5
   152         38
   153          4
   154          2
   155          0
   156          0
   158          0
   159          0
   160          0
   161          0
   162          1
   163          0
   164          0
   165          1
   166          2
   167          1
   168          1
   169          0
   170          0
   171          0
   172          0
   173          0
   174          0
   175          0
   176          1
   177          2
   178          1
   179          0
   180          0
   181          1
   182          0
   183          0
   184          0
   185          0
   186          1
   187          0
   188          0
   189          0
   190          0
   194        348
   195         38
   196         18
   197          2
   198          0
   199          0
   200          1
   201          2
   202          1
   203          2
   204          4
   205          0
   208          0
   209          0
   210          0
   212         41
   213          5
   214          3
   216         33
   217         17
   218          3
   219          1
   223          0
   224          0
   226          0
   229          9
   230         43
   231          6
   232          2
   233          0
   238          0
   239          0
   240          1
   241          0
   243          0
   256          0
   257          0
   258          2
   259          0
   264          0
   265          0
   266          0
   271          0
   272          0
   273          0
   281          0
   284          0
   286          0
   298          0
   299         12
   300          2
   301          0
   314          0
   317         64
   318         12
   319          3
   320          0