##TITLE=Library Entry 17287
##JCAMP-DX=Revision 4.10 
##DATA TYPE=MASS SPECTRUM
##SAMPLE DESCRIPTION=NIST Mass Spectrometry Data Center
##NAMES=HP
##CAS NAME=2-Hydrazinoethanol
##MOLFORM=C2H8N2O
##CAS REGISTRY NO=109-84-2
##MP= -300
##BP= -300
##MW= 76
##$RETENTION INDEX=0
##$CONDENSED SPECTRUM=NO
##NPOINTS= 26
##XYDATA=(XY..XY) 1 
    15          2
    17          4
    18         34
    19          2
    26          4
    27         22
    28         59
    29         53
    30         37
    31         79
    32         19
    39          1
    40          3
    41         10
    42         27
    43         58
    44         17
    45        999
    46         19
    55          1
    56          1
    57         14
    58          5
    59          6
    76         81
    77          3