##TITLE=Library Entry 3996
##JCAMP-DX=Revision 4.10 
##DATA TYPE=MASS SPECTRUM
##SAMPLE DESCRIPTION=Japan AIST/NIMC Database- Spectrum MS-NW- 842
##NAMES=HP
##CAS NAME=Propane, 1,3-dibromo-
##MOLFORM=C3H6Br2
##CAS REGISTRY NO=109-64-8
##MP= -300
##BP= -300
##MW= 200
##$RETENTION INDEX=959
##$CONDENSED SPECTRUM=NO
##NPOINTS= 49
##XYDATA=(XY..XY) 1 
    13          1
    14          6
    15         21
    25          5
    26         36
    27        208
    28         31
    29          1
    32          8
    36          6
    37         25
    38         49
    39        292
    40         29
    41        999
    42         42
    79         23
    80         16
    81         23
    82         15
    91          1
    92          5
    93         81
    94          8
    95         78
    96          2
   100          1
   104          1
   105          7
   106          5
   107         54
   108          4
   109         47
   117          2
   119          9
   120         19
   121        518
   122         36
   123        495
   124         15
   172          2
   174          4
   176          1
   200        182
   201          6
   202        353
   203         10
   204        164
   205          5