##TITLE=Library Entry 52586
##JCAMP-DX=Revision 4.10 
##DATA TYPE=MASS SPECTRUM
##SAMPLE DESCRIPTION=Chemical Concepts
##NAMES=HP
##CAS NAME=Phosphorous acid, dibutyl ester
##MOLFORM=C8H19O3P
##CAS REGISTRY NO=109-47-7
##MP= -300
##BP= -300
##MW= 194
##$RETENTION INDEX=0
##$CONDENSED SPECTRUM=NO
##NPOINTS= 89
##XYDATA=(XY..XY) 1 
    24          0
    26          3
    27         48
    28         19
    29        115
    30          2
    31         20
    33          0
    37          0
    38          1
    39         30
    40          5
    41        118
    42         11
    43         17
    44          2
    45         12
    46          0
    47         11
    48          1
    49          1
    50          0
    51          1
    52          0
    53          4
    54          4
    55         45
    56         67
    57        157
    58          7
    59          1
    62          0
    63          0
    64          0
    65         31
    66         13
    67          4
    68          0
    69          2
    70          0
    71          1
    72          1
    73         12
    74          0
    77          3
    78          2
    79          1
    80          0
    81          1
    82          7
    83        999
    84          1
    85          4
    87          0
    91          0
    92          0
    93          0
    94          0
    95         14
    96         20
    97         30
    98          0
    99          0
   103          0
   105          0
   107          0
   108          0
   109         45
   110          4
   111          2
   119          0
   120          1
   121          1
   122          0
   123         17
   124          0
   125          0
   129          0
   137          4
   138          9
   139         45
   140          2
   141          0
   151          0
   165          0
   179          0
   193          0
   195          2
   196          0