##TITLE=Library Entry 4480
##JCAMP-DX=Revision 4.10 
##DATA TYPE=MASS SPECTRUM
##SAMPLE DESCRIPTION=Japan AIST/NIMC Database- Spectrum MS-NW- 76
##NAMES=HP
##CAS NAME=Tetrahydrofuran
##MOLFORM=C4H8O
##CAS REGISTRY NO=109-99-9
##MP= -300
##BP= -300
##MW= 72
##$RETENTION INDEX=623
##$CONDENSED SPECTRUM=NO
##NPOINTS= 31
##XYDATA=(XY..XY) 1 
    14          6
    15         17
    16          1
    18          1
    25          1
    26         18
    27        148
    28         26
    29         75
    30          4
    31         31
    32          6
    34          1
    37          9
    38         17
    39        129
    40         82
    41        437
    42        999
    43        155
    44         35
    45          9
    50          2
    51          1
    53          1
    57          1
    69          2
    70          1
    71        338
    72        382
    73         17