##TITLE=Library Entry 31974
##JCAMP-DX=Revision 4.10 
##DATA TYPE=MASS SPECTRUM
##SAMPLE DESCRIPTION=Japan AIST/NIMC Database- Spectrum MS-NW- 597
##NAMES=HP
##CAS NAME=Propanedinitrile
##MOLFORM=C3H2N2
##CAS REGISTRY NO=109-77-3
##MP= -300
##BP= -300
##MW= 66
##$RETENTION INDEX=788
##$CONDENSED SPECTRUM=NO
##NPOINTS= 22
##XYDATA=(XY..XY) 1 
    12         20
    13          8
    14          7
    24          7
    25          9
    26         23
    27         13
    28        109
    29          1
    36          4
    37          2
    38        223
    39        253
    40         55
    41          3
    50         10
    51         11
    52          2
    64         52
    65         81
    66        999
    67         39