##TITLE=Library Entry 67598
##JCAMP-DX=Revision 4.10 
##DATA TYPE=MASS SPECTRUM
##SAMPLE DESCRIPTION=W. KELLY UNILEVER RESEARCH COLWORTH/WELWYN, BEDFORD U.K
.
##NAMES=HP
##CAS NAME=3-Pyridinol
##MOLFORM=C5H5NO
##CAS REGISTRY NO=109-00-2
##MP= -300
##BP= -300
##MW= 95
##$RETENTION INDEX=0
##$CONDENSED SPECTRUM=NO
##NPOINTS= 36
##XYDATA=(XY..XY) 1 
    26         14
    27         25
    28         58
    29         11
    32          2
    33          5
    37         31
    38         61
    39        180
    40         96
    41         77
    42         39
    47         11
    49          8
    50         21
    51         22
    52         12
    53         11
    54          5
    55         45
    56          3
    57          2
    63          3
    64          5
    65          6
    66         43
    67         74
    68         95
    69         12
    75          4
    76          6
    77          8
    78          5
    94         35
    95        999
    96         54