##TITLE=Library Entry 6612
##JCAMP-DX=Revision 4.10 
##DATA TYPE=MASS SPECTRUM
##SAMPLE DESCRIPTION=Exported from NIST MS Search
##NAMES=HP
##CAS NAME=Morpholine, 4-methyl-
##MOLFORM=C5H11NO
##CAS REGISTRY NO=109-02-4
##MP= -300
##BP= -300
##MW= 101
##$RETENTION INDEX=787
##$CONDENSED SPECTRUM=NO
##NPOINTS= 66
##XYDATA=(XY..XY) 1 
    12          1
    13          4
    14         30
    15        192
    16          4
    17          2
    18         13
    19          1
    25          2
    26         35
    27        109
    28         46
    29         82
    30         38
    31         19
    32          6
    33          1
    37          1
    38          2
    39         11
    40         16
    41         67
    42        489
    43        999
    44         82
    45          6
    46          1
    49          1
    50          1
    51          1
    52          5
    53          1
    54         16
    55         10
    56         51
    57          8
    58         11
    59          1
    62          1
    63          1
    64          1
    65          1
    66          1
    67          1
    68          2
    69          1
    70         34
    71        164
    72         16
    73          2
    74          1
    77          1
    78          1
    79          1
    82          1
    83          1
    84          1
    85          1
    86          4
    87          1
    98          1
    99          1
   100         51
   101        253
   102         15
   103          1