##TITLE=Library Entry 3581
##JCAMP-DX=Revision 4.10 
##DATA TYPE=MASS SPECTRUM
##SAMPLE DESCRIPTION=NIST Mass Spectrometry Data Center
##NAMES=HP
##CAS NAME=1,3-Propanedithiol
##MOLFORM=C3H8S2
##CAS REGISTRY NO=109-80-8
##MP= -300
##BP= -300
##MW= 108
##$RETENTION INDEX=951
##$CONDENSED SPECTRUM=NO
##NPOINTS= 60
##XYDATA=(XY..XY) 1 
    15          4
    25          1
    26         20
    27        129
    28          1
    29          9
    32         18
    33         43
    34         26
    35         83
    36          3
    37         21
    38         37
    39        261
    40         31
    41        999
    42         47
    43          7
    44         12
    45        494
    46        343
    47        817
    48         46
    49         41
    50          1
    56          3
    57         31
    58         97
    59        180
    60         67
    61        465
    62         22
    63         21
    64          8
    65          3
    66          9
    67          1
    68          8
    69         38
    70          5
    71         45
    72          9
    73        104
    74        880
    75         56
    76         44
    77          5
    78          5
    79         17
    80         10
    81          1
   100          1
   101          1
   103          2
   106          8
   108        804
   109         39
   110         74
   111          3
   112          2