##TITLE=Library Entry 67052
##JCAMP-DX=Revision 4.10 
##DATA TYPE=MASS SPECTRUM
##SAMPLE DESCRIPTION=Japan AIST/NIMC Database- Spectrum MS-NW-1147
##NAMES=HP
##CAS NAME=Pyrazine, methyl-
##MOLFORM=C5H6N2
##CAS REGISTRY NO=109-08-0
##MP= -300
##BP= -300
##MW= 94
##$RETENTION INDEX=831
##$CONDENSED SPECTRUM=NO
##NPOINTS= 42
##XYDATA=(XY..XY) 1 
    14          2
    15         12
    17          1
    18          2
    25          4
    26        136
    27         20
    28          9
    36          3
    37         29
    38         52
    39        139
    40        146
    41         61
    42        104
    43          4
    44          2
    46          6
    47          2
    50          2
    51         23
    52         47
    53        144
    54          7
    55          1
    56          1
    58          3
    62          2
    63          6
    64         11
    65          8
    66         26
    67        468
    68         24
    77          1
    79          8
    80          1
    92          2
    93         16
    94        999
    95         59
    96          1