##TITLE=Library Entry 73956
##JCAMP-DX=Revision 4.10 
##DATA TYPE=MASS SPECTRUM
##SAMPLE DESCRIPTION=NIST Mass Spectrometry Data Center, 1998.
##NAMES=HP
##CAS NAME=Allylthiourea
##MOLFORM=C4H8N2S
##CAS REGISTRY NO=109-57-9
##MP= -300
##BP= -300
##MW= 116
##$RETENTION INDEX=0
##$CONDENSED SPECTRUM=NO
##NPOINTS= 74
##XYDATA=(XY..XY) 1 
    14          1
    15          5
    25          1
    26         21
    27         51
    28        228
    29         37
    30        148
    31          3
    32         21
    33         15
    34          7
    35          1
    36          1
    37         15
    38         35
    39        256
    40         26
    41        281
    42         55
    43        452
    44         24
    45         74
    46         16
    47         29
    48         19
    49          1
    50          1
    51         11
    52         26
    53         14
    54         82
    55         45
    56        710
    57        271
    58         27
    59         77
    60        503
    61         71
    62         26
    63          2
    64          1
    66          7
    67          6
    68          1
    69          8
    70          6
    71         20
    72         33
    73         21
    74         43
    75          9
    76          5
    77          1
    81          8
    82          8
    83         76
    84          4
    86          5
    87          1
    88          4
    89          1
    98         11
    99          5
   101        999
   102         48
   103         44
   104          1
   114          1
   115         40
   116        490
   117         31
   118         23
   119          1