##TITLE=Library Entry 1159
##JCAMP-DX=Revision 4.10 
##DATA TYPE=MASS SPECTRUM
##SAMPLE DESCRIPTION=Japan AIST/NIMC Database- Spectrum MS-NW- 938
##NAMES=HP
##CAS NAME=1-Butanamine
##MOLFORM=C4H11N
##CAS REGISTRY NO=109-73-9
##MP= -300
##BP= -300
##MW= 73
##$RETENTION INDEX=610
##$CONDENSED SPECTRUM=NO
##NPOINTS= 31
##XYDATA=(XY..XY) 1 
    15          6
    17          2
    18          5
    26          6
    27         34
    28         47
    29         20
    30        999
    31         17
    32          1
    37          2
    38          5
    39         22
    40          4
    41         30
    42         18
    43         11
    44         18
    45          4
    50          2
    51          2
    52          1
    53          2
    54          2
    55          8
    56         11
    57          4
    70          1
    72          8
    73         72
    74          4