##TITLE=Library Entry 23277
##JCAMP-DX=Revision 4.10 
##DATA TYPE=MASS SPECTRUM
##SAMPLE DESCRIPTION=CONTINENTAL OIL CO., PONCA CITY, OKLAHOMA, USA
##NAMES=HP
##CAS NAME=Butane, 1-bromo-
##MOLFORM=C4H9Br
##CAS REGISTRY NO=109-65-9
##MP= -300
##BP= -300
##MW= 136
##$RETENTION INDEX=728
##$CONDENSED SPECTRUM=NO
##NPOINTS= 58
##XYDATA=(XY..XY) 1 
    13          7
    14         20
    15         65
    16          2
    24          3
    25         10
    26        120
    27        499
    28        210
    29        557
    30         15
    36          2
    37         17
    38         34
    39        198
    40         31
    41        689
    42         36
    43         43
    44          2
    49          6
    50         20
    51         17
    52          6
    53         17
    54          8
    55         74
    56        166
    57        999
    58         43
    59          1
    71          1
    78          4
    79         38
    80         17
    81         39
    82         17
    83          2
    91          3
    92          2
    93         29
    94          3
    95         26
    96          2
   104          1
   105          3
   106          6
   107         41
   108          7
   109         36
   110          3
   119          2
   121          1
   135          1
   136         51
   137          3
   138         49
   139          2