##TITLE=Library Entry 2051
##JCAMP-DX=Revision 4.10 
##DATA TYPE=MASS SPECTRUM
##SAMPLE DESCRIPTION=Japan AIST/NIMC Database- Spectrum MS-NW- 927
##NAMES=HP
##CAS NAME=Butanenitrile
##MOLFORM=C4H7N
##CAS REGISTRY NO=109-74-0
##MP= -300
##BP= -300
##MW= 69
##$RETENTION INDEX=633
##$CONDENSED SPECTRUM=NO
##NPOINTS= 36
##XYDATA=(XY..XY) 1 
    12          2
    13          2
    14          7
    15         20
    25          5
    26         52
    27        285
    28         58
    29        662
    30         14
    32          7
    36          3
    37         27
    38         31
    39         85
    40         37
    41        999
    42         39
    43          2
    49          1
    50          3
    51         13
    52         26
    53          6
    54         11
    55          1
    57          1
    62          2
    63          5
    64         11
    65          2
    66          8
    67          3
    68          8
    69          1
    70          1