##TITLE=Library Entry 37204
##JCAMP-DX=Revision 4.10 
##DATA TYPE=MASS SPECTRUM
##SAMPLE DESCRIPTION=Chemical Concepts
##NAMES=HP
##CAS NAME=Heptanoic acid, 3-methylbutyl ester
##MOLFORM=C12H24O2
##CAS REGISTRY NO=109-25-1
##MP= -300
##BP= -300
##MW= 200
##$RETENTION INDEX=1334
##$CONDENSED SPECTRUM=NO
##NPOINTS= 83
##XYDATA=(XY..XY) 1 
    26          8
    27        177
    28         72
    29        202
    30          6
    31         10
    37          1
    38          2
    39        101
    40         20
    41        352
    42        171
    43        821
    44         32
    45         24
    46          0
    50          1
    51          1
    52          2
    53         21
    54         12
    55        355
    56         45
    57         67
    58          6
    59          6
    60         38
    61         15
    62          1
    65          2
    66          1
    67          8
    68         13
    69         61
    70        999
    71        243
    72         12
    73         30
    74          3
    75          4
    77          1
    78          0
    79          1
    81          2
    82          1
    83         18
    84         16
    85         87
    86         10
    87         35
    88          4
    89         21
    91          0
    93          1
    94          1
    95          9
    96          1
    97          3
    99          1
   100          1
   101         11
   102          1
   103          1
   104          0
   110          0
   111          5
   113        191
   114         14
   115         12
   116          0
   119          1
   124          0
   127          0
   128          0
   129          2
   130         16
   131         53
   132          4
   133          1
   143          2
   157         11
   158          1
   185          1