##TITLE=Library Entry 7560
##JCAMP-DX=Revision 4.10 
##DATA TYPE=MASS SPECTRUM
##SAMPLE DESCRIPTION=Exported from NIST MS Search
##NAMES=HP
##CAS NAME=Nonanedioic acid, dihexyl ester
##MOLFORM=C21H40O4
##CAS REGISTRY NO=109-31-9
##MP= -300
##BP= -300
##MW= 356
##$RETENTION INDEX=2416
##$CONDENSED SPECTRUM=NO
##NPOINTS= 124
##XYDATA=(XY..XY) 1 
    15          7
    17         22
    18         96
    19          5
    26          9
    27        129
    28        144
    29        189
    30          7
    31        133
    32          9
    38          7
    39         87
    40         20
    41        371
    42        302
    43        999
    44         58
    45         45
    50          6
    51         11
    53         20
    54         26
    55        454
    56        780
    57        223
    58         18
    59         20
    60         51
    61         30
    63          9
    65          5
    67         19
    68         16
    69        256
    70        143
    71        143
    72         14
    73         65
    74          8
    75          5
    76          7
    77         16
    78          5
    79          7
    81         10
    82         16
    83        123
    84        251
    85        527
    86         39
    87         31
    88          3
    89         11
    90          2
    91          7
    94          4
    95          6
    96          6
    97         22
    98         13
    99         23
   100          7
   101         23
   102          6
   103         25
   104          8
   105         21
   106          3
   107          7
   109          5
   110          5
   111         19
   112          6
   113         15
   114          7
   115         60
   116          7
   117         24
   118          4
   119         13
   120          2
   123          4
   124          5
   125         18
   126          5
   127         11
   128          5
   129         41
   130          6
   131         15
   133          4
   134          5
   135          2
   138          7
   139          9
   141         15
   142          3
   143         17
   144          7
   145         13
   152         18
   153          5
   155          4
   156          4
   157         32
   158          7
   159         22
   163          7
   170          5
   171         60
   172          7
   185          5
   199          2
   200         12
   201          3
   214         18
   215          4
   227         12
   228          5
   241         29
   242          5
   255         53
   256          9