##TITLE=Library Entry 48273
##JCAMP-DX=Revision 4.10 
##DATA TYPE=MASS SPECTRUM
##SAMPLE DESCRIPTION=NIST Mass Spectrometry Data Center, 1998.
##NAMES=HP
##CAS NAME=Pyridine, 2-chloro-
##MOLFORM=C5H4ClN
##CAS REGISTRY NO=109-09-1
##MP= -300
##BP= -300
##MW= 113
##$RETENTION INDEX=870
##$CONDENSED SPECTRUM=NO
##NPOINTS= 49
##XYDATA=(XY..XY) 1 
    12          1
    24          2
    25          7
    26         32
    27         26
    35         10
    36          8
    37         34
    38         41
    39         33
    40          4
    41          1
    43          1
    47         15
    48         12
    49         69
    50        239
    51        441
    52        128
    53          6
    56         16
    57          5
    59          1
    60         30
    61         11
    62         25
    63          8
    64          8
    71          1
    72          3
    73         14
    74         10
    75         52
    76         67
    77         16
    78        999
    79         65
    80          2
    83          1
    84         13
    85         23
    86         23
    87         12
    88          6
    89          1
   113        839
   114         56
   115        286
   116         17