##TITLE=Library Entry 19568
##JCAMP-DX=Revision 4.10 
##DATA TYPE=MASS SPECTRUM
##SAMPLE DESCRIPTION=Japan AIST/NIMC Database- Spectrum MS-NW-3265
##NAMES=HP
##CAS NAME=2-Pentene
##MOLFORM=C5H10
##CAS REGISTRY NO=109-68-2
##MP= -300
##BP= -300
##MW= 70
##$RETENTION INDEX=505
##$CONDENSED SPECTRUM=NO
##NPOINTS= 39
##XYDATA=(XY..XY) 1 
    14          1
    15         10
    25          1
    26         18
    27        136
    28         12
    29        203
    30          4
    31          9
    36          1
    37         11
    38         23
    39        222
    40         40
    41        256
    42        417
    43         22
    44          3
    45          9
    49          3
    50         16
    51         21
    52          8
    53         68
    54         26
    55        999
    56         46
    57          2
    60          1
    61          5
    62          6
    63          7
    65          6
    66          3
    67         19
    68          4
    69         28
    70        385
    71         22