##TITLE=Library Entry 22423
##JCAMP-DX=Revision 4.10 
##DATA TYPE=MASS SPECTRUM
##SAMPLE DESCRIPTION=W.Jennings, T.Shibamoto
##NAMES=HP
##CAS NAME=10-Undecenoic acid, butyl ester
##MOLFORM=C15H28O2
##CAS REGISTRY NO=109-42-2
##MP= -300
##BP= -300
##MW= 240
##$RETENTION INDEX=1660
##$CONDENSED SPECTRUM=NO
##NPOINTS= 88
##XYDATA=(XY..XY) 1 
    27          7
    28         48
    29        131
    41        291
    42         39
    43        199
    54         61
    55        507
    56        999
    57        609
    58         39
    59         19
    60        299
    61        139
    67        159
    68        159
    69        375
    70        109
    71         92
    73        209
    74         39
    79         19
    80         19
    81        177
    82        257
    83        409
    84        309
    85         91
    86          7
    87         91
    88          7
    91          7
    93         26
    94         39
    95         91
    96        367
    97        269
    98        209
    99         59
   100         71
   101        139
   102         19
   104          7
   105          7
   107         39
   108         19
   109         49
   110        111
   111         69
   112         26
   113         26
   114         79
   115         39
   116         49
   117         19
   119         19
   120          7
   121         47
   122         82
   123        149
   124        292
   125        111
   126          7
   127         39
   128          7
   129         72
   131          7
   133         59
   135          7
   137         59
   138         39
   139          7
   141         19
   142          7
   143         19
   147         39
   148         59
   149        189
   150         19
   151          7
   155          7
   165         39
   166        153
   167        131
   168          7
   183          7
   184          7
   185          7