##TITLE=Library Entry 19328
##JCAMP-DX=Revision 4.10 
##DATA TYPE=MASS SPECTRUM
##SAMPLE DESCRIPTION=Exported from NIST MS Search
##NAMES=HP
##CAS NAME=Oxacycloheptadecan-2-one
##MOLFORM=C16H30O2
##CAS REGISTRY NO=109-29-5
##MP= -300
##BP= -300
##MW= 254
##$RETENTION INDEX=1932
##$CONDENSED SPECTRUM=NO
##NPOINTS= 152
##XYDATA=(XY..XY) 1 
    15          2
    16          2
    18          2
    26         10
    27         24
    28         40
    29        340
    30          4
    31         20
    39        140
    40         30
    41        914
    42        260
    43        484
    44         10
    45         24
    51          2
    52          2
    53         70
    54        140
    55        999
    56        300
    57        270
    58         60
    59         40
    60         84
    61         40
    63          2
    65         10
    66         20
    67        220
    68        230
    69        580
    70        220
    71        180
    72         10
    73        150
    74         14
    77         10
    78          2
    79         34
    80         40
    81        220
    82        340
    83        460
    84        270
    85         74
    86         14
    87         54
    88          4
    91         14
    92          2
    93         20
    94         40
    95        164
    96        290
    97        344
    98        260
    99         40
   100         40
   101         60
   102         14
   105          2
   107         20
   108         24
   109        100
   110        160
   111        158
   112         80
   113         40
   114         74
   115         50
   116         54
   117          4
   118          2
   119         14
   120          4
   121         20
   122         24
   123         84
   124        110
   125         84
   126         40
   127         50
   128         10
   129         64
   130         10
   131          2
   133         14
   134         14
   135         24
   136         20
   137         60
   138         80
   139         54
   140         20
   141         20
   142         10
   143         20
   144          4
   147         14
   148         14
   149         16
   150         10
   151         44
   152         70
   153         34
   154         14
   155         20
   156          4
   157         10
   158         10
   161         10
   162          2
   163          4
   164         10
   165         34
   166         40
   167         20
   168          2
   169         10
   171         14
   172         20
   173          4
   175          4
   176          2
   177          2
   179         20
   180         14
   181         10
   182         10
   183          4
   185         20
   186         10
   187          4
   189          2
   192         40
   193         20
   194         80
   195         20
   197          2
   207         14
   208         24
   209          2
   211         20
   218         14
   224          2
   225          2
   236        140
   237         20
   254        100
   255         14