##TITLE=Library Entry 27677
##JCAMP-DX=Revision 4.10 
##DATA TYPE=MASS SPECTRUM
##SAMPLE DESCRIPTION=Japan AIST/NIMC Database- Spectrum MS-NW-8271
##NAMES=HP
##CAS NAME=Ethanamine, N-ethyl-
##MOLFORM=C4H11N
##CAS REGISTRY NO=109-89-7
##MP= -300
##BP= -300
##MW= 73
##$RETENTION INDEX=551
##$CONDENSED SPECTRUM=NO
##NPOINTS= 34
##XYDATA=(XY..XY) 1 
    14          3
    15         35
    16          1
    26         13
    27         98
    28        137
    29        150
    30        858
    31         13
    32          1
    33          1
    34          1
    38          1
    39          4
    40          9
    41         23
    42         82
    43         20
    44        271
    45          7
    51          1
    52          1
    54          3
    55          1
    56         33
    57         12
    58        999
    59         36
    68          1
    70          4
    71          2
    72        127
    73        219
    74         16