##TITLE=Library Entry 28659
##JCAMP-DX=Revision 4.10 
##DATA TYPE=MASS SPECTRUM
##SAMPLE DESCRIPTION=Japan AIST/NIMC Database- Spectrum MS-NW- 595
##NAMES=HP
##CAS NAME=1,3-Propanediamine, N,N-dimethyl-
##MOLFORM=C5H14N2
##CAS REGISTRY NO=109-55-7
##MP= -300
##BP= -300
##MW= 102
##$RETENTION INDEX=0
##$CONDENSED SPECTRUM=NO
##NPOINTS= 49
##XYDATA=(XY..XY) 1 
    14          2
    15         32
    16          1
    17          5
    18         23
    26          5
    27         15
    28         51
    29         19
    30        156
    31          6
    32          2
    38          1
    39          8
    40          5
    41         23
    42        114
    43         46
    44        113
    45         24
    46         47
    47          1
    51          1
    52          3
    53          2
    54          7
    55          7
    56         58
    57         61
    58        999
    59         48
    60          1
    68          9
    69          6
    70         38
    71         14
    72         61
    73          4
    82          1
    83          2
    84         24
    85        203
    86         11
    87          1
    98          2
    99          5
   100          1
   102         28
   103          1