##TITLE=Library Entry 4557
##JCAMP-DX=Revision 4.10 
##DATA TYPE=MASS SPECTRUM
##SAMPLE DESCRIPTION=Japan AIST/NIMC Database- Spectrum MS-NW- 979
##NAMES=HP
##CAS NAME=n-Propyl chloroformate
##MOLFORM=C4H7ClO2
##CAS REGISTRY NO=109-61-5
##MP= -300
##BP= -300
##MW= 122
##$RETENTION INDEX=724
##$CONDENSED SPECTRUM=NO
##NPOINTS= 41
##XYDATA=(XY..XY) 1 
    14          5
    15         20
    16          2
    18          2
    25          3
    26         35
    27        267
    28         60
    29        116
    30         21
    31         64
    32          2
    35         14
    36         24
    37          9
    38         16
    39         89
    40         35
    41        320
    42        999
    43        717
    44         71
    45          5
    49          2
    56          1
    57         27
    58          4
    59         55
    60          2
    63        485
    64          7
    65        156
    66          2
    78          1
    81          9
    83          3
    93        152
    94          8
    95         50
    96          2
   121          1