##TITLE=Library Entry 5668
##JCAMP-DX=Revision 4.10 
##DATA TYPE=MASS SPECTRUM
##SAMPLE DESCRIPTION=FOOD RESEARCH REPORT 119, K.E. MURRAY & COLLEAGUES, DIV
. OF FOOD RESEARCH, CSIRO, AUSTRALIA
##NAMES=HP
##CAS NAME=3-Hexyn-2-ol
##MOLFORM=C6H10O
##CAS REGISTRY NO=109-50-2
##MP= -300
##BP= -300
##MW= 98
##$RETENTION INDEX=797
##$CONDENSED SPECTRUM=NO
##NPOINTS= 52
##XYDATA=(XY..XY) 1 
    25         40
    26        150
    27        450
    29        680
    30         20
    31         30
    36         10
    37         80
    38        140
    39        740
    40         60
    41        200
    42         90
    43        999
    44        470
    45        100
    48         10
    49         70
    50        240
    51        240
    52        120
    53        480
    54        680
    55        430
    56         30
    57         20
    58         10
    61         10
    62         20
    63         40
    64         10
    65         70
    66         20
    67         20
    68         20
    69        110
    70         20
    71         10
    74         10
    75         10
    77         90
    78         20
    79        150
    80         80
    81        120
    82         20
    83        740
    84         40
    95         10
    96         10
    97         40
    98         10