##TITLE=Library Entry 25898
##JCAMP-DX=Revision 4.10 
##DATA TYPE=MASS SPECTRUM
##SAMPLE DESCRIPTION=Exported from NIST MS Search
##NAMES=HP
##CAS NAME=Butanoic acid, 3-methyl-, butyl ester
##MOLFORM=C9H18O2
##CAS REGISTRY NO=109-19-3
##MP= -300
##BP= -300
##MW= 158
##$RETENTION INDEX=1047
##$CONDENSED SPECTRUM=NO
##NPOINTS= 74
##XYDATA=(XY..XY) 1 
    13          4
    14         16
    15        104
    25          3
    26         25
    27        228
    28        110
    29        550
    30         19
    31         83
    37          4
    38         10
    39        133
    40         27
    41        552
    42        121
    43        619
    44         32
    45         65
    46          3
    47          2
    50          3
    51          7
    52          2
    53         14
    54          7
    55        119
    56        757
    57        999
    58         57
    59         46
    60        223
    61         96
    62          3
    63          3
    65          3
    68          1
    69         20
    70          7
    71         36
    72         10
    73         20
    74         66
    75          5
    77          3
    78          3
    79          2
    82          1
    83          5
    84          3
    85        769
    86         46
    87        124
    88          7
    89         16
    90          3
    91         16
    92          4
   100          8
   101         31
   102         33
   103        430
   104         33
   105          4
   107          2
   115         14
   116         24
   117          1
   119          1
   120          3
   121          2
   128          1
   129          2
   130          8