##TITLE=Library Entry 22541
##JCAMP-DX=Revision 4.10 
##DATA TYPE=MASS SPECTRUM
##SAMPLE DESCRIPTION=Japan AIST/NIMC Database- Spectrum MS-NW-2722
##NAMES=HP
##CAS NAME=Ethane, isocyanato-
##MOLFORM=C3H5NO
##CAS REGISTRY NO=109-90-0
##MP= -300
##BP= -300
##MW= 71
##$RETENTION INDEX=0
##$CONDENSED SPECTRUM=NO
##NPOINTS= 34
##XYDATA=(XY..XY) 1 
    12          4
    13          5
    14         16
    15         86
    16          2
    18          3
    24          1
    25          5
    26         42
    27        112
    28        187
    29         34
    30          1
    36          1
    38         16
    39         21
    40         54
    41         41
    42         87
    43        106
    44          9
    51          2
    52          2
    54          6
    55         34
    56        999
    57         26
    58          2
    68          1
    69          1
    70         61
    71        605
    72         23
    73          1