##TITLE=Library Entry 16708
##JCAMP-DX=Revision 4.10 
##DATA TYPE=MASS SPECTRUM
##SAMPLE DESCRIPTION=Exported from NIST MS Search
##NAMES=HP
##CAS NAME=Methylal
##MOLFORM=C3H8O2
##CAS REGISTRY NO=109-87-5
##MP= -300
##BP= -300
##MW= 76
##$RETENTION INDEX=500
##$CONDENSED SPECTRUM=NO
##NPOINTS= 28
##XYDATA=(XY..XY) 1 
    12          9
    13         20
    14         65
    15        411
    16         13
    17          9
    18          1
    26          1
    27          2
    28         23
    29        438
    30         31
    31        117
    32          6
    33          2
    37          1
    40          1
    41          1
    42          3
    43          8
    44         22
    45        999
    46         22
    47         32
    59          1
    75        437
    76         14
    77          2