##TITLE=Library Entry 4691
##JCAMP-DX=Revision 4.10 
##DATA TYPE=MASS SPECTRUM
##SAMPLE DESCRIPTION=Japan AIST/NIMC Database- Spectrum MS-NW-2716
##NAMES=HP
##CAS NAME=1-Pentene
##MOLFORM=C5H10
##CAS REGISTRY NO=109-67-1
##MP= -300
##BP= -300
##MW= 70
##$RETENTION INDEX=482
##$CONDENSED SPECTRUM=NO
##NPOINTS= 36
##XYDATA=(XY..XY) 1 
    14          2
    15         12
    25          1
    26         24
    27        182
    28         23
    29        209
    30          4
    31          5
    37         10
    38         27
    39        271
    40         67
    41        438
    42        999
    43         40
    44          1
    49          3
    50         12
    51         17
    52          6
    53         53
    54         15
    55        652
    56         28
    60          1
    61          4
    62          5
    63          4
    65          6
    66          2
    67         13
    68          3
    69         18
    70        394
    71         21