##TITLE=Library Entry 10171
##JCAMP-DX=Revision 4.10 
##DATA TYPE=MASS SPECTRUM
##SAMPLE DESCRIPTION=V.G.Zaikin, Petrochem. Synth. Inst., Moscow
##NAMES=HP
##CAS NAME=Propanoic acid, 2-methyl-, octyl ester
##MOLFORM=C12H24O2
##CAS REGISTRY NO=109-15-9
##MP= -300
##BP= -300
##MW= 200
##$RETENTION INDEX=1346
##$CONDENSED SPECTRUM=NO
##NPOINTS= 51
##XYDATA=(XY..XY) 1 
    26          9
    27         97
    28         12
    29         99
    31          8
    36          6
    38          6
    39         97
    40         28
    41        388
    42        187
    43        999
    44         36
    45         15
    51          9
    53         17
    54         28
    55        251
    56        319
    57        389
    58         18
    63          3
    67         21
    68         61
    69        209
    70        438
    71        815
    72         39
    73         26
    81          9
    82         59
    83        239
    84        244
    85         19
    86          5
    88         29
    89        828
    90         42
    91          5
    95          5
    97         31
    98          5
   101         16
   102          1
   110          4
   111          9
   112        252
   113         28
   129          8
   157         18
   158          2