##TITLE=Library Entry 15305
##JCAMP-DX=Revision 4.10 
##DATA TYPE=MASS SPECTRUM
##SAMPLE DESCRIPTION=Exported from NIST MS Search
##NAMES=HP
##CAS NAME=Ethene, ethoxy-
##MOLFORM=C4H8O
##CAS REGISTRY NO=109-92-2
##MP= -300
##BP= -300
##MW= 72
##$RETENTION INDEX=476
##$CONDENSED SPECTRUM=NO
##NPOINTS= 46
##XYDATA=(XY..XY) 1 
    12         20
    13         51
    14        144
    15        316
    16         15
    17          2
    18          3
    19         12
    24          5
    25         28
    26        190
    27        682
    28         96
    29        764
    30         26
    31        101
    32          2
    33          1
    36          1
    37          3
    38          4
    39         14
    40          4
    41         33
    42        122
    43        879
    44        999
    45        119
    46          4
    47          1
    50          1
    51          1
    52          1
    53          1
    54          1
    55          2
    56          1
    57         15
    58          1
    59          1
    69          1
    70          1
    71          4
    72        426
    73         19
    74          1