##TITLE=Library Entry 1511
##JCAMP-DX=Revision 4.10 
##DATA TYPE=MASS SPECTRUM
##SAMPLE DESCRIPTION=Japan AIST/NIMC Database- Spectrum MS-NW-2816
##NAMES=HP
##CAS NAME=Boron trifluoride etherate
##MOLFORM=C4H10BF3O
##CAS REGISTRY NO=109-63-7
##MP= -300
##BP= -300
##MW= 142
##$RETENTION INDEX=0
##$CONDENSED SPECTRUM=NO
##NPOINTS= 61
##XYDATA=(XY..XY) 1 
    11          2
    13          2
    14         10
    15         43
    16          2
    17          1
    18          9
    19         15
    20          3
    24          1
    25          3
    26         36
    27        206
    28         62
    29        448
    30         14
    31        999
    32         15
    33          2
    39          3
    40          1
    41         40
    42         12
    43         79
    44         19
    45        397
    46         11
    47         29
    48         76
    49        302
    55          2
    56          1
    57          9
    58          4
    59        584
    60         20
    61          3
    65          3
    66         14
    67          4
    68         14
    69          1
    70          1
    71          5
    72          1
    73         38
    74        337
    75         15
    76          1
    77          2
    78          5
    79         20
    80          3
    81          5
    85          4
    93          2
    95          1
    97          1
   123          2
   126          2
   127          9