##TITLE=Library Entry 16689
##JCAMP-DX=Revision 4.10 
##DATA TYPE=MASS SPECTRUM
##SAMPLE DESCRIPTION=NIST Mass Spectrometry Data Center, 1998.
##NAMES=HP
##CAS NAME=Ethanol, 2-methoxy-
##MOLFORM=C3H8O2
##CAS REGISTRY NO=109-86-4
##MP= -300
##BP= -300
##MW= 76
##$RETENTION INDEX=624
##$CONDENSED SPECTRUM=NO
##NPOINTS= 33
##XYDATA=(XY..XY) 1 
    13          1
    14          5
    15         40
    16          1
    17          2
    19          6
    25          1
    26         11
    27         40
    28         11
    29        197
    30         17
    31        160
    32          4
    33          7
    37          1
    41          4
    42         26
    43        108
    44         23
    45        999
    46         51
    47        115
    48          3
    56          1
    57          2
    58         62
    59          5
    60          2
    61          1
    75          2
    76         75
    77          3