##TITLE=Library Entry 6507
##JCAMP-DX=Revision 4.10 
##DATA TYPE=MASS SPECTRUM
##SAMPLE DESCRIPTION=NIST Mass Spectrometry Data Center, 1998.
##NAMES=HP
##CAS NAME=Pentane
##MOLFORM=C5H12
##CAS REGISTRY NO=109-66-0
##MP= -300
##BP= -300
##MW= 72
##$RETENTION INDEX=500
##$CONDENSED SPECTRUM=NO
##NPOINTS= 36
##XYDATA=(XY..XY) 1 
    14          1
    15          9
    25          1
    26         21
    27        189
    28         28
    29        136
    30          3
    37          8
    38         21
    39        193
    40         32
    41        575
    42        611
    43        999
    44         38
    49          2
    50         13
    51         16
    52          5
    53         21
    54          6
    55         54
    56         41
    57        199
    58          9
    61          2
    62          3
    63          3
    65          2
    67          1
    69          1
    70          1
    71          8
    72        129
    73          7