##TITLE=Library Entry 26425
##JCAMP-DX=Revision 4.10 
##DATA TYPE=MASS SPECTRUM
##SAMPLE DESCRIPTION=R.T.HOLMAN,UNIVERSITY OF MINNESOTA
##NAMES=HP
##CAS NAME=Octadecanoic acid, octyl ester
##MOLFORM=C26H52O2
##CAS REGISTRY NO=109-36-4
##MP= -300
##BP= -300
##MW= 396
##$RETENTION INDEX=0
##$CONDENSED SPECTRUM=NO
##NPOINTS= 265
##XYDATA=(XY..XY) 1 
    26          6
    27         55
    28         73
    29        206
    30          7
    31          5
    32         14
    33          2
    36          3
    37          2
    38          2
    39         34
    40         11
    41        433
    42        166
    43        966
    44         37
    45         15
    50          2
    51          3
    52          2
    53         18
    54         48
    55        519
    56        339
    57        999
    58         56
    59         17
    60        186
    61        526
    62         16
    63          7
    65          4
    66          5
    67         70
    68        120
    69        420
    70        400
    71        646
    72         39
    73        306
    74         30
    75          6
    77          4
    78          3
    79         13
    80          8
    81         62
    82        173
    83        466
    84        433
    85        193
    86         14
    87         66
    88          9
    89          7
    90          2
    91          4
    92          2
    93         11
    94          6
    95         55
    96         30
    97        186
    98        106
    99         45
   100         10
   101         45
   102         15
   103          9
   104          2
   105          2
   107         10
   108          6
   109         30
   110         25
   111         86
   112        986
   113        149
   114         13
   115         58
   116         44
   117          8
   119          3
   120          2
   121         15
   122          4
   123         19
   124         10
   125         41
   126         12
   127         19
   128          5
   129        156
   130         18
   131          4
   132          2
   133          3
   134          2
   135         14
   136          4
   137          9
   138          7
   139         26
   140          8
   141         12
   142          4
   143         28
   144          8
   145          4
   146          2
   147          2
   148          2
   149         11
   150          3
   151          5
   152          5
   153         17
   154          6
   155          8
   156          2
   157         66
   158         12
   159          4
   161          2
   163          8
   164          3
   165          4
   166          4
   167         13
   168          5
   169          6
   170          2
   171         29
   172         22
   173        103
   174         11
   175          3
   177          6
   178          2
   179          3
   180          5
   181          9
   182          5
   183          4
   184          2
   185        113
   186         17
   187          5
   188          2
   189          2
   191          4
   192          2
   193          3
   194          4
   195          7
   196          6
   197          3
   198          2
   199         28
   200          6
   201          4
   207          4
   208          2
   209          6
   210          4
   211          3
   213         13
   214          6
   215          4
   216          2
   217          2
   218          2
   219          4
   220          4
   221          3
   222         13
   223          6
   224          8
   225          6
   227         23
   228          8
   229          4
   230          2
   235          2
   236          2
   237          2
   238          2
   239          2
   240          2
   241        100
   242         19
   243          4
   246          2
   247          7
   248          6
   249          4
   250          2
   251          2
   252          1
   253          1
   254          1
   255         17
   256          6
   257          2
   264         16
   265         18
   266         10
   267        220
   268         41
   269          7
   270          3
   271          2
   272          2
   282          6
   283         14
   284        286
   285        933
   286        193
   287         22
   288          4
   296          1
   297          5
   298          3
   299          2
   300          1
   310          1
   311          5
   312          3
   313          2
   314          1
   321          1
   322          3
   323          2
   324          1
   325          7
   326          4
   327          2
   335          1
   338          1
   339          3
   340         10
   341          4
   342          1
   352          2
   353          8
   354          4
   355          2
   366          1
   367          3
   368          6
   369          2
   370          1
   378          2
   379          2
   380          1
   381          1
   382          1
   394          4
   395          6
   396        299
   397         83
   398         14
   399          3
   400          1