##TITLE=Library Entry 8302
##JCAMP-DX=Revision 4.10 
##DATA TYPE=MASS SPECTRUM
##SAMPLE DESCRIPTION=Japan AIST/NIMC Database- Spectrum MS-NW-1063
##NAMES=HP
##CAS NAME=n-Propyl acetate
##MOLFORM=C5H10O2
##CAS REGISTRY NO=109-60-4
##MP= -300
##BP= -300
##MW= 102
##$RETENTION INDEX=708
##$CONDENSED SPECTRUM=NO
##NPOINTS= 30
##XYDATA=(XY..XY) 1 
    14          6
    15         45
    17          1
    18          7
    26          8
    27         63
    28         13
    29         16
    30          3
    31         47
    32          2
    37          1
    38          3
    39         26
    40          7
    41         68
    42         78
    43        999
    44         22
    45          4
    57         10
    58          3
    59         50
    60          5
    61        267
    62          6
    72         12
    73        137
    74          5
    87          3