##TITLE=Library Entry 39941
##JCAMP-DX=Revision 4.10 
##DATA TYPE=MASS SPECTRUM
##SAMPLE DESCRIPTION=RADIAN CORP
##NAMES=HP
##CAS NAME=Hexanedioic acid, bis(2-ethoxyethyl) ester
##MOLFORM=C14H26O6
##CAS REGISTRY NO=109-44-4
##MP= -300
##BP= -300
##MW= 290
##$RETENTION INDEX=1880
##$CONDENSED SPECTRUM=NO
##NPOINTS= 75
##XYDATA=(XY..XY) 1 
    19          3
    26          1
    27         49
    28         81
    29        151
    30          5
    31        212
    32          6
    39         13
    40          1
    41         75
    42         39
    43        179
    44        224
    45        526
    46         12
    53          7
    54         10
    55        298
    56         68
    57         16
    58          7
    59        345
    60         14
    61          2
    64          7
    67          3
    68         15
    69         17
    70          7
    71          6
    72        999
    73        680
    74         32
    81          4
    82         10
    83        116
    84        118
    85         26
    86         25
    87          8
    88         21
    89         33
    91         12
    99        149
   100         26
   101         23
   110         11
   111        455
   112         64
   113         53
   114          6
   115          6
   126          5
   127         13
   128         51
   129         52
   130          5
   132         16
   145         34
   146          5
   155        273
   156         58
   157         31
   159         18
   172         20
   173         61
   174         25
   183         57
   184          4
   200          2
   201         50
   202          6
   245         11
   246          1