##TITLE=Library Entry 38384
##JCAMP-DX=Revision 4.10 
##DATA TYPE=MASS SPECTRUM
##SAMPLE DESCRIPTION=Japan AIST/NIMC Database- Spectrum MS-NW- 909
##NAMES=HP
##CAS NAME=Butanoic acid, butyl ester
##MOLFORM=C8H16O2
##CAS REGISTRY NO=109-21-7
##MP= -300
##BP= -300
##MW= 144
##$RETENTION INDEX=995
##$CONDENSED SPECTRUM=NO
##NPOINTS= 48
##XYDATA=(XY..XY) 1 
    14          1
    15         10
    18          1
    26         13
    27        181
    28         56
    29        209
    30          4
    31         16
    32          1
    37          2
    38          5
    39         83
    40         15
    41        346
    42         45
    43        570
    44         18
    45         11
    47          2
    50          1
    51          2
    53          5
    54          3
    55         74
    56        498
    57        183
    58          8
    60        102
    61         17
    69          4
    70         11
    71        999
    72         48
    73         72
    74          3
    86          3
    87          5
    88         47
    89        461
    90         20
    91          2
   101         48
   102          2
   114          4
   115          4
   116         13
   117          1