##TITLE=Library Entry 52948
##JCAMP-DX=Revision 4.10 
##DATA TYPE=MASS SPECTRUM
##SAMPLE DESCRIPTION=H. Fales, LC, NHLBI, NIH, Bethesda, MD 20892
##NAMES=HP
##CAS NAME=Lycorenan-7-one,4,12-dihydro-9,10-dimethoxy-1-methyl-
##MOLFORM=C18H23NO4
##CAS REGISTRY NO=109067-53-0
##MP= -300
##BP= -300
##MW= 317
##$RETENTION INDEX=0
##$CONDENSED SPECTRUM=NO
##NPOINTS= 232
##XYDATA=(XY..XY) 1 
    41         93
    42        261
    43         15
    44        278
    45         10
    47         14
    48          2
    49         69
    50         12
    51         37
    52          7
    53         26
    54         19
    55         57
    56         12
    57         53
    58          3
    59          8
    60          2
    61          0
    62          5
    63         21
    64         10
    65         21
    66          8
    67         49
    68         32
    69         12
    70         14
    71          5
    72          0
    73          3
    74          3
    75          7
    76         13
    77         47
    78         16
    79         20
    80         23
    81          4
    82        238
    83        999
    84         44
    85        189
    86         30
    87          3
    88          8
    89         18
    90         10
    91         27
    92         18
    93         10
    94        100
    95        133
    96        308
    97        491
    98         21
    99          3
   101          5
   102          9
   103         15
   104         11
   105         13
   106          9
   107         22
   108         32
   109         22
   110         28
   111         13
   112          2
   113          1
   114          2
   115         27
   116          9
   117         10
   118          8
   119         15
   120          9
   121         11
   122         31
   123          5
   124          7
   125          1
   126          1
   127          7
   128         10
   129         11
   130          6
   131         12
   132          8
   133          9
   134          9
   135         24
   136         15
   137          6
   138          5
   139          2
   140          1
   141          4
   142          2
   143          4
   144          8
   145          8
   146          8
   147          8
   148          3
   149         16
   150         22
   151         21
   152          4
   153          2
   154          2
   155          2
   156          2
   157          3
   159         35
   160          9
   161          8
   162          4
   163         14
   164         12
   165          5
   166          1
   167          2
   168          2
   169          2
   170          3
   171          3
   172          3
   173          3
   174          4
   175          5
   176          4
   177          7
   178         21
   179          5
   180          1
   181          1
   182          2
   183          2
   184          3
   185          3
   186          3
   187          2
   188          4
   189          5
   190          3
   191          8
   192          3
   193          2
   194          0
   195         10
   196          2
   197          1
   198          3
   199          3
   200          3
   201          3
   202          3
   203          3
   204          5
   205          3
   206          5
   207          3
   208          1
   209          0
   210          0
   211          1
   212          2
   213          5
   214          4
   215          3
   216          5
   217          3
   218          4
   219          3
   220          3
   221          1
   224          0
   225          0
   226          1
   227          1
   228          3
   229          2
   230         10
   231          3
   232         11
   233          6
   234          1
   236         10
   237          1
   238          0
   239          0
   240          0
   241          1
   242          4
   243          1
   244         19
   245          6
   246          1
   254          0
   255          0
   256          2
   257          1
   258          8
   259          2
   260          3
   261          1
   263          0
   266          0
   268          0
   270          1
   272         18
   273          4
   274          3
   275          0
   276          0
   284          1
   286          1
   287          1
   288          4
   289          8
   290          1
   300          1
   301          1
   302          6
   303          1
   316          8
   317        393
   318         92
   319         12
   320          1