##TITLE=Library Entry 61408
##JCAMP-DX=Revision 4.10 
##DATA TYPE=MASS SPECTRUM
##SAMPLE DESCRIPTION=LAC, NIDDK, NIH, Bethesda, MD 20892
##NAMES=HP
##CAS NAME=N-Acetyl-1-O-benzyl-3,4,6-O-trimethylglucosamine
##MOLFORM=C18H27NO6
##CAS REGISTRY NO=109068-32-8
##MP= -300
##BP= -300
##MW= 353
##$RETENTION INDEX=0
##$CONDENSED SPECTRUM=NO
##NPOINTS= 169
##XYDATA=(XY..XY) 1 
    41         59
    43        440
    45        659
    46         11
    47          8
    50          5
    51         25
    52          8
    53         16
    54         14
    55         30
    56         24
    58        133
    59         66
    60         19
    61          6
    63         18
    65        125
    66          6
    67          1
    68         19
    69         16
    70         16
    71        163
    73        314
    74         85
    75         37
    77         36
    78          7
    79         16
    80         18
    81          7
    82         10
    83         11
    84         34
    85         34
    86        110
    87         64
    88         86
    89         65
    91        999
    92         62
    93          2
    94          0
    95          8
    96         17
    97          6
    98         25
    99         19
   100         11
   101        173
   102         74
   103          6
   104          5
   105         10
   106          2
   107         11
   108         12
   110         84
   111         65
   112         28
   113          9
   114         29
   115        859
   116        128
   117         22
   118          2
   119         24
   120         13
   121          3
   122          2
   123          2
   124         11
   125          4
   126         17
   128        519
   129         49
   130         11
   131          2
   132          5
   133          2
   135          3
   136          1
   138         34
   139          4
   140         17
   141          3
   142         79
   143         95
   144         20
   145          8
   147        462
   148         25
   149          5
   150          3
   151         13
   152         12
   153          3
   154          5
   155         15
   156         11
   157          5
   158         10
   159          1
   160          5
   161          8
   162         13
   163          4
   164          2
   165          1
   166          3
   168         47
   169          4
   170         11
   171          2
   172         10
   173          1
   174          4
   175         74
   176          7
   177          1
   181          3
   182          4
   183          3
   184         39
   185         33
   186          4
   187          3
   188          8
   189          1
   190          0
   191          2
   192          2
   193         19
   194          2
   198          4
   200          1
   202         10
   203          1
   204          1
   206          2
   213          1
   214         11
   215         12
   216          3
   217          2
   218          6
   219         13
   220          4
   230         11
   231          1
   234        153
   235         14
   236          2
   245          1
   246         11
   247          6
   248          5
   252          0
   262         39
   263          4
   264          0
   276         11
   277          1
   279          1
   291          0
   294          7
   295          1
   353          3