##TITLE=Library Entry 109421
##JCAMP-DX=Revision 4.10 
##DATA TYPE=MASS SPECTRUM
##SAMPLE DESCRIPTION=A.A.Kutin, Moscow, Russia
##NAMES=HP
##CAS NAME=1,3-Dimethyl-8-morpholin-4-yl-7-[3-(pyrrolidin-2-ylideneamino)-pr
opyl]-3,7-dihydro-purine-2,6-dione
##MOLFORM=C18H27N7O3
##CAS REGISTRY NO=109054-76-4
##MP= -300
##BP= -300
##MW= 389
##$RETENTION INDEX=0
##$CONDENSED SPECTRUM=NO
##NPOINTS= 190
##XYDATA=(XY..XY) 1 
    34          8
    35         88
    36        435
    37         30
    38        144
    39         40
    40        129
    41        232
    42        151
    43         61
    44         94
    45         22
    46          1
    48          0
    50          5
    51         11
    52          8
    53         24
    54         61
    55        100
    56         87
    57         41
    58         22
    59          3
    60          3
    62          0
    63          2
    64          3
    65          8
    66         21
    67        101
    68        126
    69         77
    70         42
    71         13
    72          3
    73          4
    74          0
    75          2
    76          1
    77          7
    78         11
    79         30
    80         25
    81         52
    82         67
    83         56
    84         84
    85         63
    86          7
    87          0
    89          1
    91         12
    92         10
    93         17
    94         29
    95         50
    96         60
    97        286
    98        626
    99         46
   100          1
   104          2
   105          6
   106         12
   107         18
   108         32
   109         64
   111        976
   112        112
   113         21
   114          1
   115          3
   118          1
   119          4
   120          8
   121         25
   122         34
   123         98
   124         87
   125        999
   126        128
   127         12
   128          1
   129          2
   130          1
   131          1
   132          3
   133          2
   134          7
   135         14
   136         13
   137         26
   138         18
   139         19
   140          4
   142          1
   146          2
   147          1
   148          5
   149         25
   150         29
   151         46
   152         64
   153         13
   154          4
   155         10
   158          0
   160          1
   161          2
   162          6
   163         11
   164          9
   165         16
   166         11
   167         15
   168          2
   171          4
   172          0
   174          0
   175          2
   176          1
   177          8
   178          5
   179         33
   180         36
   181          8
   183          4
   184          6
   185          5
   186          3
   189          1
   190          1
   191          7
   192          7
   193         15
   194         19
   195          8
   196          0
   205          2
   206          7
   207         20
   208         16
   209          3
   218          0
   219         13
   220         15
   221         10
   222          5
   223          2
   232          4
   233          1
   234         10
   235          4
   236          3
   246          3
   247          2
   248          9
   249          7
   260          2
   262          5
   263          5
   264         24
   265         11
   266          3
   274          1
   275          6
   276         20
   277          2
   278          1
   292          3
   301          0
   302         40
   303         41
   304          6
   306          2
   320          5
   330          7
   331          8
   332         22
   333          5
   344          0
   346          1
   347          1
   358          7
   359         53
   360         13
   388          7
   389         88
   390         17