##TITLE=Library Entry 43438
##JCAMP-DX=Revision 4.10 
##DATA TYPE=MASS SPECTRUM
##SAMPLE DESCRIPTION=A.B. Barua, Dep. Biochem. Biophys., Iowa State Univ., A
mes, Iowa, USA
##NAMES=HP
##CAS NAME=Methyl (1-O-retinyl-2,3,4-triacetyl-.beta.-D-glucopyran)uronate
##MOLFORM=C33H46O10
##CAS REGISTRY NO=109054-56-0
##MP= -300
##BP= -300
##MW= 602
##$RETENTION INDEX=0
##$CONDENSED SPECTRUM=NO
##NPOINTS= 250
##XYDATA=(XY..XY) 1 
    46         18
    47          4
    55         19
    56         54
    57        142
    58         38
    59         48
    60         52
    61         67
    67          9
    68         18
    69         64
    70         83
    71         92
    72         39
    73        999
    74         67
    75         84
    76          4
    79          6
    80          9
    81         52
    82         56
    83         81
    84         54
    85         80
    86         19
    87         38
    88         43
    89         34
    90          5
    91          9
    92          9
    93         24
    94         37
    95         78
    96         51
    97         73
    98         61
    99         60
   100         21
   101         30
   102         14
   103          9
   104          7
   105         80
   106         25
   107         48
   108         24
   109         72
   110         40
   111         94
   112         44
   113         55
   114         28
   115         42
   116         20
   117         24
   118         17
   119         82
   120         31
   121         48
   122         32
   123         81
   124         40
   125         56
   126         33
   127         62
   128         17
   129         52
   130         29
   131         25
   132         76
   133         43
   134         23
   135         53
   136         53
   137         59
   138         27
   139         40
   140         18
   141         27
   142         15
   143         38
   144         52
   145         57
   146         38
   147         47
   148         28
   149         64
   150         24
   151         41
   152         26
   153         30
   154         16
   155        141
   156         18
   157         55
   158         31
   159         38
   160         15
   161         37
   162         18
   163         32
   164         15
   165         56
   166         23
   167         32
   168         13
   169         22
   170         11
   171         66
   172         41
   173         36
   174         16
   175         56
   176         35
   177         67
   178         19
   179         31
   180         66
   181         20
   182          9
   183         20
   184         10
   185         32
   186         21
   187         16
   188         21
   189         23
   190         26
   191         20
   192         19
   193         20
   194         11
   195         11
   196         10
   197         44
   198         18
   199         25
   200         11
   201         11
   202         11
   203         12
   204         12
   205        245
   206         52
   207         31
   208         14
   209          7
   210          5
   211         14
   212         11
   213         17
   214          9
   215         26
   216          8
   217          7
   218         10
   219         14
   220        264
   221         60
   222         15
   223         11
   224          6
   225         13
   226          6
   227          8
   228         11
   229          8
   230          5
   231         10
   232          8
   233          9
   234          6
   235          5
   236         20
   237         16
   238          6
   239          9
   240          4
   241          9
   242          6
   243          8
   244          8
   245          7
   246          7
   247          5
   248          3
   249          4
   250          3
   251          5
   252          5
   253         31
   254         10
   255        106
   256         32
   257         53
   258         13
   259          6
   260          3
   262          3
   263          4
   264          5
   265          3
   266          5
   267          9
   268        117
   269         65
   270         22
   271          9
   272          7
   273         15
   274          6
   275          3
   279          5
   280          3
   281          3
   282          4
   283          4
   284         35
   285         71
   286         18
   287          5
   288          4
   289          3
   290          3
   292          7
   293          3
   298          4
   299          4
   300          7
   301          5
   302          5
   303          4
   316          7
   317         22
   318          4
   330          4
   341          3
   342          4
   346          3
   349          3
   368          5
   386          3
   420          5
   542          4
   602        104
   603         39
   604          9