##TITLE=Library Entry 90268
##JCAMP-DX=Revision 4.10 
##DATA TYPE=MASS SPECTRUM
##SAMPLE DESCRIPTION=N. DE KIMPE, LAB. ORG. CHEM., UNIV. GENT, BELGIUM
##NAMES=HP
##CAS NAME=(E,E)-N,N'-Diisopropyl-2,2,3,6,6-pentamethylheptane-1,7-diimine
##MOLFORM=C18H36N2
##CAS REGISTRY NO=109106-18-5
##MP= -300
##BP= -300
##MW= 280
##$RETENTION INDEX=0
##$CONDENSED SPECTRUM=NO
##NPOINTS= 18
##XYDATA=(XY..XY) 1 
    41        110
    42         70
    43        320
    44         60
    55        130
    69         70
    70        170
    72        170
    85         80
    98        340
   112         70
   113        999
   114        120
   140         60
   168         80
   196         70
   237        290
   238         60