##TITLE=Library Entry 45462
##JCAMP-DX=Revision 4.10 
##DATA TYPE=MASS SPECTRUM
##SAMPLE DESCRIPTION=Chemical Concepts
##NAMES=HP
##CAS NAME=Heptanoic acid, 7,7-dimethoxy-
##MOLFORM=C9H18O4
##CAS REGISTRY NO=109137-93-1
##MP= -300
##BP= -300
##MW= 190
##$RETENTION INDEX=0
##$CONDENSED SPECTRUM=NO
##NPOINTS= 104
##XYDATA=(XY..XY) 1 
    26          2
    27         44
    28         10
    29         43
    30          1
    31         58
    33          4
    34          0
    38          0
    39         33
    40          4
    41         91
    42         11
    43         41
    44          4
    45        104
    46          2
    47         97
    48          2
    49          0
    50          1
    51          2
    52          1
    53         13
    54          6
    55         52
    56          5
    57         17
    58         73
    59         16
    60         13
    61          3
    63          0
    64          0
    65          1
    66          1
    67         21
    68          3
    69         15
    70          2
    71         89
    72          5
    73         14
    74          7
    75        999
    76         36
    77          7
    78          0
    79          6
    80          2
    81        153
    82         10
    83          8
    84          3
    85         22
    86          1
    87          4
    88          1
    89          0
    90          0
    91          2
    92          0
    94          0
    95          1
    96          0
    97         26
    98          8
    99         11
   100          1
   101          6
   102          0
   107          0
   109         12
   110          1
   111          1
   112          0
   113          4
   114          2
   115          3
   116          1
   117          0
   122          0
   123          0
   124          1
   125          2
   126          1
   127        111
   128         10
   129          1
   130          0
   140          0
   141         16
   142          2
   147          0
   156          0
   157          0
   158          0
   159        108
   160          7
   161          1
   163          0
   173          0
   189          1
   190          0