##TITLE=Library Entry 38351
##JCAMP-DX=Revision 4.10 
##DATA TYPE=MASS SPECTRUM
##SAMPLE DESCRIPTION=A.A.Kutin, Moscow, Russia
##NAMES=HP
##CAS NAME=1'-Ethylspiro[1,3-benzodioxole-2,3'-pyrrolidine]
##MOLFORM=C12H15NO2
##CAS REGISTRY NO=109132-94-7
##MP= -300
##BP= -300
##MW= 205
##$RETENTION INDEX=0
##$CONDENSED SPECTRUM=NO
##NPOINTS= 88
##XYDATA=(XY..XY) 1 
    39        126
    40         97
    41        195
    42        646
    43        949
    44         45
    45          2
    50         34
    51         25
    52          1
    55        112
    56        123
    57         51
    58         13
    59          0
    63         96
    64         64
    65         40
    66         15
    67         41
    68         86
    69         56
    70        273
    71        999
    72         39
    73          0
    74          0
    75          0
    76          5
    77         17
    78         10
    79         12
    80         35
    81         30
    82         59
    83          8
    84         22
    85          2
    89          3
    90          0
    91          8
    92         12
    93          6
    94         15
    95         32
    96         17
    97         10
    98          2
   100          2
   102          2
   103          0
   104          0
   105          2
   106          0
   107          3
   108          0
   109          5
   110          4
   111          0
   112          2
   115          0
   120         10
   121         33
   122          1
   128          1
   131          0
   132          0
   134        106
   135        302
   136         24
   137          0
   146         25
   147        103
   148         21
   149          1
   161          2
   162         13
   176         34
   177        110
   178         10
   189          8
   190         54
   191          7
   203          7
   204         52
   205        193
   206         23
   207          0