##TITLE=Library Entry 66970
##JCAMP-DX=Revision 4.10 
##DATA TYPE=MASS SPECTRUM
##SAMPLE DESCRIPTION=G. Lange, Inst. Org. Chem., Univ. Wurzburg, Wurzburg, G
ermany
##NAMES=HP
##CAS NAME=Carbonic acid, (3,4,4-trimethyl-1,2-dioxetan-3-yl)methyl phenyl e
ster
##MOLFORM=C13H16O5
##CAS REGISTRY NO=109123-69-5
##MP= -300
##BP= -300
##MW= 252
##$RETENTION INDEX=0
##$CONDENSED SPECTRUM=NO
##NPOINTS= 53
##XYDATA=(XY..XY) 1 
    37          9
    38         25
    39        151
    40         18
    41         33
    42         63
    43        795
    44         32
    45          4
    50         24
    51         92
    52          6
    53          8
    55         18
    56          3
    57        209
    58        128
    59          7
    62          6
    63         26
    64         13
    65        138
    66         51
    67          5
    69          4
    74          5
    75          5
    76          8
    77        357
    78         37
    79         86
    80          7
    83         17
    84          1
    90         15
    91          8
    93         18
    94        999
    95         64
    96          3
   100          4
   101         55
   102          6
   105          5
   106          0
   107        101
   108         19
   121         14
   122          0
   194          3
   195          0
   220          0
   252          0