##TITLE=Library Entry 71525
##JCAMP-DX=Revision 4.10 
##DATA TYPE=MASS SPECTRUM
##SAMPLE DESCRIPTION=Chemical Concepts
##NAMES=HP
##CAS NAME=2,2,6,6-Tetramethyl-4-piperidylamide, N-piperidinoacetic acid
##MOLFORM=C16H31N3O
##CAS REGISTRY NO=109172-31-8
##MP= -300
##BP= -300
##MW= 281
##$RETENTION INDEX=0
##$CONDENSED SPECTRUM=NO
##NPOINTS= 89
##XYDATA=(XY..XY) 1 
    39         14
    41        111
    42        104
    43         46
    44         38
    45          3
    47          1
    48          1
    49          1
    50          1
    51          1
    53          9
    54          7
    55         93
    56         31
    57         46
    58         87
    59          3
    65          3
    66          2
    67         17
    68         13
    69         40
    70         35
    71         19
    72          4
    73          4
    77          4
    78          1
    79          7
    80          3
    81         15
    82         22
    83         30
    84         42
    85         15
    86          2
    87          1
    91          5
    92          2
    93          5
    94          5
    95         10
    96         33
    98        999
    99         97
   100          4
   104          1
   105          3
   106          1
   107          9
   108          8
   109          7
   110         20
   111          9
   112          7
   113          3
   119          1
   121          2
   122          4
   123          7
   124        125
   125         19
   126          2
   127          1
   129          1
   133          1
   135          3
   137          1
   138          4
   139          5
   140          3
   141          2
   143         35
   144          3
   149          7
   151          1
   153          1
   163          1
   165          1
   167          6
   168          1
   183         49
   184          5
   198         13
   199          1
   216          1
   266          1
   281          1