##TITLE=Library Entry 18176
##JCAMP-DX=Revision 4.10 
##DATA TYPE=MASS SPECTRUM
##SAMPLE DESCRIPTION=Asinex Ltd, Moscow, Russia
##NAMES=HP
##CAS NAME=4H-1,2,4-Triazole-3-thiol, 4-(4-methoxyphenyl)-5-(4-pyridyl)-
##MOLFORM=C14H12N4OS
##CAS REGISTRY NO=109220-26-0
##MP= -300
##BP= -300
##MW= 284
##$RETENTION INDEX=0
##$CONDENSED SPECTRUM=NO
##NPOINTS= 166
##XYDATA=(XY..XY) 1 
    33         17
    34          5
    36          3
    37         71
    38        169
    39        222
    40         14
    41        161
    42         58
    43         95
    44        141
    45        176
    46         19
    47         40
    48          1
    50        543
    51        999
    52        378
    53        178
    54         42
    55         51
    56         29
    57         29
    58         54
    59        310
    60         65
    61         67
    62        198
    63        539
    64        514
    65        172
    66         77
    67         49
    68         13
    69         78
    70         61
    71         13
    72         16
    74         87
    75        162
    76        304
    77        713
    78        917
    79        161
    80        185
    81         40
    82         47
    83         38
    84         14
    85         22
    86          3
    87         18
    88         24
    89         28
    90        144
    91         92
    92        315
    93         60
    94         35
    95        199
    96         58
    97         15
    98         12
    99          9
   100         13
   101         11
   102         31
   103        104
   104        502
   105        674
   106        164
   107         80
   108        162
   109         53
   110         43
   111         11
   112         10
   113         15
   114          8
   115          3
   116          4
   117          9
   118         28
   119         68
   120         66
   121        345
   122        562
   123        136
   124         41
   125         10
   126         22
   127         42
   128         16
   129         11
   130          1
   131          4
   133        214
   134         63
   135        107
   136         48
   137        108
   138         57
   139         58
   140         22
   141          5
   142         24
   143          1
   145          4
   146         10
   147        132
   148         78
   149         56
   150        246
   151         86
   152         32
   153         44
   154         20
   155         58
   156          9
   162         44
   163         13
   164         46
   165        204
   166         35
   167         20
   168         37
   169          9
   171          2
   177          5
   179        282
   180         55
   181         36
   182         48
   183         25
   184          5
   192         10
   193          3
   194          1
   195          7
   196         14
   197          9
   198          6
   207          1
   208         11
   209         33
   210         92
   211        103
   212         18
   213          3
   222          2
   224         37
   225         30
   226          2
   240         12
   241         16
   251         11
   252         12
   253         13
   254          1
   268         10
   269         65
   270          9
   283        733
   284        889
   285        172
   286         54