##TITLE=Library Entry 20404
##JCAMP-DX=Revision 4.10 
##DATA TYPE=MASS SPECTRUM
##SAMPLE DESCRIPTION=V.G.Zaikin, TIPS, Russian Acad. Sci.
##NAMES=HP
##CAS NAME=4-Pentadecanol
##MOLFORM=C15H32O
##CAS REGISTRY NO=109212-91-1
##MP= -300
##BP= -300
##MW= 228
##$RETENTION INDEX=0
##$CONDENSED SPECTRUM=NO
##NPOINTS= 42
##XYDATA=(XY..XY) 1 
    31        140
    40        100
    41        440
    42         80
    43        360
    44        100
    45        200
    53         70
    54         40
    55        999
    56         60
    57        260
    58         40
    59         40
    67         40
    68         30
    69        360
    70         90
    71        160
    72         40
    73        700
    74         40
    83        200
    84         60
    85        200
    86         60
    87         20
    97        140
    98         40
    99         60
   100         20
   111         80
   112         30
   125         60
   126         20
   139         40
   140         10
   167         20
   185        200
   186         40
   210         30
   211          5