##TITLE=Library Entry 81986
##JCAMP-DX=Revision 4.10 
##DATA TYPE=MASS SPECTRUM
##SAMPLE DESCRIPTION=A.A.Kutin, Moscow, Russia
##NAMES=HP
##CAS NAME=Pent-2-ene-1,5-dione, 3-(4-chlorophenyl)-1,5-diphenyl-
##MOLFORM=C23H17ClO2
##CAS REGISTRY NO=109272-53-9
##MP= -300
##BP= -300
##MW= 360
##$RETENTION INDEX=0
##$CONDENSED SPECTRUM=NO
##NPOINTS= 146
##XYDATA=(XY..XY) 1 
    33          6
    34          1
    36          1
    38          0
    40         25
    41          0
    44         14
    74          0
    75          2
    77        124
    78          8
    79          0
    87          1
    88          0
    89          3
    91          7
    92          0
    95          1
    99          1
   100          0
   101          3
   102          4
   105        999
   106         75
   107          4
   110          0
   111          2
   113          6
   114          8
   115         37
   116          4
   119          0
   123          1
   125          8
   126          2
   127          3
   128          1
   135          1
   136          3
   137          2
   138          3
   139         11
   140          1
   141          3
   143          6
   144          1
   149         18
   150          5
   151          7
   152          4
   154          7
   161          0
   162          1
   163          4
   164          2
   165          9
   166          1
   167          0
   171          3
   172          1
   175          0
   176          3
   177          2
   178          3
   179          1
   187          2
   188          2
   189         21
   190         10
   191         28
   192         20
   193          3
   199          1
   200          2
   201          4
   202         15
   203          7
   204          3
   205          1
   207          0
   212          2
   213          0
   214          1
   215          0
   218          2
   219          8
   220         20
   221          5
   223          1
   225          6
   226          4
   227          8
   228          2
   229          2
   230          0
   233          1
   235          1
   236          2
   238         75
   239         21
   240         23
   241          9
   242          1
   243          0
   247          0
   249          1
   250          0
   252          2
   253          4
   254         57
   255        171
   256         45
   257         58
   258          8
   259          0
   265          1
   267          1
   269          1
   276          0
   278          0
   279          1
   280          0
   281          1
   283         13
   284          2
   285          3
   286          0
   308          0
   314          0
   315          1
   325          1
   326          0
   328          0
   332          1
   340          0
   341          0
   343         36
   344         11
   345         11
   346          3
   357          1
   358          3
   360         45
   361         10
   362         13
   363          3