##TITLE=Library Entry 71946
##JCAMP-DX=Revision 4.10 
##DATA TYPE=MASS SPECTRUM
##SAMPLE DESCRIPTION=A.A.Kutin, Moscow, Russia
##NAMES=HP
##CAS NAME=4-Thia-2-azapentanenitrile, 5-(3-bromo-1,2,4-thiadiazole-5-yl)thi
o-3-methylthio-
##MOLFORM=C6H5BrN4S4
##CAS REGISTRY NO=109305-67-1
##MP= -300
##BP= -300
##MW= 340
##$RETENTION INDEX=0
##$CONDENSED SPECTRUM=NO
##NPOINTS= 223
##XYDATA=(XY..XY) 1 
    33         18
    34         12
    35         10
    36          1
    37          0
    38          7
    39          4
    40         26
    41         46
    42         22
    43         21
    44         70
    45        580
    46        507
    47        228
    48         41
    49         13
    50          1
    51          1
    52          8
    53          8
    54         14
    55         12
    56          9
    57         19
    58        143
    59         63
    60         32
    61         72
    62          3
    64         87
    65          4
    66          8
    67         23
    68          3
    70        114
    72        165
    74        515
    76        106
    77         34
    78         69
    79         71
    80         21
    81         17
    82         16
    84        122
    85        190
    86         19
    87         10
    88          3
    90         90
    91        235
    92         37
    93         35
    94          4
    95          4
    96          3
    99        999
   100         65
   101         45
   102          9
   104        316
   105         26
   106         36
   107          5
   108          8
   109          2
   111         28
   112          6
   113         26
   116         60
   117         10
   118          9
   119          1
   120          0
   121          1
   122          0
   123          2
   125         10
   126          1
   127          7
   128          1
   129          3
   130          3
   131         11
   132         12
   133         11
   135         11
   136         11
   137         48
   138          9
   139         47
   140          6
   141          4
   143         13
   145        340
   146         26
   147         30
   148          3
   149          2
   150          0
   151          1
   152          1
   153          1
   155         32
   157         33
   158          1
   159          3
   160          0
   161          1
   162          7
   163          3
   164          4
   165          9
   166          2
   167          7
   168          0
   169          1
   171          8
   172          0
   173          0
   174          0
   176          4
   177         19
   178          2
   179          3
   180          0
   181          0
   182          1
   185        117
   186          9
   187         10
   188          6
   189          1
   190          1
   191          0
   192          0
   193          1
   195         13
   196         41
   197         69
   198         40
   199         62
   200          6
   201          5
   202          1
   203          0
   204          0
   205          0
   206          1
   209        103
   211         96
   212          6
   213          9
   214          1
   215          1
   216          0
   217          0
   219          3
   220          0
   221          1
   222          1
   224          2
   225          0
   226          0
   227          0
   228          2
   229          8
   230          1
   231          1
   232          0
   234          5
   235          2
   236          5
   237          2
   238          3
   241        119
   243        116
   244          8
   245         12
   246          0
   247          0
   249          0
   251          0
   256          0
   258          5
   260         32
   261        104
   262         15
   263         19
   264          2
   265          2
   267         15
   269         17
   270          1
   271          1
   273          0
   275          4
   277          5
   278          0
   279          0
   281          0
   283          0
   289          0
   290          1
   291          1
   293         17
   294          4
   295         14
   296          2
   297          1
   307          0
   309          0
   323          0
   325          3
   326          0
   327          3
   328          0
   329          0
   340          1
   341          0
   342          1
   343          0