##TITLE=Library Entry 72333
##JCAMP-DX=Revision 4.10 
##DATA TYPE=MASS SPECTRUM
##SAMPLE DESCRIPTION=A.A.Kutin, Moscow, Russia
##NAMES=HP
##CAS NAME=4-Thia-2-azapentanenitrile, 3-methylthio-5-(4-nitrophenoxy)-
##MOLFORM=C10H9N3O3S2
##CAS REGISTRY NO=109349-04-4
##MP= -300
##BP= -300
##MW= 283
##$RETENTION INDEX=0
##$CONDENSED SPECTRUM=NO
##NPOINTS= 190
##XYDATA=(XY..XY) 1 
    33          2
    34          2
    35          5
    36          2
    37         12
    38         50
    39         47
    40         15
    41         22
    42          5
    43         16
    44         17
    45        147
    46        142
    47         94
    48         16
    49         11
    50        141
    51         37
    52         19
    53         19
    54          7
    55          5
    56          7
    57          4
    58         24
    59         19
    60          9
    61        103
    62         32
    63        102
    64         83
    65         39
    66         14
    67         13
    68          7
    69          6
    70          9
    71          3
    72         38
    73         11
    74         55
    75        139
    76        162
    77         29
    78         40
    79         21
    80          6
    81          9
    82          3
    83          2
    84         24
    85         27
    86          3
    87          1
    88          0
    91        493
    92         81
    93         59
    94         14
    95          4
    96          2
    99        999
   100         48
   101         45
   102          3
   103          1
   104          1
   105          6
   106         34
   107         23
   108         10
   109         19
   110          3
   111          1
   112          0
   113          0
   116          0
   117          0
   118          5
   120          8
   122         76
   123         13
   124          2
   125          0
   127          0
   129          2
   130          0
   131          0
   132          1
   133          3
   134          4
   135          1
   136          2
   137          6
   138          6
   139         19
   140          3
   141          0
   142          0
   144          2
   145         49
   146          5
   147          4
   148          1
   149          3
   150         10
   152        301
   153         24
   154          2
   155          0
   156          0
   157          2
   159          0
   160          1
   161          0
   162          3
   163          0
   164          2
   165          1
   166          0
   167          2
   169          0
   170          0
   171          0
   174          0
   175          0
   176          0
   177          1
   178          0
   179          0
   180          0
   181          1
   182          0
   183          0
   184          0
   187          0
   188          0
   189          3
   190          7
   191          1
   192          2
   193          1
   194          0
   195          0
   196          0
   197          0
   198          0
   199          0
   203          0
   205          0
   206          0
   207          0
   208          3
   209          2
   210          7
   211          1
   212          0
   221          0
   222          1
   223          0
   224          0
   225          1
   227          0
   233          3
   236         76
   237         11
   238          5
   239          0
   240          3
   241          0
   242          0
   253          3
   254          0
   255          3
   256          0
   257          0
   265          0
   266          2
   267          2
   268         21
   269          2
   270          2
   271          0
   280          0
   281          0
   282          3
   283         10
   284          1
   285          0