##TITLE=Library Entry 4034
##JCAMP-DX=Revision 4.10 
##DATA TYPE=MASS SPECTRUM
##SAMPLE DESCRIPTION=A.A.Kutin, Moscow, Russia
##NAMES=HP
##CAS NAME=Piperidine-1-thiocarboxamide, N-(4-bromophenyl)-
##MOLFORM=C12H15BrN2S
##CAS REGISTRY NO=109337-81-7
##MP= -300
##BP= -300
##MW= 298
##$RETENTION INDEX=0
##$CONDENSED SPECTRUM=NO
##NPOINTS= 133
##XYDATA=(XY..XY) 1 
    33        103
    34         40
    36          2
    37         23
    38         70
    39        374
    40        252
    41        999
    42        265
    43        265
    44        151
    45         66
    49          6
    50        206
    51        104
    52         45
    53         65
    54         84
    55        317
    56        316
    57        109
    58         28
    59         40
    60         78
    61         36
    62         46
    63        146
    64         88
    65         94
    66         23
    67         81
    69        690
    70        100
    72        322
    73         30
    74         88
    75        178
    76        189
    77         83
    78         22
    79         26
    80         47
    81         40
    82         93
    83         44
    84        423
    85         57
    86         29
    88         12
    89         28
    90         80
    91         98
    92         46
    93         19
    94          8
    95         12
    96         11
    97          3
    98         14
   101         45
   102         49
   103         28
   104         11
   105          6
   107          3
   108         65
   109         79
   110         34
   111        352
   112         21
   116         59
   117        154
   118         22
   119          9
   124          2
   125          2
   128        761
   129        104
   130         59
   131         14
   134         60
   135         83
   136         44
   142         11
   143         27
   145         24
   149          7
   150         33
   151         17
   155         71
   156          3
   157         70
   162         12
   163         14
   164         11
   165          3
   170          8
   171         65
   172         17
   173         55
   174          2
   175          2
   182         11
   183          8
   184         13
   185         12
   186         24
   187         19
   189         19
   196          4
   197          5
   199          3
   209          6
   211          5
   213         52
   214         15
   215         56
   216         17
   217          3
   219         10
   238         85
   239          5
   240         80
   241          3
   257          4
   265         61
   266          3
   267         55
   268          2
   298        192
   299         47
   300        172
   301         24