##TITLE=Library Entry 62712
##JCAMP-DX=Revision 4.10 
##DATA TYPE=MASS SPECTRUM
##SAMPLE DESCRIPTION=Drug Lab
##NAMES=HP
##CAS NAME=Androst-4-en-3-one, 4-chloro-17-hydroxy-, (17.beta.)-
##MOLFORM=C19H27ClO2
##CAS REGISTRY NO=1093-58-9
##MP= -300
##BP= -300
##MW= 322
##$RETENTION INDEX=0
##$CONDENSED SPECTRUM=NO
##NPOINTS= 272
##XYDATA=(XY..XY) 1 
    35          1
    36         10
    37          1
    38          6
    39        127
    40         29
    41        439
    42         35
    43        267
    44         44
    45         24
    46          1
    49          3
    50          7
    51         74
    52         33
    53        256
    54         43
    55        601
    56         41
    57        232
    58         25
    59          6
    60          1
    61          4
    62          3
    63         36
    64         18
    65        237
    66         59
    67        413
    68         87
    69        104
    70         12
    71         47
    72          7
    73         34
    74          4
    75         37
    76         13
    77        607
    78        126
    79        591
    80         81
    81        322
    82         37
    83         63
    84         22
    85         27
    86         20
    87         19
    88          7
    89         49
    90         16
    91        999
    92        149
    93        739
    94        145
    95        285
    96         41
    97        128
    98         18
    99         25
   100         17
   101         33
   102         31
   103        142
   104         65
   105        564
   106        128
   107        441
   108        110
   109        159
   110         83
   111         66
   112         20
   113         89
   114         22
   115        265
   116         95
   117        245
   118         71
   119        312
   120        148
   121        495
   122        162
   123        201
   124         81
   125         69
   126         20
   127        108
   128        192
   129        220
   130        164
   131        343
   132        104
   133        350
   134        120
   135        155
   136        113
   137         77
   138         24
   139         58
   140         16
   141        175
   142        100
   143        322
   144        177
   145        365
   146        125
   147        465
   148        159
   149        168
   150         36
   151        172
   152         52
   153         74
   154         38
   155        161
   156        195
   157        258
   158        948
   159        275
   160        367
   161        142
   162        134
   163         72
   164         37
   165        154
   166         34
   167         67
   168         56
   169        101
   170         63
   171        192
   172         87
   173        196
   174        143
   175         94
   176         25
   177         27
   178         19
   179         71
   180         32
   181         67
   182         31
   183         82
   184         34
   185        107
   186         51
   187        105
   188         39
   189         21
   190         10
   191         11
   192         15
   193         37
   194         19
   195         54
   196         22
   197         60
   198         23
   199         79
   200         59
   201         60
   202         16
   203         20
   204          5
   205          7
   206          5
   207         21
   208         12
   209         47
   210         22
   211         58
   212         29
   213         66
   214         40
   215         43
   216          9
   217          5
   218          2
   219         12
   220          4
   221         24
   222          9
   223         21
   224         12
   225         59
   226         51
   227        266
   228         57
   229         43
   230         15
   231          8
   232          4
   233          7
   234          4
   235         33
   236          9
   237         11
   238          3
   239         21
   240         42
   241         33
   242         42
   243         34
   244         35
   245        381
   246         74
   247         16
   248          5
   249         11
   250         27
   251         66
   252         19
   253         60
   254         12
   255          3
   256          1
   257          5
   258         27
   259         12
   260          3
   261          3
   262          2
   263         10
   264          2
   265          7
   266          3
   267          7
   268         93
   269        155
   270         30
   271         28
   272          5
   273          2
   275          1
   276          1
   277          1
   278          4
   279          4
   280         67
   281         13
   282         21
   283          4
   284          5
   285          6
   286        863
   287        339
   288         57
   289         20
   290          3
   291          5
   292          1
   293          1
   294          2
   296          1
   304         74
   305         16
   306         25
   307         34
   308          6
   309         10
   310          1
   320          2
   321          2
   322        239
   323         50
   324         81
   325         16
   326          2