##TITLE=Library Entry 344
##JCAMP-DX=Revision 4.10 
##DATA TYPE=MASS SPECTRUM
##SAMPLE DESCRIPTION=Chemical Concepts
##NAMES=HP
##CAS NAME=Iron, .mu.-carbonylnonacarbonyl[.mu.3-[.eta.2-(1,1-dimethylethyl)
methylenephosphoranylidene-P:P]]tri-, triangulo
##MOLFORM=C15H11Fe3O10P
##CAS REGISTRY NO=109343-30-8
##MP= -300
##BP= -300
##MW= 550
##$RETENTION INDEX=0
##$CONDENSED SPECTRUM=NO
##NPOINTS= 317
##XYDATA=(XY..XY) 1 
    27         29
    28        999
    29         49
    30          1
    31          0
    37          3
    38          5
    39         49
    41        127
    42         10
    43          2
    44          2
    45          1
    46          1
    49          1
    50          5
    51          4
    52          1
    53          5
    54          4
    55         17
    56         60
    57         35
    58          1
    59          0
    60          0
    61          1
    62          3
    63          0
    65          0
    67          0
    68          1
    69          1
    70          1
    71          3
    74          0
    75          0
    77          0
    81          1
    82          2
    83          0
    84         29
    85          1
    87          3
    88          1
    91          1
    94          0
    95          0
    96          1
    97          1
    98          1
    99         15
   100         17
   101          4
   102          7
   103          0
   104          0
   105          0
   110         14
   111          5
   112        121
   113         32
   114          2
   118          1
   120          0
   123          0
   124          4
   125          3
   126          2
   127          1
   128          1
   129          0
   130          0
   133          0
   134          5
   135         19
   136          2
   137          2
   138          0
   139          0
   140          3
   141          4
   142          0
   143         26
   144          9
   145          0
   147          0
   148          4
   149          8
   150          0
   151          1
   152          0
   153         15
   154         14
   155        134
   156        125
   157         21
   158         16
   159          1
   160          0
   161          0
   162          6
   163          5
   166          4
   167          3
   168         28
   169          9
   170          1
   171          0
   172          0
   174          4
   175          2
   176          2
   177          6
   178          0
   180          3
   181          2
   182          1
   184          0
   185          1
   186          1
   187          1
   188          2
   189          0
   190          0
   191          3
   192          0
   193          0
   194          2
   195          2
   196         11
   197         27
   198          4
   199        156
   200         26
   201          2
   202          1
   203          0
   204          4
   205          4
   206          0
   207          2
   208          3
   209         23
   210         36
   211        144
   212        232
   213         67
   214        251
   215         19
   216          3
   218          0
   219          1
   220          0
   222          3
   223          1
   224         17
   225          2
   226          2
   227          0
   228          0
   230          1
   233          1
   234          0
   236          5
   237          1
   238         11
   239          6
   240          9
   241         22
   242          8
   243          1
   246          0
   247          4
   248          1
   249          0
   250         11
   251          2
   252         52
   253          6
   254        139
   255         14
   256          2
   258          0
   260          4
   261          1
   262          2
   263          0
   264         15
   265          3
   266         23
   267          5
   268         58
   269         16
   270        183
   271         21
   272          2
   278          1
   280          7
   281          0
   282         17
   283          2
   284          0
   286          0
   292          0
   293          0
   294          8
   295          2
   296         59
   297         15
   298        134
   299         17
   300          2
   306          1
   308          6
   309          0
   310          7
   311          1
   312          0
   314          1
   316          6
   317          1
   320          0
   322          8
   323          2
   324         57
   325         14
   326        109
   327         16
   328          2
   334          0
   336          5
   337          0
   338          1
   342          0
   344          7
   345          1
   350          5
   351          1
   352         47
   353         11
   354        154
   355         23
   356          4
   362          0
   364          3
   365          0
   370          0
   372          4
   373          0
   378          8
   379          1
   380        112
   381         19
   382        591
   383         95
   384         16
   385          1
   392          0
   398          0
   400          4
   401          0
   406          6
   407          1
   408         57
   409         13
   410        200
   411         36
   412          6
   413          0
   428          1
   429          0
   434          3
   435          0
   436         58
   437         10
   438        322
   439         55
   440         11
   441          1
   446          0
   448          2
   449          0
   454          0
   456          2
   457          0
   462          0
   464         13
   465          4
   466         74
   467         13
   468          2
   476          1
   484          1
   485          0
   490          2
   492         29
   493          5
   494        166
   495         33
   496          7
   497          0
   504          1
   518          0
   520         15
   521          3
   522         88
   523         18
   524          4
   525          0
   546          0
   548         11
   549          2
   550         63
   551         14
   552          3
   553          0