##TITLE=Library Entry 72441
##JCAMP-DX=Revision 4.10 
##DATA TYPE=MASS SPECTRUM
##SAMPLE DESCRIPTION=Chemical Concepts
##NAMES=HP
##CAS NAME=1,4-Dioxaspiro[4.6]undecan-6-ol
##MOLFORM=C9H16O3
##CAS REGISTRY NO=109459-51-0
##MP= -300
##BP= -300
##MW= 172
##$RETENTION INDEX=0
##$CONDENSED SPECTRUM=NO
##NPOINTS= 80
##XYDATA=(XY..XY) 1 
    26          6
    27         51
    28         14
    29         61
    30          9
    31         40
    33         10
    38          3
    39         35
    40          8
    41         76
    42         52
    43         74
    44         28
    45         42
    46          4
    51          4
    53         17
    54          8
    55        123
    56         35
    57         66
    58         12
    59          3
    60          4
    61          2
    65          4
    66         10
    67         22
    68          9
    69         21
    70          8
    71         20
    72          4
    73         32
    74          6
    77          6
    79         15
    80          3
    81         59
    82         18
    83         25
    84         16
    85          8
    86         88
    87         11
    91          5
    93          4
    94          3
    95          5
    97         12
    98         13
    99        999
   100        120
   101         21
   102          8
   110         19
   111          7
   112         15
   113        139
   114         11
   115         67
   116          8
   125          7
   126          7
   127         16
   128         12
   129        108
   130         13
   131          2
   141        138
   142         15
   143         27
   144          4
   154         10
   155         28
   156          3
   171          9
   172        136
   173         26