##TITLE=Library Entry 78910
##JCAMP-DX=Revision 4.10 
##DATA TYPE=MASS SPECTRUM
##SAMPLE DESCRIPTION=LAC, NIDDK, NIH, Bethesda, MD 20892
##NAMES=HP
##CAS NAME=.alpha.-Benzoyllysylglycine
##MOLFORM=C15H21N3O4
##CAS REGISTRY NO=109472-60-8
##MP= -300
##BP= -300
##MW= 307
##$RETENTION INDEX=0
##$CONDENSED SPECTRUM=NO
##NPOINTS= 87
##XYDATA=(XY..XY) 1 
    41        142
    42        108
    43        170
    44        346
    45         64
    49         53
    50         92
    51        226
    52         44
    53         15
    54         50
    55        124
    56        141
    57         74
    58          7
    59         24
    60         10
    63         13
    65         11
    67         34
    68         51
    69         76
    70         61
    71         36
    72         12
    73         12
    74         36
    75         45
    76         79
    77        693
    78        107
    79         26
    80          2
    81         10
    82         82
    83        143
    84        566
    85         62
    86         38
    89          5
    90          2
    91         43
    92          3
    96          5
    97         28
    98         36
    99         41
   103         40
   104         92
   105        999
   106        107
   107         12
   110         34
   111         57
   112         10
   117         34
   118          9
   121        109
   122         62
   124         10
   127        126
   129          3
   130         61
   131          2
   133          2
   134          4
   135          5
   141          2
   147         23
   148         13
   156          3
   159          2
   160         16
   161          8
   166         13
   173          5
   174         42
   175         33
   176         13
   185         15
   186          2
   202         13
   203          3
   232        109
   233          5
   247          7
   248          3