##TITLE=Library Entry 5097
##JCAMP-DX=Revision 4.10 
##DATA TYPE=MASS SPECTRUM
##SAMPLE DESCRIPTION=Chemical Concepts
##NAMES=HP
##CAS NAME=Acetic acid, 9-methyl-7-oxo-9-aza-bicyclo[3.3.1]non-2-yl ester
##MOLFORM=C11H17NO3
##CAS REGISTRY NO=109405-13-2
##MP= -300
##BP= -300
##MW= 211
##$RETENTION INDEX=0
##$CONDENSED SPECTRUM=NO
##NPOINTS= 103
##XYDATA=(XY..XY) 1 
    26          2
    27         19
    28         17
    29         16
    30          9
    31          3
    38          0
    39         19
    40          5
    41         47
    42        999
    43        131
    44         17
    45          2
    50          1
    51          3
    52          2
    53         11
    54         16
    55         55
    56         27
    57         44
    58         40
    59          2
    60          2
    61          1
    65          3
    66          3
    67         17
    68         18
    69         23
    70         27
    71          5
    72          2
    73          9
    74          1
    77          4
    78          1
    79          5
    80          6
    81         12
    82         71
    83         54
    84         61
    85          6
    86          2
    87          1
    91          2
    92          2
    93          8
    94        132
    95         20
    96         28
    97         14
    98         10
    99          2
   100          6
   101          1
   105          0
   106          1
   107          4
   108         34
   109         20
   110        380
   111         78
   112         38
   113          7
   114          0
   115          0
   118          0
   119          0
   120          0
   121          0
   122          2
   123          3
   124         14
   125          5
   126         51
   127          8
   128          0
   132          0
   134          0
   136          2
   137          0
   138          8
   139          1
   140          3
   141          0
   142          2
   149          0
   150          9
   151          6
   152         51
   153          9
   154         11
   155          2
   168         69
   169         20
   170          2
   210          9
   211         87
   212         13
   213          2