##TITLE=Library Entry 65900
##JCAMP-DX=Revision 4.10 
##DATA TYPE=MASS SPECTRUM
##SAMPLE DESCRIPTION=A.A.Kutin, Moscow, Russia
##NAMES=HP
##CAS NAME=Carbanilic acid, n-heptyl ester
##MOLFORM=C14H21NO2
##CAS REGISTRY NO=109562-39-2
##MP= -300
##BP= -300
##MW= 235
##$RETENTION INDEX=0
##$CONDENSED SPECTRUM=NO
##NPOINTS= 130
##XYDATA=(XY..XY) 1 
    33          5
    34          1
    36          1
    37          1
    39        375
    40         89
    41        771
    43        783
    44         73
    45         20
    47          0
    48          0
    50         35
    51         79
    52         31
    53         41
    55        284
    57        842
    58         27
    59          4
    60          3
    61          4
    62         14
    63         42
    64         64
    65        205
    66         57
    67         22
    68         13
    69         47
    70         35
    71         14
    72          2
    73          6
    74          4
    75          6
    77        171
    78         16
    79          9
    80          6
    81          7
    82          2
    83         10
    84          3
    85          2
    86          1
    87          2
    88          1
    89          2
    90          7
    91         81
    93        999
    94         56
    95          4
    97          9
    98          4
    99          3
   100          0
   101          0
   103          1
   104          4
   106         59
   107          9
   108         12
   109          2
   111          1
   112          3
   114          2
   115          2
   116          1
   117          2
   119         73
   120        137
   121         12
   122          1
   123          1
   125          1
   126          2
   127          9
   129          4
   130          0
   131          1
   132          6
   134         41
   137        344
   138        101
   139          8
   140          2
   142          7
   143          4
   144          2
   145          0
   146          0
   148         27
   149          4
   150          1
   151          0
   152          0
   153          2
   154          1
   155          0
   156          1
   157          3
   158          0
   159          0
   160          0
   162         25
   163          2
   164          0
   165          0
   168          2
   169          0
   170          1
   171          5
   173          0
   176          3
   177          0
   181          0
   182          0
   183          2
   184          0
   185          0
   201          1
   203          0
   223          0
   232          0
   233          3
   235        175
   236         25
   237          2