##TITLE=Library Entry 60474
##JCAMP-DX=Revision 4.10 
##DATA TYPE=MASS SPECTRUM
##SAMPLE DESCRIPTION=Chemical Concepts
##NAMES=HP
##CAS NAME=1,4-Thiazepan-5-one-3-carboxylic acid, 6-benzyloxycarbonylamino-2
,2-dimethyl-
##MOLFORM=C16H20N2O5S
##CAS REGISTRY NO=109570-67-4
##MP= -300
##BP= -300
##MW= 352
##$RETENTION INDEX=0
##$CONDENSED SPECTRUM=NO
##NPOINTS= 246
##XYDATA=(XY..XY) 1 
    26          3
    27         23
    28         16
    29         22
    30         17
    31          8
    33          2
    34          1
    35          4
    38         10
    39         54
    40         12
    41         65
    42         22
    43         38
    44         73
    45         17
    46          6
    47         10
    48          2
    49          2
    50         11
    51         32
    52         10
    53         10
    54          6
    55         31
    56         12
    57         15
    58          8
    59         24
    60          3
    61          3
    62          5
    63         17
    64          5
    65         72
    66          6
    67          3
    68         11
    69         10
    70         22
    71         16
    72          8
    73          6
    74         38
    75         20
    76          7
    77         34
    78          8
    79         35
    80          5
    81          5
    82         12
    83         12
    84         16
    85          9
    86          7
    87         17
    88         11
    89         28
    90         24
    91        999
    92        162
    93          8
    94          2
    95          4
    96          5
    97          8
    98          6
    99         40
   100         13
   101          7
   102          6
   103          3
   104          3
   105          8
   106          6
   107         35
   108         45
   109          6
   110          4
   111          5
   112          2
   113          4
   114         18
   115          6
   116         23
   117          5
   118          4
   119          2
   120          2
   121          2
   122          2
   123          3
   124          4
   125         12
   126          6
   127          9
   128         20
   129          6
   130          8
   131         14
   132         13
   133          7
   134          4
   135          1
   136          0
   137         13
   138          3
   139          2
   140          1
   141          1
   142          5
   143         11
   144         35
   145          3
   146          4
   147          2
   148          3
   149          3
   150          2
   151          7
   152         14
   153          3
   154          1
   155          1
   156          4
   157         16
   158          3
   159          7
   160         35
   161          4
   162          8
   163          1
   164          2
   165          2
   166          5
   167          1
   168          2
   169          1
   170          2
   171          3
   172          2
   173          1
   174          4
   175         10
   176         45
   177         17
   178         13
   179          3
   180          3
   181          3
   182          1
   183          6
   184          2
   185          1
   186          1
   187          1
   188          2
   189          1
   190          1
   199          3
   200          6
   201         54
   202         28
   203          7
   204          3
   205          1
   206          2
   207          0
   208         26
   209          4
   210          4
   212          1
   215          1
   216          1
   217         22
   218          6
   219          4
   220          1
   221          1
   222          0
   223          1
   224          0
   225          1
   226          2
   227          1
   229          0
   230          2
   231          1
   232          2
   233          1
   234          0
   235          5
   236          2
   237          1
   243          1
   244          2
   245          3
   246          1
   247          1
   248          1
   249          1
   250          2
   251          1
   252          1
   260          1
   261          3
   262          1
   263          3
   264          1
   265          1
   266          4
   267          1
   268          1
   269          1
   270          1
   275          2
   276          1
   277          1
   278          1
   279          1
   280          1
   290          2
   291          3
   292          1
   293          1
   306          2
   307          1
   308          2
   309          1
   310          2
   311          1
   318          1
   319          1
   320          1
   321          1
   322          1
   323          1
   334          1
   335          1
   351          1
   352          7
   353          2
   354          1