##TITLE=Library Entry 16107
##JCAMP-DX=Revision 4.10 
##DATA TYPE=MASS SPECTRUM
##SAMPLE DESCRIPTION=V.A.Korolev, Moscow, Russia
##NAMES=HP
##CAS NAME=4-[(4-Methoxyphenyl)methyl]-1,2-oxazole-3,5-diamine
##MOLFORM=C11H13N3O2
##CAS REGISTRY NO=109547-66-2
##MP= -300
##BP= -300
##MW= 219
##$RETENTION INDEX=0
##$CONDENSED SPECTRUM=NO
##NPOINTS= 134
##XYDATA=(XY..XY) 1 
    37         11
    38         65
    39        268
    40        125
    41        174
    42        199
    43        351
    44        999
    45         55
    46          5
    49          3
    50        143
    51        288
    52        238
    53        186
    54         84
    55        173
    56         24
    57         33
    58         24
    59         25
    60         23
    61         20
    62        100
    63        345
    64        189
    65        240
    66         71
    67        207
    68         50
    69         30
    70         44
    71         20
    72          7
    73         10
    74         60
    75         79
    76        124
    77        642
    78        582
    79        173
    80         63
    81         25
    82         21
    83         11
    84         25
    85          7
    86         15
    87         28
    88         47
    89        393
    90        220
    91        289
    92        139
    93         49
    94         35
    95         26
    96         32
    97         14
    98         32
    99          8
   100          9
   101         41
   102         83
   103        117
   104         94
   105         66
   106         66
   107         68
   108        272
   109         34
   110          3
   111         42
   112         33
   113          4
   114         27
   115         49
   116        123
   117        128
   118        129
   119         46
   120         17
   121        699
   122         95
   123         14
   127          5
   128         25
   129         26
   130         48
   131         44
   132        220
   133        334
   134        231
   135         29
   136         38
   137          3
   141          3
   142          7
   143         24
   144         33
   145         47
   146        145
   147         95
   148         29
   149         10
   157         18
   158        108
   159         74
   160         59
   161         51
   162          7
   165          6
   171         17
   172         36
   173         33
   174         39
   175        119
   176         38
   177         23
   183          2
   184          6
   185          3
   186         17
   187         27
   188          3
   190          3
   200          2
   201        154
   202         29
   204          6
   218        119
   219        136
   220         17
   221          7