##TITLE=Library Entry 63757
##JCAMP-DX=Revision 4.10 
##DATA TYPE=MASS SPECTRUM
##SAMPLE DESCRIPTION=Chemical Concepts
##NAMES=HP
##CAS NAME=Butanedioic acid, 2-benzyl-2-carboxyl-, triethyl ester
##MOLFORM=C18H24O6
##CAS REGISTRY NO=109554-51-0
##MP= -300
##BP= -300
##MW= 336
##$RETENTION INDEX=0
##$CONDENSED SPECTRUM=NO
##NPOINTS= 212
##XYDATA=(XY..XY) 1 
    26          6
    27         95
    28         20
    29        444
    30         12
    31         19
    38          2
    39         36
    40          3
    41         17
    42          5
    43         19
    44          7
    45         20
    46          1
    47          1
    50          9
    51         46
    52         12
    53          7
    54          3
    55         43
    56          0
    57          4
    58          1
    59          8
    60          9
    61          4
    62          2
    63         20
    64          4
    65         90
    66          6
    67          2
    68          0
    69          8
    70          3
    71          4
    72          0
    73          8
    74          3
    75          9
    76         10
    77         93
    78         61
    79         53
    80          2
    81          1
    82          2
    83          1
    84          1
    85          7
    86          0
    87          3
    88          7
    89         31
    90         15
    91        999
    92         95
    93          4
    94          1
    95          1
    96          0
    97          2
    98          3
    99         29
   100          2
   101          5
   102         42
   103        140
   104        134
   105         77
   106          7
   107         81
   108          7
   109          1
   110          0
   111          1
   112          2
   113          8
   114          7
   115        335
   116        217
   117        447
   118         62
   119         18
   120          7
   121         12
   122          1
   125          7
   126          5
   127         32
   128          8
   129         16
   130         79
   131        637
   132         92
   133         89
   134         10
   135         91
   136          8
   139          2
   140          2
   141          4
   142          3
   143         60
   144         92
   145        326
   146         41
   147         89
   148        211
   149         88
   150         10
   151          0
   154          4
   155          2
   156          0
   157          7
   158         76
   159        330
   160         51
   161        139
   162         31
   163          4
   164          3
   167          2
   168          1
   169          0
   170         15
   171         30
   172         32
   173         53
   174         35
   175        101
   176        593
   177        277
   178         49
   179          5
   184          9
   185          8
   186          1
   187          9
   188        171
   189        307
   190        117
   191         16
   192          6
   198         18
   199          8
   200          2
   201          3
   202          4
   203        867
   204        168
   205         88
   206         15
   207          4
   213          0
   214          7
   215          1
   216          9
   217        385
   218        943
   219        146
   220         26
   221          7
   222          2
   223          1
   224          0
   230          0
   231          0
   232          4
   233          6
   234          2
   235          0
   244         27
   245        512
   246         78
   247         10
   248         15
   249        442
   250        418
   251         82
   252          9
   253          1
   256          1
   257          0
   258          0
   259          3
   260          0
   261         15
   262        465
   263        190
   264         29
   265          3
   283          1
   284          0
   285          0
   286          1
   287          5
   288          0
   289          0
   290         72
   291        242
   292         43
   293          5
   294          0
   335          3
   336        344
   337         83
   338         14
   339          2