##TITLE=Library Entry 60105
##JCAMP-DX=Revision 4.10 
##DATA TYPE=MASS SPECTRUM
##SAMPLE DESCRIPTION=Chemical Concepts
##NAMES=HP
##CAS NAME=2-Butanol, 4-benzyloxy-1-(1,3-dithian-2-yl)-3-(1-ethoxyethoxy)-
##MOLFORM=C19H30O4S2
##CAS REGISTRY NO=109613-61-8
##MP= -300
##BP= -300
##MW= 386
##$RETENTION INDEX=0
##$CONDENSED SPECTRUM=NO
##NPOINTS= 271
##XYDATA=(XY..XY) 1 
    26          3
    27         27
    28          7
    29         46
    30          2
    31         34
    33          0
    34          0
    35          1
    36          0
    37          0
    38          3
    39         36
    40          5
    41         85
    42         18
    43        115
    44         33
    45        436
    46         25
    47         37
    48          2
    49          3
    50          4
    51         16
    52          4
    53          6
    54          5
    55         28
    56         10
    57         33
    58         24
    59        102
    60         10
    61         28
    62          2
    63         11
    64          5
    65         73
    66          5
    67          5
    68          2
    69         29
    70         17
    71         36
    72         25
    73        625
    74         50
    75         49
    76          8
    77         32
    78         12
    79         33
    80          3
    81          7
    82          4
    83         12
    84         10
    85         31
    86         12
    87        122
    88         12
    89         27
    90         15
    91        999
    92        130
    93         10
    94          2
    95          5
    96          2
    97          9
    98          2
    99         27
   100         21
   101         35
   102          3
   103         11
   104         11
   105         44
   106         19
   107        114
   108         21
   109          5
   110          2
   111          5
   112          2
   113         10
   114          7
   115         17
   116          6
   117         33
   118          7
   119        569
   120        101
   121         68
   122          9
   123          4
   124          1
   125          4
   126          1
   127          2
   128          2
   129         15
   130          7
   131         21
   132         67
   133         78
   134         31
   135         54
   136          6
   137          8
   138          1
   139          2
   140          1
   141          2
   142          0
   143         13
   144          2
   145         50
   146         12
   147         15
   148         10
   149        137
   150         18
   151          9
   152          1
   153          1
   154          0
   155          2
   156          0
   157          3
   158          3
   159         17
   160         20
   161         63
   162         14
   163         35
   164         10
   165         15
   166          3
   167          7
   168          1
   169          1
   170          0
   171          3
   172          5
   173         10
   174          4
   175         11
   176         21
   177         17
   178          3
   179          7
   180          1
   181          2
   182          0
   183          0
   184          0
   185          1
   186          1
   187         13
   188         10
   189         19
   190          7
   191          4
   192          2
   193         28
   194         14
   195          3
   196          0
   197          6
   198          1
   199          6
   200          0
   201          1
   202          0
   203          3
   204          1
   205         17
   206          4
   207         10
   208          1
   209          1
   210          0
   211          0
   212          0
   213          1
   214          0
   215          1
   216          0
   217          3
   218          1
   219          3
   220          1
   221          3
   222          1
   223         22
   224          3
   225          3
   226          0
   227          0
   228          0
   229          1
   230          0
   231          1
   232         14
   233          4
   234          2
   235          3
   236          3
   237         61
   238         14
   239          3
   240          0
   247          1
   248          0
   249          5
   250         99
   251         15
   252         18
   253          3
   254          2
   255          0
   256          0
   261          0
   262          0
   263          1
   264          1
   265         11
   266          2
   267          1
   268         12
   269          2
   270          2
   271          0
   277          2
   278         10
   279          6
   280          2
   281          1
   282          0
   283          1
   295         69
   296         18
   297         16
   298          3
   299          1
   300          0
   309          2
   310          1
   311          0
   312          1
   313        226
   314         45
   315         27
   316          5
   317          1
   322          1
   323          0
   325          3
   326          1
   327          0
   339          3
   340         14
   341         13
   342          4
   343          1
   344          0
   385          1
   386          0
   387          0