##TITLE=Library Entry 84172
##JCAMP-DX=Revision 4.10 
##DATA TYPE=MASS SPECTRUM
##SAMPLE DESCRIPTION=Chemical Concepts
##NAMES=HP
##CAS NAME=1H-Inden-1-one, 2,3,3a,4,5,7a-hexahydro-4,4,7a-trimethyl-
##MOLFORM=C12H18O
##CAS REGISTRY NO=109629-65-4
##MP= -300
##BP= -300
##MW= 178
##$RETENTION INDEX=0
##$CONDENSED SPECTRUM=NO
##NPOINTS= 116
##XYDATA=(XY..XY) 1 
    26          6
    27        120
    28         10
    29         83
    30          2
    31          1
    38          8
    39        163
    40         31
    41        260
    42         25
    43         76
    44          9
    45          2
    50         13
    51         58
    52         28
    53         98
    54         17
    55        110
    56         20
    57         37
    58         13
    59         15
    60          6
    61          2
    62          6
    63         23
    64         10
    65        101
    66         26
    67         83
    68         18
    69         62
    70         13
    71         19
    72          3
    73          5
    74          4
    75         15
    76          5
    77        157
    78         43
    79        219
    80         64
    81         71
    82         22
    83         18
    84          7
    85         12
    86          2
    87          2
    88          1
    89         10
    90          5
    91        315
    92         63
    93        153
    94        159
    95         53
    96         17
    97         12
    98          5
    99          5
   101          5
   102          5
   103         26
   104         14
   105        142
   106         44
   107        999
   108        125
   109         34
   110         34
   111          8
   112          3
   113          4
   115         15
   116          6
   117         16
   118          7
   119        636
   120        199
   121        420
   122        251
   123        145
   124         15
   125          4
   126          2
   127          4
   128          6
   129          6
   130          3
   131          7
   132          7
   133         37
   134        835
   135        170
   136         20
   137          6
   138          2
   139          2
   140          1
   144          3
   145         99
   146         13
   159          2
   160         20
   161          5
   162          2
   163         43
   164          8
   177          3
   178        358
   179         53
   180          5