##TITLE=Library Entry 58372
##JCAMP-DX=Revision 4.10 
##DATA TYPE=MASS SPECTRUM
##SAMPLE DESCRIPTION=Chemical Concepts
##NAMES=HP
##CAS NAME=1,2-Cyclopentanedicarboxylic acid, 4-[(trimethylsilyl)methylene]-
, dimethyl ester, trans-
##MOLFORM=C13H22O4Si
##CAS REGISTRY NO=109613-12-9
##MP= -300
##BP= -300
##MW= 270
##$RETENTION INDEX=0
##$CONDENSED SPECTRUM=NO
##NPOINTS= 148
##XYDATA=(XY..XY) 1 
    27         21
    28         12
    29         26
    30          3
    31         34
    33          3
    39         27
    40          3
    41         16
    42          6
    43        129
    44         36
    45        175
    46         11
    47         11
    50          3
    51         16
    52         14
    53         23
    54          7
    55         51
    56          5
    57         20
    58         57
    59        598
    60         40
    61         38
    62          2
    63          4
    65         16
    66          8
    67         19
    68         26
    69         37
    70          7
    71         14
    72         14
    73        457
    74         42
    75        555
    76         43
    77        105
    78         47
    79        594
    80         41
    81         16
    82         27
    83         45
    84          6
    85         18
    86          2
    87          4
    88          3
    89        999
    90         89
    91         95
    92         23
    93         33
    94          6
    95         28
    96          8
    97         14
    98         20
    99         13
   101         14
   103          8
   104         45
   105        310
   106        106
   107        248
   108         22
   109         25
   110          8
   111         10
   112          2
   113          8
   115          4
   116          4
   117          2
   119         11
   120         21
   121         53
   122         14
   123         22
   124          3
   125          6
   133          4
   134          8
   135         55
   136         60
   137         51
   138         48
   139         69
   140          9
   141          7
   142          2
   143          5
   144          2
   149          7
   150          3
   151         26
   152          8
   153         17
   154          3
   156          5
   163         10
   164          3
   165          9
   166          3
   167        185
   168         27
   169         16
   177          3
   178          2
   179          7
   180          5
   181          8
   182          7
   183          5
   184         18
   185          6
   186          6
   187          5
   192          2
   193          3
   195        153
   196         26
   197          9
   206          2
   209         10
   210        404
   211        117
   212         29
   213          4
   223         58
   224         11
   225          5
   227          5
   238         42
   239         61
   240         13
   241          5
   255         96
   256         16
   257          5
   270         96
   271         17
   272          6