##TITLE=Library Entry 48986
##JCAMP-DX=Revision 4.10 
##DATA TYPE=MASS SPECTRUM
##SAMPLE DESCRIPTION=G. Lange, Inst. Org. Chem., Univ. Wurzburg, Germany
##NAMES=HP
##CAS NAME=7'-Oxaspiro[cyclopropane-1,4'-tricyclo[3.3.1.0(6,8)]nonan-2'-one]
##MOLFORM=C10H12O2
##CAS REGISTRY NO=109637-57-2
##MP= -300
##BP= -300
##MW= 164
##$RETENTION INDEX=0
##$CONDENSED SPECTRUM=NO
##NPOINTS= 84
##XYDATA=(XY..XY) 1 
    37          5
    38         30
    39        528
    40        112
    41        279
    42         44
    43         48
    44         17
    45         37
    50         73
    51        234
    52        153
    53        360
    54        171
    55        291
    56         18
    57         63
    58          9
    62         12
    63         63
    64         17
    65        209
    66        211
    67        233
    68        317
    69        109
    70         24
    71         20
    75         10
    76          6
    77        547
    78        232
    79        999
    80        391
    81        677
    82        373
    83         80
    84         14
    85         12
    89         18
    90         17
    91        714
    92        298
    93        370
    94        149
    95        117
    96        122
    97         24
   102          6
   103         93
   104         84
   105        210
   106        127
   107        328
   108        192
   109         44
   110         33
   115         46
   116         15
   117        152
   118         90
   119         90
   120         95
   121        214
   122         77
   123         18
   128          5
   129         12
   130         20
   131         27
   133         47
   134         12
   135        146
   136         77
   137          7
   145          9
   146         11
   147         13
   148         38
   149         28
   150         19
   163         13
   164        267
   165         29