##TITLE=Library Entry 82088
##JCAMP-DX=Revision 4.10 
##DATA TYPE=MASS SPECTRUM
##SAMPLE DESCRIPTION=J.B. KYZIOL, INST. CHEM., SCH. PEDAGOG. UNIV., OPOLE, P
OLAND
##NAMES=HP
##CAS NAME=3-(Benzamido)carbazole
##MOLFORM=C19H14N2O
##CAS REGISTRY NO=109693-64-3
##MP= -300
##BP= -300
##MW= 286
##$RETENTION INDEX=0
##$CONDENSED SPECTRUM=NO
##NPOINTS= 31
##XYDATA=(XY..XY) 1 
    28         50
    39         18
    50         42
    51        178
    52         32
    63         23
    74         20
    75         36
    76         43
    77        597
    78         45
   101         42
   102         23
   105        999
   106         84
   126         44
   127        126
   128        103
   129         18
   152         36
   153         75
   154        253
   155         37
   179         49
   180         37
   181        558
   182        108
   183         74
   286        682
   287        161
   288         18