##TITLE=Library Entry 45500
##JCAMP-DX=Revision 4.10 
##DATA TYPE=MASS SPECTRUM
##SAMPLE DESCRIPTION=Chemical Concepts
##NAMES=HP
##CAS NAME=Cyclopentanecarboxylic acid, 3-(trimethylsilylmethylene)-, methyl
 ester
##MOLFORM=C11H20O2Si
##CAS REGISTRY NO=109613-09-4
##MP= -300
##BP= -300
##MW= 212
##$RETENTION INDEX=0
##$CONDENSED SPECTRUM=NO
##NPOINTS= 100
##XYDATA=(XY..XY) 1 
    27         19
    28         18
    29         19
    31         31
    39         17
    40          5
    41         19
    43        104
    44         28
    45        134
    46          9
    47          7
    51          8
    52          8
    53         18
    54          5
    55         61
    56          6
    57         16
    58         33
    59        384
    60         27
    61         24
    62          7
    65          9
    66          5
    67         18
    68         23
    69         51
    70          6
    71         16
    72         19
    73        347
    74         31
    75        999
    76         69
    77         77
    78         18
    79         43
    80        269
    81         25
    83         37
    84          8
    85         18
    87         15
    89        625
    90         51
    91         39
    92          6
    93        269
    94         29
    95         29
    96          6
    97         22
    98          5
    99         13
   101         39
   102          5
   103         17
   105         10
   107         12
   108        248
   109         39
   110          7
   111         22
   113         17
   115         19
   118          9
   121          6
   122          5
   123         14
   125         20
   135          5
   137        208
   138         33
   139        139
   140         21
   141        178
   142         22
   143          9
   145          5
   152         12
   153         37
   154          6
   159          5
   167         11
   169         63
   170         12
   180          9
   181         68
   182         13
   183          6
   184         27
   185          5
   197        162
   198         26
   199          7
   212        146
   213         23
   214          7