##TITLE=Library Entry 45349
##JCAMP-DX=Revision 4.10 
##DATA TYPE=MASS SPECTRUM
##SAMPLE DESCRIPTION=Chemical Concepts
##NAMES=HP
##CAS NAME=Silane, (1,1-dimethylethyl)dimethyl[[2-methyl-3-(2,6,6-trimethyl-
2-cyclohexen-1-ylidene)-1-propenyl]oxy]-
##MOLFORM=C19H34OSi
##CAS REGISTRY NO=109629-59-6
##MP= -300
##BP= -300
##MW= 306
##$RETENTION INDEX=0
##$CONDENSED SPECTRUM=NO
##NPOINTS= 173
##XYDATA=(XY..XY) 1 
    27          5
    28         13
    29         37
    31          9
    39         24
    40          5
    41        126
    42          8
    43         51
    44         16
    45         66
    46          4
    47         16
    51          8
    52          2
    53         44
    54          5
    55         59
    56         17
    57         60
    58         28
    59        137
    60         13
    61         20
    65         20
    66          8
    67         39
    68          4
    69         56
    70          6
    71         11
    72          5
    73        907
    74         88
    75        999
    76         82
    77         86
    78         14
    79         47
    81         31
    83         29
    84          6
    85         23
    86          2
    89         15
    91        106
    92         18
    93         37
    94          6
    96          6
    98          3
    99         26
   100          5
   103         38
   104         12
   105         93
   106         18
   107         47
   108          9
   109         19
   110          4
   111         10
   112         11
   114          4
   115         70
   116         18
   117         53
   118         30
   119        281
   120         37
   121         47
   123         10
   124         13
   125          4
   126         58
   127         28
   128         45
   129         18
   130         62
   131         14
   132         84
   133         46
   135          9
   137          7
   138          6
   141         40
   143         21
   144         30
   145         61
   146         14
   147         38
   148          9
   149         19
   150          5
   151          9
   152          3
   153          9
   154          3
   156          3
   157         13
   158         11
   159        381
   160         62
   161         36
   162          6
   164          4
   165         12
   166          2
   167          6
   170          2
   171          8
   173        171
   174         43
   175        261
   176         42
   177         31
   178          9
   179         63
   181          8
   182          2
   183          2
   185         12
   186          2
   187          2
   190          4
   191         12
   192          5
   193         99
   194         37
   195         11
   196          3
   197          2
   198          4
   199          3
   203          4
   204          2
   205         12
   206          5
   207          9
   217          3
   219          5
   220          3
   221         11
   222          3
   223          3
   224          2
   225          6
   231          6
   232          2
   233          4
   234          2
   235        150
   236         35
   237         15
   238          5
   249         55
   250         61
   251         20
   252          5
   263         20
   264          6
   265          6
   277          8
   279          3
   288          2
   291        222
   292         55
   293         15
   304          5
   306        251
   307         65
   308         17
   309          3