##TITLE=Library Entry 100938
##JCAMP-DX=Revision 4.10 
##DATA TYPE=MASS SPECTRUM
##SAMPLE DESCRIPTION=Chemical Concepts
##NAMES=HP
##CAS NAME=2-[1-Methyl-2-(2,6,6-trimethylcyclohex-2-enyl)vinyl][1,3]dithiane
##MOLFORM=C16H26S2
##CAS REGISTRY NO=109629-43-8
##MP= -300
##BP= -300
##MW= 282
##$RETENTION INDEX=0
##$CONDENSED SPECTRUM=NO
##NPOINTS= 176
##XYDATA=(XY..XY) 1 
    26          5
    27         52
    28         13
    29         53
    34          7
    36          4
    39         75
    40         12
    41        283
    42         23
    43         51
    44         13
    45         98
    46         24
    47         37
    50          3
    51         21
    52          8
    53         93
    54          8
    55        111
    56         14
    58          6
    59         76
    60          6
    61         22
    63          7
    64          8
    65         58
    66         10
    67         53
    68          5
    69         70
    70         21
    71         25
    72         12
    73         78
    74         31
    75         40
    76          7
    77        111
    78         30
    79        101
    80         21
    81         66
    82          7
    83         15
    84          3
    85         42
    86         15
    87         63
    88          7
    89         24
    90          4
    91        183
    92         34
    93         82
    94         37
    95         45
    96          6
    97         50
    98         20
    99         49
   100          6
   101         17
   102          4
   103         32
   104         20
   105        263
   106        354
   107        207
   108         47
   109         27
   110          8
   111        102
   112         22
   113         68
   114         12
   115         32
   116         13
   117         43
   118         51
   119        999
   120        433
   121         84
   122         24
   123         20
   124         15
   125        104
   126         22
   127         27
   128         18
   129         20
   130         10
   131         39
   132         19
   133         69
   135         22
   136         12
   137        426
   138         80
   139         50
   140          9
   141         14
   142          8
   144          9
   145         27
   146         73
   147         27
   148         12
   149         23
   150         13
   151        404
   152        298
   153         60
   154         19
   157          5
   158          4
   159        118
   160         23
   161        181
   162         26
   163         12
   164          3
   165         44
   166          9
   169          5
   170          2
   171         49
   172          6
   173         12
   174         43
   175        209
   176         90
   177         14
   178          5
   179         24
   180          4
   181          3
   183          6
   184          7
   186          6
   187          3
   191          3
   192          2
   193         64
   194         10
   195          5
   197         15
   199          5
   200          2
   207         38
   208         23
   209          5
   210          2
   211         56
   212         16
   213         14
   214          2
   221          2
   225          4
   226         93
   227         15
   228          8
   235         14
   236          2
   239          4
   249          5
   254          2
   267         13
   268          3
   282        717
   283        124
   284         70
   285         11
   286          2