##TITLE=Library Entry 18556
##JCAMP-DX=Revision 4.10 
##DATA TYPE=MASS SPECTRUM
##SAMPLE DESCRIPTION=L.K. DYALL, DEP. CHEM., UNIV. NEWCASTLE, N.S.W., AUSTRA
LIA
##NAMES=HP
##CAS NAME=2,2'-Dimethyl-6,6'-dinitroazobenzene
##MOLFORM=C14H12N4O4
##CAS REGISTRY NO=109670-19-1
##MP= -300
##BP= -300
##MW= 300
##$RETENTION INDEX=0
##$CONDENSED SPECTRUM=NO
##NPOINTS= 15
##XYDATA=(XY..XY) 1 
    53        999
    64        522
    65        603
    78        782
    89        492
    90        374
   105        113
   106        113
   121        151
   164        883
   206        173
   236         87
   253         69
   283        234
   300        175