##TITLE=Library Entry 43688
##JCAMP-DX=Revision 4.10 
##DATA TYPE=MASS SPECTRUM
##SAMPLE DESCRIPTION=Chemical Concepts
##NAMES=HP
##CAS NAME=4,6-Dioxa-3,8-disiladecane, 5-(2,6-dimethyl-1,5-heptadienyl)-7-(2
,6-dimethyl-2,5-heptadienylidene)-2,2,3,3,8,8,9,9-octamethyl-
##MOLFORM=C32H60O2Si2
##CAS REGISTRY NO=109629-49-4
##MP= -300
##BP= -300
##MW= 532
##$RETENTION INDEX=0
##$CONDENSED SPECTRUM=NO
##NPOINTS= 107
##XYDATA=(XY..XY) 1 
    27         46
    28         10
    29         67
    31         11
    39         61
    40         12
    41        281
    42         23
    43         93
    44         11
    45         58
    47         19
    51         13
    53         38
    55         50
    56         20
    57         76
    58         32
    59        180
    60         19
    61         22
    65         17
    67         44
    69        496
    70         41
    71         21
    72         14
    73        999
    74        103
    75        365
    76         31
    77         50
    79         39
    81         34
    82         16
    83         43
    84         13
    85         39
    89         14
    91         49
    93        157
    94         19
    95         28
    97         39
    99         42
   101         25
   105         39
   107        190
   109         47
   111         21
   113         41
   115        130
   116         18
   117         21
   119         31
   121         40
   123         19
   125         37
   127         23
   129         17
   131         13
   133         47
   135        340
   136         44
   137         21
   139         21
   141         68
   143         15
   147         51
   149         53
   151         12
   153         11
   157         10
   165         28
   171         13
   173        365
   175         24
   181         54
   185         33
   186         13
   189          9
   193         13
   199         37
   207         35
   208          9
   209         31
   211          8
   223         30
   225         11
   237          6
   247          6
   251          9
   257         15
   265         15
   267        579
   268        147
   269         41
   270          6
   275          4
   285          3
   299          4
   323         14
   324          4
   331          8
   343          9
   400          3
   401          3