##TITLE=Library Entry 49073
##JCAMP-DX=Revision 4.10 
##DATA TYPE=MASS SPECTRUM
##SAMPLE DESCRIPTION=G. Lange, Inst. Org. Chem., Univ. Wurzburg, Wurzburg, G
ermany
##NAMES=HP
##CAS NAME=3-Cyclohexene-1-acetic acid, trans-5-[(2,4-dinitrophenyl)thio]-,
 2-chloroethyl ester
##MOLFORM=C16H17ClN2O6S
##CAS REGISTRY NO=109637-64-1
##MP= -300
##BP= -300
##MW= 400
##$RETENTION INDEX=0
##$CONDENSED SPECTRUM=NO
##NPOINTS= 104
##XYDATA=(XY..XY) 1 
    39         52
    40         12
    41         64
    42         13
    43        197
    44         28
    45         40
    50          8
    51         28
    52         15
    53         34
    54          9
    55         30
    57          7
    60         27
    61         74
    62         49
    63        210
    64         25
    65         83
    66         24
    67         34
    68         17
    69         26
    70          4
    71          7
    73         13
    74          4
    75         16
    76          5
    77        200
    78         84
    79        999
    80         81
    81         24
    82          5
    83          9
    86         14
    87         58
    88          4
    89          7
    90          4
    91        135
    92         25
    93        423
    94         41
    95         47
    96         10
    97         16
    98          2
   103          9
   104          5
   105         33
   106         11
   107         10
   108          7
   109         15
   110          7
   111          9
   113          7
   115         18
   117          6
   119         10
   120          3
   121        345
   122         51
   123         33
   124          9
   125         18
   129         17
   131          6
   132          1
   136          6
   137         42
   138          7
   139         11
   140          4
   153          7
   157         49
   158          5
   159         30
   160          3
   165          6
   166          4
   167          7
   170          9
   171          3
   183         17
   184         10
   185          4
   199          8
   200          4
   201        230
   202         26
   203         74
   204          8
   217         42
   218          5
   219         14
   220          2
   257          4
   277         22
   321         37
   322          6