##TITLE=Library Entry 14685
##JCAMP-DX=Revision 4.10 
##DATA TYPE=MASS SPECTRUM
##SAMPLE DESCRIPTION=Organic Synthesis Lab, MSU, Moscow.TRC 612
##NAMES=HP
##CAS NAME=Pregn-4-ene-3,20-dione, 16,17-epoxy-, (16.alpha.)-
##MOLFORM=C21H28O3
##CAS REGISTRY NO=1097-51-4
##MP= -300
##BP= -300
##MW= 328
##$RETENTION INDEX=0
##$CONDENSED SPECTRUM=NO
##NPOINTS= 257
##XYDATA=(XY..XY) 1 
    27         81
    29         91
    30          1
    31          3
    38          1
    39         99
    40         21
    41        288
    42         12
    43        999
    44         22
    45          8
    50          2
    51         24
    52         16
    53        133
    54         15
    55        322
    56          7
    57         14
    58          1
    59          1
    60          1
    61          1
    63          6
    64          3
    65         72
    66         30
    67        131
    68         10
    69         27
    70          1
    71         12
    72          1
    73          1
    75          1
    76          1
    77        191
    78         45
    79        233
    80         36
    81        115
    82         10
    83         30
    84          4
    85         14
    86          4
    87          3
    89          4
    90          3
    91        271
    92         43
    93        134
    94         34
    95         85
    96         20
    97         51
    98          8
    99          9
   100          6
   101         11
   102          4
   103         28
   104         18
   105        177
   106         47
   107        124
   108         34
   109        150
   110         35
   111         29
   112          5
   113          4
   114          2
   115         45
   116         21
   117         74
   118         23
   119        114
   120         33
   121        106
   122        129
   123        199
   124        183
   125         29
   126          3
   127         12
   128         39
   129         64
   130         28
   131        105
   132         29
   133         95
   134         51
   135         92
   136         39
   137         50
   138         24
   139          7
   140          3
   141         23
   142         25
   143        177
   144        130
   145        187
   146        103
   147        107
   148         37
   149         63
   150         21
   151         43
   152         26
   153         19
   154          6
   155         26
   156         13
   157         52
   158         31
   159         79
   160         47
   161        124
   162         71
   163        101
   164         21
   165         13
   166          5
   167         10
   168          6
   169         34
   170         14
   171         46
   172         20
   173         58
   174         33
   175         48
   176         22
   177         25
   178          7
   179          7
   180          4
   181         12
   182          6
   183         40
   184         18
   185         42
   186         29
   187         76
   188         32
   189         39
   190          9
   191         17
   192          6
   193          7
   194          3
   195         13
   196          6
   197         29
   198         14
   199         24
   200         14
   201         27
   202         23
   203         13
   204          9
   205         20
   206          6
   207          9
   208          3
   209         26
   210         10
   211         33
   212         17
   213         23
   214         12
   215         23
   216          6
   217          5
   218          1
   219          2
   220          2
   221          4
   222          1
   223         12
   224         10
   225         75
   226         49
   227         23
   228         16
   229         22
   230         13
   231          5
   232          4
   233          2
   234          1
   235         10
   236          2
   237          5
   238          3
   239         32
   240         13
   241         16
   242         14
   243        185
   244         43
   245          5
   246          2
   247          1
   248          1
   249         31
   250         14
   251         15
   252          7
   253         61
   254         14
   255          5
   256          7
   257         29
   258          8
   259          1
   263          1
   265          3
   266          8
   267        154
   268        155
   269         38
   270          6
   271         27
   272          7
   273          2
   277          4
   281         26
   282         15
   283         11
   284        134
   285        228
   286        160
   287         28
   288          2
   292          1
   293          2
   295         21
   296          6
   297          3
   298          1
   299          6
   300         14
   301          3
   310         45
   311         11
   312          4
   313         27
   314          7
   315          1
   327          1
   328        473
   329        109
   330         14