##TITLE=Library Entry 58464
##JCAMP-DX=Revision 4.10 
##DATA TYPE=MASS SPECTRUM
##SAMPLE DESCRIPTION=Chemical Concepts
##NAMES=HP
##CAS NAME=Cyclopentanecarboxylic acid, 2-methyl-4-(trimethylsilyl)methylene
-, methyl ester, E,anti-
##MOLFORM=C12H22O2Si
##CAS REGISTRY NO=109715-41-5
##MP= -300
##BP= -300
##MW= 226
##$RETENTION INDEX=0
##$CONDENSED SPECTRUM=NO
##NPOINTS= 138
##XYDATA=(XY..XY) 1 
    27         16
    28          1
    29         13
    31         20
    39         19
    40          3
    41         24
    42          3
    43         75
    44         22
    45        102
    46          7
    47          4
    51          5
    52          4
    53         15
    54          4
    55         53
    56          4
    57         12
    58         29
    59        291
    60         25
    61         19
    62          6
    63          3
    65          8
    66          7
    67         17
    68         11
    69         41
    70          7
    71         13
    72         16
    73        368
    74         35
    75        413
    76         61
    77         36
    78          7
    79         49
    80          8
    81         10
    82          9
    83         39
    84         25
    85         19
    86          4
    87         12
    88          3
    89        999
    90         85
    91         63
    92         14
    93         36
    94        162
    95         28
    96          6
    97         20
    98         35
    99         15
   100          2
   101         13
   102          1
   103         17
   104          3
   105         12
   106          4
   107        225
   108         29
   109         24
   110          4
   111         15
   112          2
   113          7
   115         12
   116          1
   117          1
   119          3
   120          1
   121         10
   122         89
   123         22
   124          3
   125          8
   126          2
   127          3
   129          5
   131          2
   133          1
   135          6
   136          5
   137         11
   138          1
   139          5
   141         10
   142          1
   143          3
   145          1
   146          1
   147          1
   149          6
   150          2
   151        358
   152         64
   153         64
   154         10
   155         28
   156          5
   157          2
   159         29
   160          4
   161          1
   163          1
   165          2
   166         14
   167         32
   168          5
   169          7
   170          1
   178          2
   179          3
   181          6
   182          1
   183         85
   184         31
   185          7
   186          1
   194         12
   195         36
   196          7
   197          3
   211         97
   212         17
   213          5
   226         71
   227         13
   228          3