##TITLE=Library Entry 77491
##JCAMP-DX=Revision 4.10 
##DATA TYPE=MASS SPECTRUM
##SAMPLE DESCRIPTION=A.A.Kutin, Moscow, Russia
##NAMES=HP
##CAS NAME=2-Pyrrolidinone, 4,5-diphenyl-
##MOLFORM=C16H15NO
##CAS REGISTRY NO=109761-20-8
##MP= -300
##BP= -300
##MW= 237
##$RETENTION INDEX=0
##$CONDENSED SPECTRUM=NO
##NPOINTS= 125
##XYDATA=(XY..XY) 1 
    33          1
    34          1
    36          0
    37          1
    39         73
    40         21
    41          6
    42          5
    43          4
    44          9
    45          0
    47          0
    50         54
    51        125
    52         42
    53          8
    54          3
    55          3
    56          0
    57          0
    59          0
    61          2
    62         10
    63         32
    64          8
    65         21
    66          2
    67          0
    68          0
    69          1
    70          1
    74         14
    75         16
    77        220
    78        177
    79         45
    80          3
    81          1
    83          9
    85          0
    86          1
    87          3
    89         27
    90          9
    91         32
    92          2
    93          0
    94          2
    95          2
    96          3
    98          1
    99          1
   103        265
   104        999
   105        152
   106        561
   107         38
   108          1
   109          0
   110          0
   111          0
   113          0
   115         28
   116          7
   117         11
   119         13
   120          1
   121          0
   122          0
   125          0
   126          1
   127          1
   128          2
   130         13
   131         11
   132         13
   133          6
   134          1
   139          2
   140          0
   141          0
   143          0
   146          0
   149          0
   150          1
   151          2
   152          6
   153          1
   154          0
   157          0
   159          8
   160          3
   161          0
   162          0
   163          2
   165         15
   166          3
   167          2
   168          0
   176          3
   177          2
   178         10
   179          4
   180          2
   181          0
   189          3
   190          1
   191          4
   192          2
   193          6
   194          7
   195          1
   204          0
   205          0
   206          2
   207          1
   208          6
   209         12
   210          2
   219          0
   232          0
   237        396
   238         60
   239          5
   240          0