##TITLE=Library Entry 22946
##JCAMP-DX=Revision 4.10 
##DATA TYPE=MASS SPECTRUM
##SAMPLE DESCRIPTION=Japan AIST/NIMC Database- Spectrum MS-IW-5364
##NAMES=HP
##CAS NAME=2-(N-(2,3-Dimethyl-5-oxo-1-phenyl-3-pyrazolin-4-yl)acetamido)-2-m
ethylpropionamide
##MOLFORM=C17H22N4O3
##CAS REGISTRY NO=109842-03-7
##MP= -300
##BP= -300
##MW= 330
##$RETENTION INDEX=0
##$CONDENSED SPECTRUM=NO
##NPOINTS= 272
##XYDATA=(XY..XY) 1 
    13          1
    14          5
    15         35
    16          2
    17         26
    18         11
    25          2
    26         19
    27         71
    28        127
    29         19
    30          9
    31          1
    37          7
    38         16
    39         58
    40         46
    41        142
    42        143
    43        122
    44         17
    45          3
    46          1
    49          2
    50         16
    51         40
    52         24
    53         20
    54         37
    55         47
    56        999
    57         64
    58         13
    59          4
    60          1
    61          2
    62          4
    63         16
    64         42
    65         23
    66         22
    67         42
    68         33
    69         28
    70         29
    71         36
    72          6
    73          2
    74          4
    75          5
    76         20
    77        121
    78         27
    79          9
    80         19
    81         17
    82         38
    83        181
    84         61
    85         10
    86          6
    87          9
    88          1
    89          3
    90          7
    91         78
    92         22
    93         49
    94         21
    95         21
    96         33
    97        125
    98         10
    99          3
   100          1
   101          1
   102          4
   103         43
   104         69
   105         17
   106         19
   107         12
   108         22
   109         42
   110         34
   111         15
   112          2
   113          2
   114         66
   115         18
   116          6
   117         17
   118         50
   119        163
   120         23
   121         23
   122         21
   123         40
   124         54
   125         29
   126          6
   127          3
   128          6
   129          7
   130          9
   131          8
   132         18
   133         10
   134         78
   135         23
   136         33
   137         84
   138          9
   139          4
   140          3
   141          3
   142          5
   143          6
   144          8
   145          9
   146          9
   147         17
   148          8
   149         11
   150         19
   151        210
   152         42
   153          9
   154          4
   155          3
   156          4
   157          4
   158          8
   159         10
   160          6
   161          5
   162          3
   163          4
   164          6
   165          5
   166          2
   167         12
   168          5
   169          6
   170          6
   171          7
   172          7
   173          6
   174          6
   175          9
   176          6
   177          9
   178         12
   179          4
   180          2
   181          3
   182          3
   183          4
   184          9
   185         10
   186          9
   187         10
   188         52
   189         24
   190          3
   191          3
   192          8
   193         12
   194        151
   195         19
   196          5
   197          6
   198          9
   199         15
   200         15
   201         88
   202         77
   203         20
   204          5
   205          2
   206          1
   207          1
   208          2
   209          3
   210          5
   211          8
   212         86
   213        170
   214         57
   215        795
   216        127
   217         19
   218          3
   219          4
   220          7
   221          2
   222          2
   223          2
   224          3
   225          3
   226         18
   227         17
   228        129
   229        145
   230         32
   231          4
   232          1
   233          1
   234          1
   235          1
   236          3
   237          3
   238          3
   239          7
   240          4
   241          4
   242        100
   243         59
   244        688
   245        133
   246         16
   247          2
   248          1
   249          1
   250          2
   251          2
   252          4
   253          5
   254          9
   255          9
   256         31
   257          7
   258          2
   262          1
   263          1
   265          1
   266          1
   267          1
   268          4
   269         31
   270         62
   271         18
   272          3
   273          2
   277          1
   278          1
   279          1
   280          2
   281          2
   282          2
   283         34
   284          9
   285          2
   286        240
   287        134
   288         23
   289          3
   294          2
   295          2
   296          7
   297         86
   298         16
   299          3
   302          1
   310          1
   311         43
   312        523
   313        116
   314         15
   315          1
   330         26
   331          5