##TITLE=Library Entry 64096
##JCAMP-DX=Revision 4.10 
##DATA TYPE=MASS SPECTRUM
##SAMPLE DESCRIPTION=Chemical Concepts
##NAMES=HP
##CAS NAME=2-Aziridinecarbothioic acid, 1,2-bis(phenylmethyl)-, S-phenyl est
er
##MOLFORM=C23H21NOS
##CAS REGISTRY NO=109849-79-8
##MP= -300
##BP= -300
##MW= 359
##$RETENTION INDEX=0
##$CONDENSED SPECTRUM=NO
##NPOINTS= 114
##XYDATA=(XY..XY) 1 
    25         22
    26         42
    27         13
    29          6
    31          6
    38          9
    39        106
    40          9
    41         39
    42         16
    43         17
    44          5
    45         61
    50         28
    51         84
    52         19
    53          7
    54          9
    55         14
    56          6
    57         26
    58          5
    62          9
    63         44
    64         13
    65        278
    66         37
    69         26
    71          9
    74          8
    75         12
    76         17
    77        120
    78         31
    79         26
    82          7
    83          6
    84         12
    85          6
    89         43
    90         27
    91        999
    92        210
    94          9
   102         20
   103         63
   104         36
   105        271
   107         55
   108         11
   109        134
   110         72
   111         12
   115         79
   116         33
   117        165
   118         33
   121         37
   125        237
   126         22
   127         12
   128          8
   129          8
   130         64
   131         31
   132         11
   134          7
   135         15
   141         23
   143          7
   144         94
   145        185
   146         19
   152          6
   153          7
   155         13
   156          8
   164         10
   166          5
   167          7
   170          6
   178          6
   179          5
   181         28
   182         13
   193          6
   194          8
   195        103
   196         33
   197          8
   199          8
   205         15
   208         13
   210         15
   220         25
   221         52
   222        320
   223         59
   224          6
   226          6
   240          8
   250        674
   251        132
   252         13
   268         75
   269         14
   270          4
   284          5
   298          7
   299          4
   326         14
   327          3
   359         42
   360         11