##TITLE=Library Entry 98668
##JCAMP-DX=Revision 4.10 
##DATA TYPE=MASS SPECTRUM
##SAMPLE DESCRIPTION=V.G.Zaikin, TIPS, Russian Acad. Sci.
##NAMES=HP
##CAS NAME=1-(4-methylphenyl)-3-(2-furyl)propane
##MOLFORM=C14H16O
##CAS REGISTRY NO=109878-70-8
##MP= -300
##BP= -300
##MW= 200
##$RETENTION INDEX=0
##$CONDENSED SPECTRUM=NO
##NPOINTS= 68
##XYDATA=(XY..XY) 1 
    39        150
    40         20
    41        150
    42         20
    50         10
    51         70
    52         30
    53        220
    54         30
    55         30
    63         30
    64         10
    65        140
    66         50
    67         60
    69         30
    77        250
    78         90
    79        180
    80         30
    81        510
    82        360
    83         20
    90         30
    91        430
    92         40
    93         30
    94        110
    95        220
    97         10
   102         20
   103        120
   104         90
   105        510
   106        420
   107         60
   108         90
   109         15
   115        110
   116         60
   117        260
   118        999
   119        590
   120         80
   127         20
   128         40
   129         40
   130         20
   131         30
   132         40
   133         20
   142         20
   143         20
   144         20
   153         20
   154         10
   155         15
   156         40
   165         20
   169         20
   170         10
   171         10
   183         40
   185         10
   199         90
   200        650
   201         99
   202          7