##TITLE=Library Entry 11896
##JCAMP-DX=Revision 4.10 
##DATA TYPE=MASS SPECTRUM
##SAMPLE DESCRIPTION=Div. of Experiment Therapeutics WRAIR, WRAMC, Washingto
n DC 20307
##NAMES=HP
##CAS NAME=N(4)-Methoxy-6-[[2-naphthalenyl]sulfonyl]-2,4-quinazolinediamine
##MOLFORM=C19H16N4O3S
##CAS REGISTRY NO=109890-51-9
##MP= -300
##BP= -300
##MW= 380
##$RETENTION INDEX=0
##$CONDENSED SPECTRUM=NO
##NPOINTS= 24
##XYDATA=(XY..XY) 1 
    41        196
    43        999
    45        134
    47         70
    74         51
    75        154
    76         49
    77        223
   101        154
   115        173
   126         92
   127        628
   128        268
   147         99
   158         85
   173         52
   175        411
   192         53
   205        115
   207        128
   208         50
   380        590
   381        136
   382         41