##TITLE=Library Entry 81996
##JCAMP-DX=Revision 4.10 
##DATA TYPE=MASS SPECTRUM
##SAMPLE DESCRIPTION=Chemical Concepts
##NAMES=HP
##CAS NAME=1-Benzoyl-2-t-butyl-5-ethyl-3-methyl-5-vinyl-imidazolidin-4-one
##MOLFORM=C19H26N2O2
##CAS REGISTRY NO=109918-58-3
##MP= -300
##BP= -300
##MW= 314
##$RETENTION INDEX=0
##$CONDENSED SPECTRUM=NO
##NPOINTS= 71
##XYDATA=(XY..XY) 1 
    26          1
    27         10
    28          9
    29         20
    30          2
    39         13
    40          4
    41         40
    42         63
    43          7
    44          1
    50          5
    51         25
    52          3
    53         11
    54          7
    55          8
    56          6
    57         22
    58          1
    65          3
    66          2
    67         17
    68          7
    69          4
    70          1
    71          2
    75          1
    76          8
    77        238
    78         19
    79          2
    80          1
    81          3
    82          4
    83          2
    84          5
    85          2
    91          1
    94          2
    95          5
    96         10
    97          2
    98          5
    99          0
   100          1
   103          2
   104          5
   105        999
   106         80
   107          4
   108          1
   109          4
   110          1
   112          1
   123          4
   124          2
   125          1
   126          1
   136          1
   137          1
   141          2
   142          1
   152          3
   153          1
   161          1
   257        260
   258         41
   259          4
   299          2
   300          0