##TITLE=Library Entry 57247
##JCAMP-DX=Revision 4.10 
##DATA TYPE=MASS SPECTRUM
##SAMPLE DESCRIPTION=Chemical Concepts
##NAMES=HP
##CAS NAME=2-Methoxy-3-methyl-butyric acid, methyl ester
##MOLFORM=C7H14O3
##CAS REGISTRY NO=109989-32-4
##MP= -300
##BP= -300
##MW= 146
##$RETENTION INDEX=0
##$CONDENSED SPECTRUM=NO
##NPOINTS= 101
##XYDATA=(XY..XY) 1 
    26          2
    27         31
    28          6
    29         49
    30          2
    31         15
    33         32
    37          0
    38          2
    39         30
    40          3
    41         58
    42          7
    43         51
    44          6
    45         98
    46          1
    47          6
    49          0
    50          1
    51          1
    52          0
    53          8
    54          1
    55        348
    56         20
    57         17
    58          3
    59         34
    60          1
    61          4
    62          0
    63          0
    64          0
    65          0
    66          0
    67          0
    68          1
    69         16
    70          1
    71         20
    72         17
    73         79
    74          4
    75         28
    76          2
    77          1
    78          0
    79          0
    80          0
    81          0
    82          2
    83         12
    84          1
    85          4
    86         14
    87        999
    88         59
    89         49
    90         39
    91          2
    92          0
    93          0
    94          0
    95          0
    96          0
    97          0
    98          0
    99          2
   100          1
   101          4
   102          0
   103         10
   104         26
   105          1
   106          0
   107          0
   108          0
   109          0
   110          0
   111          0
   112          0
   113          0
   114          4
   115          1
   116          3
   117          1
   118          0
   119          0
   120          0
   121          0
   128          1
   129          0
   130          0
   144          1
   145          0
   146          0
   147          0
   148          0
   149          3
   150          0