##TITLE=Library Entry 24614
##JCAMP-DX=Revision 4.10 
##DATA TYPE=MASS SPECTRUM
##SAMPLE DESCRIPTION=Chemical Concepts
##NAMES=HP
##CAS NAME=Carbamate, N-(2-[(2-amino-2-thioxoethyl)amino]-1-methyl-2-oxoethy
l-, (1,1-dimethylethyl) ester
##MOLFORM=C10H19N3O3S
##CAS REGISTRY NO=109924-05-2
##MP= -300
##BP= -300
##MW= 261
##$RETENTION INDEX=0
##$CONDENSED SPECTRUM=NO
##NPOINTS= 157
##XYDATA=(XY..XY) 1 
    25          1
    26          7
    27         45
    28         61
    29        143
    30        340
    31         34
    33          7
    34         12
    35          1
    36          1
    37          3
    38          5
    39         57
    40         21
    41        230
    42         88
    43         94
    44        668
    45         37
    46          7
    47         14
    48          3
    49          2
    50          4
    51          4
    52          3
    53          8
    54          6
    55         36
    56         70
    57        999
    58         64
    59        118
    60         98
    61         45
    62         29
    63          3
    64          2
    65          2
    66          2
    67          3
    68          4
    69          4
    70         68
    71          7
    72          6
    73         41
    74        191
    75        221
    76         20
    77         14
    78          3
    79          2
    80          2
    81          3
    82          2
    83         13
    84         15
    85         69
    86          8
    87         11
    88        297
    89         51
    90         67
    91         65
    92          5
    93          4
    94          1
    95          2
    96          2
    97          2
    98          2
    99         16
   100          9
   101         10
   102         12
   103          3
   104          2
   105          2
   106          2
   107          2
   108          2
   109          2
   110          3
   111          8
   112          3
   113          3
   114          2
   115         11
   116         50
   117        126
   118         21
   119          9
   120          3
   121          2
   122          2
   123          2
   124          5
   125          5
   127         33
   128         19
   129          7
   130          2
   131          3
   132          3
   133          3
   134          2
   138          3
   139          3
   141          3
   142          4
   143         10
   144        208
   145         29
   146         29
   147          4
   148          2
   153          4
   154         13
   155          3
   156          3
   157          3
   158          2
   159          3
   160          3
   161         24
   162          5
   163          3
   167          2
   168          2
   170         20
   171         39
   172         12
   173          4
   174          2
   175          2
   181          2
   186          4
   187         40
   188        208
   190         22
   192         12
   194          2
   195          2
   203          4
   205        342
   206         37
   207         22
   208          4
   218         10
   219          3
   244          3
   261        156
   262         27
   263         13
   264          2