##TITLE=Library Entry 19188
##JCAMP-DX=Revision 4.10 
##DATA TYPE=MASS SPECTRUM
##SAMPLE DESCRIPTION=Div. of Experiment Therapeutics WRAIR, WRAMC, Washingto
n DC 20307
##NAMES=HP
##CAS NAME=4-Bromoetiochola-3,17-dione
##MOLFORM=C19H27BrO2
##CAS REGISTRY NO=109956-44-7
##MP= -300
##BP= -300
##MW= 366
##$RETENTION INDEX=0
##$CONDENSED SPECTRUM=NO
##NPOINTS= 150
##XYDATA=(XY..XY) 1 
    41        772
    42         27
    43        320
    44         19
    47         43
    49         24
    51         13
    53        372
    55        999
    57        124
    60          6
    63         11
    65        171
    67        652
    68        196
    69        141
    71         63
    73         28
    74          5
    77        275
    79        488
    80         28
    81        508
    82        103
    83         61
    84         16
    85         12
    86         11
    87         31
    88         15
    91        374
    93        456
    95        402
    97        310
    98         14
    99         19
   101         14
   103         35
   105        384
   107        390
   108         49
   109        229
   110         86
   111         77
   113          4
   115         46
   116          6
   117         80
   119        231
   120         14
   121        371
   122         64
   123        195
   124         73
   125         13
   127          5
   128         20
   129         32
   131        116
   133        177
   134         65
   135        118
   137         69
   141         13
   143         59
   145        249
   147        178
   149         77
   150          5
   151         33
   155         26
   157         78
   159        130
   160         25
   161        182
   162         11
   163         71
   165         36
   169         26
   171         55
   173        117
   174         24
   175         91
   177         62
   179          4
   183         34
   185         72
   187         71
   189         80
   190          6
   191         57
   195         42
   197         35
   199        122
   200          6
   201         49
   202          5
   203         44
   205          5
   209         22
   211        100
   213        111
   215         62
   216         13
   217        109
   218         24
   225         46
   227         61
   229         60
   231        165
   232         24
   237          5
   239         11
   241         39
   243         81
   244          7
   245         46
   251         83
   252         20
   253         11
   255         21
   259         18
   267         21
   269        233
   270         45
   271          4
   272          5
   287        310
   288         85
   289          4
   293         27
   295         35
   297         19
   307         23
   309         37
   311         24
   313         11
   322         34
   324         40
   333          9
   335          6
   347          4
   348          4
   349          9
   351         21
   353         20
   365         10
   366        234
   368        241
   369         52