##TITLE=Library Entry 23190
##JCAMP-DX=Revision 4.10 
##DATA TYPE=MASS SPECTRUM
##SAMPLE DESCRIPTION=Chemical Concepts
##NAMES=HP
##CAS NAME=Carbamic acid, N-(2-[(2-amino-2-thioxoethyl)amino]-2-oxoethyl)-,
 1,1dimethylethyl ester
##MOLFORM=C9H17N3O3S
##CAS REGISTRY NO=109947-91-3
##MP= -300
##BP= -300
##MW= 247
##$RETENTION INDEX=0
##$CONDENSED SPECTRUM=NO
##NPOINTS= 182
##XYDATA=(XY..XY) 1 
    26         10
    27         70
    28         38
    29        266
    30        919
    31         70
    33         26
    34         53
    35          3
    38         12
    39        116
    40         38
    41        441
    42         88
    43        144
    44         87
    45         27
    46         13
    47         25
    48          6
    49          3
    50         11
    51         12
    52          4
    53         18
    54         10
    55         55
    56        134
    57        999
    58         82
    59        209
    60        160
    61         58
    62         45
    63          4
    64          3
    65          4
    66          1
    67          3
    68          3
    69         10
    70         16
    71         81
    72         11
    73         87
    74        280
    75        199
    76         40
    77         14
    78          2
    79          1
    80          1
    81          2
    82          1
    83         23
    84         10
    85         34
    86         18
    87         15
    88         55
    89         42
    90         83
    91        106
    92          9
    93          8
    94          1
    95          2
    96          8
    97         25
    98          4
    99          7
   100         12
   101         20
   102         43
   103          4
   104          7
   105          8
   106          2
   107          1
   108          1
   109          2
   110          1
   111          2
   112          7
   113         48
   114         45
   115         14
   116         21
   117        190
   118         20
   119         17
   120          1
   121          1
   122          1
   123          1
   124          1
   125          1
   126          1
   127          1
   128         10
   129         18
   130        171
   131         44
   132         84
   133          6
   134          2
   135          1
   136          1
   137          1
   138          1
   139          5
   140         44
   141          6
   142          2
   143          1
   144          1
   145          1
   146          2
   147         50
   148         15
   156         32
   157         60
   158         48
   160          1
   162          2
   163          2
   164          2
   165          2
   166          2
   167          4
   168          1
   169          1
   170          1
   171          2
   172          2
   173         63
   174        438
   175         46
   176         28
   177          3
   178          3
   179          2
   180          1
   181          2
   182          1
   183          1
   184          1
   185          1
   186          1
   187          1
   188          2
   189          2
   191        589
   192         55
   193         40
   194          3
   195          1
   196          1
   197          1
   198          1
   199          1
   200          1
   201          1
   202          1
   203          1
   204          1
   213          1
   214          1
   215          1
   217          1
   218          1
   219          1
   220          2
   221          1
   222          2
   230          2
   231          0
   232          1
   233          1
   247        168
   248         25
   249         14