##TITLE=Library Entry 85005
##JCAMP-DX=Revision 4.10 
##DATA TYPE=MASS SPECTRUM
##SAMPLE DESCRIPTION=Chemical Concepts
##NAMES=HP
##CAS NAME=Tricyclo[3.3.0.0(2,8)]octan-3-one, 5,8-dimethyl-
##MOLFORM=C10H14O
##CAS REGISTRY NO=109915-32-4
##MP= -300
##BP= -300
##MW= 150
##$RETENTION INDEX=0
##$CONDENSED SPECTRUM=NO
##NPOINTS= 104
##XYDATA=(XY..XY) 1 
    26         20
    27        154
    28         16
    29         65
    30          1
    31          0
    36          0
    37          4
    38         20
    39        218
    40         38
    41        196
    42         17
    43         10
    44          1
    45          1
    46          1
    47          0
    48          0
    49          2
    50         26
    51         65
    52         32
    53         79
    54         15
    55         45
    56          7
    57          1
    58          2
    59          1
    60          1
    61          2
    62          6
    63         22
    64          5
    65         65
    66         22
    67        114
    68         11
    69          7
    70          0
    71          0
    72          0
    73          0
    74          3
    75          3
    76          1
    77        119
    78         28
    79        155
    80         76
    81         23
    82         13
    83          1
    84          0
    85          0
    86          1
    87          0
    88          0
    89          4
    90          2
    91        158
    92         26
    93        705
    94         67
    95         38
    96         15
    97          1
    98          1
    99          0
   100          0
   101          0
   102          1
   103          5
   104          1
   105         28
   106         18
   107        107
   108        999
   109         79
   110          4
   111          0
   115          2
   116          1
   117          8
   118          1
   119          2
   120          1
   121          6
   122         11
   123          2
   124          0
   131          1
   132          0
   133          0
   134          0
   135         43
   136          4
   137          0
   138          0
   143          0
   149          1
   150          9
   151          1