##TITLE=Library Entry 28671
##JCAMP-DX=Revision 4.10 
##DATA TYPE=MASS SPECTRUM
##SAMPLE DESCRIPTION=Japan AIST/NIMC Database- Spectrum MS-NW- 978
##NAMES=HP
##CAS NAME=1,3-Propanediamine, N,N,N',N'-tetramethyl-
##MOLFORM=C7H18N2
##CAS REGISTRY NO=110-95-2
##MP= -300
##BP= -300
##MW= 130
##$RETENTION INDEX=0
##$CONDENSED SPECTRUM=NO
##NPOINTS= 38
##XYDATA=(XY..XY) 1 
    15         31
    26          2
    27         12
    28         11
    29         14
    30         46
    39         11
    40          4
    41         24
    42        153
    43         53
    44        105
    45          7
    46          2
    51          1
    52          1
    54          3
    55          5
    56         24
    57         55
    58        999
    59         43
    68          4
    69          1
    70        205
    71         40
    72         57
    73          3
    78          1
    82          2
    83          1
    84        137
    85        450
    86         29
    87          1
   113          4
   130         17
   131          1