##TITLE=Library Entry 954
##JCAMP-DX=Revision 4.10 
##DATA TYPE=MASS SPECTRUM
##SAMPLE DESCRIPTION=Exported from NIST MS Search
##NAMES=HP
##CAS NAME=1,4-Butanediamine
##MOLFORM=C4H12N2
##CAS REGISTRY NO=110-60-1
##MP= -300
##BP= -300
##MW= 88
##$RETENTION INDEX=930
##$CONDENSED SPECTRUM=NO
##NPOINTS= 55
##XYDATA=(XY..XY) 1 
    12          7
    13          2
    14         13
    15         26
    16         12
    17         22
    18         11
    25          2
    26         17
    27         52
    28        247
    29         33
    30        999
    31        112
    32         12
    37          4
    38          7
    39         35
    40         14
    41         75
    42         87
    43        339
    44         66
    45         96
    50          2
    51          5
    52          8
    53          8
    54         11
    55          5
    56         28
    57          4
    58          9
    59         82
    60          4
    66          1
    67          2
    68          6
    69          8
    70         30
    71         28
    72          3
    76          1
    77          2
    78          2
    79          3
    80          3
    81          2
    82          3
    83          3
    84          4
    85          2
    86          1
    87          2
    88         27