##TITLE=Library Entry 16669
##JCAMP-DX=Revision 4.10 
##DATA TYPE=MASS SPECTRUM
##SAMPLE DESCRIPTION=Japan AIST/NIMC Database- Spectrum MS-NW-4345
##NAMES=HP
##CAS NAME=Propanenitrile, 3-methoxy-
##MOLFORM=C4H7NO
##CAS REGISTRY NO=110-67-8
##MP= -300
##BP= -300
##MW= 85
##$RETENTION INDEX=750
##$CONDENSED SPECTRUM=NO
##NPOINTS= 40
##XYDATA=(XY..XY) 1 
    12          1
    13          1
    14          7
    15        104
    16          1
    17          1
    18          2
    25          3
    26         24
    27         44
    28         63
    29        137
    30          7
    31         38
    32          3
    37          2
    38          8
    39         10
    40         23
    41         17
    42          4
    43          8
    44          3
    45        999
    46         21
    47          2
    50          1
    51         14
    52         27
    53          7
    54         82
    55         22
    56         21
    57          2
    58          2
    67          1
    68          5
    70          1
    84          6
    85          7