##TITLE=Library Entry 8185
##JCAMP-DX=Revision 4.10 
##DATA TYPE=MASS SPECTRUM
##SAMPLE DESCRIPTION=Japan AIST/NIMC Database- Spectrum MS-NW-1421
##NAMES=HP
##CAS NAME=2,5-Hexanediol, 2,5-dimethyl-
##MOLFORM=C8H18O2
##CAS REGISTRY NO=110-03-2
##MP= -300
##BP= -300
##MW= 146
##$RETENTION INDEX=916
##$CONDENSED SPECTRUM=NO
##NPOINTS= 63
##XYDATA=(XY..XY) 1 
    14          2
    15         24
    16          1
    17          3
    18         10
    26          3
    27         48
    28         24
    29         56
    30          2
    31        112
    32          6
    38          2
    39         48
    40          7
    41        123
    42        104
    43        999
    44         23
    45         13
    48          1
    49          1
    50          4
    51          5
    52          2
    53         20
    54          9
    55        333
    56         21
    57         24
    58         51
    59        815
    60         27
    61          4
    65          2
    67         30
    68         10
    69         62
    70        532
    71         44
    72          4
    73          3
    77         13
    78          1
    79          4
    80          2
    81          6
    82          1
    83          2
    85          3
    91          1
    93          5
    95        161
    96         12
    97          4
   109          1
   110         15
   111         26
   112          2
   113        293
   114         21
   115          3
   131          2