##TITLE=Library Entry 31010
##JCAMP-DX=Revision 4.10 
##DATA TYPE=MASS SPECTRUM
##SAMPLE DESCRIPTION=Exported from NIST MS Search
##NAMES=HP
##CAS NAME=Thiophene, tetrahydro-
##MOLFORM=C4H8S
##CAS REGISTRY NO=110-01-0
##MP= -300
##BP= -300
##MW= 88
##$RETENTION INDEX=813
##$CONDENSED SPECTRUM=NO
##NPOINTS= 63
##XYDATA=(XY..XY) 1 
     1         22
     2          2
    12          2
    13          2
    14          8
    15         30
    16          1
    25          3
    26         61
    27        240
    28         45
    29         32
    30          1
    32         10
    33         10
    34         15
    35          9
    36          1
    37         10
    38         22
    39        140
    40         20
    41        101
    42         38
    43         19
    44          3
    45        368
    46        319
    47        260
    48         20
    49         14
    50         14
    51         15
    52          4
    53         46
    54        130
    55        120
    56          6
    57         24
    58         82
    59        176
    60        999
    61         41
    62         44
    63          2
    69          6
    70          1
    71          7
    72          2
    73         39
    74          2
    75          2
    81          2
    82          2
    83          1
    84          2
    85         28
    86          4
    87        159
    88        535
    89         34
    90         23
    91          1