##TITLE=Library Entry 17381
##JCAMP-DX=Revision 4.10 
##DATA TYPE=MASS SPECTRUM
##SAMPLE DESCRIPTION=Exported from NIST MS Search
##NAMES=HP
##CAS NAME=2-Propanol, 1,1'-oxybis-
##MOLFORM=C6H14O3
##CAS REGISTRY NO=110-98-5
##MP= -300
##BP= -300
##MW= 134
##$RETENTION INDEX=1038
##$CONDENSED SPECTRUM=NO
##NPOINTS= 81
##XYDATA=(XY..XY) 1 
    14          4
    15         43
    16          2
    17          3
    18         13
    19         24
    26          5
    27         60
    28         28
    29         95
    30          6
    31        388
    32          7
    33          2
    36          1
    37          1
    38          3
    39         41
    40         13
    41        209
    42        571
    43        247
    44         41
    45        999
    46         31
    47        161
    48          4
    49          4
    50          1
    51          1
    52          2
    53          1
    54          1
    55         17
    56          2
    57         84
    58         46
    59        612
    60         25
    61         14
    62          1
    63          7
    65          1
    66          1
    67          1
    69          1
    70          1
    71         51
    72         54
    73         19
    74          2
    75         10
    76          1
    77          1
    79          1
    81          1
    82          1
    83          6
    84          1
    85          1
    86          1
    87          2
    88          1
    89        617
    90         43
    91          7
    92          1
    94          1
    95          1
    97          1
   101         19
   102          1
   103         10
   104          1
   105          1
   107          1
   115          2
   116          1
   117          2
   118          1
   119          2