##TITLE=Library Entry 1527
##JCAMP-DX=Revision 4.10 
##DATA TYPE=MASS SPECTRUM
##SAMPLE DESCRIPTION=Japan AIST/NIMC Database- Spectrum MS-NW-1446
##NAMES=HP
##CAS NAME=1,3,5-Trioxane
##MOLFORM=C3H6O3
##CAS REGISTRY NO=110-88-3
##MP= -300
##BP= -300
##MW= 90
##$RETENTION INDEX=658
##$CONDENSED SPECTRUM=NO
##NPOINTS= 25
##XYDATA=(XY..XY) 1 
    12          1
    13          2
    14         10
    15          7
    16          1
    17          2
    18         11
    28         47
    29        264
    30        152
    31        999
    32         56
    33          5
    40          1
    42          1
    44          5
    45          1
    59          2
    60          5
    61        357
    62          9
    63          1
    89        247
    90          9
    91          1