##TITLE=Library Entry 23200
##JCAMP-DX=Revision 4.10 
##DATA TYPE=MASS SPECTRUM
##SAMPLE DESCRIPTION=Japan AIST/NIMC Database- Spectrum MS-NW-1612
##NAMES=HP
##CAS NAME=2-Butyne-1,4-diol
##MOLFORM=C4H6O2
##CAS REGISTRY NO=110-65-6
##MP= -300
##BP= -300
##MW= 86
##$RETENTION INDEX=0
##$CONDENSED SPECTRUM=NO
##NPOINTS= 57
##XYDATA=(XY..XY) 1 
    12          4
    13          3
    14         12
    15         39
    16          2
    17         15
    18         48
    19          6
    24          7
    25         22
    26         62
    27        200
    28         69
    29        488
    30         38
    31        319
    32          6
    33          1
    34          1
    36         16
    37         75
    38        146
    39        669
    40        557
    41        144
    42         76
    43         84
    44         11
    45          7
    47         13
    48          3
    49         23
    50         69
    51         95
    52         35
    53         64
    54         12
    55        450
    56        184
    57        999
    58         51
    59          3
    60          4
    65          2
    66         21
    67         19
    68        201
    69         16
    70          1
    71         31
    72          1
    82          1
    83          3
    84          8
    85         50
    86         29
    87          1