##TITLE=Library Entry 20333
##JCAMP-DX=Revision 4.10 
##DATA TYPE=MASS SPECTRUM
##SAMPLE DESCRIPTION=Exported from NIST MS Search
##NAMES=HP
##CAS NAME=1-Butanol, 3-methyl-, formate
##MOLFORM=C6H12O2
##CAS REGISTRY NO=110-45-2
##MP= -300
##BP= -300
##MW= 116
##$RETENTION INDEX=792
##$CONDENSED SPECTRUM=NO
##NPOINTS= 68
##XYDATA=(XY..XY) 1 
    14          5
    15         37
    16          2
    17          1
    18          4
    19         13
    25          4
    26         29
    27        329
    28        275
    29        496
    30         18
    31        369
    32         18
    33          4
    36          1
    37          9
    38         20
    39        235
    40         42
    41        614
    42        470
    43        614
    44         39
    45         87
    46          6
    47         68
    48          1
    49          2
    50         10
    51         15
    52          5
    53         37
    54         25
    55        999
    56        189
    57        360
    58         20
    59         36
    60         82
    61         20
    62          2
    63          1
    65          1
    66          1
    67          6
    68          4
    69         59
    70        767
    71         60
    72          4
    73        175
    74        229
    75         13
    76          1
    83          2
    84          2
    85          2
    86          2
    87         21
    88          5
    89          4
    98          2
   101         10
   113          4
   114          1
   115          2
   116          1