##TITLE=Library Entry 45134
##JCAMP-DX=Revision 4.10 
##DATA TYPE=MASS SPECTRUM
##SAMPLE DESCRIPTION=J.VOTH UNIV. OF CALIFORNIA, DAVIS, CALIFORNIA, 95616, U
SA
##NAMES=HP
##CAS NAME=Ethanol, 2-(ethylthio)-
##MOLFORM=C4H10OS
##CAS REGISTRY NO=110-77-0
##MP= -300
##BP= -300
##MW= 106
##$RETENTION INDEX=0
##$CONDENSED SPECTRUM=NO
##NPOINTS= 68
##XYDATA=(XY..XY) 1 
    12          5
    13         11
    14         40
    15        108
    16          4
    17          6
    18         15
    19         25
    24          1
    25          9
    26         90
    27        421
    28         61
    29        427
    30         16
    31        189
    32         13
    33         14
    34         20
    35         78
    36          1
    37          4
    38          1
    39          7
    40          1
    41         57
    42         31
    43         80
    44         78
    45        382
    46        165
    47        768
    48         99
    49         41
    50          4
    51          1
    53          2
    55          2
    56          3
    57         23
    58         56
    59        147
    60        133
    61        212
    62        110
    63        118
    64          8
    65          5
    69          1
    71          1
    72          2
    73          6
    74          2
    75        999
    76         64
    77         61
    78          5
    79          1
    86          1
    87          3
    88          3
    89          4
    91          7
    92          1
   105          3
   106        425
   107         23
   108         20