##TITLE=Library Entry 29591
##JCAMP-DX=Revision 4.10 
##DATA TYPE=MASS SPECTRUM
##SAMPLE DESCRIPTION=NIST Mass Spectrometry Data Center, 1998.
##NAMES=HP
##CAS NAME=Ethanol, 2-ethoxy-
##MOLFORM=C4H10O2
##CAS REGISTRY NO=110-80-5
##MP= -300
##BP= -300
##MW= 90
##$RETENTION INDEX=708
##$CONDENSED SPECTRUM=NO
##NPOINTS= 39
##XYDATA=(XY..XY) 1 
    13          1
    14          5
    15         25
    16          2
    19         16
    25          2
    26         32
    27        189
    28         47
    29        420
    30         27
    31        938
    32         25
    33         12
    37          1
    39          2
    40          1
    41         96
    42         43
    43        261
    44         64
    45        471
    46         18
    47          3
    56          1
    57          7
    58          7
    59        999
    60         42
    61         38
    62          4
    63          2
    72        247
    73         13
    74          1
    75         12
    89          1
    90          7
    91          1