##TITLE=Library Entry 8044
##JCAMP-DX=Revision 4.10 
##DATA TYPE=MASS SPECTRUM
##SAMPLE DESCRIPTION=Exported from NIST MS Search
##NAMES=HP
##CAS NAME=2-Heptanone
##MOLFORM=C7H14O
##CAS REGISTRY NO=110-43-0
##MP= -300
##BP= -300
##MW= 114
##$RETENTION INDEX=891
##$CONDENSED SPECTRUM=NO
##NPOINTS= 66
##XYDATA=(XY..XY) 1 
    12          1
    13          2
    14         11
    15         81
    16          2
    18          1
    25          1
    26         21
    27        195
    28         42
    29        124
    30          4
    31          5
    32          1
    37          4
    38         11
    39        101
    40         17
    41        116
    42         69
    43        999
    44         27
    45          7
    48          1
    49          1
    50          5
    51          7
    52          3
    53         12
    54          4
    55         45
    56         10
    57         18
    58        549
    59         86
    60          4
    61          1
    62          1
    63          2
    65          1
    66          1
    67          2
    68          1
    69          3
    70          4
    71        133
    72         18
    73          1
    74          1
    77          1
    78          1
    79          1
    81          4
    83          1
    84          1
    85         17
    86          3
    95          1
    96          1
    97          1
    98          1
    99         25
   100          2
   114         52
   115          6
   116          1