##TITLE=Library Entry 44765
##JCAMP-DX=Revision 4.10 
##DATA TYPE=MASS SPECTRUM
##SAMPLE DESCRIPTION=NIST Mass Spectrometry Data Center
##NAMES=HP
##CAS NAME=Decanoic acid, methyl ester
##MOLFORM=C11H22O2
##CAS REGISTRY NO=110-42-9
##MP= -300
##BP= -300
##MW= 186
##$RETENTION INDEX=1325
##$CONDENSED SPECTRUM=NO
##NPOINTS= 93
##XYDATA=(XY..XY) 1 
    15          8
    26          2
    27         35
    28         12
    29         59
    30          2
    31          4
    33          1
    39         51
    40         11
    41        191
    42         55
    43        205
    44          8
    45         13
    50          1
    51          4
    52          2
    53         23
    54         17
    55        249
    56         48
    57         94
    58          7
    59        140
    60          5
    61          3
    63          1
    65          4
    66          2
    67         21
    68         15
    69        100
    70         20
    71         41
    72          3
    74        999
    75        108
    76          7
    77          3
    78          1
    79          7
    80          2
    81         17
    82          7
    83         51
    84         37
    85         24
    87        585
    88         59
    89          4
    91          1
    93          3
    94          1
    95         13
    96          2
    97         35
    98         26
    99          3
   100          2
   101         78
   102          6
   103          1
   107          2
   108          1
   109          1
   110          5
   111          9
   112         12
   113          2
   115         22
   116          5
   117          1
   121          1
   125          4
   126          2
   129         58
   130          6
   135          2
   136          2
   137          1
   139          1
   143        198
   144         19
   145          1
   153          2
   155        107
   156         13
   157         35
   158          4
   186         19
   187          5
   188          1