##TITLE=Library Entry 21520
##JCAMP-DX=Revision 4.10 
##DATA TYPE=MASS SPECTRUM
##SAMPLE DESCRIPTION=Japan AIST/NIMC Database- Spectrum MS-NW- 921
##NAMES=HP
##CAS NAME=Butane, 1,4-dibromo-
##MOLFORM=C4H8Br2
##CAS REGISTRY NO=110-52-1
##MP= -300
##BP= -300
##MW= 214
##$RETENTION INDEX=1094
##$CONDENSED SPECTRUM=NO
##NPOINTS= 55
##XYDATA=(XY..XY) 1 
    14          3
    15          9
    18          2
    25          5
    26         68
    27        394
    28         94
    29        270
    30          6
    36          1
    37          9
    38         19
    39        168
    40         12
    41        151
    42          9
    43          1
    49          7
    50         17
    51         19
    52          8
    53         69
    54         23
    55        999
    56         50
    57          2
    67          1
    68          1
    69          1
    79         10
    80         13
    81         11
    82         11
    91          5
    92          1
    93         20
    94          1
    95         20
   105          4
   106         20
   107         68
   108         21
   109         61
   110          1
   119          4
   121          3
   133          1
   134         37
   135        418
   136         56
   137        398
   138         16
   214          2
   216          4
   218          2