##TITLE=Library Entry 27680
##JCAMP-DX=Revision 4.10 
##DATA TYPE=MASS SPECTRUM
##SAMPLE DESCRIPTION=Japan AIST/NIMC Database- Spectrum MS-NW-5119
##NAMES=HP
##CAS NAME=1,2-Ethanediamine, N-ethyl-
##MOLFORM=C4H12N2
##CAS REGISTRY NO=110-72-5
##MP= -300
##BP= -300
##MW= 88
##$RETENTION INDEX=0
##$CONDENSED SPECTRUM=NO
##NPOINTS= 45
##XYDATA=(XY..XY) 1 
    14          3
    15         25
    16          2
    26          9
    27         47
    28         87
    29         82
    30        788
    31         12
    32          2
    36          3
    38          1
    39          3
    40          8
    41         22
    42         60
    43         27
    44        131
    45          8
    46          1
    47          1
    52          1
    53          1
    54          5
    55          4
    56         30
    57         13
    58        999
    59         45
    67          1
    68          2
    69          3
    70          5
    71          9
    72          1
    73          3
    78          3
    80          4
    81          1
    82          2
    84          2
    85          1
    86          1
    88         27
    89          2