##TITLE=Library Entry 1218
##JCAMP-DX=Revision 4.10 
##DATA TYPE=MASS SPECTRUM
##SAMPLE DESCRIPTION=Japan AIST/NIMC Database- Spectrum MS-NW-3726
##NAMES=HP
##CAS NAME=1-Pentanamine
##MOLFORM=C5H13N
##CAS REGISTRY NO=110-58-7
##MP= -300
##BP= -300
##MW= 87
##$RETENTION INDEX=726
##$CONDENSED SPECTRUM=NO
##NPOINTS= 35
##XYDATA=(XY..XY) 1 
    15          5
    17          1
    18          2
    26          4
    27         30
    28         27
    29         19
    30        999
    31         18
    38          2
    39         17
    40          3
    41         30
    42         22
    43         13
    44         15
    45         32
    46          1
    50          1
    51          2
    52          1
    53          2
    54          2
    55          9
    56          7
    57          1
    58          2
    59          1
    67          1
    69          4
    70          3
    72          1
    86          5
    87         44
    88          3