##TITLE=Library Entry 70927
##JCAMP-DX=Revision 4.10 
##DATA TYPE=MASS SPECTRUM
##SAMPLE DESCRIPTION=RADIAN CORP
##NAMES=HP
##CAS NAME=Propanenitrile, 3-(1-methylethoxy)-
##MOLFORM=C6H11NO
##CAS REGISTRY NO=110-47-4
##MP= -300
##BP= -300
##MW= 113
##$RETENTION INDEX=879
##$CONDENSED SPECTRUM=NO
##NPOINTS= 53
##XYDATA=(XY..XY) 1 
    14          4
    15         28
    18          1
    19         11
    25          1
    26         26
    27        183
    28        119
    29         60
    30          6
    31         39
    32          8
    37          6
    38         18
    39        136
    40         51
    41        417
    42        119
    43        870
    44         42
    45        902
    46         22
    47          3
    50          5
    51         11
    52         33
    53          9
    54        742
    55         63
    56         15
    57         12
    58          9
    59         92
    60          3
    67          1
    68        240
    69         12
    70        108
    71         54
    72         11
    73        102
    74          5
    82          2
    83          5
    84         16
    85          3
    86          2
    96          2
    98        999
    99         60
   100          4
   111         26
   112          2