##TITLE=Library Entry 10618
##JCAMP-DX=Revision 4.10 
##DATA TYPE=MASS SPECTRUM
##SAMPLE DESCRIPTION=Japan AIST/NIMC Database- Spectrum MS-NW-1214
##NAMES=HP
##CAS NAME=2,5-Hexanedione
##MOLFORM=C6H10O2
##CAS REGISTRY NO=110-13-4
##MP= -300
##BP= -300
##MW= 114
##$RETENTION INDEX=921
##$CONDENSED SPECTRUM=NO
##NPOINTS= 48
##XYDATA=(XY..XY) 1 
    14          8
    15         63
    16          1
    18          2
    26          9
    27         37
    28         16
    29          9
    31          3
    32          2
    37          2
    38          4
    39         15
    40          2
    41         15
    42         30
    43        999
    44         24
    45         11
    50          3
    51          3
    52          1
    53          9
    54          5
    55          9
    56          3
    57         53
    58          5
    59          1
    60          9
    61          1
    67          2
    69          1
    70          1
    71        116
    72         26
    73          2
    81          4
    83          3
    95          2
    96          2
    97          1
    98          3
    99        220
   100         11
   101          2
   114         51
   115          4