##TITLE=Library Entry 19780
##JCAMP-DX=Revision 4.10 
##DATA TYPE=MASS SPECTRUM
##SAMPLE DESCRIPTION=Japan AIST/NIMC Database- Spectrum MS-NW-1791
##NAMES=HP
##CAS NAME=Butanedioic acid
##MOLFORM=C4H6O4
##CAS REGISTRY NO=110-15-6
##MP= -300
##BP= -300
##MW= 118
##$RETENTION INDEX=0
##$CONDENSED SPECTRUM=NO
##NPOINTS= 62
##XYDATA=(XY..XY) 1 
    12          2
    13         10
    14         38
    15         29
    16          2
    17         20
    18         74
    19          9
    24          4
    25         27
    26        195
    27        636
    28        517
    29        457
    30        115
    31         58
    36          3
    37          5
    38          4
    39          4
    40          1
    41         13
    42         88
    43         75
    44         36
    45        842
    46         93
    47         36
    51          1
    52          4
    53         30
    54         11
    55        999
    56        286
    57         25
    58          2
    59          2
    60          6
    63         11
    67          1
    69          5
    70          1
    71         11
    72        194
    73        574
    74        753
    75         25
    76          3
    81          2
    82          2
    83          4
    84          1
    85          2
    90          1
    95          1
    97          2
    99          4
   100        606
   101        190
   102         11
   103          1
   118          1