##TITLE=Library Entry 20904
##JCAMP-DX=Revision 4.10 
##DATA TYPE=MASS SPECTRUM
##SAMPLE DESCRIPTION=NIST Mass Spectrometry Data Center, 1990.
##NAMES=HP
##CAS NAME=2H-Pyran, 3,4-dihydro-
##MOLFORM=C5H8O
##CAS REGISTRY NO=110-87-2
##MP= -300
##BP= -300
##MW= 84
##$RETENTION INDEX=708
##$CONDENSED SPECTRUM=NO
##NPOINTS= 34
##XYDATA=(XY..XY) 1 
    14         16
    15         25
    16          3
    26        161
    27        478
    28        391
    29        394
    30         14
    31         26
    37         32
    38         58
    39        346
    40         48
    41        245
    42         42
    43         53
    44         15
    49         21
    50         74
    51         85
    52         36
    53        152
    54        265
    55        999
    56        324
    57         84
    65         13
    66         13
    68          8
    69        112
    81         15
    83        264
    84        510
    85         27