##TITLE=Library Entry 54044
##JCAMP-DX=Revision 4.10 
##DATA TYPE=MASS SPECTRUM
##SAMPLE DESCRIPTION=Japan AIST/NIMC Database- Spectrum MS-NW- 539
##NAMES=HP
##CAS NAME=Piperidine
##MOLFORM=C5H11N
##CAS REGISTRY NO=110-89-4
##MP= -300
##BP= -300
##MW= 85
##$RETENTION INDEX=764
##$CONDENSED SPECTRUM=NO
##NPOINTS= 49
##XYDATA=(XY..XY) 1 
    14          2
    15         31
    16          1
    17          4
    18         24
    25          1
    26         23
    27        118
    28        290
    29        308
    30        276
    31          6
    32          3
    34          1
    35          4
    37          3
    38          8
    39         78
    40         14
    41        119
    42        255
    43        225
    44        334
    45          8
    49          1
    50          8
    51         12
    52         13
    53         21
    54         32
    55        103
    56        447
    57        448
    58         17
    65          3
    67         16
    68         15
    69          6
    70        121
    71          6
    78          1
    79          7
    80          7
    81          1
    82         19
    83         10
    84        999
    85        529
    86         29