##TITLE=Library Entry 23894
##JCAMP-DX=Revision 4.10 
##DATA TYPE=MASS SPECTRUM
##SAMPLE DESCRIPTION=Japan AIST/NIMC Database- Spectrum MS-NW-2870
##NAMES=HP
##CAS NAME=2-Butene-1,4-diol
##MOLFORM=C4H8O2
##CAS REGISTRY NO=110-64-5
##MP= -300
##BP= -300
##MW= 88
##$RETENTION INDEX=911
##$CONDENSED SPECTRUM=NO
##NPOINTS= 64
##XYDATA=(XY..XY) 1 
    12          1
    13          2
    14          9
    15         38
    16          2
    17         11
    18         46
    19         34
    20          1
    24          1
    25          8
    26         54
    27        293
    28         51
    29        397
    30         24
    31        544
    32          8
    33          3
    34          1
    36          6
    37         28
    38         52
    39        435
    40        121
    41        526
    42        939
    43        215
    44        183
    45         54
    46          1
    47        204
    48          3
    49          6
    50         21
    51         24
    52          9
    53         31
    54         30
    55         76
    56         11
    57        999
    58        109
    59          7
    60          3
    61          1
    65          1
    66          3
    67          3
    68         18
    69        181
    70        340
    71         28
    72          3
    73          3
    80          1
    81          2
    82          1
    83          2
    84          6
    85          2
    86          2
    87          3
    88          1