##TITLE=Library Entry 24881
##JCAMP-DX=Revision 4.10 
##DATA TYPE=MASS SPECTRUM
##SAMPLE DESCRIPTION=Japan AIST/NIMC Database- Spectrum MS-NW-5108
##NAMES=HP
##CAS NAME=Hexadecanoic acid, 2-methylpropyl ester
##MOLFORM=C20H40O2
##CAS REGISTRY NO=110-34-9
##MP= -300
##BP= -300
##MW= 312
##$RETENTION INDEX=2135
##$CONDENSED SPECTRUM=NO
##NPOINTS= 193
##XYDATA=(XY..XY) 1 
    14          1
    15          2
    17          2
    18          7
    26          4
    27         64
    28         40
    29        204
    30          5
    31          9
    37          1
    38          2
    39         48
    40         10
    41        366
    42         76
    43        405
    44         12
    45          8
    50          1
    51          2
    52          2
    53         15
    54         25
    55        240
    56        953
    57        999
    58         47
    59          9
    60        224
    61         87
    62          4
    63          1
    65          3
    66          2
    67         38
    68         26
    69        136
    70         42
    71        170
    72         10
    73        180
    74         23
    75          3
    77          3
    78          1
    79          9
    80          7
    81         37
    82         24
    83         98
    84         56
    85        107
    86         11
    87         45
    88          6
    89          4
    91          3
    92          1
    93          8
    94          6
    95         40
    96         17
    97         75
    98         95
    99         31
   100          5
   101         34
   102          9
   103          4
   105          2
   107          5
   108          3
   109         22
   110         10
   111         41
   112         25
   113         17
   114          4
   115         41
   116         89
   117         40
   118          4
   119          1
   121          9
   122          2
   123         13
   124          7
   125         22
   126          7
   127         12
   128          2
   129        107
   130         11
   131          2
   134          1
   135          7
   136          2
   137          7
   138          6
   139         12
   140          5
   141          8
   142          1
   143         17
   144          4
   145          1
   149          5
   150          2
   151          3
   152          5
   153          9
   154          4
   155          6
   156          1
   157         30
   158          8
   159          1
   163          3
   165          3
   166          3
   167          6
   168          3
   169          2
   171         30
   172          6
   173          2
   177          2
   179          1
   181          3
   182          2
   183          3
   185         29
   186          5
   187          1
   192          3
   193          1
   194          9
   195          5
   196          7
   197          6
   198          1
   199         11
   200          4
   201          2
   202          1
   209          1
   210          2
   211          3
   213         54
   214          9
   215          1
   218          1
   219          4
   220          4
   221          2
   223          1
   225          2
   227         13
   228          5
   229          2
   236          8
   237          9
   238          5
   239        305
   240         59
   241          8
   242          2
   243          1
   253          3
   254          2
   255          5
   256        224
   257        271
   258         47
   259          5
   267          5
   268          1
   269          2
   270          4
   271          4
   272          1
   282          7
   283          2
   284          4
   285          4
   286          1
   297          5
   298          1
   311          1
   312         30
   313          7
   314          1