##TITLE=Library Entry 53869
##JCAMP-DX=Revision 4.10 
##DATA TYPE=MASS SPECTRUM
##SAMPLE DESCRIPTION=NIST Mass Spectrometry Data Center, 1998.
##NAMES=HP
##CAS NAME=Thiophene
##MOLFORM=C4H4S
##CAS REGISTRY NO=110-02-1
##MP= -300
##BP= -300
##MW= 84
##$RETENTION INDEX=675
##$CONDENSED SPECTRUM=NO
##NPOINTS= 43
##XYDATA=(XY..XY) 1 
    12          1
    13          1
    24          2
    25          7
    26         23
    27          6
    32         16
    33          4
    34          2
    36          9
    37         50
    38         63
    39        187
    40         11
    41          8
    42         17
    44         18
    45        378
    46         11
    47         18
    48          9
    49         42
    50         88
    51         45
    52          3
    56         18
    57        165
    58        729
    59         30
    60         34
    61          1
    68          8
    69         76
    70          4
    71          4
    80          7
    81         52
    82         32
    83         68
    84        999
    85         59
    86         49
    87          2