##TITLE=Library Entry 57940
##JCAMP-DX=Revision 4.10 
##DATA TYPE=MASS SPECTRUM
##SAMPLE DESCRIPTION=Japan AIST/NIMC Database- Spectrum MS-NW- 455
##NAMES=HP
##CAS NAME=Decanoic acid, ethyl ester
##MOLFORM=C12H24O2
##CAS REGISTRY NO=110-38-3
##MP= -300
##BP= -300
##MW= 200
##$RETENTION INDEX=1396
##$CONDENSED SPECTRUM=NO
##NPOINTS= 97
##XYDATA=(XY..XY) 1 
    15          5
    17          2
    18          7
    26          5
    27         86
    28         11
    29        225
    30          6
    31          6
    32          1
    39         37
    40          8
    41        190
    42         53
    43        220
    44          7
    45         82
    46          2
    47          1
    51          2
    52          1
    53         10
    54         11
    55        131
    56         39
    57        113
    58          6
    59         10
    60        178
    61        174
    62          5
    63          1
    65          1
    67         17
    68         12
    69         87
    70        140
    71         84
    72          5
    73        186
    74         26
    75          6
    77          1
    79          4
    80          1
    81         19
    82          7
    83         38
    84         38
    85         43
    86          3
    87         29
    88        999
    89         85
    90          6
    91          1
    93          2
    94          1
    95         15
    96          2
    97         28
    98         28
    99          3
   101        410
   102         38
   103          4
   107          2
   109          2
   110          5
   111         10
   112          6
   113          1
   115         62
   116          6
   121          1
   125          5
   126          3
   127          1
   129         25
   130          5
   135          4
   136          1
   137          3
   139          1
   143         36
   144          5
   153          5
   154          1
   155        143
   156         15
   157         98
   158         11
   171         16
   172          3
   173          6
   200         27
   201          4