##TITLE=Library Entry 6171
##JCAMP-DX=Revision 4.10 
##DATA TYPE=MASS SPECTRUM
##SAMPLE DESCRIPTION=Exported from NIST MS Search
##NAMES=HP
##CAS NAME=5-Hepten-2-one, 6-methyl-
##MOLFORM=C8H14O
##CAS REGISTRY NO=110-93-0
##MP= -300
##BP= -300
##MW= 126
##$RETENTION INDEX=986
##$CONDENSED SPECTRUM=NO
##NPOINTS= 48
##XYDATA=(XY..XY) 1 
    15         39
    26          9
    27        100
    28         22
    29         59
    31          5
    38          8
    39        130
    40         29
    41        460
    42         41
    43        999
    44         25
    45         13
    50          9
    51         21
    52         11
    53         67
    54         10
    55        330
    56         76
    57         14
    58        171
    59         15
    65         14
    66          9
    67        118
    68        153
    69        341
    70         23
    71        129
    72          7
    77         18
    79         12
    81         15
    82         17
    83         89
    84         12
    91          8
    93         77
    94          7
    97          9
   108        276
   109         27
   111        165
   112         11
   126        100
   127          9