##TITLE=Library Entry 15761
##JCAMP-DX=Revision 4.10 
##DATA TYPE=MASS SPECTRUM
##SAMPLE DESCRIPTION=Japan AIST/NIMC Database- Spectrum MS-NW-5001
##NAMES=HP
##CAS NAME=Butanediamide
##MOLFORM=C4H8N2O2
##CAS REGISTRY NO=110-14-5
##MP= -300
##BP= -300
##MW= 116
##$RETENTION INDEX=0
##$CONDENSED SPECTRUM=NO
##NPOINTS= 72
##XYDATA=(XY..XY) 1 
    12          8
    13          6
    14         13
    15         14
    16         77
    17        132
    18        117
    24          5
    25         18
    26        215
    27        298
    28        274
    29         33
    30         31
    31          2
    32          3
    34          2
    36          4
    37          9
    38         15
    39         15
    40         81
    41         24
    42         38
    43         31
    44        999
    45        171
    46         16
    50          9
    51         60
    52        151
    53        310
    54        119
    55        411
    56        123
    57        100
    58          7
    59          7
    60          1
    61          1
    63          1
    64          2
    65          1
    66          2
    67          3
    68          1
    69          2
    70         19
    71         42
    72        686
    73        988
    74         39
    75          3
    76          3
    77          5
    78          5
    79         61
    80         46
    81          8
    82         49
    83         12
    84          1
    91          1
    95          1
    97          5
    98         22
    99        418
   100        121
   101          8
   102          1
   116         26
   117          2