##TITLE=Library Entry 114196
##JCAMP-DX=Revision 4.10 
##DATA TYPE=MASS SPECTRUM
##SAMPLE DESCRIPTION=V.G. Zaikin, R.S.Borisov, TIPS RAS, Moscow, Russia
##NAMES=HP
##CAS NAME=Hexanedioic acid, dihexyl ester
##MOLFORM=C18H34O4
##CAS REGISTRY NO=110-33-8
##MP= -300
##BP= -300
##MW= 314
##$RETENTION INDEX=2127
##$CONDENSED SPECTRUM=NO
##NPOINTS= 64
##XYDATA=(XY..XY) 1 
    27         19
    29         38
    31          1
    39         10
    40          2
    41         91
    42         36
    43        318
    44          5
    53          4
    54         10
    55        138
    56        109
    57         42
    58          3
    59         18
    60          5
    61         24
    67          7
    68          7
    69         38
    73         30
    74          2
    82          8
    83         62
    84         89
    85         90
    86          9
    87        216
    88          9
    99          9
   100        118
   101        159
   102         33
   103         12
   110          8
   111        251
   112         42
   113          5
   126          2
   127          6
   128         26
   129        999
   130         70
   131          7
   145          3
   157          7
   170          5
   171        169
   172         18
   184        153
   185         22
   186         10
   212          9
   213        878
   214        118
   215         11
   231         48
   232          5
   257          2
   258          1
   271          6
   314          2
   315          3