##TITLE=Library Entry 10815
##JCAMP-DX=Revision 4.10 
##DATA TYPE=MASS SPECTRUM
##SAMPLE DESCRIPTION=Chuck Anderson, Aldrich Chemical Co.
##NAMES=HP
##CAS NAME=Isopropyl myristate
##MOLFORM=C17H34O2
##CAS REGISTRY NO=110-27-0
##MP= -300
##BP= -300
##MW= 270
##$RETENTION INDEX=1827
##$CONDENSED SPECTRUM=NO
##NPOINTS= 175
##XYDATA=(XY..XY) 1 
    14          0
    15          1
    19          0
    25          0
    26          2
    27         49
    28          8
    29         97
    30          2
    31          4
    36          0
    37          1
    38          2
    39         54
    40         14
    41        461
    42        141
    43        999
    44         37
    45         28
    46          0
    47          0
    48          0
    49          0
    50          0
    51          1
    52          1
    53         21
    54         32
    55        385
    56        113
    57        495
    58         29
    59        183
    60        642
    61        201
    62          7
    63          1
    65          4
    66          3
    67         53
    68         34
    69        217
    70         66
    71        244
    72         14
    73        295
    74         46
    75          3
    76          0
    77          2
    78          1
    79         11
    80          4
    81         38
    82         22
    83        117
    84         66
    85        124
    86         10
    87         74
    88          8
    89          7
    90          0
    91          2
    92          0
    93          9
    94          4
    95         48
    96         24
    97        129
    98         90
    99         50
   100          7
   101         47
   102        666
   103         96
   104          7
   105          1
   106          0
   107          8
   108          2
   109         33
   110         15
   111         69
   112         26
   113         25
   114          5
   115         69
   116         20
   117          4
   118          0
   119          1
   120          0
   121         11
   122          1
   123         15
   124          8
   125         30
   126          7
   127         10
   129        188
   130         18
   131          3
   132          0
   133          0
   134          0
   135          9
   136          1
   137          7
   138          5
   139         12
   140          6
   141          1
   143         47
   144          6
   145          1
   147          0
   148          0
   149          4
   150          0
   151          2
   152          1
   153          5
   154          2
   155          1
   157         19
   158          3
   159          1
   161          0
   163          1
   164          2
   165          1
   166         13
   167          4
   168          9
   169          3
   171         43
   172          5
   173          1
   177          1
   179          0
   180          0
   181          1
   182          0
   183          0
   185        133
   186         13
   187          1
   190          1
   191          9
   192          4
   193          1
   195          0
   199         20
   200          3
   201          0
   207          0
   208          4
   209         11
   210          2
   211        236
   212         32
   213          3
   214          0
   226          0
   227          6
   228        338
   229        215
   230         27
   231          2
   255          1
   270          8
   271          3
   272          0