##TITLE=Library Entry 4689
##JCAMP-DX=Revision 4.10 
##DATA TYPE=MASS SPECTRUM
##SAMPLE DESCRIPTION=Exported from NIST MS Search
##NAMES=HP
##CAS NAME=1-Pentanethiol
##MOLFORM=C5H12S
##CAS REGISTRY NO=110-66-7
##MP= -300
##BP= -300
##MW= 104
##$RETENTION INDEX=822
##$CONDENSED SPECTRUM=NO
##NPOINTS= 73
##XYDATA=(XY..XY) 1 
    15         42
    16          1
    25          2
    26         42
    27        373
    28         70
    29        345
    30          8
    31          1
    32          8
    33         20
    34         21
    35         46
    36          3
    37         11
    38         21
    39        206
    40         35
    41        430
    42        999
    43        253
    44          8
    45        121
    46         63
    47        283
    48         27
    49         18
    50          9
    51         11
    52          3
    53         20
    54         10
    55        488
    56         36
    57         43
    58         26
    59         30
    60         25
    61        149
    62         29
    63          9
    64          2
    65          2
    66          2
    67          5
    68          3
    69         26
    70        429
    71         41
    72          2
    73          5
    74          3
    75          7
    76          4
    77          1
    81          1
    82          1
    83          1
    84          1
    85          1
    87          1
    89          2
    90          1
    93          1
    94          1
    97          1
   101          1
   102          1
   103          4
   104        385
   105         25
   106         17
   107          1