##TITLE=Library Entry 1041
##JCAMP-DX=Revision 4.10 
##DATA TYPE=MASS SPECTRUM
##SAMPLE DESCRIPTION=Japan AIST/NIMC Database- Spectrum MS-NW-3096
##NAMES=HP
##CAS NAME=2-Ethoxyethylamine
##MOLFORM=C4H11NO
##CAS REGISTRY NO=110-76-9
##MP= -300
##BP= -300
##MW= 89
##$RETENTION INDEX=0
##$CONDENSED SPECTRUM=NO
##NPOINTS= 26
##XYDATA=(XY..XY) 1 
    14          3
    15         20
    17          3
    18         10
    26          7
    27         44
    28         43
    29         61
    30        999
    31        104
    32          3
    33          2
    40          3
    41         11
    42         51
    43         21
    44         72
    45        231
    46          6
    56          2
    58          5
    59         14
    60         12
    72          2
    73          1
    88          1