##TITLE=Library Entry 21942
##JCAMP-DX=Revision 4.10 
##DATA TYPE=MASS SPECTRUM
##SAMPLE DESCRIPTION=Japan AIST/NIMC Database- Spectrum MS-NW-3094
##NAMES=HP
##CAS NAME=Propane, 1-isocyanato-
##MOLFORM=C4H7NO
##CAS REGISTRY NO=110-78-1
##MP= -300
##BP= -300
##MW= 85
##$RETENTION INDEX=0
##$CONDENSED SPECTRUM=NO
##NPOINTS= 40
##XYDATA=(XY..XY) 1 
    12          1
    13          2
    14          6
    15         37
    18          1
    24          1
    25          5
    26         49
    27        216
    28        175
    29        330
    30        289
    31          4
    32          4
    36          1
    37          7
    38         13
    39         55
    40         31
    41        107
    42        284
    43         28
    44          4
    50          1
    51          7
    52          9
    53          2
    54         12
    55         19
    56        999
    57        232
    58         17
    68          1
    70         14
    71          1
    82          2
    83          1
    84        260
    85         87
    86          5