##TITLE=Library Entry 29618
##JCAMP-DX=Revision 4.10 
##DATA TYPE=MASS SPECTRUM
##SAMPLE DESCRIPTION=NIST Mass Spectrometry Data Center, 1992
##NAMES=HP
##CAS NAME=Butanal, oxime
##MOLFORM=C4H9NO
##CAS REGISTRY NO=110-69-0
##MP= -300
##BP= -300
##MW= 87
##$RETENTION INDEX=796
##$CONDENSED SPECTRUM=NO
##NPOINTS= 60
##XYDATA=(XY..XY) 1 
    12          3
    13          4
    14         35
    15        106
    16         31
    17         17
    18         84
    19         19
    25         18
    26        138
    27        573
    28        329
    29        429
    30         48
    31         48
    32          6
    33          4
    36          5
    37         48
    38         78
    39        310
    40        146
    41        895
    42        462
    43        160
    44        138
    45         49
    46        118
    47          4
    48          2
    49          5
    50         14
    51         26
    52         27
    53         17
    54         49
    55         88
    56         18
    57          7
    58          2
    59        999
    60         27
    61          2
    62          2
    63          5
    64          9
    65          2
    66          7
    67          2
    68         12
    69          9
    70         33
    71          2
    72        222
    73          7
    74          2
    84          2
    86         10
    87         48
    88          4