##TITLE=Library Entry 45164
##JCAMP-DX=Revision 4.10 
##DATA TYPE=MASS SPECTRUM
##SAMPLE DESCRIPTION=RADIAN CORP
##NAMES=HP
##CAS NAME=2-Butene, 1,4-dichloro-, (E)-
##MOLFORM=C4H6Cl2
##CAS REGISTRY NO=110-57-6
##MP= -300
##BP= -300
##MW= 124
##$RETENTION INDEX=930
##$CONDENSED SPECTRUM=NO
##NPOINTS= 60
##XYDATA=(XY..XY) 1 
    15          5
    25          9
    26         67
    27        190
    29          5
    35         42
    36         24
    37         54
    38         51
    39        240
    40         11
    41         16
    42          1
    43          3
    44          2
    47         10
    48         17
    49        122
    50        149
    51        226
    52         62
    53        624
    54        167
    55          8
    60         16
    61         46
    62        236
    63         43
    64         80
    65         10
    71          2
    72          4
    73         37
    74          4
    75        999
    76         36
    77        338
    78         12
    83          5
    84          5
    85         10
    86          6
    87         39
    88        462
    89        603
    90        177
    91        205
    92          9
    96          6
    98          4
   105          1
   109          2
   111          1
   123          2
   124        215
   125         11
   126        138
   127          6
   128         23
   129          1