##TITLE=Library Entry 7554
##JCAMP-DX=Revision 4.10 
##DATA TYPE=MASS SPECTRUM
##SAMPLE DESCRIPTION=NIST Mass Spectrometry Data Center
##NAMES=HP
##CAS NAME=Isobutyl acetate
##MOLFORM=C6H12O2
##CAS REGISTRY NO=110-19-0
##MP= -300
##BP= -300
##MW= 116
##$RETENTION INDEX=771
##$CONDENSED SPECTRUM=NO
##NPOINTS= 44
##XYDATA=(XY..XY) 1 
    14         10
    15         72
    16          2
    18          1
    26         11
    27        103
    28         34
    29        104
    30          7
    31         22
    33          1
    37          4
    38         11
    39        122
    40         22
    41        225
    42         71
    43        999
    44         40
    45         16
    50          3
    51          4
    52          1
    53          7
    54          2
    55         45
    56        450
    57         64
    58          5
    59          4
    60          3
    61         55
    62          1
    71         64
    72          6
    73        332
    74         35
    75          5
    86         43
    87          3
   101          4
   115          1
   116          1
   117          1