##TITLE=Library Entry 21985
##JCAMP-DX=Revision 4.10 
##DATA TYPE=MASS SPECTRUM
##SAMPLE DESCRIPTION=NIST Mass Spectrometry Data Center
##NAMES=HP
##CAS NAME=Butyl myristate
##MOLFORM=C18H36O2
##CAS REGISTRY NO=110-36-1
##MP= -300
##BP= -300
##MW= 284
##$RETENTION INDEX=1987
##$CONDENSED SPECTRUM=NO
##NPOINTS= 120
##XYDATA=(XY..XY) 1 
    15          6
    17          2
    18          4
    19          1
    27        149
    28         64
    29        497
    30         13
    31          9
    37          1
    39         98
    41        735
    42        146
    43        575
    44         22
    45         14
    50          1
    51          2
    53         28
    55        386
    56        999
    57        492
    58         31
    60        249
    61        147
    62          4
    63          1
    65          3
    67         43
    68         26
    69        152
    70         39
    71        132
    73        252
    74         26
    75          4
    77          3
    79         12
    81         33
    82         17
    83         98
    84         50
    85         64
    86         10
    87         53
    88          7
    89         10
    91          2
    93          9
    94          4
    95         33
    96         14
    97         70
    98         43
    99         18
   101         72
   102          8
   103          9
   107          5
   108          2
   109         15
   110          6
   111         34
   112         11
   113          7
   115         32
   116         59
   117         37
   118          2
   121          7
   122          1
   123          7
   124          4
   125         13
   126          3
   127          3
   129        106
   130         10
   131          3
   135          5
   137          3
   138          2
   139          5
   140          1
   143         23
   144          2
   145          1
   149          2
   151          1
   153          3
   157         10
   158          2
   159          1
   166          3
   167          1
   168          1
   171         18
   172          3
   173          1
   185         55
   186          7
   191          4
   192          1
   199         11
   200          1
   208          1
   209          3
   211         91
   212         15
   213          2
   227          5
   228         35
   229        160
   230         24
   231          2
   241         10
   242          1
   255          1
   284         17
   285          3