##TITLE=Library Entry 39827
##JCAMP-DX=Revision 4.10 
##DATA TYPE=MASS SPECTRUM
##SAMPLE DESCRIPTION=Japan AIST/NIMC Database- Spectrum MS-NW-5039
##NAMES=HP
##CAS NAME=Hydrazinecarboxamide, 2-(1-methylethylidene)-
##MOLFORM=C4H9N3O
##CAS REGISTRY NO=110-20-3
##MP= -300
##BP= -300
##MW= 115
##$RETENTION INDEX=0
##$CONDENSED SPECTRUM=NO
##NPOINTS= 66
##XYDATA=(XY..XY) 1 
    12         11
    13          7
    14         27
    15        206
    16        151
    17        195
    18         19
    24          3
    25         11
    26         70
    27        313
    28        417
    29         76
    30        306
    31         52
    32        138
    33          1
    36          3
    37         21
    38         58
    39        238
    40        212
    41        536
    42        494
    43        295
    44        215
    45          7
    46          1
    50          2
    51          9
    52         15
    53          8
    54        151
    55        257
    56        124
    57        736
    58         34
    59          8
    60          2
    67          3
    68          1
    69          4
    70         50
    71         36
    72        999
    73         47
    74         26
    75          1
    82          2
    83         40
    84          4
    85         17
    86          2
    94          1
    95          1
    96          1
    97         21
    98        190
    99         22
   100         98
   101          5
   112         20
   113          2
   115        291
   116         18
   117          1