##TITLE=Library Entry 1470
##JCAMP-DX=Revision 4.10 
##DATA TYPE=MASS SPECTRUM
##SAMPLE DESCRIPTION=Japan AIST/NIMC Database- Spectrum MS-NW- 35
##NAMES=HP
##CAS NAME=Formic acid, propyl ester
##MOLFORM=C4H8O2
##CAS REGISTRY NO=110-74-7
##MP= -300
##BP= -300
##MW= 88
##$RETENTION INDEX=571
##$CONDENSED SPECTRUM=NO
##NPOINTS= 35
##XYDATA=(XY..XY) 1 
    14          4
    15         18
    25          2
    26         27
    27        174
    28         72
    29        100
    30         17
    31        999
    32         19
    33          7
    37          7
    38         12
    39         76
    40         27
    41        220
    42        848
    43        103
    44          5
    45         75
    46          2
    47         90
    55          3
    56         12
    57         49
    58         13
    59         76
    60         26
    61          4
    69          1
    71          2
    73         18
    85          1
    87          2
    88          5