##TITLE=Library Entry 18417
##JCAMP-DX=Revision 4.10 
##DATA TYPE=MASS SPECTRUM
##SAMPLE DESCRIPTION=NIST Mass Spectrometry Data Center
##NAMES=HP
##CAS NAME=Butanedinitrile
##MOLFORM=C4H4N2
##CAS REGISTRY NO=110-61-2
##MP= -300
##BP= -300
##MW= 80
##$RETENTION INDEX=0
##$CONDENSED SPECTRUM=NO
##NPOINTS= 33
##XYDATA=(XY..XY) 1 
    12          1
    13          2
    14          2
    24          3
    25         10
    26         73
    27         39
    28         40
    29          2
    36          7
    37         20
    38         58
    39         64
    40        411
    41         39
    42          2
    48          3
    49          1
    50         26
    51        176
    52        290
    53        999
    54         90
    55          2
    62          4
    63          4
    64          3
    76         19
    77         30
    78          6
    79        379
    80        157
    81          8