##TITLE=Library Entry 39783
##JCAMP-DX=Revision 4.10 
##DATA TYPE=MASS SPECTRUM
##SAMPLE DESCRIPTION=Japan AIST/NIMC Database- Spectrum MS-IW-4644
##NAMES=HP
##CAS NAME=Maleic acid
##MOLFORM=C4H4O4
##CAS REGISTRY NO=110-16-7
##MP= -300
##BP= -300
##MW= 116
##$RETENTION INDEX=0
##$CONDENSED SPECTRUM=NO
##NPOINTS= 59
##XYDATA=(XY..XY) 1 
    12          3
    13          9
    14          8
    15         14
    16          3
    17         31
    18        135
    19          2
    24         11
    25         64
    26        461
    27        364
    28         96
    29         80
    30          2
    31          1
    32          1
    36          9
    37          9
    38          3
    40          6
    41         46
    42         35
    43         57
    44        124
    45        665
    46        167
    47          7
    50          3
    52         18
    53        168
    54        339
    55        327
    56         12
    57          2
    60          1
    68          1
    69         19
    70         17
    71        144
    72        999
    73         42
    74          6
    80          1
    81         14
    82         18
    83          1
    85          1
    87          3
    88          5
    89          3
    96          1
    97          1
    98        226
    99        308
   100         15
   101          2
   116         21
   117         11