##TITLE=Library Entry 70374
##JCAMP-DX=Revision 4.10 
##DATA TYPE=MASS SPECTRUM
##SAMPLE DESCRIPTION=Japan AIST/NIMC Database- Spectrum MS-NW-9066
##NAMES=HP
##CAS NAME=Sorbic Acid
##MOLFORM=C6H8O2
##CAS REGISTRY NO=110-44-1
##MP= -300
##BP= -300
##MW= 112
##$RETENTION INDEX=1075
##$CONDENSED SPECTRUM=NO
##NPOINTS= 74
##XYDATA=(XY..XY) 1 
    14          1
    15          8
    17          2
    18          8
    25          2
    26         20
    27         90
    28         38
    29         32
    30          2
    31         24
    32         11
    33          7
    36          1
    37         21
    38         52
    39        340
    40         92
    41        446
    42         51
    43        140
    44         12
    45         56
    46          7
    47         10
    48          1
    49          6
    50         27
    51         47
    52         16
    53         55
    54          8
    55        134
    56         30
    57         18
    58         26
    59          1
    60          8
    61         12
    62         20
    63         34
    64          9
    65        143
    66        200
    67        640
    68         54
    69        153
    70         23
    71         13
    72          1
    73          3
    77          7
    79         27
    80          1
    81          7
    82          6
    83         43
    84         49
    85          4
    86          1
    91          1
    92          1
    93         14
    94         18
    95         69
    96          5
    97        999
    98         55
    99          5
   110          2
   111         82
   112        776
   113         54
   114          5