##TITLE=Library Entry 5893
##JCAMP-DX=Revision 4.10 
##DATA TYPE=MASS SPECTRUM
##SAMPLE DESCRIPTION=Japan AIST/NIMC Database- Spectrum MS-IW-2225
##NAMES=HP
##CAS NAME=Pentanenitrile
##MOLFORM=C5H9N
##CAS REGISTRY NO=110-59-8
##MP= -300
##BP= -300
##MW= 83
##$RETENTION INDEX=738
##$CONDENSED SPECTRUM=NO
##NPOINTS= 47
##XYDATA=(XY..XY) 1 
    13          1
    14          2
    15         12
    25          2
    26         43
    27        301
    28        107
    29        146
    30          5
    31          1
    36          1
    37         16
    38         31
    39        179
    40         47
    41        976
    42         61
    43        999
    44         41
    45          1
    49          5
    50         16
    51         30
    52         45
    53         31
    54        703
    55        292
    56         31
    57          6
    61          1
    62          1
    63          3
    64         13
    65          3
    66         16
    67          5
    68         30
    69          2
    75          4
    76          3
    77          1
    78          3
    80          3
    81          1
    82         55
    83          4
    84          3