##TITLE=Library Entry 24052
##JCAMP-DX=Revision 4.10 
##DATA TYPE=MASS SPECTRUM
##SAMPLE DESCRIPTION=Exported from NIST MS Search
##NAMES=HP
##CAS NAME=n-Hexane
##MOLFORM=C6H14
##CAS REGISTRY NO=110-54-3
##MP= -300
##BP= -300
##MW= 86
##$RETENTION INDEX=600
##$CONDENSED SPECTRUM=NO
##NPOINTS= 32
##XYDATA=(XY..XY) 1 
     2          1
    12          1
    13          1
    14          6
    15         58
    16          2
    26         39
    27        454
    28        107
    29        606
    30         13
    32          1
    39        197
    40         32
    41        701
    42        409
    43        812
    44         27
    53         17
    54          6
    55         66
    56        453
    57        999
    58         44
    69          3
    70          7
    71         50
    72          3
    84          1
    85          4
    86        155
    87         10