##TITLE=Library Entry 15907
##JCAMP-DX=Revision 4.10 
##DATA TYPE=MASS SPECTRUM
##SAMPLE DESCRIPTION=Japan AIST/NIMC Database- Spectrum MS-NW-2184
##NAMES=HP
##CAS NAME=1-Butanamine, N-methyl-
##MOLFORM=C5H13N
##CAS REGISTRY NO=110-68-9
##MP= -300
##BP= -300
##MW= 87
##$RETENTION INDEX=630
##$CONDENSED SPECTRUM=NO
##NPOINTS= 33
##XYDATA=(XY..XY) 1 
    15         15
    26          3
    27         28
    28         32
    29         26
    30         44
    31          7
    37          1
    38          1
    39         14
    40          3
    41         25
    42         37
    43         20
    44        999
    45         26
    50          1
    51          1
    52          1
    53          2
    54          2
    55          6
    56         12
    57         14
    58         36
    59          2
    70          5
    71          1
    72          1
    84          3
    86          9
    87         66
    88          4