##TITLE=Library Entry 16705
##JCAMP-DX=Revision 4.10 
##DATA TYPE=MASS SPECTRUM
##SAMPLE DESCRIPTION=NIST Mass Spectrometry Data Center, 1990.
##NAMES=HP
##CAS NAME=Ethane, 1,2-dimethoxy-
##MOLFORM=C4H10O2
##CAS REGISTRY NO=110-71-4
##MP= -300
##BP= -300
##MW= 90
##$RETENTION INDEX=612
##$CONDENSED SPECTRUM=NO
##NPOINTS= 25
##XYDATA=(XY..XY) 1 
    14          8
    15         31
    16          3
    26         13
    27         33
    28         64
    29        201
    30         14
    31         48
    32         13
    33          4
    41          5
    42         22
    43         74
    44          4
    45        999
    46         22
    47          5
    58        104
    59         40
    60        184
    61          6
    75          3
    90         92
    91          4