##TITLE=Library Entry 20972
##JCAMP-DX=Revision 4.10 
##DATA TYPE=MASS SPECTRUM
##SAMPLE DESCRIPTION=Japan AIST/NIMC Database- Spectrum MS-NW- 819
##NAMES=HP
##CAS NAME=Butane, 1,4-dichloro-
##MOLFORM=C4H8Cl2
##CAS REGISTRY NO=110-56-5
##MP= -300
##BP= -300
##MW= 126
##$RETENTION INDEX=897
##$CONDENSED SPECTRUM=NO
##NPOINTS= 43
##XYDATA=(XY..XY) 1 
    15          1
    25          1
    26         22
    27        139
    28         42
    29         50
    35          4
    36          9
    37          5
    38          9
    39         94
    40          9
    41        257
    42         14
    47          3
    48          3
    49         67
    50         11
    51         20
    52          3
    53         46
    54        129
    55        999
    56         46
    57          1
    60          2
    61         12
    62        153
    63         63
    64         49
    65         18
    69          1
    73          3
    75         66
    76          5
    77         25
    78          1
    79          1
    89          8
    90        297
    91         32
    92         99
    93          9