##TITLE=Library Entry 48578
##JCAMP-DX=Revision 4.10 
##DATA TYPE=MASS SPECTRUM
##SAMPLE DESCRIPTION=CCC 0013
##NAMES=HP
##CAS NAME=Boron, trihydro(pyridine)-, (T-4)-
##MOLFORM=C5H8BN
##CAS REGISTRY NO=110-51-0
##MP= -300
##BP= -300
##MW= 93
##$RETENTION INDEX=0
##$CONDENSED SPECTRUM=NO
##NPOINTS= 83
##XYDATA=(XY..XY) 1 
    10          8
    11         34
    12         55
    13         83
    14         23
    15         27
    16          4
    17          2
    18          5
    19          1
    20          1
    21          2
    22          7
    23         26
    24         55
    25         58
    26        229
    27        126
    28         81
    29         12
    30          1
    31          3
    32          7
    35          3
    36         33
    37        100
    38        103
    39        150
    40         34
    41         11
    42          8
    43         22
    44          1
    45          3
    46          2
    47          1
    48         18
    49         96
    50        321
    51        413
    52        730
    53         94
    54          5
    55          5
    56          3
    57          5
    58          2
    59          2
    60          5
    61         12
    62         17
    63         30
    64         36
    65         20
    66          6
    67          1
    68          1
    69          2
    70          2
    71          2
    72          2
    73          2
    74          5
    75         23
    76         18
    77          7
    78        128
    79        999
    80         69
    81          3
    82          3
    83          4
    84          1
    85          1
    86          1
    87          1
    88          2
    89         13
    90         52
    91         74
    92        130
    93          8
    94          1