##TITLE=Library Entry 18502
##JCAMP-DX=Revision 4.10 
##DATA TYPE=MASS SPECTRUM
##SAMPLE DESCRIPTION=Chemical Concepts
##NAMES=HP
##CAS NAME=Propanedioic acid, (4-oxo-2-cyclopenten-1-yl)-, dimethyl ester
##MOLFORM=C10H12O5
##CAS REGISTRY NO=110027-73-1
##MP= -300
##BP= -300
##MW= 212
##$RETENTION INDEX=0
##$CONDENSED SPECTRUM=NO
##NPOINTS= 119
##XYDATA=(XY..XY) 1 
    26         99
    27        406
    28         29
    29        114
    30         26
    31         61
    33          9
    37         13
    38         64
    39        513
    40        175
    41        188
    42         70
    43         74
    44         20
    45         64
    46          2
    47          9
    49          5
    50         73
    51        179
    52        186
    53        999
    54         73
    55        118
    56         11
    57         12
    58          7
    59        678
    60         19
    61         14
    62         17
    63         61
    64         35
    65        427
    66        410
    67         78
    68        116
    69        232
    70         15
    71         26
    72          3
    74         32
    75          7
    77         76
    78        184
    79        171
    80         53
    81        967
    82        121
    83         28
    84         14
    85         20
    87          2
    91         26
    92         50
    93        416
    94        194
    95         49
    96         40
    97         71
    98         41
    99         34
   100        171
   101        166
   102          9
   103         14
   104         12
   105          6
   107         25
   108         85
   109        236
   110         25
   111         42
   112          9
   113          9
   114          4
   115          3
   119          2
   120        185
   121        688
   122        112
   123         16
   124        616
   125        319
   126         25
   127          4
   131         15
   132        392
   133         27
   134          4
   135          8
   136          6
   137         14
   138          4
   139         29
   140          4
   146          2
   148        243
   149        100
   150         10
   151          4
   152        429
   153        654
   154         73
   155          8
   157          5
   167          3
   169          4
   179          3
   180        266
   181        181
   182         18
   183          4
   184         18
   185          3
   212        276
   213         40
   214          4