##TITLE=Library Entry 42607
##JCAMP-DX=Revision 4.10 
##DATA TYPE=MASS SPECTRUM
##SAMPLE DESCRIPTION=J.M. Halket, Trace Anal. Unit (TAU), London, UK
##NAMES=HP
##CAS NAME=Sarcosine, 2TBDMS derivative
##MOLFORM=C15H35NO2Si2
##CAS REGISTRY NO=110024-89-0
##MP= -300
##BP= -300
##MW= 317
##$RETENTION INDEX=1594
##$CONDENSED SPECTRUM=NO
##NPOINTS= 101
##XYDATA=(XY..XY) 1 
    39         33
    41        165
    42         53
    43         69
    44         53
    45        139
    46         10
    47         27
    51          1
    52          3
    53          5
    55         21
    56         38
    57        191
    58         67
    59        224
    60         22
    61         20
    66         13
    67          3
    68          1
    69          4
    70          6
    71          9
    73        999
    74         87
    75        120
    76          8
    77          3
    81          2
    83          3
    84          3
    85         15
    86         50
    87         18
    88         13
    89          4
    94          2
    96          2
    97          2
    98          1
    99         10
   100         14
   101         42
   102         64
   103         19
   104          4
   105          5
   113          2
   114          7
   115         50
   116         11
   117         29
   118         15
   119         30
   120          4
   121          2
   128          3
   129          4
   130          7
   131         13
   132         10
   133         88
   134         13
   135          7
   142          4
   143          2
   144         12
   145          5
   147        464
   148         72
   149         35
   150          3
   156          4
   158        342
   159         53
   160         35
   161          6
   162          5
   170          4
   174         21
   175          5
   176          4
   186          2
   188          5
   189         21
   190          5
   191          2
   204          1
   230          1
   232        316
   233         68
   234         28
   235          4
   260        187
   261         41
   262         16
   263          3
   274          4
   302          8
   303          1