##TITLE=Library Entry 70956
##JCAMP-DX=Revision 4.10 
##DATA TYPE=MASS SPECTRUM
##SAMPLE DESCRIPTION=Chemical Concepts
##NAMES=HP
##CAS NAME=Bicyclo[8.2.0]dodecan-11-one, 12-chloro-
##MOLFORM=C12H19ClO
##CAS REGISTRY NO=110079-14-6
##MP= -300
##BP= -300
##MW= 214
##$RETENTION INDEX=0
##$CONDENSED SPECTRUM=NO
##NPOINTS= 121
##XYDATA=(XY..XY) 1 
    26          9
    27        173
    28         33
    29        106
    35          4
    36         25
    38          7
    39        171
    40         38
    41        317
    42         35
    43         49
    48          2
    49          7
    50          6
    51         27
    52         14
    53        119
    54        107
    55        440
    56         37
    57         22
    58          5
    62          3
    63          7
    65         45
    66         29
    67        278
    68         85
    69        121
    70         95
    71         23
    73          3
    75         56
    76          7
    77         47
    78         15
    79        158
    80         67
    81        227
    82         82
    83        201
    84        228
    85         25
    87          3
    88        118
    89         18
    90         40
    91         45
    92         20
    93         88
    94         50
    95        149
    96         53
    97        231
    98        999
    99         72
   100          4
   101          7
   102         11
   103          5
   104         17
   105         18
   106          7
   107         39
   108         30
   109         45
   110         32
   111        221
   112        111
   113         10
   114         46
   115         11
   116         24
   117          8
   118          9
   119         27
   120         10
   121         55
   122         15
   123         30
   124         12
   125         55
   126         14
   128          5
   129          9
   130          7
   131          8
   132          5
   133         12
   134         16
   135         55
   136         15
   137        139
   138         25
   139         17
   143          3
   145          4
   147          7
   149         21
   150          9
   151          9
   152          3
   157          3
   159          5
   160          6
   161         27
   162          4
   163          3
   165          7
   170          5
   171          4
   172          2
   173          4
   178         26
   179         35
   180          5
   185          3
   214         23
   215          3
   216          7