##TITLE=Library Entry 96721
##JCAMP-DX=Revision 4.10 
##DATA TYPE=MASS SPECTRUM
##SAMPLE DESCRIPTION=NIST Mass Spectrometry Data Center, 1994
##NAMES=HP
##CAS NAME=Vinylphenylacetonitrile
##MOLFORM=C10H9N
##CAS REGISTRY NO=110013-89-3
##MP= -300
##BP= -300
##MW= 143
##$RETENTION INDEX=0
##$CONDENSED SPECTRUM=NO
##NPOINTS= 66
##XYDATA=(XY..XY) 1 
     4          1
    14          5
    15          5
    26         36
    27        106
    28         51
    32          4
    37         28
    38         71
    39        256
    40         37
    41         25
    43          8
    44          3
    50        192
    51        249
    52         67
    53         22
    55          3
    57         67
    58         57
    61         43
    62        121
    63        252
    64         73
    65         79
    66         13
    71         59
    73         11
    74         83
    75         82
    76         92
    77        172
    78         40
    79          4
    84          4
    85         12
    86         30
    87         49
    88         56
    89        211
    90         76
    91         79
    92          6
    97          2
    98         10
    99          8
   100          8
   101         17
   102        115
   103        106
   104         13
   111          4
   113         47
   115        861
   116        999
   117        162
   118          9
   126          5
   127          5
   128         17
   140         73
   142        334
   143        975
   144        110
   145          5