##TITLE=Library Entry 90263
##JCAMP-DX=Revision 4.10 
##DATA TYPE=MASS SPECTRUM
##SAMPLE DESCRIPTION=NIST Mass Spectrometry Data Center
##NAMES=HP
##CAS NAME=3-Hydroxy-6-Tigloyloxytropane
##MOLFORM=C13H21NO3
##CAS REGISTRY NO=110024-55-0
##MP= -300
##BP= -300
##MW= 239
##$RETENTION INDEX=1839
##$CONDENSED SPECTRUM=NO
##NPOINTS= 90
##XYDATA=(XY..XY) 1 
    27          6
    28          4
    29         13
    30          3
    31          1
    38          1
    39         17
    40          3
    41         18
    42         70
    43         18
    44         34
    45          3
    50          2
    51          3
    52          2
    53         19
    54         20
    55         91
    56         21
    57         55
    58         23
    59          1
    63          1
    65          5
    66          2
    67         14
    68         18
    69         10
    70         34
    71          4
    72          9
    73          2
    77          5
    78          3
    80         11
    81         47
    82         84
    83         69
    84         45
    85         11
    86          7
    92          1
    94        188
    95         31
    96        313
    97         25
    98         22
    99          3
   100          2
   104          2
   106          3
   107          6
   108          5
   109          3
   110         17
   111          6
   112        157
   113        999
   114        139
   115          9
   116          1
   120          4
   122        105
   123         11
   124          4
   125          1
   126          7
   127          1
   128          1
   138         27
   139         11
   140         46
   141          4
   156         57
   157          6
   158          1
   166          1
   167          1
   180          1
   194          1
   195          2
   206          2
   222          5
   223          1
   224          4
   238          1
   239        155
   240         22
   241          3