##TITLE=Library Entry 1978
##JCAMP-DX=Revision 4.10 
##DATA TYPE=MASS SPECTRUM
##SAMPLE DESCRIPTION=Chemical Concepts
##NAMES=HP
##CAS NAME=Spirohexan-4-one, 5,5-dichloro-6,6-dimethyl-
##MOLFORM=C8H10Cl2O
##CAS REGISTRY NO=110079-12-4
##MP= -300
##BP= -300
##MW= 192
##$RETENTION INDEX=0
##$CONDENSED SPECTRUM=NO
##NPOINTS= 107
##XYDATA=(XY..XY) 1 
    27        210
    28         15
    29         27
    35          3
    36         12
    37         25
    38         61
    39        365
    40        999
    41        195
    42         13
    43         18
    45          5
    46          2
    47         16
    48          4
    49         23
    50         47
    51        120
    52         35
    53        181
    54         23
    55         13
    56          3
    60          3
    61         22
    62         19
    63         40
    64          9
    65         78
    66         19
    67         75
    68        272
    69        221
    70         10
    72          5
    73         27
    74          7
    75         23
    76          3
    77        123
    78         24
    79         49
    80          6
    81         15
    82         13
    83          5
    84         10
    85         13
    86          4
    87         20
    88          4
    89        135
    90          9
    91         66
    92          7
    93         99
    94         10
    95          3
    96          9
    97          2
    98          5
    99          8
   100          2
   101         23
   102          3
   103         11
   107          5
   109         19
   110          5
   111         15
   112          4
   113         13
   114          6
   115         21
   116          4
   117          6
   121         34
   122         12
   123          2
   124        119
   125          7
   126         68
   127          5
   128         17
   129        108
   130         10
   131         35
   132          2
   141          5
   142          4
   143          7
   149          3
   156          8
   157        103
   158          9
   159         37
   160          3
   164          3
   166          2
   177         10
   179          7
   191          2
   192         34
   193          4
   194         23
   196          3