##TITLE=Library Entry 79256
##JCAMP-DX=Revision 4.10 
##DATA TYPE=MASS SPECTRUM
##SAMPLE DESCRIPTION=Chemical Concepts
##NAMES=HP
##CAS NAME=Benzamide, N-(5-hydroxy-7-oxabicyclo[4.1.0]hept-2-yl)-
##MOLFORM=C13H15NO3
##CAS REGISTRY NO=110099-35-9
##MP= -300
##BP= -300
##MW= 233
##$RETENTION INDEX=0
##$CONDENSED SPECTRUM=NO
##NPOINTS= 118
##XYDATA=(XY..XY) 1 
    36          2
    37          5
    38         21
    39         45
    41         22
    42          9
    43         18
    45          1
    47          1
    48          0
    49          4
    50         38
    51        122
    52         11
    53         27
    54          5
    55         15
    56         10
    57          8
    58          1
    60          1
    61          2
    62          1
    63          3
    64          1
    65          7
    66         20
    67         22
    68         22
    69          7
    70          6
    71          5
    72          1
    73          5
    74         11
    75          7
    76         17
    77        442
    78         35
    79         27
    80          4
    81          3
    82          9
    83         20
    84         12
    85          1
    86          4
    87          0
    89          1
    90          1
    91          6
    92          3
    93          4
    94         22
    95          8
    96          1
    97          1
   100          1
   102          0
   103          4
   104         17
   105        999
   106         79
   107          4
   109          1
   110         63
   111          6
   112         12
   113          0
   115          1
   117          1
   118          1
   119          3
   120          1
   121          5
   122        127
   123          9
   128          5
   130          3
   131          1
   133          2
   134          1
   135          1
   144          1
   145          1
   146         46
   147         13
   148         25
   149          2
   150          1
   158          1
   159          9
   160          8
   161         11
   162          3
   163          3
   171          3
   172          1
   173          1
   174          1
   177          0
   186          4
   187          4
   188          0
   189         13
   190          2
   197          6
   198          4
   199          0
   204          0
   205          2
   214          1
   215         11
   216         12
   217          2
   232          0
   233          9
   234          1