##TITLE=Library Entry 19688
##JCAMP-DX=Revision 4.10 
##DATA TYPE=MASS SPECTRUM
##SAMPLE DESCRIPTION=LAC, NIDDK, NIH, Bethesda, MD 20892
##NAMES=HP
##CAS NAME=Pseudosmilagenin
##MOLFORM=C27H44O3
##CAS REGISTRY NO=11005-21-3
##MP= -300
##BP= -300
##MW= 416
##$RETENTION INDEX=0
##$CONDENSED SPECTRUM=NO
##NPOINTS= 121
##XYDATA=(XY..XY) 1 
    41        678
    42        515
    43        830
    44         88
    45         61
    47          8
    49          8
    51          4
    53        181
    54         61
    55        999
    56         48
    57        386
    58         47
    59         25
    65         43
    67        388
    68         78
    69        709
    70        123
    71         99
    73         71
    77        131
    79        440
    80         51
    81        410
    82         42
    83        117
    84         66
    85         51
    91        288
    93        354
    94         56
    95        336
    96         75
    97        208
    98         19
    99         26
   105        247
   106         75
   107        309
   108        158
   109        229
   110         77
   111         40
   113          9
   114         51
   115        267
   117         79
   119        112
   120         49
   121        172
   122        113
   123         61
   124         49
   125         54
   126         56
   128         10
   129         20
   131         86
   133        147
   134         47
   135         97
   137         18
   139        638
   140         73
   142         12
   143         38
   145         81
   146          9
   147        106
   148         24
   149         70
   151         41
   153          9
   157         18
   159         74
   160         19
   161         94
   162         19
   163         37
   165         10
   168         32
   171         11
   173         34
   175         21
   176         43
   177         11
   181         79
   182         22
   187         31
   202         19
   203          9
   215         43
   216          8
   217         20
   218         55
   229         21
   232          9
   233          9
   255         76
   257         13
   269         52
   271         10
   273        189
   274         44
   284         20
   285          9
   287        134
   288          9
   302        125
   303         64
   329         24
   344        149
   345         31
   346         38
   347         37
   357         30
   386         47
   416        169
   417         50