##TITLE=Library Entry 61107
##JCAMP-DX=Revision 4.10 
##DATA TYPE=MASS SPECTRUM
##SAMPLE DESCRIPTION=Chemical Concepts
##NAMES=HP
##CAS NAME=Dibenzylamine, .alpha.,.alpha.'-diethyl-
##MOLFORM=C18H23N
##CAS REGISTRY NO=110061-03-5
##MP= -300
##BP= -300
##MW= 253
##$RETENTION INDEX=0
##$CONDENSED SPECTRUM=NO
##NPOINTS= 124
##XYDATA=(XY..XY) 1 
    26         10
    27        100
    28         93
    29        152
    30         16
    37          2
    38          6
    39        101
    40          8
    41        230
    42         14
    43          0
    49          1
    50         42
    51        142
    52         27
    53         11
    54          6
    55         13
    56         16
    57          1
    58         26
    59          1
    61          1
    62          8
    63         38
    64         10
    65         85
    66          6
    67          1
    68          1
    70          1
    71          0
    72          0
    74         10
    75         11
    76         23
    77        226
    78         92
    79         95
    80          6
    81          0
    82          1
    83          1
    85          0
    86          1
    87          3
    88          2
    89         40
    90         25
    91        999
    92        135
    93          7
    94          1
    96          0
    97          0
    98          1
   100          0
   101          2
   102         16
   103         63
   104        146
   105         27
   106        974
   107        100
   108          3
   112          5
   113          1
   114          1
   115         63
   116         42
   117         98
   118         40
   119        627
   120         68
   121          3
   126          0
   127          2
   128          2
   129          1
   130          8
   131          2
   132          9
   133          1
   134         42
   135          4
   139          1
   140          0
   141          1
   143          1
   144          2
   145          1
   146          4
   147          0
   151          1
   152          7
   153          2
   154          0
   160          0
   163          0
   164          1
   165         16
   166          8
   167         15
   168          2
   174          1
   176          4
   177          1
   178          2
   179          1
   180          1
   191          0
   192          1
   193          8
   194         57
   195         41
   196          4
   206          0
   208          1
   221          0
   222          6
   224        563
   225         92
   226          6