##TITLE=Library Entry 79741
##JCAMP-DX=Revision 4.10 
##DATA TYPE=MASS SPECTRUM
##SAMPLE DESCRIPTION=Chemical Concepts
##NAMES=HP
##CAS NAME=3-Benzoylbicyclo[3.3.1]non-6-ene
##MOLFORM=C16H18O
##CAS REGISTRY NO=110013-24-6
##MP= -300
##BP= -300
##MW= 226
##$RETENTION INDEX=0
##$CONDENSED SPECTRUM=NO
##NPOINTS= 141
##XYDATA=(XY..XY) 1 
    26          0
    27         19
    28          5
    29          8
    31          0
    38          1
    39         29
    40          5
    41         58
    42          3
    43          7
    44          0
    50          7
    51         47
    52          9
    53         18
    54          5
    55         38
    56          2
    57          1
    58          1
    59          1
    60          2
    62          0
    63          3
    64          0
    65         20
    66         10
    67         50
    68          3
    69          2
    70          1
    71          1
    73          0
    74          1
    75          2
    76          8
    77        310
    78         55
    79        155
    80         20
    81          5
    82          0
    83          1
    85          0
    89          2
    90          0
    91         59
    92         17
    93         33
    94          5
    95          2
    96          1
    97          0
    99          0
   101          0
   102          1
   103          5
   104         26
   105        999
   106         92
   107         50
   108          5
   109          0
   113          0
   115         15
   116          4
   117         15
   118          4
   119          5
   120         20
   121         38
   122          4
   127          2
   128          5
   129         13
   130         17
   131          8
   132         13
   133         23
   134          3
   135          2
   136          0
   137          1
   139          0
   141          2
   142          3
   143          2
   144          5
   145         30
   146         11
   147         21
   148          4
   149          1
   150          0
   151          0
   152          1
   153          1
   154          3
   155          7
   156          7
   157          5
   158          2
   159          4
   160          1
   165          2
   166          1
   167          5
   168          1
   169          1
   170          1
   171          2
   172          5
   173          0
   178          1
   179          2
   180          1
   181          1
   182         12
   183         10
   184          4
   185          5
   186          0
   191          0
   193          4
   194          1
   195          0
   196          1
   197          4
   198         16
   199          2
   207          1
   208          3
   209          1
   210          0
   211          0
   224          1
   225          6
   226        214
   227         38
   228          3