##TITLE=Library Entry 99008
##JCAMP-DX=Revision 4.10 
##DATA TYPE=MASS SPECTRUM
##SAMPLE DESCRIPTION=Div. of Experiment Therapeutics WRAIR, WRAMC, Washingto
n DC 20307
##NAMES=HP
##CAS NAME=2-Bromo-5-ethoxymethylenamino-1-[2-deoxy-3,5-di-O-p-toluoyl-.beta
.-
##MOLFORM=C30H27BrN4O6
##CAS REGISTRY NO=110089-44-6
##MP= -300
##BP= -300
##MW= 618
##$RETENTION INDEX=0
##$CONDENSED SPECTRUM=NO
##NPOINTS= 70
##XYDATA=(XY..XY) 1 
    41         32
    43         26
    45         93
    50         49
    51         68
    52         42
    53         97
    54          4
    55          4
    61         12
    62         45
    63         86
    64         28
    65        182
    66         16
    68         10
    69          8
    74          8
    76         52
    77        117
    78          9
    79         24
    80         19
    81        695
    82         41
    86          4
    88         16
    89         76
    90         47
    91        520
    92         59
    97         70
   102         15
   103         27
   104         71
   105         15
   107         28
   108         27
   110         16
   118         18
   119        999
   120         73
   129         32
   130         23
   131         47
   132          8
   135         16
   136        108
   137         10
   157         12
   171         10
   182         19
   184         16
   196          4
   198          9
   209         10
   210        167
   211         26
   212        148
   213         15
   238         73
   239          5
   240         78
   255          4
   266         73
   267          4
   268         76
   269          4
   353         38
   354          6