##TITLE=Library Entry 43422
##JCAMP-DX=Revision 4.10 
##DATA TYPE=MASS SPECTRUM
##SAMPLE DESCRIPTION=J.M. Halket, Trace Anal. Unit (TAU), London, UK
##NAMES=HP
##CAS NAME=.beta.-Alanine, 2TBDMS derivative
##MOLFORM=C15H35NO2Si2
##CAS REGISTRY NO=110024-88-9
##MP= -300
##BP= -300
##MW= 317
##$RETENTION INDEX=1637
##$CONDENSED SPECTRUM=NO
##NPOINTS= 123
##XYDATA=(XY..XY) 1 
    38          1
    39         56
    40          2
    41        226
    42         29
    43         90
    44         51
    45        146
    46         15
    47         56
    48          2
    49          4
    51          2
    52          4
    53          9
    54         10
    55         41
    56         59
    57        233
    58        106
    59        253
    60         35
    61         26
    62          1
    63          1
    65          1
    66         26
    67          4
    68          3
    69          7
    70         13
    71         13
    73        999
    74        118
    75        238
    76         18
    77         23
    78          2
    79          1
    80        189
    82          1
    83          6
    84          7
    85         24
    86         93
    87         42
    88        124
    89         14
    90          5
    93          1
    97          4
    98          2
    99         66
   100         37
   101         24
   103         14
   104         39
   105          8
   107         43
   108          4
   111          1
   112          3
   113          4
   114          2
   115         52
   116         21
   117        143
   118         26
   119         28
   120          4
   126          1
   127          1
   128         43
   129         13
   130         10
   131         37
   132         90
   133        114
   134         21
   135         15
   136          1
   141          2
   142          1
   144        532
   145         82
   146         21
   147        544
   148         90
   149         44
   150          5
   152          4
   157          1
   158          4
   159         27
   160         13
   161          4
   162          7
   173          5
   174          3
   175          7
   176          2
   188          2
   189         59
   190         12
   191          5
   202         10
   203          2
   204          3
   215          1
   218        700
   219        141
   220         58
   221          8
   231          6
   248          2
   258          8
   260        259
   261         59
   262         24
   263          4
   273          3
   302         10
   303          2