##TITLE=Library Entry 66161
##JCAMP-DX=Revision 4.10 
##DATA TYPE=MASS SPECTRUM
##SAMPLE DESCRIPTION=Chemical Concepts
##NAMES=HP
##CAS NAME=2-Hexa-2,4-dienylmalonic acid, dimethyl ester
##MOLFORM=C11H16O4
##CAS REGISTRY NO=110027-79-7
##MP= -300
##BP= -300
##MW= 212
##$RETENTION INDEX=0
##$CONDENSED SPECTRUM=NO
##NPOINTS= 84
##XYDATA=(XY..XY) 1 
    26          7
    27         75
    29         28
    31         11
    38         12
    39        125
    40         28
    41        156
    42         12
    43         18
    45         23
    50         16
    51         48
    52         32
    53        126
    54         19
    55         56
    56          6
    57          7
    59        125
    60          8
    62          6
    63         19
    64          9
    65         70
    66         54
    67         38
    68         15
    69         42
    71         13
    74         10
    75          8
    77        214
    78         53
    79        234
    80         53
    81        625
    82         54
    83          8
    85         20
    87          6
    89          7
    90          6
    91        166
    92        221
    93        999
    94        106
    95         18
    97         14
    98         11
   100         16
   101         13
   103         12
   105         20
   106          6
   107         12
   109         36
   110          6
   111         21
   112          7
   118          6
   119         35
   120         64
   121        121
   122         16
   123         10
   124         13
   125         13
   132         13
   135          7
   137        115
   138         14
   148         22
   149         35
   150          6
   151         27
   152        389
   153         76
   154          8
   180         25
   181         23
   212        320
   213         44
   214          7