##TITLE=Library Entry 43920
##JCAMP-DX=Revision 4.10 
##DATA TYPE=MASS SPECTRUM
##SAMPLE DESCRIPTION=NIST Mass Spectrometry Data Center
##NAMES=HP
##CAS NAME=L-Cysteine, 3TBDMS derivative
##MOLFORM=C21H49NO2SSi3
##CAS REGISTRY NO=110024-94-7
##MP= -300
##BP= -300
##MW= 463
##$RETENTION INDEX=2202
##$CONDENSED SPECTRUM=NO
##NPOINTS= 213
##XYDATA=(XY..XY) 1 
    27          2
    29         13
    30          1
    31          2
    39          6
    40          1
    41         34
    42          4
    43         10
    44          4
    45         29
    46          3
    47          5
    53          1
    54          4
    55         14
    56         13
    57         84
    58         25
    59        108
    60         13
    61          7
    63          1
    66          1
    67          1
    69          1
    70          4
    71          4
    73        999
    74        101
    75        103
    76          8
    77          5
    82          1
    83          3
    84          5
    85         11
    86         13
    87          6
    88          3
    89          2
    90          5
    91         23
    92          2
    93          3
    95          1
    96          1
    97          2
    98          6
    99         22
   100        140
   101         31
   102         13
   103         35
   104          5
   105         17
   106          2
   107          1
   110          1
   111          1
   112          2
   113          3
   114          3
   115         66
   116         31
   117         15
   118         11
   119          8
   120          2
   121          1
   126          3
   127          1
   128         16
   129         15
   130          9
   131         15
   132         57
   133         95
   134         18
   135         11
   136          1
   137          1
   140          1
   142         23
   143          4
   144         12
   145          7
   146         13
   147        200
   148         46
   149         58
   150         10
   151          5
   152          1
   156          3
   157          4
   158          9
   159          7
   160         25
   161          7
   162          4
   163          8
   164          2
   165          3
   166          1
   168          1
   170          1
   171          1
   172          6
   173          8
   174         19
   175          6
   176          3
   177          1
   184          2
   185          1
   186          1
   187          1
   188          7
   189         11
   190         10
   191          4
   192          2
   193          1
   200          3
   201          1
   202          7
   203          2
   204          1
   205          1
   206          2
   207          1
   208          1
   214          2
   215          1
   216          2
   217          1
   218         11
   219          3
   220          2
   221          1
   222          1
   223          2
   224          1
   230          5
   231          2
   232          1
   234         17
   235          3
   236          2
   237          1
   242          1
   244          2
   245         10
   246         15
   247          9
   248          7
   249          2
   250          1
   256          1
   258         17
   259          4
   260          3
   261          1
   264          1
   265          1
   274         25
   275          8
   276          7
   277          2
   278          1
   286          1
   287          1
   288          2
   289          1
   290          1
   292          1
   300          3
   302        398
   303        108
   304        427
   305        107
   306         54
   307         11
   308          3
   316         11
   317          4
   318          2
   330          2
   331          1
   332          1
   333          1
   334          1
   348          1
   378        338
   379        113
   380         66
   381         16
   382          5
   383          1
   406        346
   407        118
   408         67
   409         18
   410          6
   411          1
   420          7
   421          3
   422          2
   448         17
   449          6
   450          4
   451          1