##TITLE=Library Entry 53881
##JCAMP-DX=Revision 4.10 
##DATA TYPE=MASS SPECTRUM
##SAMPLE DESCRIPTION=Div. of Experiment Therapeutics WRAIR, WRAMC, Washingto
n DC 20307
##NAMES=HP
##CAS NAME=p-Chlorobenzoic acid, 2-[4-[[3-[dimethylamino]propylamino]-6-tric
hloromethyl]-S-triazin-2-yl]-hydrazide
##MOLFORM=C16H19Cl4N7O
##CAS REGISTRY NO=110045-62-0
##MP= -300
##BP= -300
##MW= 465
##$RETENTION INDEX=0
##$CONDENSED SPECTRUM=NO
##NPOINTS= 83
##XYDATA=(XY..XY) 1 
    41         13
    42         54
    43         22
    44         40
    45         17
    46          6
    47          1
    49          5
    50         11
    51          6
    52          1
    53          0
    54          1
    55         11
    56         13
    57         12
    58        591
    59         22
    61          0
    63          0
    68         11
    69          4
    70         23
    71         10
    72         29
    73          1
    74          6
    75         35
    76         11
    77          3
    80          0
    81          1
    82          8
    83         10
    84        999
    85         63
    86         15
    87          3
    97          1
    98          3
    99         11
   103          1
   104          5
   108          4
   109          4
   110          6
   111        109
   112          9
   113         36
   114          3
   117          1
   119          2
   123          0
   124          4
   125          3
   126          1
   127          0
   134          2
   136          1
   137          4
   138          8
   139        272
   140         22
   141         84
   142          7
   153          4
   155         10
   156          2
   157          5
   165          2
   182          5
   183          3
   184          2
   185          1
   191          3
   195          0
   219          5
   221          3
   358          2
   360          2
   427          2
   429          6
   431          3