##TITLE=Library Entry 83628
##JCAMP-DX=Revision 4.10 
##DATA TYPE=MASS SPECTRUM
##SAMPLE DESCRIPTION=Chemical Concepts
##NAMES=HP
##CAS NAME=Benzenemethanol, .alpha.-(bicyclo[3.3.1]non-6-en-3-yl)-
##MOLFORM=C16H20O
##CAS REGISTRY NO=110013-25-7
##MP= -300
##BP= -300
##MW= 228
##$RETENTION INDEX=0
##$CONDENSED SPECTRUM=NO
##NPOINTS= 171
##XYDATA=(XY..XY) 1 
    25          0
    26          3
    27         51
    28          9
    29         54
    30          1
    31         11
    37          1
    38          4
    39         78
    40         11
    41        131
    42         11
    43         71
    44          3
    45          8
    47          0
    49          1
    50         20
    51         73
    52         23
    53         51
    54         20
    55         82
    56         16
    57         40
    58          6
    59          9
    60          1
    61          3
    62          3
    63         17
    64          8
    65         51
    66         34
    67        126
    68         21
    69         19
    70         16
    71         17
    72          1
    73          6
    74          7
    75          7
    76         21
    77        328
    78        127
    79        798
    80        338
    81         95
    82         12
    83         12
    84          9
    85          6
    86          5
    87          3
    88          1
    89         14
    90         14
    91        157
    92         61
    93        104
    94         30
    95         73
    96          9
    97          7
    98          4
    99          3
   100          1
   101          2
   102          6
   103         10
   104         13
   105        307
   106         77
   107        999
   108        220
   109         26
   110          4
   111          4
   112          3
   113          3
   114          1
   115         28
   116         11
   117         38
   118         14
   119         20
   120         42
   121         78
   122         75
   123         15
   124          2
   125          2
   126          4
   127          8
   128         16
   129         15
   130          7
   131          9
   132         30
   133         30
   134          7
   135          2
   136          2
   137         19
   138         24
   139          6
   140          1
   141          6
   142          4
   143          4
   144          2
   145          8
   146          4
   147          8
   148          1
   149          3
   150         33
   151         33
   152         34
   153         42
   154        128
   155         26
   156         10
   157          2
   158          1
   159          1
   160          0
   161          0
   163          0
   165          3
   166          2
   167         10
   168          7
   169          5
   170          1
   171          1
   172          1
   173          0
   178          1
   179          1
   180          1
   181          4
   182          3
   183          5
   184          3
   185         25
   186         11
   187          1
   188          0
   193          0
   195          1
   196          1
   197          1
   198          1
   199          1
   200          0
   208          0
   209          1
   210        218
   211         45
   212          8
   213          1
   225          1
   226         11
   227          6
   228        130
   229         25
   230          4
   231          0