##TITLE=Library Entry 39552
##JCAMP-DX=Revision 4.10 
##DATA TYPE=MASS SPECTRUM
##SAMPLE DESCRIPTION=ASES Database, Dalian Institute, P.R. China
##NAMES=HP
##CAS NAME=1-Anilinocarbonyl-3-(2-ethyl-butanoyl)-urea
##MOLFORM=C14H19N3O3
##CAS REGISTRY NO=110136-06-6
##MP= -300
##BP= -300
##MW= 277
##$RETENTION INDEX=0
##$CONDENSED SPECTRUM=NO
##NPOINTS= 12
##XYDATA=(XY..XY) 1 
    71        999
    98         24
    99        358
   115         25
   120        307
   136         24
   162        153
   163         24
   178         25
   179        206
   249         25
   277        770