##TITLE=Library Entry 81629
##JCAMP-DX=Revision 4.10 
##DATA TYPE=MASS SPECTRUM
##SAMPLE DESCRIPTION=Chemical Concepts
##NAMES=HP
##CAS NAME=Benzamide, N-(4-hydroxy-5,6-dimethoxy-2-cyclohexen-1-yl)-
##MOLFORM=C15H19NO4
##CAS REGISTRY NO=110171-28-3
##MP= -300
##BP= -300
##MW= 277
##$RETENTION INDEX=0
##$CONDENSED SPECTRUM=NO
##NPOINTS= 132
##XYDATA=(XY..XY) 1 
    37          5
    38         27
    39         20
    41         25
    42          5
    43          0
    45         40
    46          1
    47          2
    49          0
    50         17
    51         75
    52         37
    53         18
    54          6
    55         10
    56          6
    58          2
    59         10
    60          1
    61          4
    63          2
    64          0
    65         12
    66          6
    67         79
    68         29
    69          2
    71          3
    72          0
    73         29
    74          7
    75         11
    76         14
    77        501
    78         38
    79          5
    80         17
    81         12
    82         10
    83          8
    84        101
    85          9
    86          4
    87          0
    88        200
    89          9
    90          1
    91          1
    92          2
    93          4
    94          2
    95          5
    96         14
    97          4
    98         17
    99          1
   100          8
   101          0
   102          0
   103          0
   104         12
   105        999
   106        160
   107         11
   108         20
   109          6
   110          3
   111          3
   112          7
   113          6
   114          2
   120          0
   121          1
   122         13
   123         12
   124         31
   125         11
   126          2
   127          2
   128          0
   137          0
   138          3
   139          2
   140        131
   141         11
   142          1
   146          4
   150          1
   152          0
   154          2
   156         20
   157          2
   158          0
   160         15
   161          6
   162          0
   164          2
   168          0
   171         20
   172          4
   177          1
   178         10
   184          2
   185          4
   186          1
   187          8
   188          2
   189        736
   190         93
   191          6
   192          0
   195          0
   197          0
   198          0
   199          0
   202          2
   203         42
   204          8
   213          4
   214          3
   216         38
   217          9
   218          1
   227         12
   228         10
   229          2
   236          0
   245         31
   246          6
   247          1
   260          2