##TITLE=Library Entry 71376
##JCAMP-DX=Revision 4.10 
##DATA TYPE=MASS SPECTRUM
##SAMPLE DESCRIPTION=ASES Database, Dalian Institute, P.R. China
##NAMES=HP
##CAS NAME=1-Cyclohexylaminocarbonyl-3-(2-ethyl-butanoyl)-urea
##MOLFORM=C14H25N3O3
##CAS REGISTRY NO=110136-01-1
##MP= -300
##BP= -300
##MW= 283
##$RETENTION INDEX=0
##$CONDENSED SPECTRUM=NO
##NPOINTS= 14
##XYDATA=(XY..XY) 1 
    71        820
    98        999
    99        996
   115          9
   126         10
   141          9
   142         49
   157          9
   158          9
   168          9
   169          9
   184        439
   212         20
   283        149