##TITLE=Library Entry 47073
##JCAMP-DX=Revision 4.10 
##DATA TYPE=MASS SPECTRUM
##SAMPLE DESCRIPTION=I.G. Zenkevich, A.A. Zhdanov Leningrad State Univ., Len
ingrad, USSR
##NAMES=HP
##CAS NAME=Acetaldehyde, phenyl(2-propenyl)hydrazone
##MOLFORM=C11H14N2
##CAS REGISTRY NO=110213-13-3
##MP= -300
##BP= -300
##MW= 174
##$RETENTION INDEX=0
##$CONDENSED SPECTRUM=NO
##NPOINTS= 21
##XYDATA=(XY..XY) 1 
    39        120
    41        130
    51        230
    65         70
    69         50
    77        999
    78        100
    79        230
    91        100
    92         60
   103        100
   104        210
   105        990
   106        350
   117         60
   130        140
   131         60
   132         50
   133        310
   174        880
   175        100