##TITLE=Library Entry 2703
##JCAMP-DX=Revision 4.10 
##DATA TYPE=MASS SPECTRUM
##SAMPLE DESCRIPTION=M. HESSE, INST. ORG. CHEM., UNIV. ZURICH, ZURICH, SWITZ
.
##NAMES=HP
##CAS NAME=8-Ethoxycarbonyl-11-dodecanolide
##MOLFORM=C15H26O4
##CAS REGISTRY NO=110288-24-9
##MP= -300
##BP= -300
##MW= 270
##$RETENTION INDEX=0
##$CONDENSED SPECTRUM=NO
##NPOINTS= 29
##XYDATA=(XY..XY) 1 
    41        999
    43        600
    55        870
    67        430
    68        330
    69        350
    73        230
    81        500
    83        210
    95        400
    96        240
    98        250
   101        220
   109        330
   114        330
   127        420
   135        180
   141        220
   142        480
   152        320
   155        550
   178        100
   179        120
   180        170
   196        260
   224        110
   225        230
   252         30
   270         30