##TITLE=Library Entry 19894
##JCAMP-DX=Revision 4.10 
##DATA TYPE=MASS SPECTRUM
##SAMPLE DESCRIPTION=Institute of Organic Chemistry, Novosibirsk, USSR 1988
##NAMES=HP
##CAS NAME=6,14,17,22-Tetraoxa-1,3,9,11-tetraazabicyclo[9.8.5]tetracosane-2,
10-dithione
##MOLFORM=C16H30N4O4S2
##CAS REGISTRY NO=110228-75-6
##MP= -300
##BP= -300
##MW= 406
##$RETENTION INDEX=0
##$CONDENSED SPECTRUM=NO
##NPOINTS= 118
##XYDATA=(XY..XY) 1 
    53         55
    54        129
    55        999
    56        592
    57        481
    58        259
    59        166
    60        333
    61        111
    68         92
    69        259
    70        407
    71        229
    72        236
    73        203
    74        166
    83         88
    84         77
    85        222
    86        592
    87        185
    88        240
    89         81
    97        111
    98         66
    99         66
   100        166
   101         96
   102        166
   103        125
   104         66
   105         74
   106         77
   113         96
   114        148
   115        196
   116        133
   117         77
   118         51
   119         25
   120        129
   127        114
   128        159
   129        222
   130        203
   131        103
   132        148
   133         55
   141         99
   142         81
   143         85
   144         96
   145         92
   146        103
   147        185
   154         74
   155         96
   156         96
   157         88
   158         66
   159         55
   160         92
   171         96
   172         88
   173        148
   174         59
   175         55
   188         96
   189         55
   190         70
   191         81
   199         51
   200         25
   201         25
   202         11
   203         44
   204         29
   210         81
   215         36
   216         33
   217        125
   218         29
   219         40
   230         25
   231         18
   232         77
   233         51
   234         29
   235         25
   242         29
   243         33
   244         25
   259         22
   260         36
   261         77
   262         40
   276         40
   277         25
   302         36
   303         18
   304         44
   319         18
   320         25
   361         18
   362         11
   363         51
   364         18
   373         25
   374         14
   375         18
   376         74
   377         22
   388         25
   389         14
   405         40
   406        181
   407         59
   408         22