##TITLE=Library Entry 62679
##JCAMP-DX=Revision 4.10 
##DATA TYPE=MASS SPECTRUM
##SAMPLE DESCRIPTION=Japan AIST/NIMC Database- Spectrum MS-NW-7090
##NAMES=HP
##CAS NAME=4,4'-Bipyridinium, 1,1'-bis(phenylmethyl)-, dichloride
##MOLFORM=C24H22Cl2N2
##CAS REGISTRY NO=1102-19-8
##MP= -300
##BP= -300
##MW= 408
##$RETENTION INDEX=0
##$CONDENSED SPECTRUM=NO
##NPOINTS= 176
##XYDATA=(XY..XY) 1 
    25          1
    26         18
    27         16
    28         13
    35         15
    36         83
    37         14
    38         29
    39         97
    40          8
    41         14
    43          8
    44          7
    45         20
    48          1
    49          9
    50         84
    51        127
    52         36
    53          7
    54          3
    60          2
    61         17
    62         42
    63        104
    64         26
    65        131
    66          7
    69          1
    73          9
    74         26
    75         42
    76         57
    77         32
    78         34
    79         14
    80          1
    81          1
    82          4
    83          2
    84          2
    85          5
    86          9
    87         11
    88          9
    89         82
    90         31
    91        999
    92         83
    93          3
    94          3
    95          6
    96          2
    97          1
    98          3
    99          9
   100          6
   101         26
   102         49
   103         39
   104          9
   105          2
   106          3
   107          2
   108          8
   109          2
   110          1
   113          3
   114          5
   115         12
   116         26
   117          6
   118          3
   121          3
   122         10
   123          8
   125         23
   126        205
   127         30
   128        111
   129         56
   130         27
   131          3
   138          1
   139          7
   140          6
   141          6
   142          3
   143          1
   150          2
   151          5
   152          9
   153          5
   154          4
   155        183
   156        517
   157         61
   158          4
   163          3
   164          3
   165         31
   166          8
   167         26
   168         26
   169         13
   170          2
   175          1
   176          7
   177          7
   178         38
   179         67
   180         86
   181         13
   182          1
   187          1
   188          1
   189          5
   190          4
   191          4
   192          3
   193          3
   194          2
   202          2
   203          3
   204          4
   205          2
   206          2
   207          1
   208          1
   209          3
   210          1
   214          2
   215          2
   216          7
   217         11
   218         11
   219          6
   220          2
   228          1
   229          2
   230          2
   231          4
   232          2
   233          1
   234          1
   241          1
   242          5
   243         10
   244         28
   245        231
   246        141
   247         27
   248          3
   249          1
   255          2
   256          3
   257          5
   258          3
   259          3
   307          5
   308          2
   309          1
   310          1
   321          1
   322          1
   323          3
   324          1
   331          1
   332          1
   333          5
   334          5
   335         26
   336         20
   337          8
   338          2
   339          1