##TITLE=Library Entry 89542
##JCAMP-DX=Revision 4.10 
##DATA TYPE=MASS SPECTRUM
##SAMPLE DESCRIPTION=Chemical Concepts
##NAMES=HP
##CAS NAME=5-Cyclotetradecyn-2-one, 8-hydroxy-14-pentyl-1-oxa
##MOLFORM=C18H30O3
##CAS REGISTRY NO=110242-97-2
##MP= -300
##BP= -300
##MW= 294
##$RETENTION INDEX=0
##$CONDENSED SPECTRUM=NO
##NPOINTS= 175
##XYDATA=(XY..XY) 1 
    27          3
    28          6
    29         30
    31          1
    39          7
    40          2
    41         83
    42         10
    43        151
    44          7
    45          8
    52          9
    53         17
    54         31
    55        331
    56         51
    57        160
    58          9
    59          7
    60          8
    63          1
    64          0
    65         11
    66         81
    67        300
    68         60
    69        182
    70        500
    71         88
    72         14
    73          7
    77          8
    78          5
    79         40
    80         19
    81        323
    82         66
    83        335
    84        166
    85         60
    86          6
    87          5
    89          1
    90          1
    91         37
    92          9
    93         50
    94        145
    95        574
    96         88
    97        172
    98         46
    99         33
   100          8
   101         10
   102          0
   103          0
   104          5
   105         24
   106          9
   107         31
   108         23
   109        381
   110         53
   111         56
   112        999
   113        102
   114         26
   115          6
   116          2
   117         10
   118          3
   119         21
   120          6
   121         54
   122         15
   123        120
   124         20
   125         15
   126          5
   127          5
   128          3
   129          1
   130          1
   131         10
   132          4
   133         20
   134          7
   135         27
   136          9
   137         11
   138         21
   139          8
   140          6
   141         19
   142          5
   143          5
   145         22
   146          3
   147         11
   148          4
   149         18
   150          7
   151         11
   152          8
   153          6
   154          3
   155          4
   156          1
   157          2
   158          0
   159         15
   160          3
   161          9
   162          3
   163         23
   164         58
   165        455
   166         62
   167         11
   168          3
   169          5
   173          4
   175          2
   176          2
   177         12
   178          7
   179          8
   180          5
   181         16
   182         13
   183        304
   184         39
   185          2
   186          1
   187          7
   188          2
   189          3
   190          0
   191          6
   192          3
   193          6
   194          3
   195          6
   196          3
   197          2
   201          2
   202          0
   203          7
   204          1
   205         15
   206          4
   207          4
   208          0
   209          3
   210          0
   215          1
   216          0
   217          2
   218          1
   219          8
   220          3
   221          4
   222          0
   223         10
   224          1
   233          3
   234          1
   235          2
   236          0
   237          1
   276          5
   277          1
   294          3
   295          2