##TITLE=Library Entry 3986
##JCAMP-DX=Revision 4.10 
##DATA TYPE=MASS SPECTRUM
##SAMPLE DESCRIPTION=Mark Whitten, Florida Museum of Natural History, U. of
 Florida
##NAMES=HP
##CAS NAME=Cedrene
##MOLFORM=C15H24
##CAS REGISTRY NO=11028-42-5
##MP= -300
##BP= -300
##MW= 204
##$RETENTION INDEX=1422
##$CONDENSED SPECTRUM=NO
##NPOINTS= 80
##XYDATA=(XY..XY) 1 
    41        999
    42         87
    43        209
    44         14
    50         18
    51         77
    52         42
    53        253
    55        376
    56        112
    57        171
    58         16
    59         11
    63         27
    64         17
    65        165
    66         42
    67        226
    68         60
    69        490
    70         70
    71        136
    77        377
    78         98
    79        340
    80         60
    81        185
    82        106
    83         45
    84         26
    85         15
    91        546
    92        287
    93        507
    94        110
    95        110
    97         23
   102         11
   103         49
   105        480
   106        112
   107        132
   108         64
   109        121
   110         20
   111         24
   112         32
   115         66
   116         27
   117         64
   119        758
   120        308
   121        162
   122         50
   123         31
   124         15
   128         28
   129         20
   130         10
   131         32
   133        234
   134         90
   135         50
   136         61
   137         22
   145         20
   146         24
   147        152
   148         91
   149         27
   160         47
   161        673
   162        138
   163         15
   175         26
   176         14
   189        107
   190         15
   204        410
   205         69