##TITLE=Library Entry 54130
##JCAMP-DX=Revision 4.10 
##DATA TYPE=MASS SPECTRUM
##SAMPLE DESCRIPTION=W. SCHUNACK, INST. PHARM., FREIE UNIV. BERLIN, BERLIN,
 W. GER.
##NAMES=HP
##CAS NAME=2-Amino-5-[3-[3-(piperidinomethyl)phenoxy]propylamino]-1,3,4-oxad
iazole
##MOLFORM=C17H25N5O2
##CAS REGISTRY NO=110365-93-0
##MP= -300
##BP= -300
##MW= 331
##$RETENTION INDEX=0
##$CONDENSED SPECTRUM=NO
##NPOINTS= 21
##XYDATA=(XY..XY) 1 
    41        240
    42        210
    43        130
    56        140
    57        260
    59        220
    77        140
    78        140
    79        120
    84        999
    98        370
   107        200
   108         80
   141        150
   190         90
   191        110
   247         30
   248         20
   273         50
   274         30
   331         30