##TITLE=Library Entry 54296
##JCAMP-DX=Revision 4.10 
##DATA TYPE=MASS SPECTRUM
##SAMPLE DESCRIPTION=W. SCHUNACK, INST. PHARM., FREIE UNIV. BERLIN, BERLIN,
 W. GER.
##NAMES=HP
##CAS NAME=5-Amino-2,4-dihydro-4-[3-[3-(piperidinomethyl)phenoxy]propyl]-3H-
1,2,4-triazol-3-one
##MOLFORM=C17H25N5O2
##CAS REGISTRY NO=110365-90-7
##MP= -300
##BP= -300
##MW= 331
##$RETENTION INDEX=0
##$CONDENSED SPECTRUM=NO
##NPOINTS= 24
##XYDATA=(XY..XY) 1 
    41        100
    42         60
    43         60
    55         70
    56         60
    57         60
    77         60
    82         60
    84        999
    85        100
    98        300
   107        150
   113         60
   141        670
   142         50
   147         30
   148         20
   190         80
   191         30
   218         20
   247         60
   274         10
   288         50
   331        140