##TITLE=Library Entry 54133
##JCAMP-DX=Revision 4.10 
##DATA TYPE=MASS SPECTRUM
##SAMPLE DESCRIPTION=W. SCHUNACK, INST. PHARM., FREIE UNIV. BERLIN, BERLIN,
 W. GER.
##NAMES=HP
##CAS NAME=5-Amino-3-phenoxy-1-[3-[3-(piperidinomethyl)phenoxy]propyl]carbam
oyl-1H-1,2,4-triazole
##MOLFORM=C24H30N6O3
##CAS REGISTRY NO=110365-84-9
##MP= -300
##BP= -300
##MW= 450
##$RETENTION INDEX=0
##$CONDENSED SPECTRUM=NO
##NPOINTS= 30
##XYDATA=(XY..XY) 1 
    41        140
    42        140
    56        200
    58        180
    77        260
    84        999
    91        160
    98        660
   107        260
   108        220
   120         60
   133        100
   134        100
   148         60
   162        120
   165         60
   190        140
   191        220
   202        200
   217        100
   218         60
   232        100
   249         40
   273        140
   274        100
   284         20
   296         60
   298         60
   391         40
   450          1