##TITLE=Library Entry 85407
##JCAMP-DX=Revision 4.10 
##DATA TYPE=MASS SPECTRUM
##SAMPLE DESCRIPTION=Humboldt-Universitat zu Berlin, Department of Chemistry
, Analytical Group
##NAMES=HP
##CAS NAME=1,4-Dioxanylmethyl-diphenyl-phosphane
##MOLFORM=C17H19O2P
##CAS REGISTRY NO=110428-32-5
##MP= -300
##BP= -300
##MW= 286
##$RETENTION INDEX=0
##$CONDENSED SPECTRUM=NO
##NPOINTS= 174
##XYDATA=(XY..XY) 1 
    12          4
    14          8
    15        162
    16         18
    17         72
    18        245
    19         40
    26         29
    27        196
    28        253
    29        268
    30         42
    31        128
    37          3
    38          9
    39        181
    40         27
    41        219
    42         38
    43        215
    44         44
    45        444
    46         13
    47         43
    50         53
    51        203
    52         28
    53         11
    55         24
    56         27
    57        143
    58         14
    59         11
    60          4
    61          4
    62          7
    63         40
    64          8
    65         78
    66          5
    67          3
    68          9
    69         35
    70         12
    71         46
    72          7
    73         15
    74         13
    75         14
    76         22
    77        220
    78         78
    79         29
    80         21
    81         61
    82         21
    83         48
    84          6
    85          5
    86          5
    87         12
    88          3
    89         26
    91        275
    92         29
    93          8
    94          7
    95         60
    96          8
    97          5
    98          4
    99         20
   100          5
   101         15
   102         21
   103         12
   104         21
   105         19
   107        325
   108        999
   109        133
   110         12
   111          4
   112          6
   113          7
   115         98
   116         22
   117         18
   118          5
   119          7
   120         30
   121        409
   122         44
   123         15
   124         16
   125         20
   126         12
   127          9
   128         28
   129          9
   131         12
   132          7
   133         92
   134         14
   135          6
   138          4
   139         34
   140          8
   141         35
   142          5
   144          9
   145         10
   146          7
   147          9
   149          8
   150          7
   151         20
   152        162
   153         40
   154         16
   155          7
   156          4
   157         71
   158          8
   159          9
   163          4
   164          3
   165         64
   166         21
   167         10
   168          4
   169          6
   170         43
   171         15
   173          4
   178          4
   179          3
   180          4
   181         18
   183        710
   184        109
   185        390
   186        627
   187         97
   188          7
   194          5
   195          7
   196         11
   197         19
   199        729
   200        451
   201         95
   202         11
   203          4
   212          3
   213          4
   214          3
   225          4
   226          2
   227         32
   228         12
   229        229
   230         35
   231          4
   239          3
   241         23
   242          9
   243          3
   255          5
   256          4
   257          2
   286         81
   287         16
   288          1