##TITLE=Library Entry 47191
##JCAMP-DX=Revision 4.10 
##DATA TYPE=MASS SPECTRUM
##SAMPLE DESCRIPTION=Chemical Concepts
##NAMES=HP
##CAS NAME=3-Methyl-4-(2-naphthylazo)-1-phenyl-2-pyrazolin-5-one
##MOLFORM=C20H16N4O
##CAS REGISTRY NO=110481-38-4
##MP= -300
##BP= -300
##MW= 328
##$RETENTION INDEX=0
##$CONDENSED SPECTRUM=NO
##NPOINTS= 170
##XYDATA=(XY..XY) 1 
    33          7
    34          3
    36          1
    37         11
    38         41
    39        236
    40         56
    41         58
    42         39
    43         12
    44         11
    45          5
    50         68
    51        430
    53         15
    54         18
    55          7
    57         31
    59          2
    61          8
    62         32
    63        185
    64        120
    65        133
    67        308
    68         23
    69          9
    71         25
    74         31
    75         58
    77        999
    78         63
    79          9
    80          4
    81          2
    82          3
    83          2
    84          4
    86          9
    87         26
    88         33
    89        108
    91        227
    92         45
    93         27
    94          4
    95          2
    97          4
    98          4
    99          5
   100          8
   101         32
   103         69
   105        120
   106         47
   107         54
   108          7
   109          2
   110          4
   113        169
   115        967
   118         82
   119         78
   120         10
   121          2
   122          1
   123          2
   125          7
   127        296
   128         66
   130         18
   132         29
   133          6
   134          2
   135          3
   137          3
   140        162
   141        156
   142        194
   143        292
   144         36
   145          9
   146          4
   149          2
   150          3
   151          5
   152          9
   153         10
   154          9
   155         12
   156          9
   158         28
   159         16
   160          5
   164         73
   165         26
   166         22
   167         33
   168         19
   169         10
   170          3
   171          3
   173         65
   174          8
   178          4
   179          7
   180         22
   181         13
   182          9
   183          3
   184          2
   186         13
   187          3
   191          2
   192          3
   193          8
   194          9
   195         15
   196          4
   197          2
   199          4
   201        179
   202         20
   203          5
   204          2
   206          3
   207          7
   208         21
   209          7
   215          2
   216          2
   217          5
   218          2
   221          2
   222          5
   223          5
   228          2
   230         22
   231          5
   233          2
   235          4
   236         11
   237          2
   254          4
   255          4
   256          3
   257          6
   258          4
   259          2
   261          1
   268          2
   269          2
   270          3
   271         15
   272          5
   282          3
   283          9
   284          5
   285          4
   296          1
   297          3
   299         20
   300          8
   301          1
   312          2
   322          2
   323          3
   328        679
   329        119
   330         15