##TITLE=Library Entry 54898
##JCAMP-DX=Revision 4.10 
##DATA TYPE=MASS SPECTRUM
##SAMPLE DESCRIPTION=J. Klune, Insect Chem. Ecol. Lab., USDA, Beltsville, MD
 20705
##NAMES=HP
##CAS NAME=n-Decanol tetrahydropyran ether
##MOLFORM=C15H30O2
##CAS REGISTRY NO=110477-35-5
##MP= -300
##BP= -300
##MW= 242
##$RETENTION INDEX=0
##$CONDENSED SPECTRUM=NO
##NPOINTS= 154
##XYDATA=(XY..XY) 1 
    41        123
    42         30
    43        163
    44         21
    45          3
    47          3
    49          1
    50          0
    51          2
    52          0
    53          7
    54          8
    55        105
    56        203
    57        190
    58          9
    59          3
    60          1
    64          1
    65          2
    66          1
    67         40
    68         10
    69         40
    70         23
    71         81
    72          6
    73          1
    74         11
    75          2
    76          0
    77          2
    78          1
    79          3
    80          1
    81         10
    82         13
    83         33
    84        122
    85        999
    86         65
    87          5
    88          0
    89          0
    91          2
    92          1
    93          2
    94          1
    95          7
    96          7
    97         19
    98          6
    99         17
   100          3
   101         86
   102         10
   103          9
   104          1
   105          2
   106          1
   107          1
   108          1
   109          5
   110          3
   111         10
   112          5
   113          2
   115         30
   116          6
   117          1
   119          1
   120          1
   121          2
   122          0
   123          3
   124          1
   125          2
   126          1
   127          1
   128          1
   129          2
   131          1
   133          0
   134          1
   135          1
   136          0
   137          1
   138          7
   139          2
   140          6
   141          8
   142          1
   143          1
   144          0
   145          0
   147          1
   148          0
   149          2
   151          1
   152          1
   153          1
   154          0
   155          1
   157          2
   158          1
   159          0
   161          1
   162          0
   163          2
   164          0
   165          1
   166          0
   167          1
   168          2
   169         23
   170          3
   171          1
   172          0
   175          1
   177          1
   179          1
   180          0
   181          0
   182          0
   183          0
   184          3
   185          1
   186          0
   187          2
   189          1
   191          1
   193          0
   194          1
   195          0
   199          1
   200          0
   203          1
   205          1
   207          1
   209          1
   211          0
   212          1
   214          3
   215          0
   217          1
   219          1
   223          1
   224          1
   240          0
   241         14
   242         33
   243          6
   244          1
   245          0