##TITLE=Library Entry 40806
##JCAMP-DX=Revision 4.10 
##DATA TYPE=MASS SPECTRUM
##SAMPLE DESCRIPTION=G. Lange, Inst. Org. Chem., Univ. Wurzburg, Germany
##NAMES=HP
##CAS NAME=Tetracyclo[5.1.0.0(2,4).0(3,5)]octane, 8,8-dibromo-exo-6-[(trimet
hylsilyl)oxy]-
##MOLFORM=C11H16Br2OSi
##CAS REGISTRY NO=110472-26-9
##MP= -300
##BP= -300
##MW= 350
##$RETENTION INDEX=0
##$CONDENSED SPECTRUM=NO
##NPOINTS= 93
##XYDATA=(XY..XY) 1 
    38          3
    39         29
    41          8
    43         29
    44         18
    45        117
    46          8
    47         19
    50         12
    51         31
    52         12
    53          7
    55          6
    57         17
    58          7
    59         14
    61          5
    63         16
    65         29
    66          7
    72          8
    73        999
    74         90
    75        113
    76         19
    77         45
    78         12
    79          4
    85          5
    89         15
    90         17
    91         80
    92         13
    93         13
    95          8
   101          8
   102         54
   103         65
   104          9
   105          4
   109          4
   111          4
   115          4
   117          5
   118          7
   119         44
   120          7
   121         18
   122          3
   123          4
   125          8
   127          6
   128         12
   134          8
   135          5
   137         32
   138          4
   139         27
   147         13
   151          4
   161          6
   169         11
   171         11
   172          3
   177         12
   178          2
   179          4
   181         16
   182          8
   183         13
   184          7
   191          3
   192         68
   193         18
   194          4
   197         12
   199          8
   227          4
   257          3
   262          6
   271         15
   272          5
   273         16
   274          3
   285         21
   286          4
   287         44
   288          8
   289         22
   290          4
   350          2
   352          4
   354          1