##TITLE=Library Entry 84961
##JCAMP-DX=Revision 4.10 
##DATA TYPE=MASS SPECTRUM
##SAMPLE DESCRIPTION=LAC, NIDDK, NIH, Bethesda, MD 20892
##NAMES=HP
##CAS NAME=.alpha.,d-Gala-octonic phenylhydrazide
##MOLFORM=C14H22N2O8
##CAS REGISTRY NO=110439-22-0
##MP= -300
##BP= -300
##MW= 346
##$RETENTION INDEX=0
##$CONDENSED SPECTRUM=NO
##NPOINTS= 166
##XYDATA=(XY..XY) 1 
    41        129
    42         98
    43        191
    44        106
    45         57
    46          9
    47         13
    48          5
    49         54
    50        103
    51        218
    52         77
    53         38
    54         39
    55         43
    56         20
    57         30
    58          7
    59          6
    60         50
    61         73
    62         27
    63         74
    64         86
    65        355
    66         41
    67          8
    68          4
    69         19
    70          7
    71         26
    72          8
    73        153
    74         48
    75         16
    76         22
    77        292
    78        159
    79        111
    80         49
    81         30
    82          5
    83         11
    84         41
    85         27
    86         24
    87          6
    88          6
    89          5
    90         10
    91        168
    92        414
    93        142
    94         12
    95          4
    96          2
    97         13
    98         12
    99          5
   100          4
   101          6
   102          3
   103         10
   104          5
   105         12
   106         15
   107         67
   108        999
   109         83
   110          5
   111          4
   112         13
   113          5
   114          2
   115          6
   116          1
   117          3
   118          3
   119          5
   120          3
   121          3
   122          4
   123          2
   124          2
   125          3
   126          1
   127          4
   128          2
   129          3
   130          8
   131          8
   132          3
   133          4
   134         10
   135          3
   136          2
   137          2
   138          0
   139          2
   140          1
   141          1
   142          3
   143         11
   144          5
   145          5
   146          2
   147          3
   148          1
   149          6
   150          3
   151          0
   153          0
   154          1
   155          1
   156          0
   157          6
   158          3
   159          3
   160          4
   161          6
   162          2
   163          1
   164          7
   165          4
   166          3
   167          1
   168          1
   169          1
   171          1
   173          1
   174          1
   175          2
   176          1
   177          4
   178          7
   179          1
   180          3
   181          0
   184          1
   185          1
   187          0
   189          3
   190          1
   191          0
   193          1
   194          3
   195          2
   196          0
   201          3
   202          5
   203          1
   214          1
   220          1
   224          1
   225          1
   237          1
   266          2
   267          2
   268          1
   292          2
   293          0
   297          1
   310          1
   328          1
   346         13
   347          2