##TITLE=Library Entry 21105
##JCAMP-DX=Revision 4.10 
##DATA TYPE=MASS SPECTRUM
##SAMPLE DESCRIPTION=Japan AIST/NIMC Database- Spectrum MS-IW- 895
##NAMES=HP
##CAS NAME=(S)-(+)-6-Methyl-1-octanol
##MOLFORM=C9H20O
##CAS REGISTRY NO=110453-78-6
##MP= -300
##BP= -300
##MW= 144
##$RETENTION INDEX=0
##$CONDENSED SPECTRUM=NO
##NPOINTS= 66
##XYDATA=(XY..XY) 1 
    15          2
    18          2
    26          2
    27         50
    28         17
    29        151
    30          4
    31         62
    32          1
    34          1
    38          1
    39         41
    40          8
    41        347
    42        156
    43        256
    44         15
    45         17
    50          1
    51          2
    52          1
    53         14
    54         15
    55        999
    56        643
    57        430
    58         19
    59          5
    60          1
    65          2
    66          2
    67         32
    68        118
    69        505
    70        667
    71        151
    72          7
    73          8
    74          1
    75          1
    77          1
    79          2
    81         28
    82         12
    83        162
    84         85
    85         17
    86          1
    87         20
    88          1
    91          5
    93          1
    95          9
    96         45
    97        799
    98        132
    99          9
   109          1
   111         20
   112          2
   113          1
   115          3
   125          1
   126          1
   127          3
   143          1