##TITLE=Library Entry 5309
##JCAMP-DX=Revision 4.10 
##DATA TYPE=MASS SPECTRUM
##SAMPLE DESCRIPTION=A.A.Kutin, Moscow, Russia
##NAMES=HP
##CAS NAME=(2-Methyl-4-nitroimidazol-5-thio)acetamide
##MOLFORM=C6H8N4O3S
##CAS REGISTRY NO=110578-98-8
##MP= -300
##BP= -300
##MW= 216
##$RETENTION INDEX=0
##$CONDENSED SPECTRUM=NO
##NPOINTS= 167
##XYDATA=(XY..XY) 1 
    33          4
    34          2
    35          3
    36          5
    37          2
    38          9
    39         16
    40         51
    41        129
    42        999
    43        199
    44        230
    45         98
    46         64
    47         30
    48         21
    49          3
    50          5
    51         18
    52         69
    53         49
    54         32
    55         26
    56         11
    57         45
    58        173
    59        182
    60         57
    61          7
    62          4
    63          2
    64          2
    65          3
    67        271
    68         27
    69         41
    70         99
    71        139
    72         62
    73         37
    74         58
    75         19
    76          5
    77          6
    78          3
    79         12
    80         15
    81          7
    82         12
    83        115
    84         54
    85         49
    86         52
    87         21
    88         11
    89          6
    90          5
    91          5
    92          1
    93          5
    94         33
    95         12
    96          4
    97          7
    98          6
    99         17
   100         15
   101         24
   102         55
   103          6
   104          3
   105          1
   106          1
   107          1
   108          3
   109          8
   110         22
   111         27
   112         13
   113          7
   114          4
   115         20
   116          2
   117          8
   118          1
   119          1
   120          1
   121          1
   122          1
   123          7
   124         12
   125         18
   126         96
   127         29
   128         54
   129         75
   130          7
   131          5
   132          0
   133          0
   134          1
   135          2
   136          1
   137          1
   138          2
   139          7
   140         27
   141         10
   142         64
   143         73
   144         43
   145          6
   146          3
   147          0
   148          0
   149          2
   151         32
   152          4
   153          8
   154          3
   155          2
   156          6
   157          1
   158          1
   159          1
   160          0
   161          0
   163          0
   164          0
   165          0
   166          1
   167          1
   168          3
   170        296
   171         26
   172         21
   173          2
   174          0
   177          0
   180          0
   181          0
   182          3
   183          2
   184          7
   185          2
   186          3
   187          0
   189          0
   192          0
   193          0
   194          0
   196          0
   197          1
   198          3
   199         22
   200          5
   201          1
   202          0
   203          0
   205          0
   207          0
   214          2
   216        152
   217         15
   218          8
   219          1
   220          0