##TITLE=Library Entry 73732
##JCAMP-DX=Revision 4.10 
##DATA TYPE=MASS SPECTRUM
##SAMPLE DESCRIPTION=Chuck Anderson, Aldrich Chemical Co.
##NAMES=HP
##CAS NAME=Methyl (R)-(+)-3-bromo-2-methylpropionate
##MOLFORM=C5H9BrO2
##CAS REGISTRY NO=110556-33-7
##MP= -300
##BP= -300
##MW= 180
##$RETENTION INDEX=0
##$CONDENSED SPECTRUM=NO
##NPOINTS= 113
##XYDATA=(XY..XY) 1 
    12          0
    13          0
    14          2
    15        105
    16          1
    19          0
    20          0
    24          0
    25          1
    26         17
    27         57
    28         11
    29         55
    30          6
    31         11
    32          0
    33          2
    35          0
    36          1
    37         10
    38         27
    39        227
    40         40
    41        601
    42        186
    43         14
    44          2
    45         15
    46          0
    49          0
    50          0
    51          0
    52          0
    53          3
    54          1
    55         18
    56          2
    57          1
    59        272
    60          8
    61          2
    66          0
    67          0
    68          1
    69         78
    70          3
    71          1
    72          0
    73         13
    74          0
    79          3
    80          1
    81          3
    82          1
    83          0
    85          1
    87          5
    88          0
    91          0
    92          1
    93         23
    94          8
    95         24
    96          7
    97          2
    99          1
   100          1
   101        999
   102         51
   103          5
   104          0
   105          4
   106          0
   107          4
   108          0
   109          0
   111          0
   116          0
   117          0
   118          0
   119          2
   120         11
   121        174
   122         16
   123        172
   124          5
   125          1
   131          0
   133         12
   134          0
   135         11
   136          0
   137          0
   139         15
   140          0
   141         14
   142          0
   147          0
   148          0
   149         56
   150          2
   151         54
   152          2
   153          0
   154          0
   165         15
   166          0
   167         15
   168          0
   180          1
   181          0
   182          1
   183          0