##TITLE=Library Entry 52287
##JCAMP-DX=Revision 4.10 
##DATA TYPE=MASS SPECTRUM
##SAMPLE DESCRIPTION=O TIMOFEEV,PHYS. CHEM. INST.,ACAD. SCI.,ODESSA,USSR
##NAMES=HP
##CAS NAME=2,5-Diisopropyl-1,3,2-dithiaborinane
##MOLFORM=C9H19BS2
##CAS REGISTRY NO=110523-69-8
##MP= -300
##BP= -300
##MW= 202
##$RETENTION INDEX=0
##$CONDENSED SPECTRUM=NO
##NPOINTS= 36
##XYDATA=(XY..XY) 1 
    53         92
    54         38
    55        872
    56        170
    57        255
    58         46
    59        123
    60        255
    61        192
    67        234
    68         43
    69        617
    70         94
    71         55
    72         46
    73        596
    74        170
    75        319
    82        532
    83        999
    84         87
    85         49
   101        175
   110         55
   111         55
   116        319
   117        277
   118         44
   144         59
   145         83
   158         36
   159        149
   201         98
   202        383
   203         59
   204         29