##TITLE=Library Entry 27923
##JCAMP-DX=Revision 4.10 
##DATA TYPE=MASS SPECTRUM
##SAMPLE DESCRIPTION=A.A.Kutin, Moscow, Russia
##NAMES=HP
##CAS NAME=Acetic acid, 2-dimethylaminomethyl-1-phenylcyclohex-1-yl ester
##MOLFORM=C17H25NO2
##CAS REGISTRY NO=110597-24-5
##MP= -300
##BP= -300
##MW= 275
##$RETENTION INDEX=0
##$CONDENSED SPECTRUM=NO
##NPOINTS= 170
##XYDATA=(XY..XY) 1 
    30         31
    32         23
    33          0
    35          9
    36         46
    38         19
    39         12
    40          3
    41         25
    42         79
    43        188
    44         31
    45         13
    46          4
    47          0
    50          2
    51         11
    52          2
    53          4
    54          1
    55         16
    56         10
    58        999
    61          1
    62          0
    63          2
    64          1
    65          6
    66          1
    67          6
    68          3
    69          3
    70          5
    71          5
    72          1
    73          0
    74          7
    75          1
    76          2
    77         37
    78          8
    79          7
    80          3
    81          2
    82          4
    84         14
    85          2
    86          0
    87          0
    88          0
    89          2
    91         27
    93          2
    94          1
    95          0
    96          1
    97          1
    98          2
    99          0
   100          0
   101          0
   102          3
   103          4
   104          3
   105         28
   106          2
   107          2
   108          1
   109          0
   110          3
   111          0
   112          0
   113          0
   114          1
   115         21
   116          9
   117          8
   118          6
   119          0
   120          1
   121          1
   122          0
   123          0
   124          1
   125          0
   126          0
   127          4
   128         14
   129         23
   130         16
   131          2
   132          2
   133          2
   134          0
   135          0
   136          0
   137          0
   138          1
   139          0
   140          0
   141          7
   142          4
   143         14
   144          2
   145          1
   146          0
   147          0
   148          0
   149          0
   150          0
   151          0
   152          1
   153          1
   154          2
   155          2
   156          2
   157          3
   158         51
   159          7
   160          1
   161          0
   162          0
   165          0
   166          0
   167          0
   168          0
   169          0
   170          2
   171          3
   172          1
   173          0
   174          0
   175          0
   176          0
   178          0
   181          0
   182          0
   183          0
   184          0
   185          0
   186          7
   187          1
   188          0
   189          0
   194          0
   197          0
   198          0
   199          0
   200          2
   201          0
   202          0
   212          0
   213          0
   214          1
   215          4
   216          1
   217          0
   223          0
   230          0
   231          0
   232          2
   233          3
   234          0
   240          0
   241          0
   251          0
   253          0
   275         20
   276          4
   277          0