##TITLE=Library Entry 90949
##JCAMP-DX=Revision 4.10 
##DATA TYPE=MASS SPECTRUM
##SAMPLE DESCRIPTION=Dennis Rohrbaugh, CBDCOM/ERDEC, Edgewood, MD
##NAMES=HP
##CAS NAME=2-Diisopropylaminoethyl ethyl sulfide
##MOLFORM=C10H23NS
##CAS REGISTRY NO=110501-54-7
##MP= -300
##BP= -300
##MW= 189
##$RETENTION INDEX=1274
##$CONDENSED SPECTRUM=NO
##NPOINTS= 30
##XYDATA=(XY..XY) 1 
    35         38
    39         64
    41        308
    42        209
    43        322
    44        173
    47         42
    55         30
    56        157
    58         40
    59         35
    61        144
    70        125
    71         33
    72        646
    73         36
    75         17
    84         32
    85         13
    86         40
    87         13
    89        225
    90         12
    98         11
   102         12
   114        999
   115         82
   128         28
   144          9
   189         12