##TITLE=Library Entry 10861
##JCAMP-DX=Revision 4.10 
##DATA TYPE=MASS SPECTRUM
##SAMPLE DESCRIPTION=V. Nevalainen, Dep. Chem., Univ. Helsinki, Helsinki, Fi
nland
##NAMES=HP
##CAS NAME=1,4-Oxathiane-3-carboxylic acid, 2,3-dichloro-2-methyl-, methyl e
ster
##MOLFORM=C7H10Cl2O3S
##CAS REGISTRY NO=110512-34-0
##MP= -300
##BP= -300
##MW= 244
##$RETENTION INDEX=0
##$CONDENSED SPECTRUM=NO
##NPOINTS= 33
##XYDATA=(XY..XY) 1 
    36        200
    38         70
    42         90
    43        999
    45        190
    59        460
    72        100
    77        120
    79        130
    87        100
    89         40
    95        120
    97         50
   103        100
   104        520
   138        370
   140        130
   145        260
   150         50
   152         20
   166        440
   168        150
   173        350
   174        250
   176        300
   177        110
   178        110
   208        300
   209        130
   210        120
   211         50
   244         10
   246          7