##TITLE=Library Entry 8969
##JCAMP-DX=Revision 4.10 
##DATA TYPE=MASS SPECTRUM
##SAMPLE DESCRIPTION=Chemical Concepts
##NAMES=HP
##CAS NAME=3-Hexenoic acid, 5-hydroxy-2-methyl-, [r*,R*-(E)]-
##MOLFORM=C7H12O3
##CAS REGISTRY NO=110678-36-9
##MP= -300
##BP= -300
##MW= 144
##$RETENTION INDEX=0
##$CONDENSED SPECTRUM=NO
##NPOINTS= 62
##XYDATA=(XY..XY) 1 
    26         13
    27        133
    28         44
    29        131
    30          7
    31         13
    38         11
    39        122
    40         17
    41        152
    42         21
    43        999
    44         33
    45        142
    46          3
    47          3
    50         14
    51         26
    52         11
    53         70
    54         22
    55        202
    56        122
    57         71
    58         47
    59         10
    60          4
    61         12
    62          3
    63          5
    65         18
    66          7
    67         54
    68          7
    69         47
    70          8
    71        877
    72         27
    73        142
    74         80
    75          4
    77         14
    79         21
    80          4
    81         40
    82         28
    83        314
    84         27
    85         15
    87         29
    97         19
    98        170
    99         25
   100          5
   101         10
   111        192
   112          9
   125          2
   126        123
   127         12
   129         16
   143          0