##TITLE=Library Entry 67882
##JCAMP-DX=Revision 4.10 
##DATA TYPE=MASS SPECTRUM
##SAMPLE DESCRIPTION=Chemical Concepts
##NAMES=HP
##CAS NAME=Propanoic acid, 3-(2-hydroxycyclobutylidene)-2-methyl-, [R*,R*-(E
)]-
##MOLFORM=C8H12O3
##CAS REGISTRY NO=110678-38-1
##MP= -300
##BP= -300
##MW= 156
##$RETENTION INDEX=0
##$CONDENSED SPECTRUM=NO
##NPOINTS= 78
##XYDATA=(XY..XY) 1 
    26         20
    27        327
    28         81
    29        286
    30         14
    31         52
    37         10
    38         42
    39        581
    40         95
    41        670
    42         74
    43        395
    44         71
    45        121
    47         11
    50         47
    51        108
    52         50
    53        300
    54        115
    55        825
    56        246
    57        105
    58         35
    59         13
    60          4
    61          4
    62         12
    63         38
    64         12
    65        125
    66         94
    67        591
    68         91
    69        175
    70         25
    71         71
    72          9
    73         51
    74        359
    75         14
    77        128
    79        159
    80         35
    81        331
    82        220
    83        730
    84         58
    85         32
    86         10
    87         39
    91         81
    92         47
    93         94
    94         26
    95        999
    96         83
    97        132
    98         13
    99         32
   100         25
   101         12
   109        133
   110        742
   111        158
   113        189
   114         17
   123         62
   127         25
   128        260
   129         16
   137         11
   138        270
   139         39
   141         16
   156          3
   157          2