##TITLE=Library Entry 90621
##JCAMP-DX=Revision 4.10 
##DATA TYPE=MASS SPECTRUM
##SAMPLE DESCRIPTION=Humboldt-Universitat zu Berlin, Department of Chemistry
, Analytical Group
##NAMES=HP
##CAS NAME=3-Diazo-4-oxo-3,4-dihydronaphthalen-1-sulfonic acid, phenyl ester
##MOLFORM=C16H10N2O4S
##CAS REGISTRY NO=110673-14-8
##MP= -300
##BP= -300
##MW= 326
##$RETENTION INDEX=0
##$CONDENSED SPECTRUM=NO
##NPOINTS= 150
##XYDATA=(XY..XY) 1 
    12          1
    14          6
    15          5
    16          3
    17         11
    18         41
    26          8
    27         16
    28         82
    29          7
    31          4
    32          5
    37         13
    38         46
    39        419
    40         20
    41          6
    42          3
    43          5
    44         11
    45          5
    47          1
    48         12
    49          3
    50         41
    51         61
    52          7
    53         19
    54          1
    55          8
    57          8
    58          1
    60          3
    61         22
    62         67
    63        410
    64         50
    65        255
    66         28
    67          2
    68          1
    69         14
    70          3
    71          3
    73          7
    74         58
    75         63
    76         16
    77         29
    78          3
    79          2
    81          3
    82          3
    83          2
    84          2
    85         20
    86        114
    87        229
    88         25
    89         78
    90          7
    91          1
    92          2
    93         43
    94         26
    95          3
    97          2
    98         10
    99          7
   101        150
   102         19
   103          3
   104          5
   105          5
   106          2
   107          1
   108          2
   109          7
   110         24
   111         21
   113        999
   114        111
   115         18
   116          3
   117          3
   118          2
   119          2
   120          3
   121         18
   122          3
   123          2
   125          2
   126          5
   127          6
   129        566
   130         57
   131          5
   133        101
   134         11
   135          5
   138          1
   139          3
   141        431
   142         53
   143         13
   144          2
   145          9
   146          2
   148          1
   149          7
   150          7
   151         15
   152         16
   153          2
   157        569
   158         64
   159          9
   161         73
   162          8
   163          6
   164          1
   165          2
   166          1
   173          2
   174          2
   175          2
   176         22
   177         13
   178         38
   179          6
   189          5
   190          2
   203          0
   205        432
   206         70
   207         33
   208          4
   233         10
   234         25
   235          5
   236          3
   237          0
   264          0
   268          0
   300          1
   301          0
   326         42
   327          8
   328          3
   329          0