##TITLE=Library Entry 6295
##JCAMP-DX=Revision 4.10 
##DATA TYPE=MASS SPECTRUM
##SAMPLE DESCRIPTION=I.G. Zenkevich, A.A. Zhdanov Leningrad State Univ., Len
ingrad, USSR
##NAMES=HP
##CAS NAME=Diazene, 2-methoxy-1-propyl-, 1-oxide
##MOLFORM=C4H10N2O2
##CAS REGISTRY NO=110655-50-0
##MP= -300
##BP= -300
##MW= 118
##$RETENTION INDEX=0
##$CONDENSED SPECTRUM=NO
##NPOINTS= 17
##XYDATA=(XY..XY) 1 
    27        260
    28         50
    29         60
    30        120
    31         30
    41        390
    42        100
    43        999
    44         60
    45         50
    73        120
    87        290
    90         60
   101        170
   103         30
   118        100
   119          5