##TITLE=Library Entry 76539
##JCAMP-DX=Revision 4.10 
##DATA TYPE=MASS SPECTRUM
##SAMPLE DESCRIPTION=R.DAVIS KINGSTON POLYTEC., KINGSTON UPON THAMES, SURREY
, UK
##NAMES=HP
##CAS NAME=Iron, tricarbonyl(1,3,5,7-cyclooctatetraene-1-carboxaldehyde)-
##MOLFORM=C12H8FeO4
##CAS REGISTRY NO=11064-31-6
##MP= -300
##BP= -300
##MW= 272
##$RETENTION INDEX=0
##$CONDENSED SPECTRUM=NO
##NPOINTS= 20
##XYDATA=(XY..XY) 1 
    50        510
    51        880
    56        400
    74         70
    75         40
    76         70
    77        900
    78        580
   102         80
   103        999
   104        680
   105         40
   131         30
   132        520
   134        420
   160        190
   188        620
   216        300
   244        220
   272         80