##TITLE=Library Entry 85727
##JCAMP-DX=Revision 4.10 
##DATA TYPE=MASS SPECTRUM
##SAMPLE DESCRIPTION=Chemical Concepts
##NAMES=HP
##CAS NAME=4,7-Methano-1H-indene-3-acetic acid, 3a,4,7,7a-tetrahydro-1-hydro
xy-.alpha.-methyl-, [1.alpha.,3(R*),3a.alpha.,4.alpha.,7.alpha.,7a.alpha.]-
##MOLFORM=C13H16O3
##CAS REGISTRY NO=110678-39-2
##MP= -300
##BP= -300
##MW= 220
##$RETENTION INDEX=0
##$CONDENSED SPECTRUM=NO
##NPOINTS= 132
##XYDATA=(XY..XY) 1 
    26          3
    27         42
    28          8
    29         20
    31          6
    38          9
    39         91
    40         35
    41         66
    42         10
    43         33
    44         43
    45         10
    50         11
    51         49
    52         16
    53         50
    54         13
    55         45
    56          8
    57         24
    62          8
    63         34
    64         14
    65        103
    66        454
    67         86
    68          9
    69         19
    70         11
    71         15
    72          4
    73          8
    74         15
    75          7
    76          8
    77         87
    78         26
    79         90
    80         39
    81         73
    82         21
    83         22
    84          6
    85          9
    86          3
    87          6
    89         14
    90         10
    91        230
    92        309
    93         76
    94         30
    95         26
    96          5
    97         12
    98          7
    99          7
   101          3
   102          9
   103         21
   104         10
   105         45
   106          9
   107         29
   108        123
   109        999
   110        105
   111         22
   112          6
   113          4
   115         72
   116         30
   117        112
   118         26
   119         59
   120          9
   121         22
   122          5
   123          5
   125          5
   126         16
   127         28
   128        101
   129        190
   130         33
   131         27
   132          7
   133          9
   135          7
   136         79
   137         17
   138         27
   139         41
   140          7
   141         29
   142         27
   143         57
   144         12
   145         52
   146         30
   147         63
   148          7
   149         31
   150          6
   151         20
   152         13
   153         10
   154         73
   155         35
   156         41
   157        209
   158         81
   159         18
   163          4
   164          3
   173          5
   174         37
   175         17
   176          5
   184          4
   187         10
   189          3
   190          3
   191         17
   192          8
   202        370
   203         59
   204          6
   205          3
   220         24
   221          3