##TITLE=Library Entry 80325
##JCAMP-DX=Revision 4.10 
##DATA TYPE=MASS SPECTRUM
##SAMPLE DESCRIPTION=Exported from NIST MS Search
##NAMES=HP
##CAS NAME=Imidazo[1,2-a]pyridinium, 2-acetyl-2,3-dihydro-3-oxo-1-(phenylmet
hyl)-, hydroxide, inner salt
##MOLFORM=C16H14N2O2
##CAS REGISTRY NO=11066-85-6
##MP= -300
##BP= -300
##MW= 266
##$RETENTION INDEX=0
##$CONDENSED SPECTRUM=NO
##NPOINTS= 102
##XYDATA=(XY..XY) 1 
    40         46
    41         55
    42         23
    43        356
    44        180
    45         10
    50         27
    51         95
    52         43
    53         12
    54          7
    55         36
    56         21
    57         66
    58          4
    62          9
    63         30
    64         12
    65        129
    66         10
    67         15
    68          4
    69         38
    70         15
    71         30
    74          7
    75          9
    76         12
    77         43
    78        326
    79         55
    80          7
    81         18
    82          6
    83         18
    84          9
    85         18
    89         33
    90         20
    91        436
    92         38
    93         10
    94          3
    95         10
    96          6
    97         15
    98          3
    99          4
   100          3
   101          1
   102          6
   103          6
   104         18
   105        999
   106         70
   107          9
   109          9
   110          3
   111          9
   112          3
   113          6
   114          1
   115          9
   116          4
   117          9
   118          9
   119         10
   120          3
   121          9
   122          3
   123          6
   124          3
   125         10
   126          1
   127          3
   128          3
   129          9
   130          1
   132          4
   133          7
   135          4
   137          7
   139          3
   140          3
   144          7
   145         64
   146          7
   147         12
   175        172
   176         23
   181          9
   183          6
   193          6
   194         10
   195         43
   196          7
   222          4
   223         33
   224        104
   225         18
   266        147
   267         30