##TITLE=Library Entry 51046
##JCAMP-DX=Revision 4.10 
##DATA TYPE=MASS SPECTRUM
##SAMPLE DESCRIPTION=D.HENNEBERG, MAX-PLANCK INSTITUTE, MULHEIM, WEST GERMAN
Y
##NAMES=HP
##CAS NAME=Aromadendran ('2')
##MOLFORM=C15H26
##CAS REGISTRY NO=110769-62-5
##MP= -300
##BP= -300
##MW= 206
##$RETENTION INDEX=0
##$CONDENSED SPECTRUM=NO
##NPOINTS= 142
##XYDATA=(XY..XY) 1 
    27        221
    28         81
    29        290
    30          6
    31          6
    32          6
    36          3
    37          6
    38          8
    39        235
    40         59
    41        848
    42         64
    43        234
    44         19
    45          1
    47          1
    48          1
    49          6
    50         27
    51         39
    52         24
    53        202
    54         45
    55        570
    56         55
    57         61
    58          5
    59          6
    60          2
    61          1
    63          8
    64          1
    65         91
    66         36
    67        491
    68        101
    69        614
    70         42
    71         23
    72          3
    73          4
    74          4
    75          5
    77        180
    78         45
    79        335
    80         73
    81        766
    82        999
    83        171
    84         17
    85          5
    88          1
    89          2
    90          3
    91        218
    92         53
    93        456
    94        202
    95        787
    96        147
    97         42
    98          3
   102          2
   103         15
   104          7
   105        107
   106         31
   107        642
   108        194
   109        319
   110        126
   111         27
   112          3
   113          1
   115         13
   116          7
   117         14
   118          6
   119         39
   120         20
   121        523
   122        525
   123        189
   124         75
   125          8
   127          3
   128          5
   129          8
   130          3
   131          6
   132          1
   133         25
   134         11
   135        457
   136        107
   137         35
   138          9
   139          0
   141          5
   142          2
   143          4
   144          1
   145          3
   147         15
   148          8
   149        137
   150        181
   151         22
   152          3
   155          4
   156          7
   157          4
   158          2
   159          2
   161         18
   162         45
   163        730
   164        151
   165         15
   166          2
   169          7
   170          1
   171          1
   177         22
   178          8
   179          0
   183          2
   184          6
   185          2
   186          1
   187          0
   189          3
   190          1
   191         61
   192          9
   204          5
   205          7
   206        389
   207         67
   208          5