##TITLE=Library Entry 6552
##JCAMP-DX=Revision 4.10 
##DATA TYPE=MASS SPECTRUM
##SAMPLE DESCRIPTION=LAC, NIDDK, NIH, Bethesda, MD 20892
##NAMES=HP
##CAS NAME=2-[1,2-Dihydroxyethyl]-9-[.beta.-d-ribofuranosyl]hypoxanthine
##MOLFORM=C12H16N4O7
##CAS REGISTRY NO=110851-58-6
##MP= -300
##BP= -300
##MW= 328
##$RETENTION INDEX=0
##$CONDENSED SPECTRUM=NO
##NPOINTS= 21
##XYDATA=(XY..XY) 1 
    42        619
    43        999
    44        279
    45        278
    53        279
    55        307
    56         53
    57        587
    58         59
    60        318
    61         57
    71        195
    73        460
    75         52
   108         66
   135        108
   136        102
   150         48
   178        262
   179         48
   328         20