##TITLE=Library Entry 61766
##JCAMP-DX=Revision 4.10 
##DATA TYPE=MASS SPECTRUM
##SAMPLE DESCRIPTION=ASES Database, Dalian Institute, P.R. China
##NAMES=HP
##CAS NAME=2,2-Dimethyl-3-(N-benzylamino)-1-phenyl-propan-1-one
##MOLFORM=C18H21NO
##CAS REGISTRY NO=110871-26-6
##MP= -300
##BP= -300
##MW= 267
##$RETENTION INDEX=0
##$CONDENSED SPECTRUM=NO
##NPOINTS= 22
##XYDATA=(XY..XY) 1 
    39         69
    40        147
    41        131
    42         90
    43         49
    44         30
    51         89
    55         29
    56         39
    64        110
    77        188
    78         30
    89         30
    91        999
    92         90
   105        198
   106         59
   118         39
   119         49
   120        489
   121         59
   148         39