##TITLE=Library Entry 50179
##JCAMP-DX=Revision 4.10 
##DATA TYPE=MASS SPECTRUM
##SAMPLE DESCRIPTION=Chemical Concepts
##NAMES=HP
##CAS NAME=Cyclohexane, 1-ethenyl-1-methyl-2,4-bis(1-methylethenyl)-
##MOLFORM=C15H24
##CAS REGISTRY NO=110823-68-2
##MP= -300
##BP= -300
##MW= 204
##$RETENTION INDEX=0
##$CONDENSED SPECTRUM=NO
##NPOINTS= 90
##XYDATA=(XY..XY) 1 
    26          6
    27        346
    28         78
    29        344
    30          8
    38         18
    39        563
    40        118
    41        899
    42         95
    43        198
    44          9
    45          3
    50         29
    51        100
    52         53
    53        584
    54         65
    55        547
    56         20
    57         29
    63         28
    64         16
    65        147
    66         80
    67        573
    68        946
    69        189
    70         19
    71         11
    75         13
    76         11
    77        283
    78         82
    79        413
    80        151
    81        999
    82        111
    83         24
    84         10
    89         14
    90          9
    91        339
    92        117
    93        802
    94        237
    95        242
    96         27
    97          8
   103         19
   104          7
   105        249
   106        110
   107        388
   108        196
   109         98
   110          9
   115         23
   116         11
   117         16
   118         10
   119        181
   120         79
   121        357
   122         74
   123         80
   128         11
   129          8
   131         19
   132          8
   133        137
   134         72
   135        111
   136         40
   145         14
   147        224
   148         82
   149         49
   159         10
   160          7
   161        123
   162         40
   163         28
   175         29
   176         19
   189        113
   190         22
   204         16
   205          2
   206          0