##TITLE=Library Entry 85278
##JCAMP-DX=Revision 4.10 
##DATA TYPE=MASS SPECTRUM
##SAMPLE DESCRIPTION=Chemical Concepts
##NAMES=HP
##CAS NAME=3-Buten-2-one, 4-(1-cyclopenten-1-yl)-, (E)-
##MOLFORM=C9H12O
##CAS REGISTRY NO=110845-85-7
##MP= -300
##BP= -300
##MW= 136
##$RETENTION INDEX=0
##$CONDENSED SPECTRUM=NO
##NPOINTS= 72
##XYDATA=(XY..XY) 1 
    26          8
    27         65
    29         18
    38         19
    39        198
    40         26
    41        135
    42         15
    43        635
    44         15
    45         14
    50         43
    51         89
    52         40
    53         74
    54         11
    55        227
    56         11
    57          7
    58         15
    62         25
    63         69
    64         18
    65        197
    66         63
    67         67
    68         15
    69         33
    70          9
    71         33
    77        654
    78        115
    79        168
    80         34
    81         26
    82         12
    83         25
    84          9
    85          7
    87          8
    89         17
    90         14
    91        678
    92         61
    93        515
    94         40
    95        141
    96         21
    97         74
    98         15
   103        193
   104         28
   105         11
   106          8
   107         76
   108        999
   109        135
   110         27
   111         26
   112         10
   115         19
   117         32
   118          7
   119         14
   120          6
   121        439
   122         33
   123          8
   135        177
   136        760
   137         75
   138          5