##TITLE=Library Entry 7682
##JCAMP-DX=Revision 4.10 
##DATA TYPE=MASS SPECTRUM
##SAMPLE DESCRIPTION=Div. of Experiment Therapeutics WRAIR, WRAMC, Washingto
n DC 20307
##NAMES=HP
##CAS NAME=2-[2-Hydroxyethyl]-9-[.beta.-d-ribofuranosyl]hypoxanthine
##MOLFORM=C12H16N4O6
##CAS REGISTRY NO=110851-59-7
##MP= -300
##BP= -300
##MW= 312
##$RETENTION INDEX=0
##$CONDENSED SPECTRUM=NO
##NPOINTS= 94
##XYDATA=(XY..XY) 1 
    42        670
    43        999
    44        426
    45        336
    47        250
    48         23
    52         65
    53         97
    54        181
    55        378
    56        191
    57        787
    58        158
    59         14
    60        437
    61        223
    62         21
    64          6
    65         13
    66         20
    67         35
    68        126
    69        148
    70         50
    71        265
    72        131
    73        579
    74        150
    75         13
    76         17
    77         15
    79         19
    80         25
    81         40
    82         40
    83         71
    84         49
    85         14
    86         42
    87         33
    88         59
    89         23
    90         20
    91         32
    95         28
    96         34
    97         65
    98         33
    99          8
   100         14
   101         42
   102         40
   103         40
   107         18
   108         14
   109         93
   110         60
   111         26
   112         22
   114        115
   115         32
   119         30
   120          6
   122         19
   126          8
   132         20
   133         47
   134          6
   135         31
   136         51
   137         12
   140          7
   142         39
   143         18
   145         13
   150        100
   151         24
   152         12
   157          6
   161         71
   162        316
   163        126
   164         23
   173          6
   175         14
   179         16
   180         82
   181         26
   191         37
   205         24
   209         22
   215         12
   223         12
   294          7