##TITLE=Library Entry 7688
##JCAMP-DX=Revision 4.10 
##DATA TYPE=MASS SPECTRUM
##SAMPLE DESCRIPTION=Div. of Experiment Therapeutics WRAIR, WRAMC, Washingto
n DC 20307
##NAMES=HP
##CAS NAME=2-Vinyl-9-[.beta.-d-ribofuranosyl]hypoxanthine
##MOLFORM=C12H14N4O5
##CAS REGISTRY NO=110851-56-4
##MP= -300
##BP= -300
##MW= 294
##$RETENTION INDEX=0
##$CONDENSED SPECTRUM=NO
##NPOINTS= 40
##XYDATA=(XY..XY) 1 
    42        418
    43        999
    44        394
    45        238
    47         67
    51          8
    52         16
    53         87
    54        133
    55        321
    56         45
    57        653
    58         70
    60        267
    61         79
    68        103
    69         91
    71        177
    73        314
    74         77
    81          9
    84         63
    85         77
    86        103
    95         34
    96         56
    97         48
    98         16
   102         16
   103         19
   109         41
   114        234
   115         30
   128          8
   133         24
   136         16
   143         17
   161         23
   162        108
   163          8