##TITLE=Library Entry 23892
##JCAMP-DX=Revision 4.10 
##DATA TYPE=MASS SPECTRUM
##SAMPLE DESCRIPTION=Institute of Organic Chemistry, Novosibirsk, USSR 1988
##NAMES=HP
##CAS NAME=1,3,5,7,9,11-Hexavinyl-3,5,9,11-tetrabutoxybicyclo[5.5.1]hexasilo
xane
##MOLFORM=C28H54O11Si6
##CAS REGISTRY NO=110991-14-5
##MP= -300
##BP= -300
##MW= 734
##$RETENTION INDEX=0
##$CONDENSED SPECTRUM=NO
##NPOINTS= 58
##XYDATA=(XY..XY) 1 
    41        356
    42         51
    43         73
    44         23
    45         18
    57        999
    58         37
    73        102
    74          9
    75          9
    83         55
    84         17
    85         18
   147         47
   149         10
   377        116
   378         43
   379         39
   380         10
   387         68
   388         26
   389         26
   425         79
   426         30
   427         30
   429         91
   430         48
   431         17
   432         11
   437        216
   438         85
   439         78
   440         23
   455        200
   456         70
   457         54
   465        206
   466         93
   467         86
   468         27
   469         39
   470         13
   475        188
   476         99
   477        106
   478         47
   479         67
   480         26
   493         29
   494         37
   495         19
   496         17
   577         20
   578         11
   661         20
   662         12
   707         18
   708         11