##TITLE=Library Entry 27628
##JCAMP-DX=Revision 4.10 
##DATA TYPE=MASS SPECTRUM
##SAMPLE DESCRIPTION=Institute of Organic Chemistry, Novosibirsk, USSR 1988
##NAMES=HP
##CAS NAME=1,3,5,7,9,11-Hexavinyl-5,9-dibutoxytricyclo[5.5.1.1(3,11)]hexasil
oxane
##MOLFORM=C20H36O10Si6
##CAS REGISTRY NO=110991-16-7
##MP= -300
##BP= -300
##MW= 604
##$RETENTION INDEX=0
##$CONDENSED SPECTRUM=NO
##NPOINTS= 53
##XYDATA=(XY..XY) 1 
    27          9
    28          3
    31        283
    41        509
    42         69
    43        138
    44        121
    45        115
    57        999
    58        234
    59         25
    73        113
    74         26
    81        133
    82         63
    83         21
    87         44
   229         87
   230         45
   231         27
   245        121
   246         66
   281        198
   282         54
   283         36
   437        554
   438         99
   439         71
   440         17
   447        578
   448        115
   449         91
   450         32
   451         21
   465        190
   466         83
   467         63
   468         22
   475        347
   476        188
   477        188
   478         85
   479         40
   493         27
   494         12
   519         60
   520         35
   521         60
   522         31
   531         23
   532         10
   577         13
   578          6