##TITLE=Library Entry 27543
##JCAMP-DX=Revision 4.10 
##DATA TYPE=MASS SPECTRUM
##SAMPLE DESCRIPTION=Institute of Organic Chemistry, Novosibirsk, USSR 1988
##NAMES=HP
##CAS NAME=1,3,5,7-Tetravinyl-1,1,3,5,7,7-hexabutoxytetrasiloxane
##MOLFORM=C32H66O9Si4
##CAS REGISTRY NO=110991-11-2
##MP= -300
##BP= -300
##MW= 706
##$RETENTION INDEX=0
##$CONDENSED SPECTRUM=NO
##NPOINTS= 27
##XYDATA=(XY..XY) 1 
    27        550
    40         90
    41        573
    42        104
    43        189
    56        159
    57        999
    58         45
   297        338
   298        125
   299         46
   307        738
   308        300
   309        194
   317        386
   318        141
   325         46
   335        121
   353        146
   363         99
   373         84
   391         44
   409         50
   419         21
   447         22
   503        176
   549          6