##TITLE=Library Entry 37042
##JCAMP-DX=Revision 4.10 
##DATA TYPE=MASS SPECTRUM
##SAMPLE DESCRIPTION=NIST Mass Spectrometry Data Center
##NAMES=HP
##CAS NAME=Heptanal
##MOLFORM=C7H14O
##CAS REGISTRY NO=111-71-7
##MP= -300
##BP= -300
##MW= 114
##$RETENTION INDEX=901
##$CONDENSED SPECTRUM=NO
##NPOINTS= 62
##XYDATA=(XY..XY) 1 
    14          1
    15         12
    26         28
    27        332
    28         72
    29        442
    30         12
    31         16
    37          6
    38         23
    39        392
    40         59
    41        899
    42        514
    43        836
    44        883
    45        208
    46          5
    49          1
    50         21
    51         36
    52         13
    53         84
    54         93
    55        779
    56         92
    57        625
    58         71
    59          6
    61          1
    62          3
    63          6
    65         15
    66         11
    67        117
    68        204
    69         63
    70        999
    71        315
    72        113
    73          6
    74          1
    77          5
    78          1
    79         14
    80          2
    81        307
    82         19
    83         11
    84          3
    85         45
    86        196
    87         10
    91          1
    93          1
    95         23
    96        159
    97         15
    99          4
   113          3
   114         10
   115          1