##TITLE=Library Entry 2662
##JCAMP-DX=Revision 4.10 
##DATA TYPE=MASS SPECTRUM
##SAMPLE DESCRIPTION=Chemical Concepts
##NAMES=HP
##CAS NAME=2,4-Hexadien-1-ol
##MOLFORM=C6H10O
##CAS REGISTRY NO=111-28-4
##MP= -300
##BP= -300
##MW= 98
##$RETENTION INDEX=916
##$CONDENSED SPECTRUM=NO
##NPOINTS= 68
##XYDATA=(XY..XY) 1 
    25          4
    26         42
    27        291
    28         18
    29        216
    30         29
    31        125
    36          6
    37         47
    38        102
    39        632
    40        150
    41        999
    42        349
    43        575
    44        102
    45         43
    46          4
    47         12
    48         11
    49         32
    50        134
    51        202
    52        150
    53        354
    54        212
    55        669
    56        201
    57        224
    58         40
    59          4
    60          8
    61         22
    62         45
    63         76
    64         15
    65        179
    66         84
    67        210
    68         59
    69        430
    70        206
    71         58
    72         27
    73         12
    74         23
    75         17
    76          9
    77        299
    78         80
    79        611
    80        384
    81        240
    82         47
    83        580
    84         48
    85         10
    86          5
    91         13
    92          6
    93          9
    94          8
    95         54
    96         51
    97        103
    98        539
    99         43
   100          5