##TITLE=Library Entry 22293
##JCAMP-DX=Revision 4.10 
##DATA TYPE=MASS SPECTRUM
##SAMPLE DESCRIPTION=Japan AIST/NIMC Database- Spectrum MS-NW- 942
##NAMES=HP
##CAS NAME=1-Octanol
##MOLFORM=C8H18O
##CAS REGISTRY NO=111-87-5
##MP= -300
##BP= -300
##MW= 130
##$RETENTION INDEX=1071
##$CONDENSED SPECTRUM=NO
##NPOINTS= 66
##XYDATA=(XY..XY) 1 
    15          9
    17          2
    18          7
    19          2
    26         10
    27        231
    28         59
    29        348
    30          9
    31        275
    32          3
    33          1
    37          1
    38          7
    39        171
    40         32
    41        807
    42        563
    43        749
    44         37
    45         41
    46          2
    50          4
    51         10
    52          4
    53         40
    54         56
    55        875
    56        999
    57        385
    58         15
    59          8
    60          1
    62          1
    63          2
    65          5
    66          4
    67         47
    68        157
    69        586
    70        610
    71         88
    72          4
    73         24
    74          1
    77          3
    79          3
    81         11
    82         61
    83        331
    84        487
    85         39
    86          2
    87          2
    91          1
    95          4
    96          2
    97         28
    98          4
    99          1
   100          2
   101          1
   110          2
   111          3
   112         22
   113          2