##TITLE=Library Entry 1516
##JCAMP-DX=Revision 4.10 
##DATA TYPE=MASS SPECTRUM
##SAMPLE DESCRIPTION=NIST Mass Spectrometry Data Center, 1990.
##NAMES=HP
##CAS NAME=1-Propanol, 3-ethoxy-
##MOLFORM=C5H12O2
##CAS REGISTRY NO=111-35-3
##MP= -300
##BP= -300
##MW= 104
##$RETENTION INDEX=788
##$CONDENSED SPECTRUM=NO
##NPOINTS= 51
##XYDATA=(XY..XY) 1 
    13          3
    14         14
    15         55
    16          4
    17          0
    18          4
    19         59
    26         56
    27        264
    28        204
    29        519
    30         90
    31        999
    32         13
    33          6
    37          2
    38          6
    39         41
    40         19
    41        206
    42         95
    43        128
    44         45
    45        343
    46         14
    47         62
    48          2
    49          1
    53          2
    54          1
    55         12
    56          1
    57        295
    58        405
    59        529
    60         22
    61         42
    62          1
    63          1
    69          1
    71        185
    72         10
    73          5
    74          1
    75        158
    76          6
    86         61
    87          4
    89         30
    90          1
   103          3