##TITLE=Library Entry 6282
##JCAMP-DX=Revision 4.10 
##DATA TYPE=MASS SPECTRUM
##SAMPLE DESCRIPTION=Chuck Anderson, Aldrich Chemical Co.
##NAMES=HP
##CAS NAME=Hexane, 1-bromo-
##MOLFORM=C6H13Br
##CAS REGISTRY NO=111-25-1
##MP= -300
##BP= -300
##MW= 164
##$RETENTION INDEX=939
##$CONDENSED SPECTRUM=NO
##NPOINTS= 98
##XYDATA=(XY..XY) 1 
    14          0
    15          3
    16          0
    24          0
    25          0
    26         12
    27        161
    28         47
    29        180
    30          4
    31          0
    33          0
    34          0
    35          0
    36          0
    37          3
    38         15
    39        210
    40         39
    41        562
    42        195
    43        999
    44         32
    45          0
    48          0
    49          0
    50         10
    51         15
    52          6
    53         39
    54         19
    55        493
    56        218
    57        199
    58          9
    59          0
    60          0
    61          0
    62          1
    63          2
    64          0
    65          3
    66          1
    67         10
    68          2
    69         81
    70          5
    71          2
    72          0
    73          0
    74          0
    75          0
    76          0
    77          1
    78          0
    79          2
    80          1
    81          2
    82          1
    83          8
    84          5
    85        506
    86         33
    87          1
    91          0
    92          0
    93         14
    94          0
    95         14
    96          0
    97          0
   104          0
   105          2
   106          9
   107         60
   108          9
   109         55
   110          1
   117          0
   119          1
   120          0
   121          5
   122          0
   123          3
   124          0
   133          0
   135        418
   136         16
   137        384
   138         16
   139          0
   149          0
   151          0
   162          0
   164         24
   165          1
   166         24
   167          1