##TITLE=Library Entry 65908
##JCAMP-DX=Revision 4.10 
##DATA TYPE=MASS SPECTRUM
##SAMPLE DESCRIPTION=NIST Mass Spectrometry Data Center, 1990.
##NAMES=HP
##CAS NAME=Bis(2-chloroethyl) ether
##MOLFORM=C4H8Cl2O
##CAS REGISTRY NO=111-44-4
##MP= -300
##BP= -300
##MW= 142
##$RETENTION INDEX=984
##$CONDENSED SPECTRUM=NO
##NPOINTS= 35
##XYDATA=(XY..XY) 1 
    26         88
    27        365
    28         23
    29        100
    30         20
    31         53
    35         10
    36          8
    39          6
    40          8
    41          9
    42         27
    43         36
    44         25
    45         19
    47         12
    48         18
    49        109
    50         22
    51         35
    57          6
    60          5
    61         22
    63        641
    64         32
    65        206
    66          5
    79          8
    93        999
    95        320
    96         11
   106         27
   108          9
   142         12
   144          7