##TITLE=Library Entry 10158
##JCAMP-DX=Revision 4.10 
##DATA TYPE=MASS SPECTRUM
##SAMPLE DESCRIPTION=Exported from NIST MS Search
##NAMES=HP
##CAS NAME=Propyl sulfide
##MOLFORM=C6H14S
##CAS REGISTRY NO=111-47-7
##MP= -300
##BP= -300
##MW= 118
##$RETENTION INDEX=888
##$CONDENSED SPECTRUM=NO
##NPOINTS= 66
##XYDATA=(XY..XY) 1 
    25          2
    26         52
    27        633
    28         51
    29        110
    30          2
    32          5
    33          4
    34          7
    35         12
    36          1
    37         11
    38         29
    39        330
    40         36
    41        661
    42        605
    43        999
    44         33
    45        263
    46        175
    47        619
    48         45
    49         38
    50          3
    51          2
    53          3
    54          1
    55         66
    56          8
    57          7
    58         38
    59         46
    60         24
    61        360
    62         14
    63         17
    64          1
    67          1
    68          1
    69          8
    70          1
    71         16
    72          3
    73         17
    74         38
    75        123
    76        483
    77        112
    78         25
    79          5
    85          2
    87          3
    88          1
    89        858
    90         47
    91         39
    92          2
   103         20
   104          1
   105          1
   117          6
   118        547
   119         42
   120         26
   121          2