##TITLE=Library Entry 70990
##JCAMP-DX=Revision 4.10 
##DATA TYPE=MASS SPECTRUM
##SAMPLE DESCRIPTION=NIST Mass Spectrometry Data Center, 1994
##NAMES=HP
##CAS NAME=Decanedioic acid
##MOLFORM=C10H18O4
##CAS REGISTRY NO=111-20-6
##MP= -300
##BP= -300
##MW= 202
##$RETENTION INDEX=0
##$CONDENSED SPECTRUM=NO
##NPOINTS= 97
##XYDATA=(XY..XY) 1 
    14         17
    15         11
    26         18
    27        197
    28         61
    29        196
    30         15
    31         42
    39        238
    40         69
    41        541
    42        204
    43        251
    44         24
    45        344
    47         13
    51         19
    52         18
    53         94
    54         13
    55        982
    56         97
    57         87
    58         19
    59         89
    60        579
    61         34
    65         21
    66         23
    67        132
    68        120
    69        335
    70         81
    71         46
    72         19
    73        340
    74         65
    75         23
    76         21
    77         47
    78         19
    79        101
    80        100
    81        134
    82         86
    83        451
    84        516
    85         74
    86         20
    87         99
    91         20
    93         44
    94         68
    95         98
    96        112
    97        475
    98        999
    99        105
   100         37
   101         77
   102         14
   104         11
   105         20
   106         22
   107        108
   108         20
   109         61
   110        121
   111         77
   112         90
   113         26
   114         23
   115         54
   116         11
   119         23
   120         36
   121         51
   122         23
   123         37
   124         68
   125        409
   126         48
   128         23
   129         69
   130         22
   131         16
   137         57
   138        455
   139         58
   140         39
   143         38
   148         60
   149          6
   166        285
   167         24
   171         24
   185         57