##TITLE=Library Entry 7192
##JCAMP-DX=Revision 4.10 
##DATA TYPE=MASS SPECTRUM
##SAMPLE DESCRIPTION=Japan AIST/NIMC Database- Spectrum MS-NW- 37
##NAMES=HP
##CAS NAME=1-Octene
##MOLFORM=C8H16
##CAS REGISTRY NO=111-66-0
##MP= -300
##BP= -300
##MW= 112
##$RETENTION INDEX=789
##$CONDENSED SPECTRUM=NO
##NPOINTS= 64
##XYDATA=(XY..XY) 1 
    14          1
    15          9
    26         14
    27        250
    28         51
    29        353
    30          8
    31          7
    37          3
    38         11
    39        283
    40         46
    41        817
    42        660
    43        999
    44         32
    45          4
    46          1
    47          1
    50          9
    51         22
    52          9
    53         75
    54         85
    55        991
    56        865
    57        186
    58          8
    59          2
    60          1
    62          2
    63          4
    64          1
    65         10
    66          6
    67         59
    68         71
    69        443
    70        856
    71        124
    72          6
    73          2
    74          1
    77          6
    78          1
    79          6
    80          1
    81          9
    82         61
    83        335
    84        223
    85         22
    86          1
    91          2
    95          2
    96          1
    97         37
    98          4
    99          1
   110          2
   111          2
   112        197
   113         19
   114          2