##TITLE=Library Entry 19993
##JCAMP-DX=Revision 4.10 
##DATA TYPE=MASS SPECTRUM
##SAMPLE DESCRIPTION=Japan AIST/NIMC Database- Spectrum MS-NW-1739
##NAMES=HP
##CAS NAME=Heptanedioic acid
##MOLFORM=C7H12O4
##CAS REGISTRY NO=111-16-0
##MP= -300
##BP= -300
##MW= 160
##$RETENTION INDEX=0
##$CONDENSED SPECTRUM=NO
##NPOINTS= 99
##XYDATA=(XY..XY) 1 
    14          6
    15         23
    16          9
    17         15
    18         51
    19          5
    25          1
    26         35
    27        378
    28        129
    29        251
    30         16
    31         78
    32          4
    33          1
    36         66
    37          6
    38         27
    39        282
    40         52
    41        579
    42        248
    43        364
    44         30
    45        290
    46          9
    47          9
    48          7
    49          3
    50          8
    51         16
    52          6
    53         58
    54         87
    55        999
    56         81
    57         67
    58         48
    59        183
    60        795
    61         23
    62          6
    63          5
    64          1
    65         10
    66          4
    67         47
    68        226
    69        157
    70         50
    71         57
    72          9
    73        329
    74         35
    75          4
    77          2
    78          2
    79          7
    80          5
    81         16
    82         22
    83        588
    84         35
    85         16
    86        134
    87         59
    88          5
    89          1
    91          1
    93          2
    94          2
    95         12
    96        105
    97         57
    98         19
    99         31
   100         44
   101        449
   102         26
   103          3
   105          1
   107          1
   109          2
   110          1
   111          3
   112          1
   113         16
   114        510
   115         38
   116         11
   117          1
   123          5
   124        152
   125         19
   126          2
   141          1
   142         31
   143         19
   144          1