##TITLE=Library Entry 28028
##JCAMP-DX=Revision 4.10 
##DATA TYPE=MASS SPECTRUM
##SAMPLE DESCRIPTION=RADIAN CORP
##NAMES=HP
##CAS NAME=1,2-Ethanediamine, N-ethyl-N'-methyl-
##MOLFORM=C5H14N2
##CAS REGISTRY NO=111-37-5
##MP= -300
##BP= -300
##MW= 102
##$RETENTION INDEX=0
##$CONDENSED SPECTRUM=NO
##NPOINTS= 32
##XYDATA=(XY..XY) 1 
    15         13
    26          5
    27         37
    28         95
    29         52
    30        329
    31         12
    32          1
    39          2
    40          7
    41         22
    42         78
    43         45
    44        554
    45         27
    46          6
    52          1
    54          8
    55          5
    56         52
    57         29
    58        999
    59         63
    60          3
    68          2
    69          5
    70          5
    71          8
    72         13
    85          4
   102          6
   103          1