##TITLE=Library Entry 5708
##JCAMP-DX=Revision 4.10 
##DATA TYPE=MASS SPECTRUM
##SAMPLE DESCRIPTION=Japan AIST/NIMC Database- Spectrum MS-NW-3538
##NAMES=HP
##CAS NAME=Butane, 1-isocyanato-
##MOLFORM=C5H9NO
##CAS REGISTRY NO=111-36-4
##MP= -300
##BP= -300
##MW= 99
##$RETENTION INDEX=0
##$CONDENSED SPECTRUM=NO
##NPOINTS= 48
##XYDATA=(XY..XY) 1 
    12          2
    13          3
    14         10
    15         82
    16          1
    25          2
    26         47
    27        497
    28        234
    29        166
    30        276
    31          5
    32          2
    36          1
    37          9
    38         18
    39        142
    40         54
    41        876
    42        190
    43        999
    44         34
    49          1
    50          6
    51          7
    52          6
    53          9
    54         23
    55         89
    56        424
    57         28
    58         64
    59          3
    64          1
    67          1
    68          3
    69          6
    70        133
    71         78
    72          4
    81          2
    82         21
    83          2
    84         10
    97          1
    98        165
    99         27
   100          2