##TITLE=Library Entry 3249
##JCAMP-DX=Revision 4.10 
##DATA TYPE=MASS SPECTRUM
##SAMPLE DESCRIPTION=Japan AIST/NIMC Database- Spectrum MS-NW-8683
##NAMES=HP
##CAS NAME=Hexanedinitrile
##MOLFORM=C6H8N2
##CAS REGISTRY NO=111-69-3
##MP= -300
##BP= -300
##MW= 108
##$RETENTION INDEX=1090
##$CONDENSED SPECTRUM=NO
##NPOINTS= 42
##XYDATA=(XY..XY) 1 
    13          1
    14          4
    15         13
    25          1
    26         33
    27        101
    28         88
    29          7
    36          1
    37         16
    38         24
    39        130
    40         50
    41        999
    42         56
    43          1
    49          2
    50          9
    51         27
    52         57
    53         38
    54        430
    55        205
    56          8
    62          1
    63          4
    64         16
    65          3
    66         37
    67         22
    68        539
    69         25
    75          3
    76          4
    77          2
    78          2
    79          3
    80         17
    81          2
   107          4
   109         18
   110          1