##TITLE=Library Entry 55832
##JCAMP-DX=Revision 4.10 
##DATA TYPE=MASS SPECTRUM
##SAMPLE DESCRIPTION=Japan AIST/NIMC Database- Spectrum MS-NW-8462
##NAMES=HP
##CAS NAME=1-Butanamine, N-butyl-
##MOLFORM=C8H19N
##CAS REGISTRY NO=111-92-2
##MP= -300
##BP= -300
##MW= 129
##$RETENTION INDEX=947
##$CONDENSED SPECTRUM=NO
##NPOINTS= 42
##XYDATA=(XY..XY) 1 
    15          7
    26          4
    27         60
    28         61
    29        206
    30        618
    31          9
    38          1
    39         34
    40          4
    41        175
    42         45
    43         52
    44        719
    45         18
    51          1
    52          1
    53          6
    54          5
    55         30
    56         43
    57        172
    58         13
    68          5
    69          1
    70         14
    71          1
    72         24
    73          4
    82          1
    84         16
    85          2
    86        999
    87         58
    88          1
    98          2
   100          7
   112          2
   114          2
   128         14
   129         70
   130          9