##TITLE=Library Entry 22168
##JCAMP-DX=Revision 4.10 
##DATA TYPE=MASS SPECTRUM
##SAMPLE DESCRIPTION=Exported from NIST MS Search
##NAMES=HP
##CAS NAME=1-Hexanol
##MOLFORM=C6H14O
##CAS REGISTRY NO=111-27-3
##MP= -300
##BP= -300
##MW= 102
##$RETENTION INDEX=868
##$CONDENSED SPECTRUM=NO
##NPOINTS= 64
##XYDATA=(XY..XY) 1 
    14         26
    15        116
    16          8
    17         24
    18         78
    19         19
    25          4
    26         61
    27        498
    28        129
    29        464
    30         20
    31        517
    32         13
    33          4
    36          1
    37         11
    38         24
    39        253
    40         48
    41        590
    42        534
    43        831
    44         58
    45         58
    46          3
    47          1
    49          2
    50          9
    51         14
    52          5
    53         31
    54         35
    55        569
    56        999
    57         95
    58          5
    59          6
    60          1
    61          2
    62          2
    63          2
    65          3
    66          1
    67         12
    68          9
    69        239
    70         38
    71         29
    72          4
    73         30
    74          2
    75          1
    77          1
    79          1
    81          2
    82          2
    83         14
    84         96
    85          9
    86          3
    87          1
    88          2
   102          1