##TITLE=Library Entry 17275
##JCAMP-DX=Revision 4.10 
##DATA TYPE=MASS SPECTRUM
##SAMPLE DESCRIPTION=NIST Mass Spectrometry Data Center, 1998.
##NAMES=HP
##CAS NAME=Ethanol, 2,2'-oxybis-
##MOLFORM=C4H10O3
##CAS REGISTRY NO=111-46-6
##MP= -300
##BP= -300
##MW= 106
##$RETENTION INDEX=927
##$CONDENSED SPECTRUM=NO
##NPOINTS= 29
##XYDATA=(XY..XY) 1 
    14          2
    15         11
    19         22
    26          8
    27         70
    28         21
    29         98
    30          9
    31        102
    32          4
    33          2
    41          3
    42         19
    43        120
    44        106
    45        999
    46         27
    47         22
    57          5
    58         18
    59          2
    60          3
    61          7
    63          6
    73          2
    75        227
    76        118
    77          5
    88          4