##TITLE=Library Entry 17082
##JCAMP-DX=Revision 4.10 
##DATA TYPE=MASS SPECTRUM
##SAMPLE DESCRIPTION=NIST Mass Spectrometry Data Center, 2007
##NAMES=HP
##CAS NAME=Ethanol, 2-(2-ethoxyethoxy)-
##MOLFORM=C6H14O3
##CAS REGISTRY NO=111-90-0
##MP= -300
##BP= -300
##MW= 134
##$RETENTION INDEX=1007
##$CONDENSED SPECTRUM=NO
##NPOINTS= 50
##XYDATA=(XY..XY) 1 
    14          2
    15         22
    16          1
    18          1
    19         23
    25          1
    26         15
    27        115
    28         78
    29        216
    30         17
    31        329
    32          7
    33         10
    39          2
    40          1
    41         27
    42         19
    43        147
    44         76
    45        999
    46         24
    47         12
    55          2
    56          1
    57          9
    58         11
    59        357
    60         97
    61         31
    62         21
    63          3
    72        302
    73        160
    74          9
    75         78
    76          3
    77          1
    86          2
    87          4
    88          4
    89         12
    90          4
    91          4
   101         19
   102          1
   103         41
   104         54
   105          3
   116          1