##TITLE=Library Entry 57121
##JCAMP-DX=Revision 4.10 
##DATA TYPE=MASS SPECTRUM
##SAMPLE DESCRIPTION=NIST Mass Spectrometry Data Center, 2007
##NAMES=HP
##CAS NAME=Ethanol, 2,2'-[1,2-ethanediylbis(oxy)]bis-, diacetate
##MOLFORM=C10H18O6
##CAS REGISTRY NO=111-21-7
##MP= -300
##BP= -300
##MW= 234
##$RETENTION INDEX=1556
##$CONDENSED SPECTRUM=NO
##NPOINTS= 52
##XYDATA=(XY..XY) 1 
    14          3
    15         36
    16          1
    17          1
    19          2
    26          4
    27         18
    28         36
    29         28
    30          6
    31         15
    32          1
    39          1
    41          5
    42         27
    43        661
    44         29
    45         46
    46          1
    55          1
    57          9
    58         16
    59          6
    60          1
    61         10
    69          1
    70         26
    71         11
    72          3
    73         22
    74          5
    75          4
    83          1
    85          1
    86         32
    87        999
    88         50
    89          9
    99         16
   100          3
   101         12
   102          2
   103          1
   114          6
   115          4
   117         32
   118          2
   119          1
   130          2
   131          8
   132          1
   174          1