##TITLE=Library Entry 28112
##JCAMP-DX=Revision 4.10 
##DATA TYPE=MASS SPECTRUM
##SAMPLE DESCRIPTION=Japan AIST/NIMC Database- Spectrum MS-NW-6432
##NAMES=HP
##CAS NAME=1,4-Butanediamine, N,N,N',N'-tetramethyl-
##MOLFORM=C8H20N2
##CAS REGISTRY NO=111-51-3
##MP= -300
##BP= -300
##MW= 144
##$RETENTION INDEX=0
##$CONDENSED SPECTRUM=NO
##NPOINTS= 58
##XYDATA=(XY..XY) 1 
    14          1
    15         22
    26          2
    27         11
    28         15
    29         16
    30         30
    31          1
    38          1
    39          9
    40          3
    41         15
    42         94
    43         31
    44         54
    45        222
    46          8
    51          1
    52          1
    53          2
    54          3
    55         14
    56         30
    57         17
    58        999
    59         37
    67          1
    68          7
    69          2
    70         13
    71        171
    72         61
    73         30
    74          1
    79          2
    80          1
    81          1
    82          8
    83          5
    84         95
    85         17
    86          9
    87          1
    94          1
    95          1
    96          2
    97          2
    98         55
    99         16
   100         41
   101         13
   102          1
   108          1
   127          3
   129         45
   130          5
   144         88
   145          9