##TITLE=Library Entry 8055
##JCAMP-DX=Revision 4.10 
##DATA TYPE=MASS SPECTRUM
##SAMPLE DESCRIPTION=NIST Mass Spectrometry Data Center, 1990.
##NAMES=HP
##CAS NAME=2-Octanone
##MOLFORM=C8H16O
##CAS REGISTRY NO=111-13-7
##MP= -300
##BP= -300
##MW= 128
##$RETENTION INDEX=990
##$CONDENSED SPECTRUM=NO
##NPOINTS= 52
##XYDATA=(XY..XY) 1 
    15         13
    26         12
    27        100
    28         15
    29         75
    30          2
    31          5
    37          2
    39        118
    40         28
    41        207
    42          2
    43        999
    44         34
    45         10
    50          6
    51         10
    52          4
    53         25
    54          9
    55         73
    56         22
    57          4
    58        859
    59        168
    60          6
    63          2
    65          3
    66          1
    67         11
    68         17
    69         15
    70         27
    71        189
    72         21
    77          2
    79          2
    81          6
    82          1
    83          2
    84          1
    85         72
    86         18
    95         10
    99          8
   100          2
   109          1
   110          3
   113         38
   114          2
   128         58
   129          4