##TITLE=Library Entry 65910
##JCAMP-DX=Revision 4.10 
##DATA TYPE=MASS SPECTRUM
##SAMPLE DESCRIPTION=NIST Mass Spectrometry Data Center, 1990.
##NAMES=HP
##CAS NAME=Methane, bis(2-chloroethoxy)-
##MOLFORM=C5H10Cl2O2
##CAS REGISTRY NO=111-91-1
##MP= -300
##BP= -300
##MW= 172
##$RETENTION INDEX=1168
##$CONDENSED SPECTRUM=NO
##NPOINTS= 34
##XYDATA=(XY..XY) 1 
    15          5
    26         31
    27        156
    28         68
    29         74
    30         18
    31         67
    32         10
    42         12
    43         25
    44         47
    45          8
    47          7
    48         10
    49         77
    50         12
    51         24
    57          8
    60          3
    61         18
    63        665
    64         31
    65        206
    73         17
    79          5
    93        999
    95        325
    96         10
   106         17
   108          6
   123        160
   125         50
   171         14
   173          8