##TITLE=Library Entry 57711
##JCAMP-DX=Revision 4.10 
##DATA TYPE=MASS SPECTRUM
##SAMPLE DESCRIPTION=Japan AIST/NIMC Database- Spectrum MS-IW-1315
##NAMES=HP
##CAS NAME=Bis-(2-methoxyethyl)-amine
##MOLFORM=C6H15NO2
##CAS REGISTRY NO=111-95-5
##MP= -300
##BP= -300
##MW= 133
##$RETENTION INDEX=0
##$CONDENSED SPECTRUM=NO
##NPOINTS= 45
##XYDATA=(XY..XY) 1 
    14          1
    15         38
    26          2
    27         14
    28         82
    29        107
    30         61
    31         88
    32          6
    33          5
    39          1
    40          2
    41         18
    42         40
    43         31
    44         20
    45         58
    46          1
    54          6
    55          5
    56        405
    57         25
    58        235
    59        248
    60          8
    68          5
    69          1
    70         21
    71          9
    72          3
    73          4
    74          2
    86          5
    87          1
    88        999
    89         49
    90          3
   100          5
   101          3
   102         14
   103          6
   116          1
   132          2
   133         18
   134          9