##TITLE=Library Entry 8194
##JCAMP-DX=Revision 4.10 
##DATA TYPE=MASS SPECTRUM
##SAMPLE DESCRIPTION=NIST Mass Spectrometry Data Center, 2007
##NAMES=HP
##CAS NAME=2-Ethoxyethyl acetate
##MOLFORM=C6H12O3
##CAS REGISTRY NO=111-15-9
##MP= -300
##BP= -300
##MW= 132
##$RETENTION INDEX=907
##$CONDENSED SPECTRUM=NO
##NPOINTS= 39
##XYDATA=(XY..XY) 1 
    14          7
    15         54
    16          2
    18          1
    19          4
    25          1
    26         17
    27         91
    28         44
    29        184
    30         11
    31        307
    32          4
    33          1
    39          1
    40          1
    41         35
    42         49
    43        999
    44        207
    45        107
    46          3
    55          1
    57          5
    58         25
    59        365
    60         14
    61         37
    62          1
    70         15
    72        357
    73         49
    74         22
    75          4
    87         93
    88         77
    89         16
    90          1
   103          1