##TITLE=Library Entry 21197
##JCAMP-DX=Revision 4.10 
##DATA TYPE=MASS SPECTRUM
##SAMPLE DESCRIPTION=Japan AIST/NIMC Database- Spectrum MS-IW-3596
##NAMES=HP
##CAS NAME=Decanedioyl dichloride
##MOLFORM=C10H16Cl2O2
##CAS REGISTRY NO=111-19-3
##MP= -300
##BP= -300
##MW= 238
##$RETENTION INDEX=0
##$CONDENSED SPECTRUM=NO
##NPOINTS= 133
##XYDATA=(XY..XY) 1 
    14          1
    15          4
    18          1
    26          9
    27        149
    28         53
    29        110
    30          2
    35         17
    36        140
    37          6
    38         46
    39        130
    40         28
    41        442
    42        122
    43        140
    44          8
    45          2
    46          1
    47          2
    48          2
    49          7
    50          4
    51         11
    52          6
    53         52
    54         72
    55        999
    56        110
    57         55
    58          5
    59          2
    60          1
    61          2
    62          2
    63         50
    64          2
    65         19
    66          9
    67        120
    68        117
    69        321
    70         77
    71         13
    72          2
    73          2
    74          1
    75          9
    76          3
    77         24
    78         80
    79         80
    80        162
    81        130
    82         62
    83        189
    84        481
    85         30
    86          3
    88          2
    89          6
    90          3
    91         30
    92          9
    93         38
    94         65
    95        109
    96         42
    97        158
    98        811
    99         54
   100          3
   101          1
   102          4
   103          4
   104          6
   105         13
   106          5
   107         80
   108          7
   109         39
   110         59
   111         77
   112         41
   113          3
   114          2
   115          1
   116          2
   117          2
   118          4
   119          9
   120         10
   121         70
   122         23
   123         32
   124         27
   125        114
   126          9
   127          1
   129          1
   130          3
   131          6
   132          3
   133          3
   134          1
   135          1
   136          2
   137         12
   138        103
   139        142
   140         12
   141          1
   145          2
   146          2
   147          3
   148          4
   149          5
   151          1
   158          7
   159          4
   160          3
   161          2
   166          6
   167        160
   168         17
   169          1
   174          1
   193          1
   203        148
   204         15
   205         49
   206          5