##TITLE=Library Entry 35390
##JCAMP-DX=Revision 4.10 
##DATA TYPE=MASS SPECTRUM
##SAMPLE DESCRIPTION=NIST Mass Spectrometry Data Center, 1998.
##NAMES=HP
##CAS NAME=Squalene
##MOLFORM=C30H50
##CAS REGISTRY NO=111-02-4
##MP= -300
##BP= -300
##MW= 410
##$RETENTION INDEX=2832
##$CONDENSED SPECTRUM=NO
##NPOINTS= 148
##XYDATA=(XY..XY) 1 
    27          7
    29         11
    38          1
    39         18
    40          8
    41        264
    42         13
    43         23
    44          1
    50          1
    51          3
    52          2
    53         49
    54          5
    55         74
    56          5
    57         20
    58          1
    63          1
    65         10
    66          5
    67        107
    68        134
    69        999
    70         60
    71          9
    77         24
    78          5
    79         50
    80         24
    81        545
    82         61
    83         24
    84          2
    85          1
    91         35
    92         19
    93        108
    94         45
    95        155
    96         16
    97         13
    98          1
   103          2
   104          1
   105         28
   106         10
   107         77
   108         22
   109         81
   110         10
   111         10
   112          1
   115          2
   116          1
   117          3
   118          1
   119         34
   120         11
   121        121
   122         30
   123         89
   124         11
   125          3
   128          1
   129          1
   131          2
   132          2
   133         19
   134         21
   135         58
   136        116
   137        121
   138         13
   139          1
   145          4
   146          2
   147         27
   148         12
   149         71
   150         13
   151          3
   159          4
   160          1
   161         20
   162          9
   163         16
   164          2
   165          1
   173          3
   174          1
   175         19
   176          6
   177         12
   178          3
   179          1
   187          3
   188          1
   189         15
   190          5
   191         17
   192         14
   193          2
   201          2
   202          1
   203         14
   204          5
   205          6
   206          1
   215          2
   216          1
   217          6
   218          3
   219          1
   229          2
   230          1
   231          7
   232          1
   233          1
   243          1
   244          1
   245          1
   257          2
   258          1
   259          2
   260          1
   271          1
   272          1
   273          4
   274          1
   285          1
   286          1
   297          1
   299          4
   300          1
   301          1
   325          1
   326          1
   327          1
   328          2
   329          1
   341         11
   342          3
   367          5
   368          1
   395          1
   410          4
   411          1