##TITLE=Library Entry 25525
##JCAMP-DX=Revision 4.10 
##DATA TYPE=MASS SPECTRUM
##SAMPLE DESCRIPTION=D.HENNEBERG, MAX-PLANCK INSTITUTE, MULHEIM, WEST GERMAN
Y
##NAMES=HP
##CAS NAME=Squalane
##MOLFORM=C30H62
##CAS REGISTRY NO=111-01-3
##MP= -300
##BP= -300
##MW= 422
##$RETENTION INDEX=2657
##$CONDENSED SPECTRUM=NO
##NPOINTS= 127
##XYDATA=(XY..XY) 1 
    26          1
    27         15
    29         20
    33          1
    37          1
    38          0
    39         15
    40          8
    41         72
    42         24
    43        308
    45          2
    50          3
    51          2
    52          2
    53          5
    54          5
    55         96
    56        156
    57        999
    58         45
    63          1
    65          2
    67         16
    68         17
    69        122
    70        106
    71        788
    72         42
    77          0
    79          4
    80          2
    81         16
    82         16
    83         71
    84         71
    85        445
    86         28
    91          3
    93          2
    94          2
    95         14
    96         23
    97         82
    98         29
    99        240
   100         19
   105          6
   106          4
   107          3
   109         10
   110         17
   111         71
   112        145
   113        282
   114         20
   117          1
   118          1
   122          1
   123          3
   124          4
   125         24
   126         87
   127        168
   128         16
   137          1
   138          3
   139          7
   140         16
   141        118
   142         11
   143          1
   153          6
   154         13
   155         86
   156         11
   166          1
   167          3
   168          4
   169         67
   170          5
   171          1
   175          0
   179          1
   181         10
   182         74
   183        157
   184         21
   185          2
   195          2
   196         22
   197         47
   198          3
   210          4
   211         34
   212          6
   224          2
   225         26
   226          4
   238         38
   239         78
   240         13
   252          1
   253         12
   254          1
   266         35
   267         45
   268         10
   280          3
   281          9
   282          2
   291          0
   295          4
   308         11
   309         12
   310          2
   323          2
   336         22
   337         29
   338          6
   351          2
   378          1
   392          2
   393          2
   407          7
   408          4
   422          2