##TITLE=Library Entry 24627
##JCAMP-DX=Revision 4.10 
##DATA TYPE=MASS SPECTRUM
##SAMPLE DESCRIPTION=NIST Mass Spectrometry Data Center, 1990.
##NAMES=HP
##CAS NAME=Ethanol, 2-butoxy-
##MOLFORM=C6H14O2
##CAS REGISTRY NO=111-76-2
##MP= -300
##BP= -300
##MW= 118
##$RETENTION INDEX=906
##$CONDENSED SPECTRUM=NO
##NPOINTS= 54
##XYDATA=(XY..XY) 1 
    14          4
    15         33
    16          4
    17          1
    18          0
    19         29
    26         26
    27        182
    28         76
    29        391
    30         23
    31        133
    32          5
    33          3
    37          3
    38          9
    39         96
    40          3
    41        430
    42         40
    43         80
    44         64
    45        436
    46         13
    47          2
    50          4
    51          5
    52          2
    53          9
    54          2
    55         65
    56        122
    57        999
    58         49
    59          5
    60          2
    61          8
    62          6
    63         18
    69          3
    71         49
    72         31
    73         21
    74          2
    75         77
    76          3
    85         17
    87        211
    88         11
    89          6
    99          1
   100         28
   101          2
   118          4