##TITLE=Library Entry 17057
##JCAMP-DX=Revision 4.10 
##DATA TYPE=MASS SPECTRUM
##SAMPLE DESCRIPTION=NIST Mass Spectrometry Data Center, 1990.
##NAMES=HP
##CAS NAME=1-Butanol, 4-methoxy-
##MOLFORM=C5H12O2
##CAS REGISTRY NO=111-32-0
##MP= -300
##BP= -300
##MW= 104
##$RETENTION INDEX=886
##$CONDENSED SPECTRUM=NO
##NPOINTS= 37
##XYDATA=(XY..XY) 1 
    14          2
    15         75
    18         11
    19          7
    26         30
    27        133
    28         61
    29        245
    30         19
    31        207
    32          9
    33         56
    38         12
    39         92
    40         26
    41        196
    42        154
    43        162
    44        240
    45        999
    46         23
    53         24
    54         11
    55         60
    56         34
    57         51
    58        470
    59         25
    71        118
    72         32
    73         11
    74         47
    75         11
    76         50
    85         16
    86         20
    89         42