##TITLE=Library Entry 59077
##JCAMP-DX=Revision 4.10 
##DATA TYPE=MASS SPECTRUM
##SAMPLE DESCRIPTION=Japan AIST/NIMC Database- Spectrum MS-NW- 874
##NAMES=HP
##CAS NAME=Octane, 1-chloro-
##MOLFORM=C8H17Cl
##CAS REGISTRY NO=111-85-3
##MP= -300
##BP= -300
##MW= 148
##$RETENTION INDEX=1059
##$CONDENSED SPECTRUM=NO
##NPOINTS= 64
##XYDATA=(XY..XY) 1 
    15          6
    26          9
    27        188
    28         39
    29        250
    30          6
    35          1
    36          8
    38          4
    39        138
    40         22
    41        577
    42        193
    43        777
    44         24
    49         20
    50          4
    51         10
    52          4
    53         34
    54         24
    55        581
    56        233
    57        372
    58         15
    61          2
    62          5
    63         40
    64          3
    65         12
    66          1
    67         23
    68         25
    69        374
    70        209
    71        131
    72          8
    75          6
    76          3
    77         21
    78          1
    79          7
    81          4
    82          9
    83        169
    84         64
    85         19
    86          1
    90          5
    91        999
    92         44
    93        339
    94         13
    97          9
    98          2
   104          2
   105         99
   106          6
   107         30
   108          2
   112          5
   113          1
   119          5
   121          2