##TITLE=Library Entry 17079
##JCAMP-DX=Revision 4.10 
##DATA TYPE=MASS SPECTRUM
##SAMPLE DESCRIPTION=NIST Mass Spectrometry Data Center, 2007
##NAMES=HP
##CAS NAME=Ethanol, 2-(2-methoxyethoxy)-
##MOLFORM=C5H12O3
##CAS REGISTRY NO=111-77-3
##MP= -300
##BP= -300
##MW= 120
##$RETENTION INDEX=932
##$CONDENSED SPECTRUM=NO
##NPOINTS= 43
##XYDATA=(XY..XY) 1 
    14          6
    15         80
    16          3
    17          1
    19         22
    25          1
    26         20
    27         94
    28         79
    29        298
    30         21
    31        256
    32          7
    33         18
    39          2
    41         12
    42         24
    43        153
    44         50
    45        999
    46         23
    47          5
    57          8
    58        260
    59        416
    60         55
    61          5
    62          2
    63          1
    68          1
    71          1
    72          3
    73          3
    75        100
    76          3
    77          7
    87         24
    88          6
    89        123
    90        156
    91          7
    92          1
   102          1