##TITLE=Library Entry 48535
##JCAMP-DX=Revision 4.10 
##DATA TYPE=MASS SPECTRUM
##SAMPLE DESCRIPTION=Japan AIST/NIMC Database- Spectrum MS-IW-7355
##NAMES=HP
##CAS NAME=2-Nonynoic acid, methyl ester
##MOLFORM=C10H16O2
##CAS REGISTRY NO=111-80-8
##MP= -300
##BP= -300
##MW= 168
##$RETENTION INDEX=1311
##$CONDENSED SPECTRUM=NO
##NPOINTS= 132
##XYDATA=(XY..XY) 1 
    12          1
    13          1
    14          4
    15        115
    16          3
    17          1
    18          3
    25          1
    26         28
    27        316
    28        122
    29        401
    30         20
    31         55
    32         37
    33         44
    37         19
    38         76
    39        388
    40         75
    41        759
    42        237
    43        813
    44         76
    45         38
    46          2
    47          1
    49          5
    50         50
    51        125
    52        106
    53        258
    54         85
    55        516
    56         83
    57         32
    58         10
    59        326
    60         10
    61         22
    62         11
    63         30
    64         10
    65        117
    66        315
    67        737
    68        217
    69        454
    70         89
    71         51
    72          8
    73         10
    74         41
    75         11
    76          4
    77        161
    78         53
    79        999
    80        176
    81        400
    82        106
    83         43
    84         23
    85         63
    86          6
    87         34
    88          4
    89          4
    90          2
    91        100
    92         22
    93        352
    94        177
    95        157
    96         27
    97        148
    98        213
    99        149
   100        442
   101         30
   102          6
   103          9
   104          5
   105         22
   106         11
   107        303
   108        161
   109        375
   110         37
   111        230
   112         60
   113         74
   114         17
   115          9
   116          5
   117         10
   118          7
   119          6
   120          4
   121        163
   122         16
   123          7
   124          6
   125        191
   126         38
   127         14
   128          3
   129          2
   130          1
   131          2
   132          2
   133          1
   134          3
   135         51
   136         64
   137        566
   138         60
   139        204
   140         63
   141          7
   142          1
   151          5
   152          1
   153         76
   154          8
   155          1
   165          1
   166          1
   167         11
   168          3
   169         13
   170          1