##TITLE=Library Entry 18782
##JCAMP-DX=Revision 4.10 
##DATA TYPE=MASS SPECTRUM
##SAMPLE DESCRIPTION=Japan AIST/NIMC Database- Spectrum MS-NW-1454
##NAMES=HP
##CAS NAME=Propanenitrile, 3,3'-thiobis-
##MOLFORM=C6H8N2S
##CAS REGISTRY NO=111-97-7
##MP= -300
##BP= -300
##MW= 140
##$RETENTION INDEX=0
##$CONDENSED SPECTRUM=NO
##NPOINTS= 74
##XYDATA=(XY..XY) 1 
    12          1
    13          1
    14          4
    15          5
    16          1
    25          4
    26         51
    27         96
    28         16
    29          6
    30          1
    31          9
    32          3
    33          5
    34          4
    35          4
    36          1
    37          3
    38          6
    39         12
    40         12
    41         42
    42         39
    43          9
    44          9
    45        152
    46         68
    47         96
    48          5
    49          4
    50          3
    51         20
    52         57
    53         25
    54        999
    55         57
    56          7
    57         21
    58         29
    59         64
    60         41
    61          5
    62          2
    66          5
    67          2
    68          1
    69          2
    70          3
    71          5
    72         18
    73         52
    74          3
    75          3
    82          2
    83          6
    84          8
    85          7
    86         10
    87          9
    94          1
    98          7
    99          3
   100        544
   101         31
   102         25
   103          2
   112          8
   113         49
   114          4
   115          2
   140        221
   141         18
   142         11
   143          1