##TITLE=Library Entry 10859
##JCAMP-DX=Revision 4.10 
##DATA TYPE=MASS SPECTRUM
##SAMPLE DESCRIPTION=R.T.HOLMAN,UNIVERSITY OF MINNESOTA
##NAMES=HP
##CAS NAME=Octadecanoic acid, 2-hydroxyethyl ester
##MOLFORM=C20H40O3
##CAS REGISTRY NO=111-60-4
##MP= -300
##BP= -300
##MW= 328
##$RETENTION INDEX=2420
##$CONDENSED SPECTRUM=NO
##NPOINTS= 111
##XYDATA=(XY..XY) 1 
    27        100
    28         40
    29        310
    30         10
    31         40
    39         50
    40         10
    41        560
    42        160
    43        999
    44        250
    45        250
    46         10
    53         20
    54         50
    55        640
    56        150
    57        590
    58         60
    59         30
    60        140
    61        310
    62         10
    67         90
    68         60
    69        350
    70         90
    71        270
    72         20
    73        200
    74         40
    75         10
    79         20
    80         10
    81         80
    82          5
    83        240
    84        280
    85        150
    86        210
    87         80
    88         10
    93         20
    94         10
    95         70
    96         40
    97        190
    98        600
    99        190
   100         20
   101         20
   104        950
   105         80
   106         10
   107         10
   108         10
   109         30
   110         20
   111        110
   112        190
   113         30
   114         10
   115         20
   117        440
   118         30
   121         20
   122         10
   123         20
   124         10
   125         40
   126         40
   127         10
   129         20
   131         10
   135         20
   137         10
   138         10
   139         20
   140         30
   141         10
   149         10
   153         10
   154         50
   159         10
   167         10
   168         30
   173         40
   174         10
   181         10
   182         20
   185         10
   194         10
   195         20
   209         10
   210         30
   211         10
   223         20
   224         20
   237         10
   241         10
   248         10
   266         40
   267        230
   268         40
   284         30
   285         80
   286         20
   298         10
   311         10
   328        100
   329         20