##TITLE=Library Entry 17343
##JCAMP-DX=Revision 4.10 
##DATA TYPE=MASS SPECTRUM
##SAMPLE DESCRIPTION=MASS SPECTROMETRY CENTER, UNIV. OF UTAH ALDRICH T03020-
1
##NAMES=HP
##CAS NAME=Thiodipropionic acid
##MOLFORM=C6H10O4S
##CAS REGISTRY NO=111-17-1
##MP= -300
##BP= -300
##MW= 178
##$RETENTION INDEX=0
##$CONDENSED SPECTRUM=NO
##NPOINTS= 77
##XYDATA=(XY..XY) 1 
    15         30
    25         16
    26        123
    27        697
    28         51
    29        253
    30         36
    31         81
    33         25
    34         24
    35        158
    36         24
    37          9
    38         12
    39         12
    41          5
    42         75
    43        182
    44         94
    45        999
    46        170
    47        259
    48         15
    49         17
    50          5
    53         24
    54         21
    55        280
    56         95
    57         46
    58        178
    59        325
    60        308
    61        374
    62         33
    63        131
    69          9
    71         27
    72         29
    73        359
    74        219
    75         40
    76         34
    77        163
    78          3
    79          3
    85          1
    86         62
    87        789
    88        149
    89        606
    90         35
    91         40
   100         15
   101         20
   102          1
   103          7
   104        186
   105        375
   106         84
   107         23
   108         10
   110          6
   114        547
   115         51
   116         29
   119        114
   132        536
   133         58
   134         31
   136         22
   142         35
   143         13
   160          4
   178        573
   179         44
   180         33