##TITLE=Library Entry 51967
##JCAMP-DX=Revision 4.10 
##DATA TYPE=MASS SPECTRUM
##SAMPLE DESCRIPTION=NIST Mass Spectrometry Data Center, 1998.
##NAMES=HP
##CAS NAME=Propanenitrile, 3,3'-iminobis-
##MOLFORM=C6H9N3
##CAS REGISTRY NO=111-94-4
##MP= -300
##BP= -300
##MW= 123
##$RETENTION INDEX=0
##$CONDENSED SPECTRUM=NO
##NPOINTS= 44
##XYDATA=(XY..XY) 1 
    14          2
    15          7
    25          1
    26         23
    27         58
    28        161
    29         27
    30        104
    31          1
    36          1
    37          2
    38         14
    39         25
    40         77
    41         78
    42        828
    43        115
    44          4
    50          2
    51         26
    52         83
    53         21
    54        587
    55         49
    56         63
    57         11
    63          1
    65          1
    66         15
    67         17
    68          4
    69          3
    77          1
    79          2
    80          1
    81         65
    82         29
    83        999
    84         52
    85          1
    93          2
    94          1
   122          1
   123          9