##TITLE=Library Entry 44496
##JCAMP-DX=Revision 4.10 
##DATA TYPE=MASS SPECTRUM
##SAMPLE DESCRIPTION=Japan AIST/NIMC Database- Spectrum MS-NW-4199
##NAMES=HP
##CAS NAME=Ethanol, 2-[(2-aminoethyl)amino]-
##MOLFORM=C4H12N2O
##CAS REGISTRY NO=111-41-1
##MP= -300
##BP= -300
##MW= 104
##$RETENTION INDEX=1072
##$CONDENSED SPECTRUM=NO
##NPOINTS= 57
##XYDATA=(XY..XY) 1 
    14          5
    15         47
    16          3
    17         13
    18         52
    19          2
    26          9
    27         56
    28        156
    29         52
    30        636
    31         26
    32         10
    38          1
    39          4
    40          8
    41         31
    42        101
    43         91
    44        598
    45        149
    46          4
    47          1
    51          2
    52          2
    53          2
    54         13
    55         13
    56        576
    57         45
    58         15
    59          3
    60          9
    61          2
    67          1
    68          3
    69          4
    70          5
    71          7
    72          4
    73         89
    74        999
    75         48
    76          3
    77          2
    78          1
    79          3
    80          3
    81          6
    82          2
    83          7
    84          3
    85          9
    86         26
    87          2
    88          4
   105          1