##TITLE=Library Entry 18700
##JCAMP-DX=Revision 4.10 
##DATA TYPE=MASS SPECTRUM
##SAMPLE DESCRIPTION=Japan AIST/NIMC Database- Spectrum MS-NW- 886
##NAMES=HP
##CAS NAME=1,5-Cyclooctadiene
##MOLFORM=C8H12
##CAS REGISTRY NO=111-78-4
##MP= -300
##BP= -300
##MW= 108
##$RETENTION INDEX=923
##$CONDENSED SPECTRUM=NO
##NPOINTS= 56
##XYDATA=(XY..XY) 1 
    15          8
    26         17
    27        163
    28         30
    29         24
    37          8
    38         21
    39        422
    40         37
    41        201
    42         10
    43          3
    44          3
    49          3
    50         39
    51         79
    52         43
    53        117
    54        999
    55         60
    56          2
    57          1
    61          3
    62          8
    63         20
    64          3
    65         80
    66        136
    67        848
    68         52
    69          3
    70          3
    74          7
    75          3
    76          3
    77        122
    78         50
    79        343
    80        419
    81         34
    82          2
    83          2
    89          3
    91         83
    92          9
    93        124
    94          9
    95          1
   102          1
   103          6
   104          2
   105          9
   106          4
   107         13
   108         43
   109          5