##TITLE=Library Entry 57966
##JCAMP-DX=Revision 4.10 
##DATA TYPE=MASS SPECTRUM
##SAMPLE DESCRIPTION=J. SKOREPA CHARLES UNIVERSITY, PRAGUE, CZECHOSLOVAKIA
##NAMES=HP
##CAS NAME=Octadecanoic acid, ethyl ester
##MOLFORM=C20H40O2
##CAS REGISTRY NO=111-61-5
##MP= -300
##BP= -300
##MW= 312
##$RETENTION INDEX=2195
##$CONDENSED SPECTRUM=NO
##NPOINTS= 110
##XYDATA=(XY..XY) 1 
    15         10
    26         20
    27         50
    29        190
    30         10
    31         10
    38         20
    39         20
    40         20
    41        220
    42         50
    43        380
    45         80
    52         20
    53         30
    54         40
    55        240
    56         40
    57        170
    58         10
    59         10
    60        110
    61        130
    62         10
    66         50
    67         20
    68         30
    69        110
    70        100
    71         60
    72         10
    73        130
    74         40
    75         10
    76         20
    78         10
    79         30
    80         10
    81         20
    82         10
    83         60
    84         30
    85         10
    87         40
    88        999
    89        200
    90         20
    94         10
    95         10
    97         40
    98         60
    99         20
   101        590
   102         60
   104         10
   105         10
   107         10
   109         10
   110         10
   111         10
   112         10
   115         60
   116         10
   119         10
   121         30
   123         40
   125         50
   126         10
   127         10
   129         10
   135         30
   137         30
   139         20
   140         10
   143         60
   144         10
   145         10
   148         10
   151         10
   152         10
   153         10
   157        130
   158         20
   164         10
   165         10
   171         20
   176         30
   178         10
   185         20
   199         20
   205         10
   208         20
   209         10
   213         30
   219         20
   222         20
   223         10
   227         20
   228         10
   241         20
   255         10
   267         50
   268         10
   269         50
   270         10
   282         10
   283         20
   295         10
   312        100
   313         20