##TITLE=Library Entry 44725
##JCAMP-DX=Revision 4.10 
##DATA TYPE=MASS SPECTRUM
##SAMPLE DESCRIPTION=Japan AIST/NIMC Database- Spectrum MS-NW-1738
##NAMES=HP
##CAS NAME=Dodecanoic acid, methyl ester
##MOLFORM=C13H26O2
##CAS REGISTRY NO=111-82-0
##MP= -300
##BP= -300
##MW= 214
##$RETENTION INDEX=1526
##$CONDENSED SPECTRUM=NO
##NPOINTS= 95
##XYDATA=(XY..XY) 1 
    15         31
    18          4
    26          2
    27         62
    28         19
    29        120
    30          3
    31          7
    32          5
    33          1
    39         51
    40          9
    41        245
    42         56
    43        204
    44          7
    45         11
    51          2
    52          2
    53         17
    54         16
    55        191
    56         39
    57         98
    58          5
    59         70
    60          2
    61          2
    65          3
    66          1
    67         19
    68         10
    69         98
    70         16
    71         28
    72          2
    73         18
    74        999
    75        119
    76          7
    77          2
    79          5
    80          2
    81         12
    82          6
    83         46
    84         27
    85         15
    86          1
    87        557
    88         52
    89          4
    93          3
    95          9
    96          4
    97         29
    98         23
    99          3
   100          2
   101         42
   102          5
   107          2
   109          5
   110          2
   111          9
   112          5
   113          1
   115         25
   116          6
   121          1
   123          1
   125          4
   129         45
   130          5
   135          1
   138          3
   139          2
   140          6
   141          1
   143         77
   144          8
   153          1
   157         11
   158          2
   163          1
   164          1
   171         59
   172          7
   181          1
   183         55
   184          7
   185         20
   186          3
   214         60
   215          8