##TITLE=Library Entry 21818
##JCAMP-DX=Revision 4.10 
##DATA TYPE=MASS SPECTRUM
##SAMPLE DESCRIPTION=Japan AIST/NIMC Database- Spectrum MS-IW-3892
##NAMES=HP
##CAS NAME=9-Octadecenoic acid (Z)-, 2,3-dihydroxypropyl ester
##MOLFORM=C21H40O4
##CAS REGISTRY NO=111-03-5
##MP= -300
##BP= -300
##MW= 356
##$RETENTION INDEX=2714
##$CONDENSED SPECTRUM=NO
##NPOINTS= 297
##XYDATA=(XY..XY) 1 
    14          1
    15         13
    17          2
    18          7
    26          5
    27         72
    28         40
    29        241
    30          9
    31         64
    32          3
    36          2
    38          2
    39         59
    40         13
    41        582
    42        117
    43        571
    44         64
    45         98
    46          6
    47          4
    51          3
    52          3
    53         54
    54        238
    55        999
    56        235
    57        483
    58         34
    59         37
    60         45
    61         62
    62          4
    63          1
    65         14
    66         28
    67        482
    68        258
    69        661
    70        171
    71        166
    72         12
    73         78
    74        163
    75        129
    76          9
    77         17
    78         12
    79        107
    80        107
    81        480
    82        367
    83        502
    84        371
    85        120
    86         11
    87         51
    88          6
    89          4
    90          4
    91         46
    92         17
    93         91
    94        102
    95        396
    96        376
    97        397
    98        860
    99         98
   100         20
   101         32
   102          7
   103          9
   104          5
   105         25
   106         13
   107         62
   108         92
   109        231
   110        234
   111        227
   112        323
   113         52
   114         26
   115         27
   116         60
   117         17
   118         11
   119         37
   120         21
   121         91
   122         55
   123        191
   124        148
   125        106
   126         81
   127         37
   128          9
   129        118
   130         12
   131         10
   132          5
   133         51
   134        146
   135         86
   136         36
   137        212
   138        127
   139         61
   140         28
   141         22
   142          6
   143         22
   144          4
   145          5
   146          3
   147         56
   148         41
   149         48
   150         30
   151        165
   152        166
   153         49
   154         42
   155         26
   156          5
   157         11
   158          5
   159          4
   160          2
   161         23
   162         17
   163         26
   164         25
   165         93
   166        119
   167         37
   168         22
   169         31
   170          5
   171         15
   172          9
   173          3
   174          1
   175         17
   176         16
   177         17
   178         14
   179         51
   180         92
   181         31
   182         21
   183         30
   184          6
   185         33
   186          8
   187          3
   188          1
   189          9
   190          8
   191         10
   192         12
   193         43
   194         40
   195         18
   196         12
   197          9
   198          2
   199         12
   200          5
   201          4
   203          5
   204          3
   205          8
   206          8
   207         59
   208         52
   209         29
   210         16
   211         35
   212          6
   213         10
   214          5
   215          2
   216          1
   217          4
   218          6
   219          7
   220         31
   221         83
   222         59
   223         18
   224          6
   225          9
   226          3
   227          8
   228          9
   229         12
   230          2
   231          2
   232          2
   233          5
   234          7
   235         43
   236        109
   237         42
   238         15
   239         35
   240          8
   241          9
   242         11
   243          6
   244          2
   245          6
   246         34
   247         34
   248          7
   249         14
   250         20
   251          9
   252          6
   253          9
   254          5
   255          6
   256         13
   257         12
   258          2
   260          3
   262         30
   263         26
   264        957
   265        401
   266         66
   267         17
   268          4
   269          5
   270          9
   271         13
   272          3
   274          6
   275          1
   277          1
   278          7
   279          5
   280          7
   281          5
   282         19
   283         10
   284          7
   285          8
   286          1
   288          1
   290          2
   291          1
   292         11
   293          5
   294          1
   295          6
   296          6
   297          9
   298          5
   299         10
   300          3
   305          1
   307         12
   308          4
   309          3
   310          4
   311          4
   312          2
   313          4
   314          1
   320          1
   322          2
   323          2
   324          1
   325         83
   326         19
   327          6
   328          7
   329          2
   330          1
   336          1
   337          3
   338         46
   339         16
   340          9
   341          2
   342          2
   352          1
   353          2
   354          8
   355          2
   356         66
   357         24
   358          5