##TITLE=Library Entry 22410
##JCAMP-DX=Revision 4.10 
##DATA TYPE=MASS SPECTRUM
##SAMPLE DESCRIPTION=Japan AIST/NIMC Database- Spectrum MS-NW-5188
##NAMES=HP
##CAS NAME=Hexadecanoic acid, butyl ester
##MOLFORM=C20H40O2
##CAS REGISTRY NO=111-06-8
##MP= -300
##BP= -300
##MW= 312
##$RETENTION INDEX=2188
##$CONDENSED SPECTRUM=NO
##NPOINTS= 186
##XYDATA=(XY..XY) 1 
    15          2
    17          1
    18          3
    26          3
    27         52
    28         10
    29        191
    30          4
    31          5
    32          1
    37          1
    38          2
    39         35
    40          7
    41        303
    42         52
    43        328
    44         11
    45          9
    49          1
    50          5
    51          5
    52          6
    53         12
    54         21
    55        217
    56        999
    57        502
    58         22
    59          9
    60        225
    61        153
    62          4
    63          2
    65          2
    66          2
    67         32
    68         21
    69        125
    70         35
    71        149
    72         10
    73        256
    74         27
    75          5
    76          2
    77          8
    78         34
    79          9
    80          5
    81         33
    82         19
    83         99
    84         50
    85         92
    86          8
    87         51
    88          8
    89          7
    91          3
    92          2
    93          6
    94          4
    95         34
    96         15
    97         75
    98         73
    99         25
   100          3
   101         71
   102         12
   103          8
   104          1
   105          1
   107          5
   108          2
   109         20
   110          8
   111         37
   112         17
   113         14
   114          3
   115         42
   116        112
   117         57
   118          4
   119          1
   121          7
   122          2
   123         10
   124          5
   125         20
   126          6
   127          9
   128          2
   129        186
   130         18
   131          4
   133          1
   135          7
   136          1
   137          5
   138          4
   139         13
   140          4
   141          6
   142          1
   143         20
   144          4
   145          2
   149          6
   150          1
   151          3
   152          3
   153          9
   154          3
   155          3
   157         28
   158          7
   159          1
   163          3
   164          1
   165          2
   166          2
   167          5
   168          2
   169          1
   171         35
   172          8
   173          2
   177          2
   179          1
   181          3
   182          1
   183          1
   185         47
   186          7
   187          2
   191          1
   192          1
   194          7
   195          4
   196          3
   197          2
   199         11
   200          4
   201          3
   209          1
   210          1
   211          1
   213         53
   214          9
   215          2
   219          4
   220          2
   221          1
   225          1
   227         17
   228          4
   229          2
   236          3
   237          8
   238          3
   239        187
   240         34
   241          8
   242          2
   243          1
   253          1
   255          4
   256         76
   257        276
   258         49
   259          6
   267          2
   269         10
   270          3
   271          2
   283          4
   284          2
   285          1
   297          1
   311          1
   312         54
   313         12
   314          1