##TITLE=Library Entry 24057
##JCAMP-DX=Revision 4.10 
##DATA TYPE=MASS SPECTRUM
##SAMPLE DESCRIPTION=Chemical Concepts
##NAMES=HP
##CAS NAME=Octane, 1-bromo-
##MOLFORM=C8H17Br
##CAS REGISTRY NO=111-83-1
##MP= -300
##BP= -300
##MW= 192
##$RETENTION INDEX=1134
##$CONDENSED SPECTRUM=NO
##NPOINTS= 95
##XYDATA=(XY..XY) 1 
    26         42
    27        462
    29        450
    30         13
    37          5
    38         17
    39        351
    40         71
    41        910
    42        285
    43        979
    44         46
    45          4
    49          2
    50         12
    51         28
    52         15
    53         85
    54         51
    55        744
    56        269
    57        999
    58         50
    59          3
    62          2
    63          5
    64          2
    65         11
    66          6
    67         41
    68         27
    69        401
    70        169
    71        779
    72         47
    76          2
    77         10
    78          4
    79          9
    80          4
    81         11
    82         10
    83        129
    84         54
    85         23
    86          2
    87          2
    91          4
    93         22
    94          2
    95         24
    96          2
    97          9
    98          2
    99          2
   103          2
   104          3
   105          7
   106          6
   107         52
   108          6
   109         48
   110          2
   111          6
   112          5
   113         23
   114          3
   115          2
   116          2
   119          3
   120          1
   121         17
   122          3
   123         14
   124          2
   127          2
   128          3
   129          1
   135        855
   136         46
   137        837
   138         42
   148          2
   149        101
   150          7
   151         87
   152          6
   163          4
   164          1
   165          4
   191          2
   192         40
   193          5
   194         39
   195          5