##TITLE=Library Entry 22011
##JCAMP-DX=Revision 4.10 
##DATA TYPE=MASS SPECTRUM
##SAMPLE DESCRIPTION=D.HENNEBERG, MAX-PLANCK INSTITUTE, MULHEIM, WEST GERMAN
Y
##NAMES=HP
##CAS NAME=1-Octanethiol
##MOLFORM=C8H18S
##CAS REGISTRY NO=111-88-6
##MP= -300
##BP= -300
##MW= 146
##$RETENTION INDEX=1132
##$CONDENSED SPECTRUM=NO
##NPOINTS= 96
##XYDATA=(XY..XY) 1 
    26         36
    27        228
    28         63
    29        440
    30         11
    32          5
    33          5
    34         13
    35         28
    36          3
    38          2
    39        107
    40         27
    41        831
    42        519
    43        780
    44         24
    45          1
    46         27
    47        266
    48         15
    49         13
    50          5
    51          5
    52          6
    53         40
    54         61
    55        803
    56        999
    57        348
    58         15
    59         10
    60         43
    61        171
    62         15
    63         12
    64          2
    65          6
    66          4
    67         49
    68        210
    69        591
    70        674
    71        124
    72          5
    73          8
    75          7
    76          3
    77          3
    78          1
    79         10
    80          2
    81         12
    82        107
    83        438
    84        468
    85         34
    86          5
    87         11
    88          6
    89        111
    90          5
    91         13
    92          1
    93          1
    94          5
    95          1
    96          1
    97         40
    98          3
   101          3
   103          8
   104          0
   105          0
   106          2
   107          3
   109          1
   110          0
   111          1
   112        149
   113         13
   114          1
   115          1
   117          2
   121          0
   122          0
   129          0
   133          0
   138          0
   141          0
   144          0
   145         13
   146        352
   147         39
   148         16
   149          1