##TITLE=Library Entry 37179
##JCAMP-DX=Revision 4.10 
##DATA TYPE=MASS SPECTRUM
##SAMPLE DESCRIPTION=Japan AIST/NIMC Database- Spectrum MS-NW-3128
##NAMES=HP
##CAS NAME=Hexamethylenimine
##MOLFORM=C6H13N
##CAS REGISTRY NO=111-49-9
##MP= -300
##BP= -300
##MW= 99
##$RETENTION INDEX=864
##$CONDENSED SPECTRUM=NO
##NPOINTS= 62
##XYDATA=(XY..XY) 1 
    14          2
    15         33
    26         16
    27        132
    28        212
    29         92
    30        707
    31         11
    32          4
    33          2
    34          1
    37          5
    38         13
    39        153
    40         31
    41        306
    42        291
    43        787
    44        409
    45         19
    46          3
    47          1
    49          1
    50          6
    51         10
    52          7
    53         26
    54         28
    55        117
    56        668
    57        525
    58         25
    59          1
    60          1
    61          1
    62          2
    63          3
    64          1
    65          6
    66          4
    67         21
    68         65
    69         41
    70        999
    71         89
    72          4
    73          1
    77          2
    79          5
    80          5
    81         11
    82         16
    83          3
    84        137
    85          9
    86          1
    96         10
    97         13
    98        263
    99        646
   100         46
   101          4