##TITLE=Library Entry 15326
##JCAMP-DX=Revision 4.10 
##DATA TYPE=MASS SPECTRUM
##SAMPLE DESCRIPTION=NIST Mass Spectrometry Data Center
##NAMES=HP
##CAS NAME=Glutaraldehyde
##MOLFORM=C5H8O2
##CAS REGISTRY NO=111-30-8
##MP= -300
##BP= -300
##MW= 100
##$RETENTION INDEX=0
##$CONDENSED SPECTRUM=NO
##NPOINTS= 40
##XYDATA=(XY..XY) 1 
    14          4
    15         18
    25          3
    26         42
    27        309
    28          9
    29        348
    30         10
    31         27
    32          1
    37         21
    38         42
    39        282
    40         32
    41        455
    42        143
    43        511
    44        999
    45         36
    46          3
    49          7
    50         21
    51         18
    52          4
    53         42
    54         47
    55         91
    56         18
    57        205
    58         10
    68          3
    69         10
    70          4
    71         33
    72        272
    73         14
    81         99
    82        250
    83         15
   100          3