##TITLE=Library Entry 55690
##JCAMP-DX=Revision 4.10 
##DATA TYPE=MASS SPECTRUM
##SAMPLE DESCRIPTION=Japan AIST/NIMC Database- Spectrum MS-NW-2114
##NAMES=HP
##CAS NAME=Ethanol, 2-(butylamino)-
##MOLFORM=C6H15NO
##CAS REGISTRY NO=111-75-1
##MP= -300
##BP= -300
##MW= 117
##$RETENTION INDEX=0
##$CONDENSED SPECTRUM=NO
##NPOINTS= 67
##XYDATA=(XY..XY) 1 
    14          3
    15         43
    16          1
    17          3
    18         10
    26         14
    27        132
    28        138
    29        310
    30        893
    31         31
    32          5
    36          3
    37          2
    38          5
    39         57
    40         10
    41        249
    42        175
    43        105
    44        609
    45         93
    46          2
    50          3
    51          4
    52          4
    53         10
    54         14
    55         50
    56        480
    57        262
    58         18
    59          3
    60         36
    61          7
    62          1
    67          4
    68          9
    69          7
    70         21
    71         11
    72         19
    73          3
    74        735
    75         28
    76          2
    79          1
    80          3
    81          5
    82          6
    83          4
    84         37
    85          3
    86        999
    87         60
    88          4
    95          5
    96          1
    98         26
    99         19
   100          7
   101          1
   102          1
   114          2
   116         20
   117         73
   118          5