##TITLE=Library Entry 21962
##JCAMP-DX=Revision 4.10 
##DATA TYPE=MASS SPECTRUM
##SAMPLE DESCRIPTION=Exported from NIST MS Search
##NAMES=HP
##CAS NAME=1-Hexanethiol
##MOLFORM=C6H14S
##CAS REGISTRY NO=111-31-9
##MP= -300
##BP= -300
##MW= 118
##$RETENTION INDEX=922
##$CONDENSED SPECTRUM=NO
##NPOINTS= 76
##XYDATA=(XY..XY) 1 
     1         12
     2          2
    12          1
    13          1
    14          4
    15         42
    16          2
    25          2
    26         46
    27        575
    28        127
    29        402
    30          9
    32          9
    33         23
    34         26
    35         58
    36          2
    37          6
    38         14
    39        292
    40         48
    41        646
    42        395
    43        571
    44         19
    45        140
    46         56
    47        329
    48         22
    49         17
    50          7
    51         16
    52          7
    53         45
    54         39
    55        425
    56        999
    57         69
    58         25
    59         40
    60         35
    61        144
    62         12
    63          8
    64          1
    65          5
    66          2
    67         13
    68          9
    69        226
    70         16
    71          7
    72          1
    73          7
    74          3
    75          5
    76          1
    77          2
    79          1
    81          2
    82          1
    83          7
    84        115
    85         12
    86          2
    87          4
    88          1
    89         29
    90          2
    91          2
   117          5
   118        234
   119         18
   120         11
   121          1