##TITLE=Library Entry 7273
##JCAMP-DX=Revision 4.10 
##DATA TYPE=MASS SPECTRUM
##SAMPLE DESCRIPTION=R RYHAGE MS-LAB KAROLINSKA INSTITUTET STOCKHOLM SWEDEN
##NAMES=HP
##CAS NAME=Ethyl Oleate
##MOLFORM=C20H38O2
##CAS REGISTRY NO=111-62-6
##MP= -300
##BP= -300
##MW= 310
##$RETENTION INDEX=2173
##$CONDENSED SPECTRUM=NO
##NPOINTS= 194
##XYDATA=(XY..XY) 1 
    15        120
    17          6
    18         25
    25          6
    26         27
    27        127
    28         87
    29        308
    30         15
    31         22
    38          5
    39         96
    40         23
    41        501
    42        192
    43        999
    44        460
    45        100
    46          6
    47          5
    51         10
    52         11
    53         65
    54        196
    55        683
    56        186
    57        263
    58         28
    59         44
    60         80
    61         77
    65         16
    66         19
    67        275
    68        249
    69        669
    70        293
    71        138
    72         34
    73        143
    74         31
    75          9
    77         16
    78          9
    79         60
    80         47
    81        280
    82        196
    83        518
    84        415
    85         87
    86         13
    87         54
    88        528
    89         96
    90          7
    91         22
    92          8
    93         41
    94         58
    95        218
    96        415
    97        594
    98        366
    99         65
   100         13
   101        414
   102         37
   103          7
   105         13
   106          8
   107         35
   108         37
   109        145
   110        206
   111        272
   112        172
   113         37
   114         17
   115         73
   116         10
   117          6
   119         30
   120         12
   121         56
   122         23
   123        282
   124        112
   125        120
   126         45
   127         39
   128         39
   129         57
   130         14
   131          5
   133         29
   134         27
   135         43
   136         17
   137        134
   138         87
   139        108
   140         25
   141         51
   142         54
   143         50
   144         18
   147         29
   148         20
   149         29
   150         14
   151         74
   152         92
   153         49
   154        185
   155        129
   156         27
   157         56
   158         12
   161         17
   162          8
   163         16
   164         15
   165         68
   166         73
   167         40
   168         11
   169         42
   170         10
   171         24
   172          6
   175         12
   177          8
   178          7
   179         30
   180        253
   181         69
   182         12
   183         28
   184          7
   185         19
   186          5
   189          8
   191          5
   193         25
   194         27
   195         11
   196         12
   197         12
   198          6
   199         19
   200         13
   201          7
   202         15
   206          5
   207         20
   208         18
   209         10
   210          5
   211          9
   213         23
   214         10
   220         54
   221         40
   222        234
   223         54
   224          8
   225          6
   227         18
   228         12
   235         26
   236         30
   237          7
   239          8
   241         10
   242          9
   245          8
   246         37
   247         19
   249          5
   253          5
   255          7
   263         20
   264        591
   265        352
   266         61
   267         24
   268          5
   281          8
   284         11
   308          5
   310        227
   311          5
   312         15