##TITLE=Library Entry 27754
##JCAMP-DX=Revision 4.10 
##DATA TYPE=MASS SPECTRUM
##SAMPLE DESCRIPTION=NIST Mass Spectrometry Data Center, 1994
##NAMES=HP
##CAS NAME=1,6-Hexanediamine, N,N,N',N'-tetramethyl-
##MOLFORM=C10H24N2
##CAS REGISTRY NO=111-18-2
##MP= -300
##BP= -300
##MW= 172
##$RETENTION INDEX=0
##$CONDENSED SPECTRUM=NO
##NPOINTS= 55
##XYDATA=(XY..XY) 1 
    12          0
    15         42
    27         24
    28         16
    29         39
    30         87
    31          2
    39         19
    41         63
    42        202
    43         49
    44         60
    45         29
    46         15
    51          0
    52          1
    53          5
    54          6
    55         20
    56         39
    57          0
    58        999
    59         41
    65          0
    66          0
    67          2
    68          6
    70         20
    71         16
    72          6
    73          0
    79          1
    81          7
    82          6
    84         55
    85          5
    86          2
    94          0
    96          1
    97          1
    98          5
   100          3
   101          0
   110          0
   112         23
   114         34
   115          2
   124          0
   126         12
   127         27
   128         61
   129          5
   157          3
   172          6
   173          0