##TITLE=Library Entry 465
##JCAMP-DX=Revision 4.10 
##DATA TYPE=MASS SPECTRUM
##SAMPLE DESCRIPTION=Japan AIST/NIMC Database- Spectrum MS-NW-1216
##NAMES=HP
##CAS NAME=Butane, 1-(ethenyloxy)-
##MOLFORM=C6H12O
##CAS REGISTRY NO=111-34-2
##MP= -300
##BP= -300
##MW= 100
##$RETENTION INDEX=679
##$CONDENSED SPECTRUM=NO
##NPOINTS= 51
##XYDATA=(XY..XY) 1 
    13          1
    14         12
    15         58
    16          1
    17          2
    18          7
    25          2
    26         34
    27        313
    28         78
    29        999
    30         20
    31        155
    32          6
    37          3
    38          9
    39        136
    40         22
    41        990
    42         47
    43        114
    44        334
    45        116
    46          4
    47          2
    50          5
    51          8
    52          2
    53         18
    54          7
    55        113
    56        829
    57        625
    58         28
    59         53
    60          2
    61          1
    67          4
    69          2
    70          1
    71          8
    72          6
    73          9
    81          1
    85        275
    86         15
    87          2
    99          2
   100        144
   101         10
   102          1