##TITLE=Library Entry 68550
##JCAMP-DX=Revision 4.10 
##DATA TYPE=MASS SPECTRUM
##SAMPLE DESCRIPTION=Japan AIST/NIMC Database- Spectrum MS-IW-5090
##NAMES=HP
##CAS NAME=2-Octynoic acid, methyl ester
##MOLFORM=C9H14O2
##CAS REGISTRY NO=111-12-6
##MP= -300
##BP= -300
##MW= 154
##$RETENTION INDEX=1212
##$CONDENSED SPECTRUM=NO
##NPOINTS= 109
##XYDATA=(XY..XY) 1 
    14          1
    15         52
    16          1
    17          1
    18          8
    26         13
    27        158
    28         48
    29        380
    30         10
    31         11
    32          4
    33          7
    37         13
    38         60
    39        251
    40         46
    41        495
    42        114
    43         87
    44          9
    45         23
    46          1
    47          1
    49          3
    50         32
    51         69
    52         57
    53        230
    54         56
    55        590
    56        108
    57        155
    58          9
    59        266
    60          9
    61          9
    62          9
    63         19
    64          8
    65         89
    66        296
    67        450
    68        175
    69        150
    70         39
    71         21
    72          6
    73         11
    74         29
    75          6
    76          1
    77         93
    78         18
    79        483
    80        162
    81        234
    82         58
    83         31
    84         10
    85         66
    86          6
    87         12
    88          4
    89          1
    90          1
    91         48
    92          8
    93        321
    94        242
    95        999
    96         93
    97        164
    98        187
    99        138
   100        178
   101         10
   102          1
   103          2
   104          1
   105          5
   106          1
   107        109
   108         10
   109         13
   110          5
   111        188
   112         57
   113         31
   114          4
   119          1
   120          1
   121         85
   122        130
   123        728
   124         65
   125        164
   126         57
   127          6
   136          3
   137          8
   138          2
   139        135
   140         11
   141          1
   153         29
   154          4
   155         10
   156          1