##TITLE=Library Entry 15835
##JCAMP-DX=Revision 4.10 
##DATA TYPE=MASS SPECTRUM
##SAMPLE DESCRIPTION=RADIAN CORP
##NAMES=HP
##CAS NAME=2-Butene-1,4-diamine, N,N'-dimethyl-
##MOLFORM=C6H14N2
##CAS REGISTRY NO=111-72-8
##MP= -300
##BP= -300
##MW= 114
##$RETENTION INDEX=0
##$CONDENSED SPECTRUM=NO
##NPOINTS= 43
##XYDATA=(XY..XY) 1 
    15         16
    26          2
    27         49
    28         28
    29         46
    30        157
    31         16
    38          6
    39        101
    40         23
    41        138
    42        571
    43         96
    44        999
    45         38
    50          6
    51         14
    52         15
    53         49
    54         84
    55         89
    56        112
    57         61
    58        158
    59          3
    65          5
    66          5
    67         57
    68        460
    69         52
    70        285
    71         30
    72         11
    73          2
    80         40
    81         40
    82        242
    83        772
    84        127
    85         54
    97         19
    98          9
   114          4