##TITLE=Library Entry 44619
##JCAMP-DX=Revision 4.10 
##DATA TYPE=MASS SPECTRUM
##SAMPLE DESCRIPTION=Exported from NIST MS Search
##NAMES=HP
##CAS NAME=10-Undecenoic acid, methyl ester
##MOLFORM=C12H22O2
##CAS REGISTRY NO=111-81-9
##MP= -300
##BP= -300
##MW= 198
##$RETENTION INDEX=1427
##$CONDENSED SPECTRUM=NO
##NPOINTS= 81
##XYDATA=(XY..XY) 1 
    15         92
    27        107
    28         58
    29        158
    31         12
    39        139
    40         23
    41        474
    42        101
    43        258
    44         14
    45         34
    51          9
    52          6
    53         57
    54         99
    55        735
    56         90
    57         71
    59        231
    60         10
    65         11
    66          9
    67        151
    68        142
    69        319
    70         47
    71         40
    72         14
    73         65
    74        999
    75         83
    79         35
    80         29
    81        139
    82        218
    83        297
    84        253
    85         54
    87        479
    88         55
    93         23
    94         33
    95         87
    96        280
    97        169
    98        142
    99         25
   100         10
   101         58
   102          9
   107         22
   108         11
   109         44
   110         77
   111         47
   112          1
   113         33
   114         44
   115         47
   116         10
   119         19
   122         56
   123         95
   124        277
   125         72
   127         20
   128         25
   129         17
   137         58
   138         38
   141         18
   143         11
   148         31
   149         85
   150         11
   151          8
   155         14
   166         99
   167         37
   198          3