##TITLE=Library Entry 57088
##JCAMP-DX=Revision 4.10 
##DATA TYPE=MASS SPECTRUM
##SAMPLE DESCRIPTION=Chemical Concepts
##NAMES=HP
##CAS NAME=2-Nonenoic acid, methyl ester
##MOLFORM=C10H18O2
##CAS REGISTRY NO=111-79-5
##MP= -300
##BP= -300
##MW= 170
##$RETENTION INDEX=1261
##$CONDENSED SPECTRUM=NO
##NPOINTS= 117
##XYDATA=(XY..XY) 1 
    23          1
    25          1
    26         10
    27        226
    29        260
    30          6
    31          3
    35          3
    36          4
    37          4
    38         10
    39        219
    40         25
    41        422
    42        232
    43        528
    45         24
    46          3
    47          0
    48          1
    49          0
    50          8
    51         19
    52         17
    53        158
    54        103
    55        506
    56        189
    57         41
    58         12
    59        244
    60         11
    61          1
    63          5
    64          3
    65         30
    66         17
    67        171
    68        172
    69        243
    70         65
    71         78
    72         48
    73         24
    74        397
    75         37
    76          0
    77         27
    78          7
    79         30
    80         48
    81        255
    82        101
    83         60
    84        124
    85         76
    86         12
    87        999
    88         71
    89          5
    90          2
    91          0
    92          6
    93         16
    94         95
    95         95
    96        374
    97        116
    98         16
    99         14
   100        225
   101        167
   102         37
   103          2
   104          0
   106          1
   107          1
   108         14
   109         86
   110         64
   111         21
   112          8
   113        302
   114         81
   115         31
   116          5
   119          2
   120          8
   121          8
   122          2
   123         21
   124          2
   125          8
   126          3
   127         70
   128         25
   129         13
   130          1
   133          1
   134          2
   135          1
   136         17
   137         16
   138        244
   139        254
   140         41
   141         26
   142          1
   150          1
   151          1
   152          3
   155          3
   167          3
   168          5
   169          2
   170         19
   171          2