##TITLE=Library Entry 3110
##JCAMP-DX=Revision 4.10 
##DATA TYPE=MASS SPECTRUM
##SAMPLE DESCRIPTION=RADIAN CORP
##NAMES=HP
##CAS NAME=Ethanol, 2-(2-propenyloxy)-
##MOLFORM=C5H10O2
##CAS REGISTRY NO=111-45-5
##MP= -300
##BP= -300
##MW= 102
##$RETENTION INDEX=769
##$CONDENSED SPECTRUM=NO
##NPOINTS= 33
##XYDATA=(XY..XY) 1 
    14          6
    15         28
    19         37
    26         51
    27        195
    29        302
    30         37
    31        440
    37         21
    38         58
    39        552
    40         84
    41        999
    42        234
    43        261
    44         71
    45        356
    46          9
    53          4
    54         12
    55         77
    56         60
    57        305
    58        607
    59         92
    60          2
    61         23
    69         17
    71        205
    72          8
    73          8
    83         23
   101          3