##TITLE=Library Entry 1019
##JCAMP-DX=Revision 4.10 
##DATA TYPE=MASS SPECTRUM
##SAMPLE DESCRIPTION=Japan AIST/NIMC Database- Spectrum MS-NW-8190
##NAMES=HP
##CAS NAME=1-Hexanamine
##MOLFORM=C6H15N
##CAS REGISTRY NO=111-26-2
##MP= -300
##BP= -300
##MW= 101
##$RETENTION INDEX=816
##$CONDENSED SPECTRUM=NO
##NPOINTS= 38
##XYDATA=(XY..XY) 1 
    15          2
    17          1
    18         12
    26          2
    27         19
    28         19
    29         22
    30        999
    31         21
    32          1
    39         13
    40          2
    41         33
    42         16
    43         18
    44         59
    45         48
    46          1
    51          1
    53          2
    54          3
    55         21
    56         21
    57          3
    58          2
    59          9
    67          1
    68          1
    69          7
    70          1
    72         11
    73          1
    83          2
    84          2
    86          6
   100          7
   101         42
   102          7