##TITLE=Library Entry 18944
##JCAMP-DX=Revision 4.10 
##DATA TYPE=MASS SPECTRUM
##SAMPLE DESCRIPTION=Japan AIST/NIMC Database- Spectrum MS-NW-1341
##NAMES=HP
##CAS NAME=Hexanedioyl dichloride
##MOLFORM=C6H8Cl2O2
##CAS REGISTRY NO=111-50-2
##MP= -300
##BP= -300
##MW= 182
##$RETENTION INDEX=0
##$CONDENSED SPECTRUM=NO
##NPOINTS= 132
##XYDATA=(XY..XY) 1 
    12          3
    13          3
    14         17
    15         24
    16          7
    17          2
    18          7
    25          8
    26        105
    27        347
    28        159
    29        206
    30          5
    31          7
    32          4
    33          1
    35         71
    36        548
    37         23
    38        176
    39        248
    40         45
    41        490
    42        191
    43         44
    44        142
    45          8
    46          3
    47          9
    48          3
    49         21
    50         29
    51         30
    52         15
    53         79
    54        103
    55        999
    56        131
    57         11
    58          2
    59          4
    60          5
    61          8
    62          9
    63         99
    64          5
    65         32
    66          6
    67         10
    68         77
    69        256
    70         13
    71          5
    72          2
    73          3
    74          5
    75         12
    76          7
    77         29
    78         66
    79         10
    80         22
    81         15
    82         36
    83        384
    84        119
    85          8
    86          1
    87          1
    88          2
    89          8
    90         93
    91         39
    92         32
    93         13
    94          3
    95          5
    96          2
    97          3
    98          4
    99          2
   100          3
   101          3
   102          4
   103          7
   104          9
   105          8
   106          4
   107          3
   108          2
   109         12
   110        132
   111        333
   112         23
   113          3
   114          1
   115          1
   116          3
   117          1
   118         68
   119        152
   120         32
   121         52
   122          4
   123          1
   125          1
   126          2
   127          1
   128          1
   129          3
   130          1
   131         10
   132          1
   133          1
   135          2
   136          2
   137          7
   138          2
   139          3
   144          2
   145          1
   146          9
   147        381
   148         29
   149        129
   150          9
   151          2
   163          4
   164          7
   165          4
   166          2
   167          1