##TITLE=Library Entry 44730
##JCAMP-DX=Revision 4.10 
##DATA TYPE=MASS SPECTRUM
##SAMPLE DESCRIPTION=Exported from NIST MS Search
##NAMES=HP
##CAS NAME=Octanoic acid, methyl ester
##MOLFORM=C9H18O2
##CAS REGISTRY NO=111-11-5
##MP= -300
##BP= -300
##MW= 158
##$RETENTION INDEX=1126
##$CONDENSED SPECTRUM=NO
##NPOINTS= 83
##XYDATA=(XY..XY) 1 
    15         36
    16          2
    17          4
    18         10
    26          5
    27         68
    28         25
    29         84
    30          3
    31         10
    33          2
    38          3
    39         59
    40         13
    41        180
    42         59
    43        220
    44         20
    45         16
    50          3
    51          5
    52          3
    53         17
    54         11
    55        170
    56         33
    57        150
    58          9
    59        120
    60          5
    61          3
    65          3
    67         17
    68          7
    69         69
    70         18
    71         12
    72          2
    73         22
    74        999
    75         77
    76          7
    77          3
    79          4
    81          8
    82          7
    83         34
    84         38
    85         14
    87        420
    88         47
    89          4
    93          2
    95          4
    96          3
    97         20
    98         22
    99          4
   100          2
   101         74
   102          6
   107          2
   108          2
   109          9
   110          2
   111          6
   113          3
   115         94
   116         10
   123          2
   124          2
   125          7
   126          3
   127        150
   128         14
   129         47
   130          6
   141          2
   143          6
   153          2
   157          2
   158         35
   159          7