##TITLE=Library Entry 114993
##JCAMP-DX=Revision 4.10 
##DATA TYPE=MASS SPECTRUM
##SAMPLE DESCRIPTION=G. Lange, Inst. Org. Chem., Univ. Wurzburg, Wurzburg, G
ermany
##NAMES=HP
##CAS NAME=1-Cyclohexene, 4-hydroperoxy-1-phenyl-
##MOLFORM=C12H14O2
##CAS REGISTRY NO=111005-75-5
##MP= -300
##BP= -300
##MW= 190
##$RETENTION INDEX=0
##$CONDENSED SPECTRUM=NO
##NPOINTS= 120
##XYDATA=(XY..XY) 1 
    35         62
    36          5
    37         28
    38         15
    39        154
    40         27
    41         74
    42         30
    43         83
    44        130
    45         12
    50         58
    51        213
    52         44
    53         40
    54         11
    55         72
    56         16
    57         55
    58         17
    59          7
    62         23
    63         95
    64         42
    65        107
    66         31
    67         29
    68         26
    69         22
    70         34
    71         31
    72         16
    73          7
    74         25
    75         38
    76         77
    77        343
    78        125
    79         43
    80         14
    81         13
    82         18
    83         14
    88         72
    89         66
    90         11
    91        264
    92         28
    93          6
    94         41
    95         11
    96          6
    97          5
    98          5
    99          5
   100          5
   101         14
   102        120
   103        100
   104        102
   105        403
   106         34
   107         11
   113         23
   114         30
   115        710
   116        128
   117        154
   118         45
   119         32
   120        120
   121         38
   122         12
   125          8
   126         17
   127        135
   128        362
   129        851
   130        999
   131        145
   132        184
   133         68
   134         21
   135          5
   139         24
   140         19
   141        113
   142         46
   143        145
   144         71
   145         47
   146         55
   147         11
   148          5
   150          5
   151         19
   152         55
   153         67
   154        141
   155         59
   156        200
   157         69
   158         76
   159         35
   160         28
   161         20
   162          8
   168          5
   169         18
   170        160
   171         28
   172        259
   173         38
   174        263
   175         34
   176          8
   188         10
   189          5
   190         54
   191          8