##TITLE=Library Entry 85128
##JCAMP-DX=Revision 4.10 
##DATA TYPE=MASS SPECTRUM
##SAMPLE DESCRIPTION=NIST Mass Spectrometry Data Center
##NAMES=HP
##CAS NAME=(Z)-3-(Heptadec-10-en-1-yl)phenol
##MOLFORM=C23H38O
##CAS REGISTRY NO=111047-33-7
##MP= -300
##BP= -300
##MW= 330
##$RETENTION INDEX=2704
##$CONDENSED SPECTRUM=NO
##NPOINTS= 128
##XYDATA=(XY..XY) 1 
    27          3
    29          8
    39         10
    40          2
    41         67
    42         11
    43         29
    44          1
    51          2
    52          2
    53         11
    54         14
    55        131
    56         18
    63          1
    64          1
    65          9
    66          3
    67         32
    68          8
    69         56
    70          8
    77         47
    78         11
    79         24
    80          8
    81         16
    82          5
    83         23
    84          3
    89          1
    90          4
    91         21
    92          3
    93          6
    94         10
    95         20
    96          4
    97         16
   101          1
   102          1
   103         12
   104          2
   105          8
   106          1
   107        395
   108        999
   109         83
   110         11
   111          6
   112          1
   115          3
   116          1
   117          3
   118          1
   119          5
   120        181
   121        107
   122         19
   123          5
   124          1
   125          2
   128          1
   129          1
   131          3
   132          2
   133         45
   134         19
   135          9
   136          8
   137          1
   138          1
   145          2
   146          1
   147         47
   148         11
   149         26
   150         19
   151          2
   159          1
   160          1
   161         22
   162          7
   163          3
   164          4
   165          1
   175         14
   176          4
   177          2
   178          2
   189          6
   190          4
   191          2
   192          2
   203          6
   204          4
   205          1
   206          1
   208          1
   217          1
   218          3
   219          1
   220          3
   221          1
   231          1
   232          2
   233          1
   234         13
   235          2
   245          1
   246          2
   247          1
   248          6
   249          1
   259          1
   260          1
   261          1
   262          1
   273          1
   274          1
   287          2
   288          1
   289          1
   301          1
   302          1
   330         94
   331         24
   332          2