##TITLE=Library Entry 80881
##JCAMP-DX=Revision 4.10 
##DATA TYPE=MASS SPECTRUM
##SAMPLE DESCRIPTION=G. Lange, Inst. Org. Chem., Univ. Wurzburg, Wurzburg, G
ermany
##NAMES=HP
##CAS NAME=1-Cyclohexene, 4-hydroperoxy-4-phenyl-
##MOLFORM=C12H14O2
##CAS REGISTRY NO=111005-74-4
##MP= -300
##BP= -300
##MW= 190
##$RETENTION INDEX=0
##$CONDENSED SPECTRUM=NO
##NPOINTS= 103
##XYDATA=(XY..XY) 1 
    38          7
    39         96
    40         15
    41         59
    42         12
    43         35
    44         23
    47         10
    48          4
    49         46
    50         36
    51        154
    52         27
    53         35
    54         16
    55         44
    56          6
    57         16
    58          6
    62          7
    63         39
    64         16
    65         54
    66         15
    67         22
    68          9
    69         10
    70          7
    71          7
    73          8
    74         10
    75         17
    76         42
    77        414
    78        210
    79         36
    80          6
    81         17
    83         16
    84         37
    85         11
    86         24
    87          6
    88          6
    89         25
    90          6
    91        147
    92         30
    94         12
    95          7
    96          5
   101          5
   102         32
   103         56
   104         32
   105        999
   106         76
   107          7
   115        181
   116         49
   117         79
   118         15
   119          4
   120        548
   121         50
   122          3
   126          5
   127         35
   128         85
   129        108
   130        105
   131         34
   132         17
   133         12
   139          6
   140          1
   141         45
   142         12
   143         51
   144         22
   145         69
   146         35
   147          4
   149          6
   151          7
   152         21
   153         28
   154         47
   155         30
   156         52
   157         36
   158         27
   159         26
   160          7
   170         33
   171          9
   172         50
   173         21
   174        283
   175         37
   176          2
   188          2
   190          1