##TITLE=Library Entry 76568
##JCAMP-DX=Revision 4.10 
##DATA TYPE=MASS SPECTRUM
##SAMPLE DESCRIPTION=Institute of Organic Chemistry, Novosibirsk, USSR 1988
##NAMES=HP
##CAS NAME=1-Oxa-4,6,9,11-tetraazacyclotridecane-5,10-dithione
##MOLFORM=C8H16N4OS2
##CAS REGISTRY NO=111039-12-4
##MP= -300
##BP= -300
##MW= 248
##$RETENTION INDEX=0
##$CONDENSED SPECTRUM=NO
##NPOINTS= 89
##XYDATA=(XY..XY) 1 
    54         67
    55        207
    56        215
    57        259
    58        103
    59        247
    60        559
    61        183
    62        159
    67         71
    68         83
    69        367
    70        159
    71        139
    72        199
    73        119
    74        139
    75         67
    76         47
    77         99
    81        123
    82         47
    83         67
    84         87
    85        159
    86        639
    87        111
    88        119
    89        131
    90         71
    91         67
    94         51
    95         79
    96         39
    97         75
    98        107
    99         67
   100         47
   101        235
   102        299
   103        999
   104         87
   105        139
   109         39
   110         43
   111         43
   112         71
   113        103
   114         23
   115        123
   116        147
   117         51
   118         27
   119         27
   121        111
   122         27
   123         27
   124         27
   125         35
   126         27
   127        127
   128        599
   129        199
   130        187
   131         39
   145         59
   146        167
   147        407
   148         47
   149         47
   155         15
   156         19
   157         15
   171         19
   172         19
   173         23
   181         15
   183         39
   205         11
   206         67
   207         47
   213         23
   214         39
   215         19
   218         19
   231         19
   248        447
   249         71
   250         63