##TITLE=Library Entry 64279
##JCAMP-DX=Revision 4.10 
##DATA TYPE=MASS SPECTRUM
##SAMPLE DESCRIPTION=Chemical Concepts
##NAMES=HP
##CAS NAME=1-Pentanol, 2-(dibenzylamino)-4-methyl-
##MOLFORM=C20H27NO
##CAS REGISTRY NO=111060-53-8
##MP= -300
##BP= -300
##MW= 297
##$RETENTION INDEX=0
##$CONDENSED SPECTRUM=NO
##NPOINTS= 133
##XYDATA=(XY..XY) 1 
    26          0
    27         13
    28         13
    29         12
    30          6
    31          7
    38          0
    39         15
    40         25
    41         29
    42         45
    43         13
    44          3
    45          0
    50          1
    51          6
    52          1
    53          2
    54          3
    55          7
    56          3
    57          2
    58          0
    62          1
    63          5
    64          2
    65         81
    66          4
    67          1
    68          0
    69          1
    70          1
    71          0
    72          2
    74          0
    75          0
    76          1
    77          7
    78          2
    79          4
    80          0
    81          0
    82          0
    83          1
    84          0
    86          3
    89         10
    90          7
    91        999
    92         80
    93          3
    94          0
    98          6
    99          0
   102          0
   103          2
   104          6
   105         11
   106          8
   107          1
   115          1
   116          1
   117          4
   118          9
   119          1
   120          1
   121          0
   128          0
   129          0
   130          1
   131          1
   132         12
   133          9
   134          1
   141          0
   144          0
   145          3
   146          1
   148          2
   150          0
   152          0
   153          0
   160          1
   164          0
   165          3
   166          4
   167          0
   168          0
   174         13
   175          1
   176          4
   177          0
   178          1
   179          1
   180          1
   181         67
   182         10
   183          0
   188          0
   190          0
   194          0
   195          0
   196          1
   197          0
   202          0
   204          0
   206          2
   207          0
   208          0
   210          2
   211          0
   218          0
   220          0
   222          0
   223          0
   224          0
   236          0
   237          0
   238          4
   239          0
   240         13
   241          2
   242          0
   250          1
   266        569
   267        117
   268         11
   269          1
   282          0
   295          0
   296          0
   297          1
   298          0