##TITLE=Library Entry 56753
##JCAMP-DX=Revision 4.10 
##DATA TYPE=MASS SPECTRUM
##SAMPLE DESCRIPTION=Institute of Organic Chemistry, Novosibirsk, USSR 1988
##NAMES=HP
##CAS NAME=1,4,7,10,18-Pentaoxa-13,15,21,23-tetraazacyclopentacosane-14,22-d
ithione
##MOLFORM=C16H32N4O5S2
##CAS REGISTRY NO=111039-17-9
##MP= -300
##BP= -300
##MW= 424
##$RETENTION INDEX=0
##$CONDENSED SPECTRUM=NO
##NPOINTS= 237
##XYDATA=(XY..XY) 1 
    50         13
    51         23
    52         11
    53         30
    54        105
    55        365
    56        249
    57        288
    58        211
    59        230
    60        403
    61        173
    62        192
    63         19
    64         61
    65         19
    66         17
    67         46
    68         73
    69        346
    70        288
    71        153
    72        230
    73        192
    74        109
    75         67
    76         34
    77         61
    78         19
    79         17
    81         76
    82         42
    83        113
    84         82
    85        288
    86        999
    87        288
    88        288
    89        192
    90         49
    91         26
    94         40
    95         61
    96         32
    97         74
    98         71
    99         80
   100        105
   101        192
   102        288
   103        326
   104         90
   105         71
   106         48
   107         15
   108         19
   109         24
   110         28
   111         53
   112         61
   113        230
   114         78
   115        192
   116        230
   117        113
   118         53
   119         78
   120         71
   121         78
   122         28
   123         24
   124         19
   125         57
   126         40
   127        144
   128        230
   129        307
   130        326
   131        119
   132         96
   133         38
   134         26
   135         30
   137         28
   138         24
   139         48
   140         23
   141         44
   142         44
   143         48
   144         61
   145        230
   146        384
   147        442
   148         76
   149         49
   150         30
   151         17
   152         17
   153         13
   154         23
   155         38
   156         28
   157         82
   158         65
   159         34
   160        126
   161         38
   162         21
   163         42
   164        101
   165         88
   166         19
   167         19
   169         15
   170         26
   171         48
   172         67
   173        107
   174         76
   175         28
   176         46
   177         17
   178         15
   179         30
   180         15
   181         13
   182         13
   183         21
   184         13
   185         17
   186         11
   187         26
   188         49
   189         38
   190         96
   191         71
   192         30
   193         19
   194         44
   199         15
   200         17
   201         21
   202         19
   203         11
   204         40
   205         17
   206         19
   207         13
   208         23
   209         30
   210         23
   214         42
   215         23
   216         30
   217         98
   218         38
   219         19
   220         26
   221         15
   223         15
   230         28
   231         24
   232         78
   233         42
   234         38
   235         73
   236         23
   237         11
   245         28
   247         24
   248         51
   249         30
   250         15
   251         13
   253         48
   260         17
   261         44
   262         38
   263         17
   266         21
   267         23
   273         23
   274         24
   275         28
   276         17
   277         28
   278         44
   279        109
   280         19
   281         13
   291         17
   292         13
   295         19
   297        101
   298         19
   299         13
   304         13
   305         55
   306         15
   310         21
   311         13
   319         15
   320         13
   322         24
   323         13
   332          9
   336         13
   337          9
   338         15
   344         19
   345          9
   346          7
   347         19
   348         11
   349          5
   357         24
   358          9
   359          9
   360          5
   362          9
   363         11
   364         13
   380         11
   381         32
   382         17
   383          7
   389          9
   390         28
   391         13
   394         11
   405          5
   406          9
   424        230
   425         55
   426         30
   427          9