##TITLE=Library Entry 29881
##JCAMP-DX=Revision 4.10 
##DATA TYPE=MASS SPECTRUM
##SAMPLE DESCRIPTION=R.W.CRAWFORD UNIV. OF CALIFORNIA, LIVERMORE, CALIFORNIA
, USA
##NAMES=HP
##CAS NAME=Silane, dimethyl-
##MOLFORM=C2H8Si
##CAS REGISTRY NO=1111-74-6
##MP= -300
##BP= -300
##MW= 60
##$RETENTION INDEX=300
##$CONDENSED SPECTRUM=NO
##NPOINTS= 38
##XYDATA=(XY..XY) 1 
     2         15
    12          8
    13         14
    14         34
    15        104
    16          4
    17          0
    18          0
    25          0
    26          4
    27         11
    28        295
    29        242
    30         40
    31        232
    32         12
    33          7
    40         16
    41        115
    42        270
    43        661
    44        623
    45        816
    46         66
    47         26
    48          0
    52         12
    53         86
    54         17
    55         42
    56          7
    57         66
    58        703
    59        999
    60         95
    61         34
    62          1
    63          0