##TITLE=Library Entry 64018
##JCAMP-DX=Revision 4.10 
##DATA TYPE=MASS SPECTRUM
##SAMPLE DESCRIPTION=ASES Database, Dalian Institute, P.R. China
##NAMES=HP
##CAS NAME=1,6-Dinitro-9-benzyl-carbazole
##MOLFORM=C19H13N3O4
##CAS REGISTRY NO=111199-68-9
##MP= -300
##BP= -300
##MW= 347
##$RETENTION INDEX=0
##$CONDENSED SPECTRUM=NO
##NPOINTS= 16
##XYDATA=(XY..XY) 1 
    91        999
   138         19
   152         29
   164         80
   178         19
   179         20
   211        159
   225         79
   241        309
   253         99
   299         39
   300          9
   317         10
   330         20
   331         10
   347         70