##TITLE=Library Entry 87802
##JCAMP-DX=Revision 4.10 
##DATA TYPE=MASS SPECTRUM
##SAMPLE DESCRIPTION=V.G. Zaikin, TIPS RAS, Moscow, Russia
##NAMES=HP
##CAS NAME=2-Thiophenecarboxylic acid, isopropyl ester
##MOLFORM=C8H10O2S
##CAS REGISTRY NO=111160-47-5
##MP= -300
##BP= -300
##MW= 170
##$RETENTION INDEX=0
##$CONDENSED SPECTRUM=NO
##NPOINTS= 62
##XYDATA=(XY..XY) 1 
    25          7
    26         29
    27        119
    28         12
    29         29
    30          6
    31          4
    35          3
    36          8
    37         38
    38         69
    39        415
    40         18
    41        119
    42         21
    43        189
    44         41
    45         99
    47          3
    48          3
    49         17
    50         35
    51         13
    52          7
    53         25
    55          3
    56          6
    57        132
    58         29
    59        115
    66          4
    67          4
    68          4
    69         16
    71          4
    72          4
    79          9
    80          9
    81         39
    82         49
    83         97
    84         49
    85         19
    86          3
   100          8
   110          9
   111        999
   112         96
   113         55
   128        381
   129         45
   130         25
   131          3
   141          3
   146          3
   148          3
   155         21
   156          3
   157          1
   170         91
   171         11
   172          6