##TITLE=Library Entry 32957
##JCAMP-DX=Revision 4.10 
##DATA TYPE=MASS SPECTRUM
##SAMPLE DESCRIPTION=A.S. Dreiding, Inst. Org. Chem., Univ. Zurich, Switzerl
and
##NAMES=HP
##CAS NAME=Carbamic acid, 2-cyclopenten-1-yl-, methyl ester
##MOLFORM=C7H11NO2
##CAS REGISTRY NO=111122-39-5
##MP= -300
##BP= -300
##MW= 141
##$RETENTION INDEX=0
##$CONDENSED SPECTRUM=NO
##NPOINTS= 26
##XYDATA=(XY..XY) 1 
    39        710
    40        280
    41        480
    42        170
    43        220
    51        110
    52        110
    53        260
    54        290
    55        260
    59        300
    65        450
    66        890
    67        999
    68        120
    76        460
    80        380
    81        260
    82        970
   108        390
   109        270
   126        870
   127         61
   140        230
   141        220
   142         18