##TITLE=Library Entry 15086
##JCAMP-DX=Revision 4.10 
##DATA TYPE=MASS SPECTRUM
##SAMPLE DESCRIPTION=Japan AIST/NIMC Database- Spectrum MS-NW-5009
##NAMES=HP
##CAS NAME=Carbamic acid, monoammonium salt
##MOLFORM=CH6N2O2
##CAS REGISTRY NO=1111-78-0
##MP= -300
##BP= -300
##MW= 78
##$RETENTION INDEX=0
##$CONDENSED SPECTRUM=NO
##NPOINTS= 11
##XYDATA=(XY..XY) 1 
    12         11
    14          2
    15          8
    16        226
    17        324
    18        310
    22         11
    28         49
    44        999
    45         11
    46          4