##TITLE=Library Entry 33466
##JCAMP-DX=Revision 4.10 
##DATA TYPE=MASS SPECTRUM
##SAMPLE DESCRIPTION=M. COJOCARU, DEP. CHEM., BAR-ILAN UNIV., RAMAT-GAN, ISR
AEL
##NAMES=HP
##CAS NAME=1-(3-Nitropropyl)-4-methyl-4-vinylazetidin-2-one
##MOLFORM=C9H14N2O3
##CAS REGISTRY NO=111197-38-7
##MP= -300
##BP= -300
##MW= 198
##$RETENTION INDEX=0
##$CONDENSED SPECTRUM=NO
##NPOINTS= 31
##XYDATA=(XY..XY) 1 
    60         41
    65         19
    66         22
    67        599
    68        999
    69        140
    70         49
    72          6
    79          7
    80         11
    81         39
    82        143
    83         13
    84         42
    86         33
    88        193
    94         62
    95        147
    96         59
   108         15
   109          9
   110         27
   111         17
   112         65
   122          7
   124         15
   136          5
   151          5
   168         14
   183          5
   199         18