##TITLE=Library Entry 32373
##JCAMP-DX=Revision 4.10 
##DATA TYPE=MASS SPECTRUM
##SAMPLE DESCRIPTION=Chemical Concepts
##NAMES=HP
##CAS NAME=1-Butyne, 3-chloro-3-methyl-
##MOLFORM=C5H7Cl
##CAS REGISTRY NO=1111-97-3
##MP= -300
##BP= -300
##MW= 102
##$RETENTION INDEX=0
##$CONDENSED SPECTRUM=NO
##NPOINTS= 71
##XYDATA=(XY..XY) 1 
    23          0
    24         10
    25          1
    26         49
    27        127
    29          2
    30          0
    31         23
    33          2
    35         16
    36         29
    37         57
    38        104
    39        617
    40        119
    41        969
    42         40
    43          1
    44          0
    47          4
    48         11
    49         47
    50        180
    51        455
    52         71
    53         51
    54          2
    55          3
    56          1
    58          0
    59          0
    60         12
    61         44
    62         53
    63         51
    64         13
    65        204
    66         73
    67        999
    68         58
    69          2
    70          0
    71          1
    72          2
    73         17
    74          6
    75         13
    76          2
    77          3
    78          1
    79          1
    80          0
    83          0
    84          4
    85          6
    86          5
    87         50
    88          3
    89         16
    90          0
    91          1
    92          0
    96          0
    97          0
    99          2
   100          0
   101          1
   102        324
   103         17
   104         94
   105          5