##TITLE=Library Entry 33966
##JCAMP-DX=Revision 4.10 
##DATA TYPE=MASS SPECTRUM
##SAMPLE DESCRIPTION=A.Pleshkova, Nesmeyanov Inst.Org.Elem.Cpds, Moscow
##NAMES=HP
##CAS NAME=Trifluoromethyldifluorophosphine
##MOLFORM=CF5P
##CAS REGISTRY NO=1112-04-5
##MP= -300
##BP= -300
##MW= 138
##$RETENTION INDEX=0
##$CONDENSED SPECTRUM=NO
##NPOINTS= 10
##XYDATA=(XY..XY) 1 
    31         68
    32          1
    50         54
    51          1
    69        999
    70         12
   119         42
   120          1
   138         55
   139          1