##TITLE=Library Entry 76692
##JCAMP-DX=Revision 4.10 
##DATA TYPE=MASS SPECTRUM
##SAMPLE DESCRIPTION=Institute of Organic Chemistry, Novosibirsk, USSR 1988
##NAMES=HP
##CAS NAME=Tris(methyldichlorosilyl)ethylene
##MOLFORM=C5H10Cl6Si3
##CAS REGISTRY NO=111257-42-2
##MP= -300
##BP= -300
##MW= 364
##$RETENTION INDEX=0
##$CONDENSED SPECTRUM=NO
##NPOINTS= 55
##XYDATA=(XY..XY) 1 
    59         68
    63        407
    64         30
    65         81
    68        177
    77         20
    78        198
    79        120
    80         77
    81         47
    83        228
    85         87
   103        999
   104        117
   105        467
   106         48
   107         50
   113        578
   114         50
   115        396
   116         45
   117        131
   118         30
   215         98
   216        618
   217        200
   218        616
   219        127
   220        248
   221         51
   222         46
   231         50
   233         70
   235         41
   237         10
   328         18
   329         30
   330         29
   331         52
   332         27
   333         41
   334         20
   335         32
   336         19
   337         20
   338          8
   349         20
   351         50
   353         49
   355         31
   357          9
   364         20
   366         29
   368         31
   370          9