##TITLE=Library Entry 78287
##JCAMP-DX=Revision 4.10 
##DATA TYPE=MASS SPECTRUM
##SAMPLE DESCRIPTION=R.W.CRAWFORD, UNIV. OF CALIFORNIA, LIVERMORE, CALIFORNI
A, USA
##NAMES=HP
##CAS NAME=Silane, dimethoxydimethyl-
##MOLFORM=C4H12O2Si
##CAS REGISTRY NO=1112-39-6
##MP= -300
##BP= -300
##MW= 120
##$RETENTION INDEX=645
##$CONDENSED SPECTRUM=NO
##NPOINTS= 75
##XYDATA=(XY..XY) 1 
    12          2
    13          4
    14         15
    15        114
    16          3
    17          0
    18          0
    25          0
    26          3
    27          9
    28         18
    29         54
    30          9
    31         30
    32          6
    33          1
    37          0
    38          0
    39          1
    40          0
    41          4
    42         16
    43         69
    44         13
    45        114
    46          7
    47         11
    48          0
    49          0
    50          0
    51          0
    52          7
    53          4
    54          5
    55          5
    56          3
    57          5
    58         30
    59        250
    60         24
    61         55
    62          4
    63          2
    64          0
    69          0
    70          0
    71          0
    72          0
    73          2
    74         27
    75        500
    76         38
    77         20
    78          1
    79          0
    85          0
    87          0
    88          5
    89         62
    90          8
    91          8
    92          1
    93          0
   101          0
   103          1
   104          9
   105        999
   106         84
   107         39
   108          1
   109          0
   119          1
   120          3
   121          0
   122          0