##TITLE=Library Entry 49755
##JCAMP-DX=Revision 4.10 
##DATA TYPE=MASS SPECTRUM
##SAMPLE DESCRIPTION=D.HENNEBERG, MAX-PLANCK INSTITUTE, MULHEIM, WEST GERMAN
Y
##NAMES=HP
##CAS NAME=1,4-Pentadiene, 3,3-dimethyl-
##MOLFORM=C7H12
##CAS REGISTRY NO=1112-35-2
##MP= -300
##BP= -300
##MW= 96
##$RETENTION INDEX=0
##$CONDENSED SPECTRUM=NO
##NPOINTS= 69
##XYDATA=(XY..XY) 1 
    25          1
    26         13
    27        151
    28          7
    29         46
    30          1
    31          0
    32          0
    34          0
    35          0
    37          5
    38         14
    39        181
    40         30
    41        393
    42         23
    43         15
    44          0
    45          2
    46          2
    47          0
    48          0
    49          2
    50         21
    51         41
    52         20
    53        238
    54         82
    55        101
    56         23
    57          0
    60          0
    61          1
    62          5
    63          9
    64          2
    65         36
    66         30
    67         88
    68         36
    69         53
    70          4
    71          0
    72          0
    73          0
    74          2
    75          3
    76          1
    77         47
    78          7
    79        207
    80         22
    81        999
    82         65
    83          1
    84          0
    85          0
    86          0
    88          0
    89          0
    90          0
    91          3
    92          0
    93          3
    94          1
    95         32
    96         97
    97          6
    98          0