##TITLE=Library Entry 53022
##JCAMP-DX=Revision 4.10 
##DATA TYPE=MASS SPECTRUM
##SAMPLE DESCRIPTION=RADIAN CORP
##NAMES=HP
##CAS NAME=Silane, tetraethenyl-
##MOLFORM=C8H12Si
##CAS REGISTRY NO=1112-55-6
##MP= -300
##BP= -300
##MW= 136
##$RETENTION INDEX=0
##$CONDENSED SPECTRUM=NO
##NPOINTS= 69
##XYDATA=(XY..XY) 1 
    26         17
    27         44
    28         30
    29         58
    30          9
    31         44
    32          3
    38          2
    39         14
    40          2
    41          8
    42         16
    43         59
    44          6
    45          6
    49          2
    50          9
    51         16
    53        327
    54        256
    55        605
    56        170
    57        504
    58         81
    59         21
    60          2
    64          1
    65         20
    66         39
    67        268
    68         35
    69         37
    70         21
    71         37
    72          4
    76          5
    77         41
    78         37
    79         94
    80        187
    81        507
    82        910
    83        999
    84        131
    85         38
    86          3
    91         20
    92         11
    93         99
    94         58
    95        269
    96         49
    97         14
   105         58
   106        396
   107        556
   108        983
   109        497
   110         90
   111         18
   119          9
   120          3
   121        102
   122         14
   123          4
   133          7
   134          4
   135         33
   136          5