##TITLE=Library Entry 42849
##JCAMP-DX=Revision 4.10 
##DATA TYPE=MASS SPECTRUM
##SAMPLE DESCRIPTION=Institute of Organic Chemistry, Novosibirsk, USSR 1988
##NAMES=HP
##CAS NAME=1,2-Bis(trimethylsilyl)-2-(dimethylchlorosilyl)ethylene
##MOLFORM=C10H25ClSi3
##CAS REGISTRY NO=111257-46-6
##MP= -300
##BP= -300
##MW= 264
##$RETENTION INDEX=0
##$CONDENSED SPECTRUM=NO
##NPOINTS= 29
##XYDATA=(XY..XY) 1 
    59         88
    73        999
    74         91
    75         57
    83        138
    84         28
    85         10
    93        187
    94         19
    95         75
    96         12
   141        178
   142         30
   143          9
   156         68
   157        217
   158         86
   159         21
   167         48
   169         10
   175         40
   176         38
   177         39
   178         61
   179          8
   180         17
   229         28
   249         36
   251         11