##TITLE=Library Entry 72111
##JCAMP-DX=Revision 4.10 
##DATA TYPE=MASS SPECTRUM
##SAMPLE DESCRIPTION=RADIAN CORP
##NAMES=HP
##CAS NAME=Silane, dimethyldi-2-propenyl-
##MOLFORM=C8H16Si
##CAS REGISTRY NO=1113-12-8
##MP= -300
##BP= -300
##MW= 140
##$RETENTION INDEX=0
##$CONDENSED SPECTRUM=NO
##NPOINTS= 47
##XYDATA=(XY..XY) 1 
    29         14
    31         26
    38          2
    39         39
    41         16
    42         14
    43        158
    44         21
    45         62
    46          4
    53         21
    54          6
    55         41
    56          6
    57         27
    58         25
    59        535
    60         37
    61          8
    65          2
    66         12
    67         21
    68          4
    69         27
    70         12
    71        230
    72         29
    73         83
    74          7
    80         10
    81         11
    82          2
    83         54
    84          7
    85         14
    95         16
    96          4
    97        173
    98         50
    99        999
   100        111
   101         31
   102          1
   112          3
   125         15
   126          1
   140         10