##TITLE=Library Entry 2032
##JCAMP-DX=Revision 4.10 
##DATA TYPE=MASS SPECTRUM
##SAMPLE DESCRIPTION=Chemical Concepts
##NAMES=HP
##CAS NAME=Borane, ethyldimethyl-
##MOLFORM=C4H11B
##CAS REGISTRY NO=1113-22-0
##MP= -300
##BP= -300
##MW= 70
##$RETENTION INDEX=439
##$CONDENSED SPECTRUM=NO
##NPOINTS= 38
##XYDATA=(XY..XY) 1 
     2          4
    10          6
    11         23
    12          9
    13         30
    14          7
    15         37
    24          2
    25         15
    26        142
    27        416
    28         56
    29         21
    35          2
    36         23
    37         78
    38         43
    39        128
    40        292
    41        999
    42         25
    43          7
    48          7
    49         22
    50         34
    51         30
    52         16
    53         45
    54        102
    55        387
    56         22
    57          2
    60          2
    61          3
    62          2
    63          1
    69          8
    70         31