##TITLE=Library Entry 46239
##JCAMP-DX=Revision 4.10 
##DATA TYPE=MASS SPECTRUM
##SAMPLE DESCRIPTION=D.HORNER, FUCHS MINERALOELWERKE GMBH, MANNHEIM, W.GERMA
N
##NAMES=HP
##CAS NAME=Monomethyl carbonotrithioate
##MOLFORM=C2H4S3
##CAS REGISTRY NO=1113-26-4
##MP= -300
##BP= -300
##MW= 124
##$RETENTION INDEX=0
##$CONDENSED SPECTRUM=NO
##NPOINTS= 8
##XYDATA=(XY..XY) 1 
    44        425
    45        402
    46        132
    47        889
    48        722
    59         39
    76        999
    91          9