##TITLE=Library Entry 34347
##JCAMP-DX=Revision 4.10 
##DATA TYPE=MASS SPECTRUM
##SAMPLE DESCRIPTION=Japan AIST/NIMC Database- Spectrum MS-NW-1497
##NAMES=HP
##CAS NAME=1,6,10,14-Hexadecatetraen-3-ol, 3,7,11,15-tetramethyl-, (E,E)-
##MOLFORM=C20H34O
##CAS REGISTRY NO=1113-21-9
##MP= -300
##BP= -300
##MW= 290
##$RETENTION INDEX=2034
##$CONDENSED SPECTRUM=NO
##NPOINTS= 167
##XYDATA=(XY..XY) 1 
    14          1
    15          2
    17          1
    18          4
    26          2
    27         55
    28         33
    29         72
    30          1
    31          2
    32          9
    36          1
    38          1
    39         73
    40         21
    41        529
    42         27
    43        107
    44          4
    45          4
    48          2
    50          2
    51         11
    52          8
    53        103
    54         10
    55        244
    56         15
    57         38
    58          4
    59          2
    63          3
    64          1
    65         31
    66         11
    67        161
    68         92
    69        999
    70         60
    71         76
    72          4
    75          3
    77         81
    78         15
    79        140
    80         57
    81        483
    82         66
    83         55
    84          6
    85          4
    89          1
    91         99
    92         42
    93        366
    94         62
    95        162
    96         21
    97         23
    98          2
    99          1
   102          1
   103          7
   104          4
   105         94
   106         26
   107        170
   108         35
   109        103
   110         13
   111         10
   112          1
   113          1
   115          6
   116          2
   117          9
   118          6
   119        127
   120         71
   121         96
   122         32
   123         54
   124          7
   125          5
   127          1
   128          2
   129          3
   130          1
   131         12
   132         32
   133         84
   134         60
   135         92
   136         38
   137         49
   138          8
   139          2
   141          1
   142          1
   143          2
   144          1
   145         17
   146         13
   147         51
   148         24
   149         17
   150          5
   151          4
   152          1
   153          2
   157          2
   158          1
   159         23
   160          8
   161         56
   162         13
   163          9
   164          5
   165          2
   166          1
   171          1
   173          7
   174          3
   175         12
   176          5
   177         10
   178          3
   179          4
   185          1
   187         21
   188          9
   189         19
   190         11
   191         12
   192          4
   193          2
   199          1
   201          8
   202          4
   203         27
   204         16
   205          4
   206          2
   213          1
   215          4
   216          4
   217          3
   218          1
   220          1
   221          1
   227          2
   229         10
   230          4
   231          1
   243          2
   244          1
   245          1
   255          1
   257          8
   258          2
   259          1
   270          2
   272         32
   273          7
   274          4
   275          1
   290          2