##TITLE=Library Entry 40695
##JCAMP-DX=Revision 4.10 
##DATA TYPE=MASS SPECTRUM
##SAMPLE DESCRIPTION=Pu Leung, NIH, Bethesda, MD
##NAMES=HP
##CAS NAME=2-Methylmalonodiamide
##MOLFORM=C4H8N2O2
##CAS REGISTRY NO=1113-63-9
##MP= -300
##BP= -300
##MW= 116
##$RETENTION INDEX=0
##$CONDENSED SPECTRUM=NO
##NPOINTS= 45
##XYDATA=(XY..XY) 1 
    41         10
    42         60
    43          7
    44        913
    45        172
    47         65
    48         22
    52         18
    53         23
    54         52
    55        393
    56        172
    57        200
    58          6
    59          2
    60          2
    61          1
    62          0
    63          0
    65          1
    66          0
    67          2
    68          2
    69          8
    70          6
    71         13
    72        580
    73        999
    74         18
    75          4
    77          3
    78          7
    79          1
    80          0
    81          1
    82          3
    83         11
    98          1
    99          7
   100         63
   101          2
   102          0
   115          4
   116         13
   117          0