##TITLE=Library Entry 114953
##JCAMP-DX=Revision 4.10 
##DATA TYPE=MASS SPECTRUM
##SAMPLE DESCRIPTION=LAC, NIDDK, NIH, Bethesda, MD 20892
##NAMES=HP
##CAS NAME=Tryptophanol, N-[2,4-dinitrophenyl]-
##MOLFORM=C17H16N4O5
##CAS REGISTRY NO=111328-10-0
##MP= -300
##BP= -300
##MW= 356
##$RETENTION INDEX=0
##$CONDENSED SPECTRUM=NO
##NPOINTS= 130
##XYDATA=(XY..XY) 1 
    41         18
    42         20
    43         49
    44         97
    45         11
    49          2
    50         32
    51         47
    52         20
    53          9
    54          1
    55         12
    56          7
    57         12
    58          5
    59         10
    61         11
    62         25
    63         57
    64         21
    65         58
    66          5
    67          3
    68          5
    69         13
    70          8
    71         11
    74         22
    75         20
    76         22
    77         84
    78         19
    79         53
    80          4
    81          3
    82          6
    83         10
    84          5
    85          8
    86         11
    87          9
    88          9
    89         90
    90        103
    91        207
    92         24
    97          8
    98          3
    99          7
   100          5
   101         15
   102         47
   103         40
   104          9
   105          7
   106          5
   107         48
   108         52
   109          6
   111          7
   113          7
   114         16
   115         34
   116         28
   117        291
   118         29
   119          1
   127          8
   128         35
   129        100
   130        999
   131        130
   132         16
   139          4
   140         11
   141          8
   142         19
   143         55
   144         35
   145          6
   151          5
   154          5
   155         28
   156         16
   157         23
   158         17
   159          9
   166          5
   167          8
   168         15
   169         11
   170          7
   171          1
   175          6
   180          1
   182          2
   183          7
   184        106
   185         22
   186          9
   187         34
   188          7
   189         25
   190          6
   193         10
   197          1
   198          1
   204         16
   206         11
   207         13
   217          6
   218          7
   219          5
   220          8
   221          4
   226          3
   230          9
   243          4
   245         29
   246         36
   247          8
   256          2
   257          4
   258          9
   260          4
   292         11
   294          9
   338        113
   339         23
   356          4