##TITLE=Library Entry 26682
##JCAMP-DX=Revision 4.10 
##DATA TYPE=MASS SPECTRUM
##SAMPLE DESCRIPTION=ACCUSTANDARD Chemicals / NIST MS Data Center.
##NAMES=HP
##CAS NAME=Pebulate
##MOLFORM=C10H21NOS
##CAS REGISTRY NO=1114-71-2
##MP= -300
##BP= -300
##MW= 203
##$RETENTION INDEX=1454
##$CONDENSED SPECTRUM=NO
##NPOINTS= 99
##XYDATA=(XY..XY) 1 
    14          1
    15         22
    17          0
    18          1
    24          0
    26         19
    27        216
    28         97
    29        334
    30         79
    31          3
    33          1
    34          0
    35          1
    37          1
    39         84
    41        440
    42        155
    43        317
    44         89
    45         26
    46         17
    47         37
    48          2
    49          1
    50          1
    51          1
    52          0
    53          7
    54         10
    55         40
    56        107
    57        999
    58        151
    59         13
    60          7
    61         15
    62          4
    63          1
    64          0
    67          0
    68          2
    69          3
    70         13
    71          0
    72        472
    73         21
    74          5
    75          4
    76          6
    77          1
    78          0
    81          0
    82          1
    84         23
    85          3
    86         11
    87          3
    88          3
    89         18
    90         21
    91          1
    92          0
    98          3
   100         20
   101          1
   103         15
   104          2
   105          2
   106          1
   112          4
   113          0
   114          1
   116          1
   117          0
   118          5
   119          1
   125          0
   128        610
   129         48
   130          4
   131          0
   132         78
   133          6
   134          3
   146          1
   158          0
   160         44
   161         75
   162         15
   163          3
   164          0
   170          2
   174          3
   188          1
   203         62
   204          8
   205          3
   206          0