##TITLE=Library Entry 27666
##JCAMP-DX=Revision 4.10 
##DATA TYPE=MASS SPECTRUM
##SAMPLE DESCRIPTION=Japan AIST/NIMC Database- Spectrum MS-NW-4184
##NAMES=HP
##CAS NAME=N,N-Diethylpropionamide
##MOLFORM=C7H15NO
##CAS REGISTRY NO=1114-51-8
##MP= -300
##BP= -300
##MW= 129
##$RETENTION INDEX=0
##$CONDENSED SPECTRUM=NO
##NPOINTS= 48
##XYDATA=(XY..XY) 1 
    14          2
    15         19
    26         14
    27        104
    28         46
    29        344
    30         86
    31          2
    32          1
    39          3
    40          4
    41         11
    42         53
    43          8
    44        262
    45          8
    46          4
    51          1
    52          2
    53          1
    54          7
    55         15
    56         36
    57        247
    58        999
    59         36
    60          1
    68          1
    70          7
    71          4
    72        186
    73         11
    74          3
    77          2
    78          1
    84          1
    86         49
    87          2
    98          1
   100        116
   101         19
   102          2
   114         25
   115          2
   128          2
   129        293
   130         25
   131          2