##TITLE=Library Entry 16678
##JCAMP-DX=Revision 4.10 
##DATA TYPE=MASS SPECTRUM
##SAMPLE DESCRIPTION=Japan AIST/NIMC Database- Spectrum MS-NW-6690
##NAMES=HP
##CAS NAME=Muramic acid
##MOLFORM=C9H17NO7
##CAS REGISTRY NO=1114-41-6
##MP= -300
##BP= -300
##MW= 251
##$RETENTION INDEX=0
##$CONDENSED SPECTRUM=NO
##NPOINTS= 129
##XYDATA=(XY..XY) 1 
    12          3
    13          8
    14         20
    15         59
    16         16
    17         70
    18        165
    19         11
    24          2
    25         16
    26         38
    27        191
    28         62
    29        243
    30         22
    31         18
    32          1
    36          1
    37          1
    38          2
    39          7
    40          3
    41         14
    42         34
    43        157
    44         33
    45        999
    46         31
    47         10
    51          2
    52          2
    53          5
    54          5
    55         28
    56         24
    57         14
    58          7
    59          3
    60          4
    61          4
    63          1
    64          1
    65          1
    66          2
    67          2
    68          4
    69          6
    70         10
    71          6
    72         19
    73          6
    74          3
    75          7
    76          1
    77          2
    78          1
    79          2
    80          2
    81          2
    82          4
    83          6
    84          7
    85          4
    86          7
    87          2
    88          1
    89          3
    90          4
    91          2
    92          1
    93          1
    94          3
    95          3
    96          4
    97          4
    98          5
    99          3
   100          2
   101          1
   104          1
   105          2
   107          1
   108          1
   109          1
   110          2
   111          1
   112          2
   113         25
   114         10
   115          5
   116          2
   119          1
   121          1
   122          1
   123          3
   124          2
   125          2
   126          6
   127          2
   128          2
   130          1
   132          1
   134          1
   137          1
   141          2
   142          3
   143          1
   144         20
   145          2
   147          1
   149          2
   151          1
   155          3
   156          3
   158          1
   160          1
   166          1
   168          1
   169          1
   171          1
   172          2
   173          4
   174          2
   175          1
   184          2
   187          1
   197          1
   202          3
   215          1