##TITLE=Library Entry 96364
##JCAMP-DX=Revision 4.10 
##DATA TYPE=MASS SPECTRUM
##SAMPLE DESCRIPTION=A.A.Kutin, Moscow, Russia
##NAMES=HP
##CAS NAME=Pyruvic acid, ethyl ester, 2-(thiosemicarbazone)
##MOLFORM=C6H11N3O2S
##CAS REGISTRY NO=1114-98-3
##MP= -300
##BP= -300
##MW= 189
##$RETENTION INDEX=0
##$CONDENSED SPECTRUM=NO
##NPOINTS= 143
##XYDATA=(XY..XY) 1 
    33         12
    34          5
    35          1
    36          1
    37          0
    38          2
    39          4
    40         25
    41         29
    42        182
    43        303
    44         24
    45         23
    46          8
    47         29
    48         44
    49          1
    50          2
    51          0
    53          5
    54          5
    55         46
    56         62
    57        324
    58         24
    59         34
    60        154
    61          7
    62          8
    63          0
    64          1
    65          0
    66          0
    67          1
    68          1
    69          3
    70          1
    71          3
    72          5
    73         18
    74         48
    75        192
    76         10
    77          9
    78          0
    79          0
    80          0
    81          2
    82          5
    83          7
    84          5
    85          8
    86          3
    87          1
    88          2
    89          1
    90          0
    91          0
    92          0
    93          0
    94          0
    95          0
    96          0
    97          0
    98          1
    99         24
   100          3
   101          7
   102          1
   103          0
   104          0
   105          0
   106          0
   107          0
   108          0
   109          1
   110          1
   111          1
   112          0
   113          1
   116        999
   117         54
   118         49
   119          3
   120          0
   121          0
   122          0
   125          0
   126          0
   127          1
   128          2
   129          2
   130          1
   131          0
   132          0
   133          0
   134          0
   135          0
   136          0
   139          0
   140          0
   141          0
   143         16
   144         21
   145          2
   146          5
   147          1
   148          0
   149          1
   150          0
   151          0
   155          1
   156          0
   157          0
   158          0
   159          0
   160          0
   161          0
   162          0
   163          0
   164          0
   165          0
   167          0
   170          0
   171          1
   172          0
   173          0
   174          2
   175          0
   176          0
   177          0
   178          0
   179          0
   183          0
   184          0
   185          0
   186          0
   187          1
   189        237
   190         22
   191         13
   192          1
   193          0