##TITLE=Library Entry 28057
##JCAMP-DX=Revision 4.10 
##DATA TYPE=MASS SPECTRUM
##SAMPLE DESCRIPTION=NIST Mass Spectrometry Data Center, 1994
##NAMES=HP
##CAS NAME=N,N-Diethylbutyramide
##MOLFORM=C8H17NO
##CAS REGISTRY NO=1114-76-7
##MP= -300
##BP= -300
##MW= 143
##$RETENTION INDEX=0
##$CONDENSED SPECTRUM=NO
##NPOINTS= 66
##XYDATA=(XY..XY) 1 
    12          2
    14          2
    15         64
    17          0
    18         37
    19          2
    20          2
    25          4
    27        326
    28        168
    29        295
    30        105
    31          2
    32          2
    33          1
    35          1
    36          2
    37          4
    39         88
    40         30
    41        232
    42        198
    43        436
    44        440
    45         18
    46          3
    49          1
    50          3
    51          2
    52          2
    53          4
    54         18
    55         45
    56         87
    57          1
    58        999
    59         35
    66          2
    68          7
    69         18
    70         24
    71        147
    72        323
    73         39
    74         17
    81          1
    83          3
    84          7
    86         58
    87         87
    88          4
    96          2
    98          5
   100        209
   101         15
   112          2
   114         40
   115        109
   116          9
   117          1
   128        132
   129         10
   130          1
   143        211
   144         20
   145          3