##TITLE=Library Entry 47713
##JCAMP-DX=Revision 4.10 
##DATA TYPE=MASS SPECTRUM
##SAMPLE DESCRIPTION=A.A.Kutin, Moscow, Russia
##NAMES=HP
##CAS NAME=Benzene, 1-(3-nitrobenzylidenamino)-4-phenylazo-
##MOLFORM=C19H14N4O2
##CAS REGISTRY NO=111438-25-6
##MP= -300
##BP= -300
##MW= 330
##$RETENTION INDEX=0
##$CONDENSED SPECTRUM=NO
##NPOINTS= 179
##XYDATA=(XY..XY) 1 
    33          1
    34          2
    36          1
    37          7
    38         22
    39        103
    40         45
    41         17
    42          4
    43         15
    44         18
    45         15
    46          3
    50        187
    51        353
    52         33
    53          4
    54          2
    55         10
    56          4
    57         11
    58          1
    59          5
    60          2
    61          4
    62         29
    63        152
    64         43
    65         25
    66          4
    67          2
    68          1
    69          6
    70          4
    71          6
    72          2
    73          6
    74         26
    75         71
    76        275
    77        999
    78         82
    79          5
    80          4
    81          2
    82          1
    83          4
    84          3
    85          3
    86          4
    87         10
    88         13
    89         67
    90         16
    91         11
    92         16
    93          7
    94          1
    95          2
    96          0
    97          3
    98          3
    99          4
   100          5
   101         14
   102         27
   103         51
   104         19
   105        174
   106         13
   107          0
   109          1
   110          0
   111          2
   112          2
   113         10
   114         14
   115         28
   116          7
   117          2
   118          3
   119          2
   120          4
   121          1
   122          0
   123          1
   124          1
   125         12
   126         29
   127         29
   128         27
   129          6
   130          2
   131          1
   133          1
   135          1
   137          1
   138          3
   139         26
   140         30
   141         10
   142          3
   143          2
   144          1
   145          0
   146          0
   149         11
   150         56
   151        261
   152        192
   153         73
   154         31
   155          6
   156          1
   157          0
   163          0
   164          6
   165         24
   166         35
   167         70
   168         19
   169         11
   170          4
   171          4
   172          0
   175          1
   176         13
   177         85
   178        311
   179        274
   180         47
   181          7
   182          1
   189          0
   190          0
   191          3
   192          3
   194         35
   195        220
   196         30
   197          7
   198          1
   199          3
   200          0
   202          2
   203          0
   207          1
   208         14
   209          7
   210          0
   215          0
   216          0
   223          1
   225        441
   226         67
   227          8
   228          4
   229          1
   230          4
   231          2
   237          0
   240          1
   241          1
   242          0
   243          0
   253         96
   254         17
   255          5
   256          1
   257          1
   300          2
   301          0
   302          0
   330        159
   331         37
   332          4
   333          0
   334          3
   335          0