##TITLE=Library Entry 62360
##JCAMP-DX=Revision 4.10 
##DATA TYPE=MASS SPECTRUM
##SAMPLE DESCRIPTION=Chemical Concepts
##NAMES=HP
##CAS NAME=2-Methyl-3-nitro-4-phenyloctahydrochromen-8a-ol
##MOLFORM=C16H21NO4
##CAS REGISTRY NO=111491-53-3
##MP= -300
##BP= -300
##MW= 291
##$RETENTION INDEX=0
##$CONDENSED SPECTRUM=NO
##NPOINTS= 235
##XYDATA=(XY..XY) 1 
    25          1
    26          6
    27         96
    28         17
    29        104
    30         26
    31         18
    33          0
    34          0
    35          1
    36          0
    37          1
    38          3
    39        116
    40         19
    41        286
    42         46
    43        462
    44         32
    45         84
    46          4
    47          2
    48          1
    49          1
    50         14
    51         78
    52         23
    53         91
    54         17
    55        231
    56         26
    57         94
    58         11
    59         10
    60         18
    61          3
    62          5
    63         30
    64         13
    65         88
    66         25
    67        136
    68         21
    69         82
    70        184
    71         54
    72          5
    73         20
    74         12
    75         13
    76         21
    77        226
    78         67
    79        109
    80         28
    81        114
    82         16
    83        109
    84         17
    85         64
    86          6
    87         11
    88         12
    89         31
    90         15
    91        999
    92         99
    93         26
    94         17
    95         58
    96         17
    97        124
    98        437
    99         49
   100          5
   101         15
   102         53
   103        181
   104        183
   105        219
   106         22
   107         44
   108          6
   109         19
   110          5
   111         31
   112          6
   113        112
   114         14
   115        286
   116        123
   117        469
   118         92
   119         34
   120         12
   121         11
   122          5
   123         21
   124          5
   125          9
   126         11
   127         63
   128        172
   129        477
   130        172
   131        353
   132         50
   133         32
   134         11
   135         12
   136          3
   137          6
   138          4
   139         11
   140          5
   141        157
   142         60
   143        291
   144         95
   145         58
   146         17
   147        599
   148         89
   149         28
   150         12
   151          5
   152          9
   153         14
   154         12
   155         65
   156         61
   157        143
   158         64
   159         28
   160          8
   161         10
   162          3
   163          3
   164          1
   165          7
   166          5
   167         21
   168         22
   169         76
   170         21
   171         82
   172         45
   173         20
   174         27
   175          7
   176          2
   177          2
   178          2
   179          4
   180          3
   181         13
   182          7
   183        104
   184         30
   185        102
   186        134
   187        434
   188         74
   189         10
   190          2
   191          2
   192          2
   193          2
   194          3
   195          2
   196          3
   197         36
   198         20
   199        177
   200        108
   201        189
   202         42
   203         68
   204        115
   205         18
   206          2
   207          2
   208          1
   209         22
   210          5
   211         38
   212         13
   213          5
   214          4
   215          6
   216          3
   217         46
   218          8
   219          1
   221          1
   222          1
   223          1
   224          1
   225          9
   226         33
   227        154
   228         28
   229         35
   230          9
   231          2
   232          0
   233          0
   239          1
   240          0
   241          0
   242          0
   243         13
   244        389
   245         87
   246         10
   247          5
   248          5
   249          1
   251          0
   252          0
   253          0
   256          0
   257          0
   258          0
   260          0
   261          1
   262          0
   273          1
   274          5
   275          1
   291         17
   292          3
   293          0
   294          0
   295          0