##TITLE=Library Entry 11698
##JCAMP-DX=Revision 4.10 
##DATA TYPE=MASS SPECTRUM
##SAMPLE DESCRIPTION=R.M. Carman, Dep. Chem., Univ. Queensland, St. Lucia, A
ustralia
##NAMES=HP
##CAS NAME=2-Cyclopentenecarboxylic acid, 5-hydroxy-5-methyl-2-(1-methylethy
l)-, methyl ester, trans-
##MOLFORM=C11H18O3
##CAS REGISTRY NO=111511-58-1
##MP= -300
##BP= -300
##MW= 198
##$RETENTION INDEX=0
##$CONDENSED SPECTRUM=NO
##NPOINTS= 32
##XYDATA=(XY..XY) 1 
    27        260
    39        200
    41        290
    43        999
    53        130
    55        160
    59        150
    67        180
    77        140
    79        180
    81        140
    91        110
    93        100
    95        650
    96        130
    97        120
   105        230
   107        170
   108        140
   109        310
   120        210
   121        850
   122        130
   123        920
   124        210
   125        110
   127        120
   138        130
   139        180
   166        440
   180        140
   198         24