##TITLE=Library Entry 100847
##JCAMP-DX=Revision 4.10 
##DATA TYPE=MASS SPECTRUM
##SAMPLE DESCRIPTION=W.-G. Chai, Inst. Chem., Chinese Acad. Sci., Beijing, C
hina
##NAMES=HP
##CAS NAME=4-(4-Fluorophenyl)-2,3-dihydro-2-methyl-1H-1,5-benzodiazepine
##MOLFORM=C16H15FN2
##CAS REGISTRY NO=111536-74-4
##MP= -300
##BP= -300
##MW= 254
##$RETENTION INDEX=0
##$CONDENSED SPECTRUM=NO
##NPOINTS= 15
##XYDATA=(XY..XY) 1 
    65         88
    77         48
    91         87
    92         82
   101         78
   119        999
   121        191
   127         64
   133        113
   159         49
   212        155
   221         65
   239        841
   254        814
   255        149