##TITLE=Library Entry 15388
##JCAMP-DX=Revision 4.10 
##DATA TYPE=MASS SPECTRUM
##SAMPLE DESCRIPTION=Japan AIST/NIMC Database- Spectrum MS-NW-1898
##NAMES=HP
##CAS NAME=DL-Alanine, N-acetyl-
##MOLFORM=C5H9NO3
##CAS REGISTRY NO=1115-69-1
##MP= -300
##BP= -300
##MW= 131
##$RETENTION INDEX=0
##$CONDENSED SPECTRUM=NO
##NPOINTS= 52
##XYDATA=(XY..XY) 1 
    12          1
    13          2
    14         15
    15        122
    16          2
    17          5
    18         20
    25          2
    26         12
    27         43
    28         97
    29         19
    30         37
    31          3
    32          3
    38          2
    39          4
    40         10
    41         24
    42        119
    43        409
    44        999
    45         35
    46          7
    52          1
    53          1
    54          2
    55         10
    56          6
    57          6
    59          5
    60          3
    67          1
    68          3
    69          7
    70         15
    71          4
    72         15
    73          6
    74         45
    75          1
    81          1
    83          1
    84          1
    85          6
    86        326
    87         46
    88         15
    89          2
   113          3
   131         20
   132          1