##TITLE=Library Entry 98898
##JCAMP-DX=Revision 4.10 
##DATA TYPE=MASS SPECTRUM
##SAMPLE DESCRIPTION=A.A.Kutin, Moscow, Russia
##NAMES=HP
##CAS NAME=Ethane-1,2-diol, 1,2-bis(1-benzotriazolyl)-
##MOLFORM=C14H12N6O2
##CAS REGISTRY NO=111507-88-1
##MP= -300
##BP= -300
##MW= 296
##$RETENTION INDEX=0
##$CONDENSED SPECTRUM=NO
##NPOINTS= 56
##XYDATA=(XY..XY) 1 
    33          2
    34          1
    36         65
    37        282
    38        385
    39        281
    40        140
    41        225
    42         12
    43         17
    44         85
    45         43
    48          6
    49         45
    50        102
    51        145
    52        313
    53         18
    54          0
    55          4
    56         18
    58        126
    60         52
    61        122
    62        236
    63        668
    64        857
    65        260
    66         18
    67          1
    69          0
    73          3
    74         10
    75         16
    76         26
    77          9
    78          1
    86          5
    87         11
    88         11
    90        178
    91        796
    92         62
    93         25
    94          0
   103          0
   105          0
   108          0
   119        999
   120         89
   121          3
   134          0
   146          0
   147          3
   148         28
   149          4