##TITLE=Library Entry 57211
##JCAMP-DX=Revision 4.10 
##DATA TYPE=MASS SPECTRUM
##SAMPLE DESCRIPTION=NIST Mass Spectrometry Data Center, 1994
##NAMES=HP
##CAS NAME=N,N-Dimethylheptanamide
##MOLFORM=C9H19NO
##CAS REGISTRY NO=1115-96-4
##MP= -300
##BP= -300
##MW= 157
##$RETENTION INDEX=0
##$CONDENSED SPECTRUM=NO
##NPOINTS= 64
##XYDATA=(XY..XY) 1 
    15        148
    16          2
    18         13
    26         24
    27        260
    28        139
    29        232
    30         50
    31          8
    37          2
    39        140
    40         32
    41        279
    42        256
    43        488
    44        444
    45        905
    46        150
    47          3
    50          3
    51          9
    52          5
    53         24
    54          2
    55        171
    56         75
    57         71
    58         72
    59          8
    65          2
    66          2
    67         10
    68         16
    69         18
    70          9
    71          2
    72        668
    73         36
    74          5
    79          2
    81          3
    82          2
    83          8
    84         12
    85         24
    86          2
    87        999
    88         50
    89          4
    95          6
    98          7
   100        214
   101         46
   102          3
   112          3
   113         11
   114         72
   115          9
   128         16
   129          2
   142          8
   156          4
   157         20
   158          3