##TITLE=Library Entry 24550
##JCAMP-DX=Revision 4.10 
##DATA TYPE=MASS SPECTRUM
##SAMPLE DESCRIPTION=NIST Mass Spectrometry Data Center
##NAMES=HP
##CAS NAME=Di-n-decylsulfone
##MOLFORM=C20H42O2S
##CAS REGISTRY NO=111530-37-1
##MP= -300
##BP= -300
##MW= 346
##$RETENTION INDEX=0
##$CONDENSED SPECTRUM=NO
##NPOINTS= 122
##XYDATA=(XY..XY) 1 
    15          1
    26          3
    27         67
    29        189
    30          4
    38          1
    39         62
    40         12
    41        530
    42        130
    43        885
    44         30
    45          2
    47          1
    48          2
    50          1
    51          2
    52          1
    53         29
    54         36
    55        537
    56        164
    57        999
    58         45
    59          2
    61          1
    63         17
    64          3
    65         11
    66          6
    67         63
    68         44
    69        274
    70        111
    71        647
    72         35
    73          2
    75          2
    77          6
    78          1
    79         10
    80         12
    81         86
    82         34
    83        171
    84         52
    85        695
    86         46
    87          3
    89          3
    91          3
    92          1
    93         33
    94          4
    95         20
    96         16
    97        100
    98         26
    99        143
   100         11
   101          1
   103          2
   105          5
   107         11
   108          3
   109         15
   110          8
   111         43
   112         24
   113          5
   117          2
   119          6
   120          1
   121         14
   122          1
   123         11
   124          1
   125          5
   126          1
   127          2
   131          1
   133          5
   135          9
   137         12
   138          4
   139          6
   140         54
   141        114
   142         11
   145          1
   147          3
   149          4
   151          6
   163          2
   165          3
   171         13
   172          1
   173         10
   174          1
   187          4
   189        110
   190         12
   191          6
   203          2
   205        233
   206         32
   207        837
   208        102
   209         44
   210          4
   221          2
   233         17
   234          2
   247          1
   261          4
   275          4
   289          1
   313          1
   329         25
   330          5
   331          2
   347          1