##TITLE=Library Entry 11904
##JCAMP-DX=Revision 4.10 
##DATA TYPE=MASS SPECTRUM
##SAMPLE DESCRIPTION=RADIAN CORP
##NAMES=HP
##CAS NAME=Butanedioic acid, acetyl-, diethyl ester
##MOLFORM=C10H16O5
##CAS REGISTRY NO=1115-30-6
##MP= -300
##BP= -300
##MW= 216
##$RETENTION INDEX=0
##$CONDENSED SPECTRUM=NO
##NPOINTS= 66
##XYDATA=(XY..XY) 1 
    37          1
    38          4
    39         19
    41         20
    42         62
    43        999
    44         29
    45         56
    46          3
    47          5
    50          3
    51          1
    52          3
    53         17
    54         19
    55        376
    56         28
    57          5
    58          1
    61          3
    68          2
    69         11
    70         14
    71         38
    72         31
    73        164
    74          9
    75          2
    81          3
    82          8
    83          5
    85          2
    96          2
    97         73
    98         24
    99         79
   100        300
   101        163
   102         15
   103          2
   115         51
   116          3
   117         12
   124         14
   125         28
   126          3
   127         35
   128        433
   129         25
   130          6
   141          2
   142         11
   143        272
   144         23
   145         12
   146          2
   155          2
   170          5
   171         80
   172          8
   173          1
   174        212
   175         20
   176          2
   216          2
   217          4