##TITLE=Library Entry 42944
##JCAMP-DX=Revision 4.10 
##DATA TYPE=MASS SPECTRUM
##SAMPLE DESCRIPTION=Chemical Concepts
##NAMES=HP
##CAS NAME=Isoxazolo[2,3-b]benz[1,2]oxazine, perhydro-2-methoxycarbonyl-10-m
ethyl-5a-trimethylsilyloxy-
##MOLFORM=C16H29NO5Si
##CAS REGISTRY NO=111556-18-4
##MP= -300
##BP= -300
##MW= 343
##$RETENTION INDEX=0
##$CONDENSED SPECTRUM=NO
##NPOINTS= 240
##XYDATA=(XY..XY) 1 
    25          1
    26          7
    27         62
    28         21
    29         71
    30         12
    31          7
    33         11
    39         48
    40         13
    41        181
    42         68
    43         83
    44         29
    45        108
    46          8
    47         51
    48          2
    49          2
    50          2
    51          6
    52          5
    53         51
    54         33
    55        458
    56         50
    57         56
    58         22
    59         97
    60         13
    61         49
    62          4
    63          4
    64          1
    65         16
    66         14
    67        133
    68         95
    69         94
    70        100
    71         34
    72         38
    73        999
    74         91
    75        755
    76         57
    77         67
    78          9
    79         83
    80         36
    81        186
    82         99
    83         98
    84         26
    85         43
    86         21
    87         13
    88          6
    89         51
    90         10
    91         48
    92         11
    93         54
    94         30
    95        130
    96        101
    97         97
    98         31
    99         27
   100         10
   101         17
   102          8
   103         22
   104          9
   105         40
   106         17
   107         89
   108         30
   109         55
   110         57
   111         30
   112         20
   113         12
   114          8
   115         62
   116         27
   117        161
   118         21
   119         34
   120         11
   121         49
   122         21
   123         25
   124         59
   125         52
   126         19
   127         78
   128         15
   129         69
   130         51
   131         40
   132         39
   133         16
   134         14
   135         91
   136         27
   137         29
   138         13
   139          9
   140          7
   141         22
   142        103
   143        375
   144         43
   145         83
   146         18
   147         35
   148         20
   149         66
   150         34
   151         18
   152         17
   153          9
   154          6
   155        153
   156         28
   157         30
   158         11
   159         20
   160          8
   161          9
   162          3
   163         78
   164         18
   165         44
   166         44
   167         20
   168         17
   169        132
   170        757
   171        137
   172         41
   173         33
   174          5
   175          6
   176         14
   177          8
   178          4
   179          4
   180          3
   181         21
   182          9
   183         19
   184         43
   185         13
   186         15
   187          5
   188          3
   189          3
   190          1
   191         77
   192         12
   193          4
   194         92
   195         21
   196         16
   197        213
   198         74
   199        260
   200         49
   201         21
   202         20
   203          4
   204          4
   205         10
   206          3
   207          2
   208          2
   209          7
   210         11
   211          6
   212         11
   213          8
   214         19
   215         21
   216          4
   217          7
   218          4
   219          3
   220          3
   221          2
   222          4
   223         92
   224         25
   225         30
   226         20
   227          9
   228          2
   229          1
   230          1
   235          2
   236          6
   237          3
   238          5
   239          2
   240         13
   241          4
   242          4
   243          1
   247          4
   250          1
   252          1
   253          9
   254          7
   255          4
   256          2
   257          1
   259          1
   265          1
   266          8
   267          3
   268          8
   269          5
   270          1
   280          1
   281          3
   282          1
   283          1
   284         25
   285          6
   286          2
   313         50
   314         12
   315          4
   326          9
   327          4
   328         16
   329          4
   343          6
   344          1