##TITLE=Library Entry 58295
##JCAMP-DX=Revision 4.10 
##DATA TYPE=MASS SPECTRUM
##SAMPLE DESCRIPTION=Exported from NIST MS Search
##NAMES=HP
##CAS NAME=L-Cysteine, S-propyl-
##MOLFORM=C6H13NO2S
##CAS REGISTRY NO=1115-93-1
##MP= -300
##BP= -300
##MW= 163
##$RETENTION INDEX=0
##$CONDENSED SPECTRUM=NO
##NPOINTS= 43
##XYDATA=(XY..XY) 1 
    27        406
    28          4
    29        114
    30        116
    32          5
    33         36
    34         36
    39        254
    40         32
    41        412
    42         76
    43        903
    44         20
    45        340
    46        136
    47        655
    48        106
    49         74
    50         46
    55        184
    56        120
    57        120
    58         68
    59        196
    60         20
    61        428
    73         36
    74        454
    75        106
    76        224
    77         32
    87         24
    88         60
    89        999
    90        408
    91         80
    92         36
   118        212
   119         34
   120         16
   163        134
   164         24
   165         16