##TITLE=Library Entry 41837
##JCAMP-DX=Revision 4.10 
##DATA TYPE=MASS SPECTRUM
##SAMPLE DESCRIPTION=Chemical Concepts
##NAMES=HP
##CAS NAME=Propanoic acid, 3-hydroxy-2,2-dimethyl-, 3-hydroxy-2,2-dimethylpr
opyl ester
##MOLFORM=C10H20O4
##CAS REGISTRY NO=1115-20-4
##MP= -300
##BP= -300
##MW= 204
##$RETENTION INDEX=0
##$CONDENSED SPECTRUM=NO
##NPOINTS= 106
##XYDATA=(XY..XY) 1 
    24          0
    26          3
    27         67
    29        133
    30          2
    31        169
    33          1
    37          0
    38          1
    39         49
    41        301
    42        106
    43        138
    44          0
    45        264
    46          5
    47          1
    49          0
    50          0
    51          2
    52          0
    53         17
    54          5
    55        288
    56        572
    57         84
    58         11
    59         32
    60          4
    61          0
    64          0
    65          1
    67          3
    68         12
    69        152
    70        473
    71         92
    72         52
    73        999
    74         43
    75          4
    81          0
    82         20
    83         21
    84          9
    85         19
    86         26
    87         35
    88        732
    89         38
    90          3
    91          0
    95          0
    97          0
    98          0
    99         24
   100         28
   101        822
   102         42
   103         19
   104          0
   105         16
   106          0
   109          1
   111          1
   113          0
   114          3
   115          3
   117         22
   118          3
   119        636
   120         34
   121          4
   122          0
   125          1
   127          0
   129          0
   131          1
   132          2
   138          0
   141          0
   142          1
   145          0
   147          0
   149          2
   155          1
   156         15
   157          2
   158          0
   168          0
   170          2
   171          0
   172          0
   173         15
   174        341
   175         34
   176          4
   177          0
   185          0
   186          3
   187          1
   189          2
   201          0
   203          0
   205          6
   206          0