##TITLE=Library Entry 2027
##JCAMP-DX=Revision 4.10 
##DATA TYPE=MASS SPECTRUM
##SAMPLE DESCRIPTION=Chemical Concepts
##NAMES=HP
##CAS NAME=Borane, ethyldipropyl-
##MOLFORM=C8H19B
##CAS REGISTRY NO=1116-52-5
##MP= -300
##BP= -300
##MW= 126
##$RETENTION INDEX=0
##$CONDENSED SPECTRUM=NO
##NPOINTS= 50
##XYDATA=(XY..XY) 1 
     2          4
    10          1
    11          3
    12          4
    13         12
    14          2
    15         11
    25          7
    26         89
    27        307
    28         15
    29         36
    36          7
    37         28
    38         31
    39        123
    40        290
    41        999
    42         44
    43         10
    49          6
    50         20
    51         35
    52         39
    53        126
    54         75
    55        181
    56          8
    57          4
    61          1
    62          1
    63          3
    64          3
    65          6
    66          4
    67         15
    68         13
    69         12
    70          2
    71          5
    81          3
    82         72
    83        277
    84         16
    96         68
    97        265
    98         18
   125          4
   126         14
   127          1