##TITLE=Library Entry 3834
##JCAMP-DX=Revision 4.10 
##DATA TYPE=MASS SPECTRUM
##SAMPLE DESCRIPTION=Chemical Concepts
##NAMES=HP
##CAS NAME=Borane, tripropyl-
##MOLFORM=C9H21B
##CAS REGISTRY NO=1116-61-6
##MP= -300
##BP= -300
##MW= 140
##$RETENTION INDEX=0
##$CONDENSED SPECTRUM=NO
##NPOINTS= 50
##XYDATA=(XY..XY) 1 
     2          4
    10          1
    11          2
    12          4
    13         10
    14          3
    15         12
    24          2
    25          7
    26        117
    27        427
    28         16
    29         41
    36          5
    37         24
    38         27
    39        115
    40        288
    41        999
    42         65
    43         26
    49          5
    50         20
    51         37
    52         48
    53        158
    54         75
    55        225
    56          9
    57          2
    61          1
    63          3
    64          3
    65          6
    66          4
    67         17
    68         31
    69         27
    70          7
    71         21
    81          3
    83          1
    95          1
    96        145
    97        575
    98         38
    99          1
   139          4
   140         16
   141          1