##TITLE=Library Entry 39706
##JCAMP-DX=Revision 4.10 
##DATA TYPE=MASS SPECTRUM
##SAMPLE DESCRIPTION=RADIAN CORP
##NAMES=HP
##CAS NAME=Acetamide, N,N-dipropyl-
##MOLFORM=C8H17NO
##CAS REGISTRY NO=1116-24-1
##MP= -300
##BP= -300
##MW= 143
##$RETENTION INDEX=0
##$CONDENSED SPECTRUM=NO
##NPOINTS= 28
##XYDATA=(XY..XY) 1 
    27         44
    28         20
    29         24
    30         90
    39         35
    40          6
    41         97
    42         82
    43        322
    44         63
    54         12
    55          5
    56         26
    57         15
    58         77
    68          2
    70         25
    71          7
    72        999
    73         81
    86         58
    87          1
   100         26
   114        116
   115         10
   128         28
   143         84
   144         14