##TITLE=Library Entry 49727
##JCAMP-DX=Revision 4.10 
##DATA TYPE=MASS SPECTRUM
##SAMPLE DESCRIPTION=M. IWAMOTO, TOYO RAYON CO., SONOYANA, OTSU, SHIGA-KEN,
 JAPAN
##NAMES=HP
##CAS NAME=1,4-Hexadiene, 4-methyl-
##MOLFORM=C7H12
##CAS REGISTRY NO=1116-90-1
##MP= -300
##BP= -300
##MW= 96
##$RETENTION INDEX=0
##$CONDENSED SPECTRUM=NO
##NPOINTS= 61
##XYDATA=(XY..XY) 1 
    13          1
    14          7
    15         39
    16          1
    25          2
    26         44
    27        321
    28         55
    29        168
    30          3
    31          1
    36          1
    37         20
    38         49
    39        460
    40         68
    41        400
    42         37
    43         38
    44          2
    45          2
    46          2
    47          1
    49          8
    50         54
    51         91
    52         39
    53        309
    54        122
    55        280
    56         39
    57          2
    58          7
    60          1
    61          9
    62         17
    63         29
    64          6
    65         66
    66         47
    67        207
    68         69
    69         28
    70          2
    73          1
    74          6
    75          7
    76          2
    77        101
    78         28
    79        246
    80         51
    81        999
    82         68
    83          2
    91         13
    93          9
    94          9
    95         45
    96        426
    97         35