##TITLE=Library Entry 24250
##JCAMP-DX=Revision 4.10 
##DATA TYPE=MASS SPECTRUM
##SAMPLE DESCRIPTION=R.T.HOLMAN,UNIVERSITY OF MINNESOTA
##NAMES=HP
##CAS NAME=Hexadecanoic acid, 1-[(hexadecyloxy)methyl]-1,2-ethanediyl ester
##MOLFORM=C51H100O5
##CAS REGISTRY NO=1116-45-6
##MP= -300
##BP= -300
##MW= 792
##$RETENTION INDEX=0
##$CONDENSED SPECTRUM=NO
##NPOINTS= 387
##XYDATA=(XY..XY) 1 
    26          7
    27         37
    28         76
    29        112
    30          5
    31          6
    32         12
    36          5
    39         30
    40          9
    41        237
    42         65
    43        637
    44         30
    45         23
    46          4
    47          3
    50          3
    51          5
    52          3
    53         13
    54         35
    55        356
    56        112
    57        999
    58         65
    59         18
    60         61
    61         20
    62          2
    63          4
    65          5
    66          6
    67         78
    68         57
    69        306
    70         85
    71        618
    72         38
    73        181
    74         20
    75         25
    77          6
    78          3
    79         13
    80         16
    81        112
    82        100
    83        275
    84        118
    85        431
    86         35
    87         26
    88          5
    89          6
    91          5
    92          3
    93         20
    94         15
    95        150
    96         80
    97        225
    98        156
    99        125
   100         39
   101         20
   102         11
   103          5
   104          3
   105          4
   106          5
   107         13
   108         12
   109         96
   110         45
   111        112
   112         77
   113         82
   114         13
   115         23
   116         20
   117         16
   118          3
   119          5
   120          3
   121         20
   122          8
   123         51
   124         32
   125         51
   126         25
   127         48
   128          9
   129         45
   130          8
   131          4
   133          5
   134          3
   135         21
   136          8
   137         36
   138         25
   139         23
   140         15
   141         35
   142          7
   143          8
   144          4
   145          3
   147          5
   148          4
   149         13
   150          8
   151         20
   152         15
   153         18
   154         13
   155         32
   156          6
   157         11
   158          7
   159          3
   161          3
   162          3
   163          8
   164          3
   165         16
   166         12
   167         16
   168          9
   169         31
   170          8
   171         20
   172          5
   173          3
   177          6
   178          2
   179         16
   180         11
   181         13
   182         11
   183         15
   184          7
   185         21
   186          5
   187          3
   188          2
   189          3
   191          5
   192          3
   193         10
   194         14
   195         16
   196         10
   197          9
   198          4
   199          8
   200          3
   201          3
   202          3
   203          3
   204          3
   205          3
   206          3
   207          6
   208          5
   209         15
   210         10
   211         10
   212          5
   213         18
   214          5
   215          3
   216          3
   217          4
   218          2
   219         10
   220          6
   221          8
   222         16
   223         21
   224         11
   225         57
   226         12
   227         11
   228          5
   229          3
   231          2
   232          2
   233          6
   234          6
   235          5
   236         13
   237         23
   238         22
   239        593
   240        118
   241         16
   242          3
   243          3
   244          2
   249          3
   250          5
   251         34
   252         18
   253         48
   254         15
   255         58
   256         37
   257         62
   258         12
   259          3
   262          6
   263          5
   264          3
   265          6
   266          6
   267         11
   268          8
   269         11
   270          5
   271          4
   276          5
   277          6
   278          5
   279          8
   280        125
   281        296
   282         61
   283         16
   284          6
   285          4
   287          3
   288          3
   293         21
   294         29
   295         17
   296        118
   297        556
   298        137
   299         30
   300          5
   301          3
   307          3
   308          3
   309          5
   310          5
   311         93
   312         25
   313        343
   314         69
   315         16
   316          5
   317          4
   318          2
   321          2
   323          3
   324          3
   325         11
   326          5
   327          4
   328          2
   329          3
   331          5
   332          2
   337          3
   338          2
   339          5
   340          9
   341         38
   342         10
   343          4
   344          2
   351          5
   353        118
   354         39
   355         18
   356          5
   357          2
   359          5
   360          2
   365          3
   366          3
   367         22
   368          8
   369          3
   379          2
   380          3
   381          8
   382          5
   383          3
   384          2
   393          3
   394          2
   395         20
   396          7
   397          2
   400          2
   401          1
   407          1
   408          1
   409         48
   410         18
   411          4
   412          1
   421          1
   422          1
   423         14
   424          6
   425          3
   426          1
   437         11
   438          6
   439          2
   441          2
   442          2
   443          1
   451         13
   452          6
   453          3
   454          2
   455          3
   461          1
   462          2
   463          3
   464          3
   465         11
   466          7
   467          3
   475          1
   476          2
   477          3
   478          3
   479         11
   480          6
   481         29
   482         11
   483          4
   484          2
   492          2
   493         33
   494         15
   495          5
   496          3
   497          2
   507         16
   508          7
   509          4
   511          3
   512          1
   521         10
   522          5
   523          7
   524          4
   525          2
   526          2
   527          2
   528          2
   534          9
   535         44
   536        237
   537        381
   538        137
   539         28
   540          5
   549         10
   550         30
   551         72
   552         26
   553         16
   554          5
   555         17
   556          8
   557          2
   578          5
   579          3
   581          5
   582          3
   583          2
   596          8
   597          5
   598          2
   606          2
   607          1
   719          4
   720          3
   721          1