##TITLE=Library Entry 43794
##JCAMP-DX=Revision 4.10 
##DATA TYPE=MASS SPECTRUM
##SAMPLE DESCRIPTION=Exported from NIST MS Search
##NAMES=HP
##CAS NAME=Monocaprin, 2TMS derivative
##MOLFORM=C19H42O4Si2
##CAS REGISTRY NO=1116-64-9
##MP= -300
##BP= -300
##MW= 390
##$RETENTION INDEX=2041
##$CONDENSED SPECTRUM=NO
##NPOINTS= 173
##XYDATA=(XY..XY) 1 
    26         10
    27         60
    28         50
    29        140
    30         10
    31         10
    39         30
    40         10
    41        230
    42         60
    43        380
    44         40
    45        120
    46         10
    47         40
    53         10
    54         20
    55        220
    56         40
    57        260
    58         30
    59         90
    60         20
    61         30
    66         10
    67         40
    68         20
    69         80
    70         20
    71        260
    72         40
    73        999
    74        120
    75        430
    76         30
    77         20
    79         10
    81         60
    82         10
    83         40
    84         30
    85        170
    86         10
    87         20
    88         10
    89         30
    90         10
    91         10
    93         10
    95         60
    96         10
    97         20
    98         20
    99         10
   100         10
   101        140
   102         20
   103        170
   104         20
   105         20
   109         10
   111         10
   112         10
   113         10
   115         20
   116        120
   117        140
   118         20
   119         20
   125         10
   128         10
   129        220
   130         60
   131        110
   132         50
   133        140
   134         20
   135         20
   137         20
   141         10
   143         10
   145         80
   146         60
   147        510
   148         80
   149         80
   150         10
   151         10
   155        630
   156         70
   157         10
   159         20
   161         10
   163         10
   173         10
   174         10
   175         40
   176         10
   177         10
   183         10
   187         30
   188         20
   189         40
   190         20
   191         30
   192         10
   193         10
   201         20
   202         10
   203        140
   204         40
   205        180
   206         90
   207         60
   208         20
   209         10
   215         10
   217         20
   218         70
   219         20
   220         20
   221         70
   222         20
   223         10
   227         10
   229        100
   230         20
   231         10
   237         10
   243         10
   245         10
   249         10
   257         10
   258         10
   264         10
   265         10
   266         10
   267         10
   271         30
   272         10
   274         10
   276         10
   278         10
   279         10
   280         10
   281         20
   282         10
   286        360
   287        999
   288        220
   289         60
   290         10
   293         10
   294         20
   295         20
   296         10
   300         10
   303         40
   304         10
   305         10
   317         20
   319         10
   360         20
   361         40
   362         10
   363         10
   367         10
   368         10
   369         10
   374         30
   375         80
   376         30
   377         10