##TITLE=Library Entry 20830
##JCAMP-DX=Revision 4.10 
##DATA TYPE=MASS SPECTRUM
##SAMPLE DESCRIPTION=Chemical Concepts
##NAMES=HP
##CAS NAME=3-Thiophenecarboxylic acid, 3-aminotetrahydro-2,2-dimethyl-, (R)-
##MOLFORM=C7H13NO2S
##CAS REGISTRY NO=111622-90-3
##MP= -300
##BP= -300
##MW= 175
##$RETENTION INDEX=0
##$CONDENSED SPECTRUM=NO
##NPOINTS= 103
##XYDATA=(XY..XY) 1 
    26         13
    27         88
    28        136
    29         59
    30        118
    31          9
    34          7
    35          9
    36         28
    38         13
    39        132
    40         28
    41        286
    42        178
    43        120
    44         41
    45         94
    46         39
    47         66
    48         28
    49         11
    50         10
    51         22
    52         22
    53         53
    54        276
    55        999
    56        266
    57         97
    58         30
    59        172
    60        144
    61         69
    62         23
    63          7
    65         39
    66         12
    67         68
    68         73
    69        115
    70         73
    71         39
    72         10
    73        130
    74         62
    75        138
    76         13
    77         46
    78          7
    79         64
    80         26
    81         61
    82         47
    83        629
    84         70
    85         34
    86         14
    87         40
    88        624
    89         52
    90         36
    91          7
    93          7
    94         12
    95         21
    96         41
    97         40
    98         57
    99         34
   100        345
   101        354
   102         30
   105         49
   106         10
   109          9
   110          8
   111         15
   112         10
   113        123
   114         60
   115        107
   116         21
   117         25
   122         16
   123          8
   124          6
   125         11
   128         37
   129         18
   130        113
   131         22
   132         37
   137          6
   141          7
   142          8
   143          8
   157         18
   158         61
   159         10
   175        290
   176         40
   177         20
   178          2