##TITLE=Library Entry 31196
##JCAMP-DX=Revision 4.10 
##DATA TYPE=MASS SPECTRUM
##SAMPLE DESCRIPTION=Japan AIST/NIMC Database- Spectrum MS-NW-9262
##NAMES=HP
##CAS NAME=Methanamine, N-methoxy-
##MOLFORM=C2H7NO
##CAS REGISTRY NO=1117-97-1
##MP= -300
##BP= -300
##MW= 61
##$RETENTION INDEX=0
##$CONDENSED SPECTRUM=NO
##NPOINTS= 26
##XYDATA=(XY..XY) 1 
    14          2
    15         90
    16          3
    17          1
    18          4
    27          9
    28        306
    29         97
    30        125
    31         78
    32          6
    33         79
    41          1
    42          6
    43          2
    44          8
    45        155
    46        915
    47         13
    48          2
    58          1
    59          1
    60        247
    61        999
    62         47
    63          2