##TITLE=Library Entry 34261
##JCAMP-DX=Revision 4.10 
##DATA TYPE=MASS SPECTRUM
##SAMPLE DESCRIPTION=Chuck Anderson, Aldrich Chemical Co.
##NAMES=HP
##CAS NAME=6-Octen-1-ol, 3,7-dimethyl-, (R)-
##MOLFORM=C10H20O
##CAS REGISTRY NO=1117-61-9
##MP= -300
##BP= -300
##MW= 156
##$RETENTION INDEX=1220
##$CONDENSED SPECTRUM=NO
##NPOINTS= 78
##XYDATA=(XY..XY) 1 
    15          6
    17          1
    18          2
    19          6
    26          6
    27        134
    28         27
    29        132
    30          5
    31        130
    32          2
    35          3
    36         16
    37          2
    38         10
    39        149
    40         35
    41        852
    42         78
    43        182
    44         17
    45         30
    50          4
    51         16
    52          7
    53         89
    54         29
    55        445
    56        230
    57        106
    58          8
    59          6
    63          4
    65         26
    66         10
    67        515
    68        252
    69        999
    70        158
    71        278
    72         15
    73          1
    77         20
    78          3
    79         38
    80         28
    81        415
    82        369
    83        100
    84         23
    85         25
    86         21
    87          3
    91         12
    93         18
    94         14
    95        358
    96         66
    97         14
    98          4
    99         10
   100          2
   105          1
   107          4
   108          0
   109        134
   110         39
   111         14
   112         10
   113          3
   121          8
   123        169
   124         14
   136          0
   138         69
   139          9
   156         32
   157          2