##TITLE=Library Entry 128
##JCAMP-DX=Revision 4.10 
##DATA TYPE=MASS SPECTRUM
##SAMPLE DESCRIPTION=Exported from NIST MS Search
##NAMES=HP
##CAS NAME=Ethane, diazo-
##MOLFORM=C2H4N2
##CAS REGISTRY NO=1117-96-0
##MP= -300
##BP= -300
##MW= 56
##$RETENTION INDEX=0
##$CONDENSED SPECTRUM=NO
##NPOINTS= 29
##XYDATA=(XY..XY) 1 
     2          8
    12         34
    13         57
    14        123
    15         51
    16         17
    17         18
    24         33
    25        126
    26        750
    27        903
    28        999
    29         20
    30          7
    31          6
    37          6
    38         24
    39         81
    40         29
    41        190
    42         18
    43         26
    44          3
    45          3
    53         17
    54          9
    55         39
    56        575
    57         29