##TITLE=Library Entry 18929
##JCAMP-DX=Revision 4.10 
##DATA TYPE=MASS SPECTRUM
##SAMPLE DESCRIPTION=Exported from NIST MS Search
##NAMES=HP
##CAS NAME=3-Octenoic acid, ethyl ester
##MOLFORM=C10H18O2
##CAS REGISTRY NO=1117-65-3
##MP= -300
##BP= -300
##MW= 170
##$RETENTION INDEX=1203
##$CONDENSED SPECTRUM=NO
##NPOINTS= 69
##XYDATA=(XY..XY) 1 
    14         12
    15          9
    17          7
    18         18
    26         12
    27        175
    29        639
    30         20
    31         14
    39        137
    40         18
    41        305
    42         58
    43        198
    44         18
    45         34
    51          9
    52         11
    53         83
    54        188
    55        999
    56        113
    57         70
    58         11
    60         42
    61         50
    65         15
    66         12
    67        105
    68         36
    69         96
    70         98
    71         40
    73         42
    77          8
    79         17
    80         11
    81        132
    82        270
    83        100
    84         16
    85         35
    86          9
    87         15
    88        241
    89         17
    95         64
    96        323
    97        194
    98         18
    99         51
   100         16
   101         55
   102         12
   106          6
   109          7
   110          5
   111         11
   113         23
   114          6
   115         15
   124        223
   125         76
   127         23
   128         32
   141         26
   142         13
   155          6
   170        131