##TITLE=Library Entry 981
##JCAMP-DX=Revision 4.10 
##DATA TYPE=MASS SPECTRUM
##SAMPLE DESCRIPTION=Exported from NIST MS Search
##NAMES=HP
##CAS NAME=Methyl acetylglycinate
##MOLFORM=C5H9NO3
##CAS REGISTRY NO=1117-77-7
##MP= -300
##BP= -300
##MW= 131
##$RETENTION INDEX=1138
##$CONDENSED SPECTRUM=NO
##NPOINTS= 59
##XYDATA=(XY..XY) 1 
    12          3
    13          4
    14         28
    15        208
    16          6
    17          7
    18         28
    19          1
    25          1
    26          5
    27         15
    28        138
    29         48
    30        999
    31         20
    32          5
    33         14
    38          2
    39          3
    40          8
    41         12
    42         63
    43        492
    44         23
    45         14
    46          2
    50          1
    51          1
    52          2
    53          1
    54          3
    55          6
    56         42
    57         11
    58          2
    59         23
    60          3
    61          1
    69          1
    70          1
    71          4
    72        354
    73         15
    74          6
    75          1
    88         28
    89         35
    90          2
    91          1
    99         80
   100         35
   101          2
   102          1
   103          1
   113          1
   116          1
   131         52
   132          4
   133          1