##TITLE=Library Entry 8851
##JCAMP-DX=Revision 4.10 
##DATA TYPE=MASS SPECTRUM
##SAMPLE DESCRIPTION=NIST Mass Spectrometry Data Center
##NAMES=HP
##CAS NAME=1,3-Butanediol, diacetate
##MOLFORM=C8H14O4
##CAS REGISTRY NO=1117-31-3
##MP= -300
##BP= -300
##MW= 174
##$RETENTION INDEX=1124
##$CONDENSED SPECTRUM=NO
##NPOINTS= 51
##XYDATA=(XY..XY) 1 
    14          1
    15         25
    26          3
    27         22
    29         24
    30          1
    31          6
    38          1
    39         26
    40          4
    41         30
    42         59
    43        999
    44         30
    45         21
    51          1
    53          6
    54         53
    55        106
    56          6
    57         46
    58          4
    59          1
    60          2
    61         84
    62          1
    69          1
    70         34
    71        122
    72         88
    73         21
    74          1
    75          1
    85          1
    86         10
    87         76
    88         59
    89         12
    99         85
   100          4
   101          1
   103         17
   113          1
   114         36
   115         12
   117         26
   118          1
   130          7
   131          6
   132          2
   159          1