##TITLE=Library Entry 23513
##JCAMP-DX=Revision 4.10 
##DATA TYPE=MASS SPECTRUM
##SAMPLE DESCRIPTION=Chemical Concepts
##NAMES=HP
##CAS NAME=2-Oxepanol, 5-(1,1-dimethylethyl)-
##MOLFORM=C10H20O2
##CAS REGISTRY NO=111711-01-4
##MP= -300
##BP= -300
##MW= 172
##$RETENTION INDEX=0
##$CONDENSED SPECTRUM=NO
##NPOINTS= 70
##XYDATA=(XY..XY) 1 
    27         45
    28         16
    29        127
    31         37
    39         56
    40         10
    41        357
    42         39
    43        102
    44         22
    45         11
    47          3
    51          5
    53         29
    54         35
    55        226
    56        193
    57        999
    58         45
    59          5
    65          6
    66          4
    67         67
    68         37
    69        169
    70        129
    71         57
    72         13
    73         20
    74         12
    77          8
    79         39
    80         27
    81         46
    82          9
    83        109
    84         24
    85         39
    86          8
    87          5
    88        105
    89          5
    91          4
    93         23
    94          3
    95         61
    96          7
    97         71
    98        133
    99         38
   100         47
   101          5
   105          3
   109         21
   110         11
   111         23
   112          3
   113         32
   114          5
   115         34
   116         66
   117         19
   121         20
   128         11
   129         25
   130          3
   139         11
   154          3
   155          3
   173          1