##TITLE=Library Entry 21087
##JCAMP-DX=Revision 4.10 
##DATA TYPE=MASS SPECTRUM
##SAMPLE DESCRIPTION=Japan AIST/NIMC Database- Spectrum MS-IW-6303
##NAMES=HP
##CAS NAME=1,2-Octanediol
##MOLFORM=C8H18O2
##CAS REGISTRY NO=1117-86-8
##MP= -300
##BP= -300
##MW= 146
##$RETENTION INDEX=1204
##$CONDENSED SPECTRUM=NO
##NPOINTS= 92
##XYDATA=(XY..XY) 1 
    15         15
    17          8
    18         31
    19          2
    26          3
    27         76
    28         26
    29        129
    30          6
    31         69
    32          4
    33          4
    38          1
    39         52
    40          9
    41        232
    42         56
    43        408
    44         72
    45         36
    46          1
    47          3
    50          1
    51          3
    52          1
    53         16
    54         18
    55        999
    56        101
    57        119
    58         29
    59         25
    60         24
    61        147
    62          4
    63          1
    65          3
    66          4
    67         41
    68         37
    69        252
    70         40
    71         36
    72         11
    73         12
    74          3
    75          8
    76          2
    77          5
    79          5
    80          1
    81         44
    82         21
    83         10
    84         26
    85         23
    86          6
    87         11
    88          4
    89         22
    90          2
    91          4
    93          1
    95         15
    96         18
    97        894
    98         69
    99          7
   100          6
   101          6
   103          2
   105          1
   109          6
   110         11
   111         12
   112          2
   113         18
   114         27
   115        375
   116         30
   117         85
   118          8
   119          4
   127          1
   128          2
   129          9
   130          1
   131          2
   144          1
   145          9
   146          1
   147          1