##TITLE=Library Entry 11959
##JCAMP-DX=Revision 4.10 
##DATA TYPE=MASS SPECTRUM
##SAMPLE DESCRIPTION=Japan AIST/NIMC Database- Spectrum MS-NW-4038
##NAMES=HP
##CAS NAME=Propanedioic acid, dipropyl ester
##MOLFORM=C9H16O4
##CAS REGISTRY NO=1117-19-7
##MP= -300
##BP= -300
##MW= 188
##$RETENTION INDEX=1220
##$CONDENSED SPECTRUM=NO
##NPOINTS= 63
##XYDATA=(XY..XY) 1 
    14          6
    15         18
    17          1
    18          3
    26         10
    27        171
    28         23
    29         45
    30          5
    31         56
    32          4
    37          2
    38          4
    39         56
    40         10
    41        206
    42        148
    43        999
    44         32
    45          4
    55          3
    56          2
    57         44
    58          7
    59         56
    60         93
    61         77
    62          2
    69         35
    70          2
    71          2
    72          8
    73          1
    74          1
    85          2
    86          2
    87        320
    88         11
    89          4
    98          1
    99          2
   100          9
   101          6
   102         23
   103          3
   104         10
   105        590
   106         23
   107          6
   111          9
   113          2
   116          3
   117          4
   118          6
   127          1
   129        619
   130         44
   131          7
   143          1
   146          3
   147         54
   148          4
   159          5