##TITLE=Library Entry 9773
##JCAMP-DX=Revision 4.10 
##DATA TYPE=MASS SPECTRUM
##SAMPLE DESCRIPTION=V.G.Zaikin, TIPS RAS, Moscow, Russia
##NAMES=HP
##CAS NAME=Octanoic acid, hexyl ester
##MOLFORM=C14H28O2
##CAS REGISTRY NO=1117-55-1
##MP= -300
##BP= -300
##MW= 228
##$RETENTION INDEX=1581
##$CONDENSED SPECTRUM=NO
##NPOINTS= 84
##XYDATA=(XY..XY) 1 
    25          5
    26         47
    27        261
    28         96
    29        365
    30         19
    31         14
    37          8
    38         16
    39        179
    40         52
    41        661
    42        329
    43        999
    44         41
    45         38
    50          8
    51         18
    52          5
    53         45
    54         49
    55        572
    56        606
    57        668
    58         41
    59         24
    60        215
    61        313
    62          9
    65          3
    66          2
    67         58
    68         26
    69        271
    70         65
    71         35
    73        196
    74         27
    75          9
    77          4
    78          4
    79         12
    80          4
    81         17
    82         42
    83        123
    84        887
    85        195
    86         17
    87         79
    88          8
    89         61
    91          4
    93          2
    95          2
    96          4
    97         49
    98         58
    99         15
   100          7
   101        118
   102          6
   103         29
   109         27
   111          9
   115         44
   116         11
   124          6
   125         18
   126          8
   127        482
   128         53
   129         39
   142          2
   143          8
   144         99
   145        803
   146         74
   147          8
   157         15
   171          5
   185          8
   228          9
   229          2