##TITLE=Library Entry 71769
##JCAMP-DX=Revision 4.10 
##DATA TYPE=MASS SPECTRUM
##SAMPLE DESCRIPTION=RADIAN CORP
##NAMES=HP
##CAS NAME=2-Butenoic acid, 4-bromo-, methyl ester
##MOLFORM=C5H7BrO2
##CAS REGISTRY NO=1117-71-1
##MP= -300
##BP= -300
##MW= 178
##$RETENTION INDEX=0
##$CONDENSED SPECTRUM=NO
##NPOINTS= 95
##XYDATA=(XY..XY) 1 
    14          4
    15         55
    16          2
    25          3
    26         10
    27         22
    29         65
    30         15
    31         11
    36          4
    37         50
    38        116
    39        469
    40        114
    41        162
    42         39
    43         27
    44          4
    45         21
    49          4
    50          5
    51          6
    52          3
    53         24
    55         20
    56         20
    57          5
    59        146
    60          4
    65          2
    66         10
    67         16
    68        458
    69         36
    70          3
    71        121
    72          6
    75          8
    77          9
    78          5
    79         59
    80         11
    81         42
    82         10
    83          7
    85         19
    91          3
    92          3
    93         35
    94          5
    95         34
    96          2
    97          1
    98          4
    99        999
   100         57
   101          7
   102          6
   103         16
   104          3
   105          8
   106          8
   107         14
   108          1
   109          4
   111          3
   117          5
   118          3
   119        171
   120          9
   121        167
   122          7
   134          8
   135         10
   136          2
   137         10
   138          9
   139          5
   146        135
   147        386
   148        149
   149        383
   150         18
   151          2
   152          3
   154          2
   163          1
   165          2
   166          2
   167          3
   178        309
   179         18
   180        304
   181         18
   182          1