##TITLE=Library Entry 67895
##JCAMP-DX=Revision 4.10 
##DATA TYPE=MASS SPECTRUM
##SAMPLE DESCRIPTION=Insect Chem. Ecol. Lab., USDA, Beltsville, MD 20705
##NAMES=HP
##CAS NAME=Cyclohexanecarboxylic acid, 4-chloro-trans-2-methyl-, 1-methylpro
pyl ester
##MOLFORM=C12H21ClO2
##CAS REGISTRY NO=111790-62-6
##MP= -300
##BP= -300
##MW= 232
##$RETENTION INDEX=0
##$CONDENSED SPECTRUM=NO
##NPOINTS= 172
##XYDATA=(XY..XY) 1 
    41        496
    42         40
    43        107
    44         13
    45         37
    46          1
    47          3
    48          0
    49          6
    50          4
    51         21
    52         11
    53        122
    54         56
    55        324
    56        637
    57        768
    58         42
    59          5
    60          3
    61          4
    62          5
    63         15
    64          2
    65         34
    66         15
    67        213
    68         88
    69         43
    70          7
    71         10
    72          5
    73        160
    74         26
    75         27
    76          4
    77         59
    78         12
    79         91
    80        147
    81        141
    82         17
    83         11
    84          6
    85          8
    86          8
    87         15
    88          4
    89         26
    90          3
    91         30
    92          4
    93         77
    94        192
    95        999
    96        108
    97         21
    98          8
    99         11
   100          6
   101          4
   102          2
   103          2
   104          3
   105          3
   106          2
   107          4
   108          1
   109          6
   110          3
   111         37
   112          7
   113          5
   114          2
   115          3
   116          4
   117          1
   118          1
   119          2
   120          2
   121          4
   122         91
   123        105
   124          9
   125         14
   126          3
   127          2
   128          1
   129          6
   130          7
   131         40
   132          5
   133         13
   134          2
   135          2
   136          1
   137          4
   138          5
   139         19
   140        484
   141        283
   142         26
   143          4
   144          0
   145          2
   146          0
   147          3
   148          0
   149          3
   150          0
   151          1
   152          5
   153          2
   154          1
   155          3
   156          3
   157          4
   158          5
   159        466
   160         42
   161        176
   162         14
   163          6
   164          0
   165          0
   166          0
   167          1
   168          0
   169          2
   170          0
   171          0
   172          0
   173          1
   174          2
   175          8
   176         98
   177        439
   178         60
   179        155
   180         13
   181          1
   182          0
   183          0
   184          0
   185          0
   187          0
   188          3
   189          1
   190          1
   191          0
   195          1
   196          7
   197         10
   198          1
   199          0
   201          0
   202          2
   203         30
   204          4
   205         10
   206          1
   215          0
   216          0
   217          5
   218          0
   219          1
   220          0
   230          0
   231          2
   232         16
   233          2
   234          5