##TITLE=Library Entry 86435
##JCAMP-DX=Revision 4.10 
##DATA TYPE=MASS SPECTRUM
##SAMPLE DESCRIPTION=L. Cohen, LC, NIDDK, NIH, Bethesda, MD 20892
##NAMES=HP
##CAS NAME=Imidazole, 2-[1,1-dimethoxy-2,2,2-trifluoroethyl-]
##MOLFORM=C7H9F3N2O2
##CAS REGISTRY NO=111838-35-8
##MP= -300
##BP= -300
##MW= 210
##$RETENTION INDEX=0
##$CONDENSED SPECTRUM=NO
##NPOINTS= 134
##XYDATA=(XY..XY) 1 
    41         75
    42        105
    43         21
    44         12
    45         21
    46          4
    47          6
    49          4
    50          9
    51         15
    52         43
    53         22
    54        139
    55         40
    56         35
    57          8
    58          8
    59         91
    60          5
    61          1
    62          1
    63          6
    64          3
    65         24
    66         21
    67         86
    68        204
    69        224
    70         14
    71          7
    72          3
    73          0
    74          7
    75         27
    76         10
    77          5
    78          8
    79         15
    80         15
    81        212
    82        138
    83         15
    84          3
    85          2
    86          1
    88          2
    89          7
    90         13
    91          5
    92          0
    93         17
    94         27
    95        382
    96         36
    97         20
    98          6
    99          7
   100          6
   101         22
   102          8
   103          8
   104          6
   105          0
   106          2
   107         10
   108         24
   109        999
   110         96
   111         17
   112          4
   113          1
   115          3
   116          1
   117          8
   118          2
   119          0
   120          5
   121         11
   122          3
   123          3
   124          6
   125          7
   126          3
   127          2
   128         41
   129         66
   130         28
   131         47
   132          4
   134          0
   135          0
   136          2
   137          1
   138          2
   139          6
   140          2
   141        809
   142         70
   143         50
   144          2
   145         14
   146          1
   148         10
   149          6
   150         10
   151          3
   152          2
   155          1
   156          0
   157          2
   158          0
   159          5
   160          0
   161          0
   163          4
   164          3
   165        326
   166         22
   167          3
   171         29
   172          2
   177         25
   178          7
   179        228
   180        164
   181         12
   182          1
   186          0
   191          1
   193          1
   194          0
   210         82
   211         35
   212          3