##TITLE=Library Entry 70048
##JCAMP-DX=Revision 4.10 
##DATA TYPE=MASS SPECTRUM
##SAMPLE DESCRIPTION=K.J. SHAW, CSIRO DIV. FOOD RES., NORTH RYDE, N.S.W., AU
ST.
##NAMES=HP
##CAS NAME=Deoxynivalenol tris(trifluoroacetate)
##MOLFORM=C21H17F9O9
##CAS REGISTRY NO=111872-94-7
##MP= -300
##BP= -300
##MW= 584
##$RETENTION INDEX=0
##$CONDENSED SPECTRUM=NO
##NPOINTS= 73
##XYDATA=(XY..XY) 1 
    39        110
    40        180
    41        350
    43        380
    44        160
    53        110
    55        100
    65         70
    67        120
    69        610
    77        280
    78         80
    79        330
    80        160
    81        110
    83         60
    91        270
    92         70
    95        240
    97        999
    98        570
    99         80
   105        190
   107        260
   108        130
   109         80
   115        120
   117        480
   118         50
   119         60
   123         60
   125         50
   127         50
   129         40
   131         40
   133        100
   135         70
   145        290
   146         40
   147         40
   153         90
   159         40
   163         50
   185         30
   187         30
   191         30
   192         40
   193         20
   194        360
   195         30
   201         70
   203         20
   204         30
   205         80
   217         20
   221         70
   229         80
   231        220
   232         40
   233        120
   247         30
   259        190
   260         30
   277         20
   343         30
   347         50
   357         20
   373         40
   451         10
   470         20
   584        300
   585         80
   586         10