##TITLE=Library Entry 34801
##JCAMP-DX=Revision 4.10 
##DATA TYPE=MASS SPECTRUM
##SAMPLE DESCRIPTION=K.J. SHAW, CSIRO DIV. FOOD RES., NORTH RYDE, N.S.W., AU
ST.
##NAMES=HP
##CAS NAME=t-2 Tetraol tetrakis(trifluoroacetate)
##MOLFORM=C23H18F12O10
##CAS REGISTRY NO=111858-38-9
##MP= -300
##BP= -300
##MW= 682
##$RETENTION INDEX=0
##$CONDENSED SPECTRUM=NO
##NPOINTS= 88
##XYDATA=(XY..XY) 1 
    39        120
    41        270
    43        840
    44        270
    53        280
    55        150
    59         80
    65        110
    67        170
    69        999
    77        250
    78         60
    79        280
    81         80
    82         70
    91        330
    92         70
    93        120
    94        140
    95        430
    96         80
    97        130
    99        100
   103        120
   104        210
   105        470
   106         60
   107        120
   109         50
   115         80
   117        170
   119         80
   120         70
   121        160
   123         90
   124         40
   125         50
   128         60
   129         80
   131         60
   133         70
   139         40
   141         50
   142         50
   143        110
   145        140
   147         70
   153         80
   155         60
   157         60
   159         70
   167        110
   169         60
   171         60
   173         80
   181         40
   185         50
   192         50
   199         60
   207         50
   216        500
   217        670
   218        180
   219         30
   220         70
   221         50
   230         40
   231         60
   233         60
   259         40
   285         30
   297         30
   315         30
   327        100
   330        330
   331         50
   428         70
   441         30
   455        160
   456         30
   540         20
   542         10
   568        330
   569        230
   570         60
   571         10
   682         20
   683         10