##TITLE=Library Entry 74417
##JCAMP-DX=Revision 4.10 
##DATA TYPE=MASS SPECTRUM
##SAMPLE DESCRIPTION=R.T.HOLMAN,UNIVERSITY OF MINNESOTA
##NAMES=HP
##CAS NAME=Hexadecanoic acid, 3,7,11,15-tetramethyl-, methyl ester
##MOLFORM=C21H42O2
##CAS REGISTRY NO=1118-77-0
##MP= -300
##BP= -300
##MW= 326
##$RETENTION INDEX=0
##$CONDENSED SPECTRUM=NO
##NPOINTS= 210
##XYDATA=(XY..XY) 1 
    26          3
    27         56
    28         23
    29        150
    30          4
    31          6
    32          2
    33          2
    36          1
    37          1
    38          1
    39         42
    40         10
    41        338
    42         86
    43        569
    44         20
    45         11
    50          1
    51          2
    52          2
    53         23
    54         13
    55        387
    56        123
    57        430
    58         24
    59        102
    60          7
    61          2
    62          1
    63          1
    64          1
    65          4
    66          2
    67         33
    68         24
    69        284
    70         54
    71        220
    72         13
    73         50
    74        725
    75        258
    76         11
    77          5
    78          1
    79          7
    80          3
    81         39
    82         15
    83        123
    84         21
    85         86
    86          8
    87         48
    88          5
    89          2
    91          4
    92          1
    93          6
    94          5
    95         36
    96         22
    97        134
    98         34
    99         24
   100          4
   101        999
   102         72
   103          6
   104          1
   105          2
   106          1
   107          5
   108          2
   109         20
   110         11
   111         94
   112         29
   113         19
   114          4
   115         26
   116          3
   117          1
   118          1
   119          1
   120          1
   121         10
   122          3
   123         13
   124          5
   125         26
   126         16
   127         13
   128          3
   129         21
   130          6
   131          1
   133          1
   135          6
   136          3
   137          7
   138          4
   139         41
   140         13
   141          8
   142          1
   143         59
   144         10
   145          3
   147          1
   148          1
   149         11
   150          4
   151          6
   152          5
   153         12
   154          2
   155          4
   156          1
   157          4
   158          1
   163          4
   164          2
   165          4
   166          3
   167         16
   168          2
   169          3
   170          1
   171         91
   172         10
   173          1
   177          1
   179          2
   180          1
   181          5
   182          5
   183          3
   184          1
   185          4
   186          1
   191          8
   192          1
   193          1
   194          4
   195          2
   196          6
   197          3
   199          4
   200          1
   205          1
   207          1
   208          1
   209         11
   210          2
   211          1
   213         13
   214          3
   215          3
   216          1
   219          1
   221          1
   222          1
   223          1
   224          1
   226          1
   227          2
   237          1
   238          1
   239          1
   241          9
   242          1
   243          1
   250          6
   251          2
   252         11
   253          3
   254          1
   255          2
   256          1
   261          2
   262          1
   269          4
   270          2
   271          2
   275          1
   276          8
   277          5
   278          1
   279          3
   280          1
   283          8
   284          2
   285          1
   293          1
   294          1
   295          6
   296          1
   297          4
   298          1
   308          1
   311         15
   312          3
   313          1
   325          2
   326         50
   327         11
   328          1