##TITLE=Library Entry 77544
##JCAMP-DX=Revision 4.10 
##DATA TYPE=MASS SPECTRUM
##SAMPLE DESCRIPTION=Chemical Concepts
##NAMES=HP
##CAS NAME=Tricyclo[8.2.2.2(4,7)]hexadeca-4,6,10,12,13,15-hexaene, 5-ethynyl
-
##MOLFORM=C18H16
##CAS REGISTRY NO=111870-61-2
##MP= -300
##BP= -300
##MW= 232
##$RETENTION INDEX=0
##$CONDENSED SPECTRUM=NO
##NPOINTS= 124
##XYDATA=(XY..XY) 1 
    26          2
    27         17
    37          1
    38          6
    39         51
    40         19
    41          5
    50         29
    51         56
    52         28
    53         10
    57          1
    61          3
    62         18
    63         64
    64         10
    65         27
    66          2
    73          1
    74         18
    75         29
    76         39
    77         78
    78        176
    79         12
    85          1
    86          7
    87         16
    88         11
    89         30
    90          3
    91         11
    92          1
    94          1
    95          1
    98          5
    99          4
   100          5
   101         24
   102        121
   103        124
   104        999
   105         77
   106          4
   107          2
   108          2
   110          2
   111          1
   112          1
   113         11
   114          6
   115         33
   116         17
   117          5
   119          2
   121          1
   125          2
   126         30
   127        116
   128        695
   129        113
   130         11
   131          2
   137          1
   138          1
   139         11
   140          2
   141         30
   142          5
   149          1
   150          5
   151          6
   152         10
   153          3
   154          6
   161          3
   162          1
   163          6
   164          3
   165          6
   166          2
   167          1
   174          2
   175          1
   176          6
   177          2
   178          6
   179          3
   187          3
   188          3
   189         13
   190          4
   191         10
   192          3
   193          1
   199          1
   200          5
   201          4
   202         31
   203         31
   204         34
   205         14
   206          4
   207          1
   213          8
   214          3
   215         26
   216         18
   217        125
   218         21
   219          3
   224          3
   225          1
   226         11
   227          9
   228         10
   229          9
   230          3
   231         80
   232        458
   233         79
   234         11
   235          2
   236          1