##TITLE=Library Entry 27812
##JCAMP-DX=Revision 4.10 
##DATA TYPE=MASS SPECTRUM
##SAMPLE DESCRIPTION=Japan AIST/NIMC Database- Spectrum MS-NW-7341
##NAMES=HP
##CAS NAME=N,N-Dimethylglycine
##MOLFORM=C4H9NO2
##CAS REGISTRY NO=1118-68-9
##MP= -300
##BP= -300
##MW= 103
##$RETENTION INDEX=0
##$CONDENSED SPECTRUM=NO
##NPOINTS= 42
##XYDATA=(XY..XY) 1 
    13          1
    14          6
    15         37
    16          1
    17          7
    18          1
    26          3
    27         12
    28         31
    29         23
    30         81
    31         10
    32          1
    38          2
    39          5
    40         20
    41         35
    42        219
    43         49
    44        175
    45         16
    46          1
    51          1
    52          2
    54          3
    55          2
    56         20
    57         45
    58        999
    59         43
    60          4
    69          1
    73          1
    74         15
    75          1
    84          1
    86          3
   101          2
   102          4
   103        105
   104          6
   105          1