##TITLE=Library Entry 45828
##JCAMP-DX=Revision 4.10 
##DATA TYPE=MASS SPECTRUM
##SAMPLE DESCRIPTION=J.M. Halket, Trace Anal. Unit (TAU), London, UK
##NAMES=HP
##CAS NAME=3-Methylbutanoic acid, TBDMS derivative
##MOLFORM=C11H24O2Si
##CAS REGISTRY NO=111864-22-3
##MP= -300
##BP= -300
##MW= 216
##$RETENTION INDEX=1150
##$CONDENSED SPECTRUM=NO
##NPOINTS= 69
##XYDATA=(XY..XY) 1 
    37          2
    39        114
    41        249
    42         46
    43        129
    44         14
    45        114
    46          9
    47         91
    48          5
    49          4
    50          2
    51          3
    52          2
    53         10
    55         25
    56         18
    57        124
    58         39
    59         52
    60         17
    61         27
    62          2
    63          1
    66          1
    67          2
    68          2
    69         11
    70          2
    71          3
    72         23
    73        138
    75        999
    76         72
    77         38
    78          1
    83         20
    84          2
    85         22
    86          3
    87          3
    88          5
    89          1
    97          1
    99          8
   100          2
   101         16
   102          3
   103          2
   113          1
   115         27
   116         17
   117         16
   118          2
   129          5
   133          2
   141          1
   143          5
   144          1
   145          1
   147          1
   155          1
   159        515
   160         67
   161         23
   162          2
   185          1
   201          8
   202          1