##TITLE=Library Entry 45743
##JCAMP-DX=Revision 4.10 
##DATA TYPE=MASS SPECTRUM
##SAMPLE DESCRIPTION=J.M. Halket, Trace Anal. Unit (TAU), London, UK
##NAMES=HP
##CAS NAME=2-Methylpropanoic acid, TBDMS derivative
##MOLFORM=C10H22O2Si
##CAS REGISTRY NO=111864-21-2
##MP= -300
##BP= -300
##MW= 202
##$RETENTION INDEX=1056
##$CONDENSED SPECTRUM=NO
##NPOINTS= 61
##XYDATA=(XY..XY) 1 
    37          3
    39        150
    40          3
    41        331
    42         48
    43        311
    44         23
    45        166
    46         13
    47        119
    48          6
    49          5
    50          2
    51          3
    53         10
    54          3
    55         27
    56         25
    57         84
    58         54
    59         63
    60         25
    61         34
    62          3
    63          1
    66          1
    67          3
    69          8
    70          5
    71         35
    73        212
    75        999
    76         72
    77         43
    78          2
    83          2
    85         10
    86          2
    87          3
    89          1
    97          1
    99          7
   100          2
   101          6
   102          2
   103          2
   113          1
   115         50
   116          6
   117          3
   129          9
   130          4
   131          2
   145        624
   146         73
   147         25
   148          2
   159          1
   171          1
   187          9
   188          1