##TITLE=Library Entry 62501
##JCAMP-DX=Revision 4.10 
##DATA TYPE=MASS SPECTRUM
##SAMPLE DESCRIPTION=B. Derendyaev, Novosibirsk Institute of Organic Chemist
ry
##NAMES=HP
##CAS NAME=1,2,5-Trimethyl-5-[(2'-thia-3'-phenyl)-n-propyl]-piperid-4-one
##MOLFORM=C16H23NOS
##CAS REGISTRY NO=111860-99-2
##MP= -300
##BP= -300
##MW= 277
##$RETENTION INDEX=0
##$CONDENSED SPECTRUM=NO
##NPOINTS= 37
##XYDATA=(XY..XY) 1 
    39         46
    41         76
    42        129
    43         70
    44        106
    45        135
    51         46
    54         40
    55        195
    56         94
    57        106
    58        100
    65        106
    67         46
    69         52
    70        285
    71        106
    72         76
    77         52
    91        999
    92        159
   105        112
   121         34
   122         58
   123        147
   124        106
   138         46
   140        129
   149         64
   154        832
   155        106
   186        159
   214        225
   215         40
   229         58
   231         34
   277         29