##TITLE=Library Entry 51058
##JCAMP-DX=Revision 4.10 
##DATA TYPE=MASS SPECTRUM
##SAMPLE DESCRIPTION=Japan AIST/NIMC Database- Spectrum MS-NW-9885
##NAMES=HP
##CAS NAME=3-Aminocrotononitrile
##MOLFORM=C4H6N2
##CAS REGISTRY NO=1118-61-2
##MP= -300
##BP= -300
##MW= 82
##$RETENTION INDEX=0
##$CONDENSED SPECTRUM=NO
##NPOINTS= 53
##XYDATA=(XY..XY) 1 
    12          2
    13          3
    14          9
    15         88
    16          5
    24          2
    25          6
    26         26
    27         43
    28        174
    29         17
    30         16
    31          2
    32          1
    33          1
    36          4
    37         36
    38         72
    39        107
    40        256
    41        466
    42        890
    43         57
    44         29
    45          1
    49          1
    50          8
    51         35
    52         67
    53         36
    54        120
    55         29
    56          2
    58          4
    59          2
    60          3
    62          5
    63         12
    64         31
    65         20
    66         86
    67        804
    68         32
    69          1
    76          2
    77          9
    78          1
    79          7
    80          1
    81         27
    82        999
    83        116
    84          5