##TITLE=Library Entry 20514
##JCAMP-DX=Revision 4.10 
##DATA TYPE=MASS SPECTRUM
##SAMPLE DESCRIPTION=LAC, NIDDK, NIH, Bethesda, MD 20892
##NAMES=HP
##CAS NAME=Dedihydroxypseduosarsasapogenin, 3,27-diiodo-
##MOLFORM=C27H44I2O
##CAS REGISTRY NO=111824-22-7
##MP= -300
##BP= -300
##MW= 638
##$RETENTION INDEX=0
##$CONDENSED SPECTRUM=NO
##NPOINTS= 169
##XYDATA=(XY..XY) 1 
    41        561
    43        563
    44         13
    45         14
    51          8
    53        116
    55        999
    57        199
    58          5
    59         13
    63          8
    65         48
    67        599
    68        101
    69        447
    71         95
    77        136
    79        481
    81        819
    83        370
    84         18
    85         11
    86         12
    91        356
    93        560
    95        470
    96         32
    97         50
    99        183
   100         39
   101          4
   102          3
   103         17
   105        279
   107        387
   108         77
   109        342
   111         57
   113         11
   114         19
   115         45
   117         66
   119        117
   120         20
   121        299
   122        107
   123        108
   124         11
   125          7
   127         80
   128         58
   129         33
   131         61
   133        118
   135        220
   136         32
   137         34
   139         42
   141         11
   142         12
   143         14
   145         77
   147        170
   149        186
   150         28
   151         24
   153          8
   155         15
   157         39
   159         68
   161        214
   163        138
   164         25
   165          9
   167          6
   169         39
   171         36
   173         92
   175        102
   176         18
   177         38
   181          6
   183         10
   185         21
   187         35
   188          3
   189         38
   190          3
   191          7
   192          4
   193          3
   195         17
   197         32
   199         16
   201         39
   202          5
   203         50
   204          8
   209          6
   213         17
   215         47
   216         13
   217         39
   218          7
   221          7
   225         35
   227         14
   229         19
   230          9
   231         29
   232          4
   237         26
   241         13
   243         12
   253          7
   255        149
   257        190
   258         25
   261         10
   269         11
   271          9
   273         36
   275         16
   277         12
   279         11
   283          6
   285        200
   286         43
   287          9
   291         16
   293          3
   307          9
   313         32
   315         27
   329          9
   331          3
   333         10
   335          7
   343         11
   347         18
   349          8
   357          8
   361         15
   369          3
   375          4
   383        277
   384         46
   385         17
   397         17
   401         12
   411         10
   412          7
   415          3
   419         19
   420          3
   421          6
   423          7
   429          8
   441         77
   442         13
   467          9
   469          3
   493         81
   494         21
   495          3
   496          4
   511        519
   512        129
   513          8