##TITLE=Library Entry 32313
##JCAMP-DX=Revision 4.10 
##DATA TYPE=MASS SPECTRUM
##SAMPLE DESCRIPTION=Exported from NIST MS Search
##NAMES=HP
##CAS NAME=1,3-Pentadiene, 2-methyl-
##MOLFORM=C6H10
##CAS REGISTRY NO=1118-58-7
##MP= -300
##BP= -300
##MW= 82
##$RETENTION INDEX=624
##$CONDENSED SPECTRUM=NO
##NPOINTS= 55
##XYDATA=(XY..XY) 1 
    12          8
    13         10
    14         45
    15        114
    16         10
    24          1
    25          7
    26         64
    27        264
    28         85
    29         44
    30          1
    31          6
    32         13
    36          5
    37         51
    38        101
    39        610
    40        130
    41        546
    42        114
    43         25
    48          2
    49         15
    50         78
    51        104
    52          5
    53        169
    54        170
    55         57
    56         22
    57          1
    60          3
    61         14
    62         24
    63         40
    64          7
    65        110
    66         45
    67        999
    68         55
    69          2
    72          1
    73          4
    74         10
    75          3
    76          1
    77         30
    78          7
    79         65
    80         13
    81        121
    82        472
    83         31
    84          1