##TITLE=Library Entry 60258
##JCAMP-DX=Revision 4.10 
##DATA TYPE=MASS SPECTRUM
##SAMPLE DESCRIPTION=Chemical Concepts
##NAMES=HP
##CAS NAME=2-Benzyl-2-methyl-3-oxopropionic acid, ethyl ester
##MOLFORM=C13H16O3
##CAS REGISTRY NO=111832-98-5
##MP= -300
##BP= -300
##MW= 220
##$RETENTION INDEX=0
##$CONDENSED SPECTRUM=NO
##NPOINTS= 104
##XYDATA=(XY..XY) 1 
    26          8
    27         56
    28         12
    29        130
    30          3
    31          7
    38          5
    39         80
    40          8
    41         85
    42          4
    43         65
    44          6
    45         13
    47          3
    50         19
    51         62
    52         17
    53          9
    55         18
    56          4
    57         21
    58          8
    59          4
    62          6
    63         34
    64          8
    65        126
    66          9
    67          2
    69         17
    71          3
    73          5
    74          6
    75         17
    76         10
    77         70
    78        463
    79         63
    80          3
    83          9
    85          7
    86          3
    87         13
    88          2
    89         29
    90         11
    91        999
    92        132
    93         11
   101         15
   102         10
   103         29
   104         11
   105         44
   106          8
   107         37
   108          5
   113          3
   114          3
   115         90
   116         35
   117        139
   118        115
   119         35
   120          3
   121         31
   122          3
   127          4
   128         12
   129         54
   130          9
   131         24
   132          4
   133          6
   134          3
   135         15
   136          3
   141          3
   143          4
   144          4
   145        199
   146        115
   147         99
   148         14
   149         12
   157          5
   159          6
   161          4
   163         10
   164          3
   173          8
   174         37
   175         36
   176          5
   177          2
   190          3
   191         72
   192        125
   193         17
   202         59
   203          9
   220         22
   221          3