##TITLE=Library Entry 33437
##JCAMP-DX=Revision 4.10 
##DATA TYPE=MASS SPECTRUM
##SAMPLE DESCRIPTION=J. Klune, Insect Chem. Ecol. Lab., USDA, Beltsville, MD
 20705
##NAMES=HP
##CAS NAME=E-11,13-Tetradecadienal
##MOLFORM=C14H24O
##CAS REGISTRY NO=111876-44-9
##MP= -300
##BP= -300
##MW= 208
##$RETENTION INDEX=0
##$CONDENSED SPECTRUM=NO
##NPOINTS= 136
##XYDATA=(XY..XY) 1 
    41        403
    42         50
    43        178
    44         66
    45         17
    47          0
    50          3
    51         11
    52         11
    53         75
    54        739
    55        401
    56         84
    57        142
    58         14
    59         11
    65         49
    66         60
    67        742
    68        999
    69        252
    70         83
    71         72
    72          9
    73          7
    74          9
    75          2
    76          2
    77         25
    78         19
    79        185
    80        185
    81        643
    82        491
    83        171
    84        103
    85         33
    86          5
    87          9
    88          2
    89          1
    91         41
    92         22
    93        117
    94        116
    95        365
    96        241
    97        130
    98        212
    99         24
   100          3
   101          3
   103          2
   104          1
   105         17
   106         15
   107         66
   108         81
   109        175
   110         96
   111         72
   112         61
   113         12
   114          2
   115          3
   116          0
   117          1
   118          1
   119         29
   120         21
   121         84
   122         61
   123         91
   124         39
   125         26
   126         15
   127          4
   128          1
   129          2
   130          0
   131          2
   132          1
   133         37
   134         25
   135         61
   136         23
   137         49
   138         20
   139          9
   140          4
   141          2
   142          0
   143          1
   145          2
   146          1
   147         26
   148         24
   149         25
   150          7
   151         40
   152         23
   153          7
   154          1
   155          1
   157          1
   159          1
   161         21
   162          6
   163          4
   164         13
   165         29
   166         14
   167          3
   168          0
   169          1
   171          0
   175          3
   176          0
   177          4
   178          1
   179         16
   180          6
   181          1
   183          0
   185          1
   189          1
   190          4
   191          4
   192          4
   193          5
   194          3
   207          3
   208        309
   209         54
   210          8
   211          3