##TITLE=Library Entry 76811
##JCAMP-DX=Revision 4.10 
##DATA TYPE=MASS SPECTRUM
##SAMPLE DESCRIPTION=Japan AIST/NIMC Database- Spectrum MS-NW-1910
##NAMES=HP
##CAS NAME=Propanoic acid, 3,3'-dithiobis-
##MOLFORM=C6H10O4S2
##CAS REGISTRY NO=1119-62-6
##MP= -300
##BP= -300
##MW= 210
##$RETENTION INDEX=0
##$CONDENSED SPECTRUM=NO
##NPOINTS= 129
##XYDATA=(XY..XY) 1 
    12          3
    13          4
    14         13
    15         19
    16          5
    17          2
    18          8
    24          3
    25         16
    26        127
    27        619
    28        407
    29        336
    30         14
    31         51
    32         28
    33         28
    34         50
    35         90
    36          7
    37          5
    38          2
    39          5
    40          1
    41         10
    42         71
    43        178
    44        131
    45        573
    46        115
    47        163
    48         15
    49          9
    50          5
    52          2
    53         13
    54          6
    55        855
    56         41
    57         31
    58        142
    59        245
    60        240
    61        123
    62         15
    63         54
    64        136
    65         45
    66         25
    67          5
    68          2
    69          4
    70          2
    71         29
    72        116
    73        588
    74         37
    75          9
    76         22
    77         15
    78          9
    79         23
    80          1
    81         30
    82          1
    83          3
    84          2
    85          3
    86         26
    87        177
    88        219
    89         69
    90         12
    91         64
    92         18
    93         21
    94          3
    95         31
    96          1
    97          3
    98          1
    99          1
   102          3
   103         39
   104        999
   105        183
   106        343
   107         40
   108         15
   109          4
   110          1
   111          1
   112          1
   114          2
   115          3
   118          2
   119         93
   120        167
   121         89
   122         19
   123          9
   129          1
   132          4
   136          1
   137         18
   138          7
   139          2
   140          1
   146          4
   147          2
   151          2
   152          2
   159         16
   160          2
   164         10
   165          5
   166          1
   174          2
   175          2
   177          7
   178          3
   192         12
   193          7
   194          2
   210        773
   211         65
   212         77
   213          7
   214          3