##TITLE=Library Entry 21089
##JCAMP-DX=Revision 4.10 
##DATA TYPE=MASS SPECTRUM
##SAMPLE DESCRIPTION=Japan AIST/NIMC Database- Spectrum MS-IW-6975
##NAMES=HP
##CAS NAME=3-Hepten-2-one
##MOLFORM=C7H12O
##CAS REGISTRY NO=1119-44-4
##MP= -300
##BP= -300
##MW= 112
##$RETENTION INDEX=937
##$CONDENSED SPECTRUM=NO
##NPOINTS= 70
##XYDATA=(XY..XY) 1 
    14          3
    15         40
    18          2
    26         11
    27        110
    28         23
    29         76
    30          2
    31          5
    32          1
    33          1
    37          4
    38         12
    39        122
    40         25
    41        347
    42         55
    43        697
    44         17
    45          4
    47          2
    49          1
    50          9
    51         15
    52          6
    53         40
    54          9
    55        999
    56         39
    57         11
    58         26
    59         10
    60          2
    61          2
    62          3
    63          5
    64          1
    65          9
    66          4
    67         23
    68         25
    69        138
    70         13
    71         62
    72          4
    73          1
    74          1
    77          9
    78          1
    79         17
    80          1
    81          9
    82          3
    83         26
    84          4
    85          2
    91          2
    93          3
    94         15
    95          7
    96          1
    97        851
    98         59
    99          5
   109          1
   110          1
   111          7
   112        330
   113         34
   114          2