##TITLE=Library Entry 62968
##JCAMP-DX=Revision 4.10 
##DATA TYPE=MASS SPECTRUM
##SAMPLE DESCRIPTION=ASES Database, Dalian Institute, P.R. China
##NAMES=HP
##CAS NAME=1-Benzyl-4-(2-oxo-3-methoxycarbonyl-5-acetoxy-pentyl)-piperidine
##MOLFORM=C21H29NO5
##CAS REGISTRY NO=111964-62-6
##MP= -300
##BP= -300
##MW= 375
##$RETENTION INDEX=0
##$CONDENSED SPECTRUM=NO
##NPOINTS= 14
##XYDATA=(XY..XY) 1 
    43        141
    55         61
    65         90
    82        180
    91        999
    92         70
   120         40
   146         40
   159         49
   172        418
   188        110
   216         40
   256         69
   375         40