##TITLE=Library Entry 88834
##JCAMP-DX=Revision 4.10 
##DATA TYPE=MASS SPECTRUM
##SAMPLE DESCRIPTION=ORMSBG,10(10)842(1975); A. MANDELBAUM
##NAMES=HP
##CAS NAME=2,4-Hexadienedioic acid, dimethyl ester, (E,E)-
##MOLFORM=C8H10O4
##CAS REGISTRY NO=1119-43-3
##MP= -300
##BP= -300
##MW= 170
##$RETENTION INDEX=0
##$CONDENSED SPECTRUM=NO
##NPOINTS= 27
##XYDATA=(XY..XY) 1 
    41         46
    50         77
    51        146
    52        139
    53         54
    54         77
    55         31
    59        146
    65         15
    68         54
    69         15
    79        146
    80         69
    81         15
    83         23
    95         23
   107         46
   108         23
   110         15
   111        999
   112         69
   123        123
   139        339
   140         31
   155         54
   170        346
   171         31