##TITLE=Library Entry 70159
##JCAMP-DX=Revision 4.10 
##DATA TYPE=MASS SPECTRUM
##SAMPLE DESCRIPTION=NIST Mass Spectrometry Data Center
##NAMES=HP
##CAS NAME=1,2-Dodecanediol
##MOLFORM=C12H26O2
##CAS REGISTRY NO=1119-87-5
##MP= -300
##BP= -300
##MW= 202
##$RETENTION INDEX=1621
##$CONDENSED SPECTRUM=NO
##NPOINTS= 87
##XYDATA=(XY..XY) 1 
    15          1
    19          1
    26          2
    27         43
    29         99
    30          4
    31         54
    32          7
    33          2
    38          1
    39         52
    40          9
    41        292
    42         32
    43        141
    44         52
    45         17
    47          1
    50          1
    51          3
    52          1
    53         28
    54         24
    55        623
    56         75
    57        377
    58         15
    60         21
    61        162
    62          4
    63          1
    65          6
    66         10
    67         97
    68         54
    69        601
    70         60
    71        194
    76          2
    77          6
    79         15
    80          5
    81         86
    82         81
    83        692
    84         62
    85         47
    86          2
    87          3
    91          2
    93          3
    94          2
    95         70
    96         58
    97        999
    98         84
    99          6
   103          1
   108          1
   109         27
   110         22
   111        274
   112         25
   113          1
   115          2
   117          5
   123         11
   124         13
   125         11
   126         12
   127          5
   129          2
   137          3
   138          7
   139          1
   140          1
   143          7
   152         11
   153          8
   154          1
   166          1
   169          1
   170         11
   171        688
   172         84
   173          6
   201          1