##TITLE=Library Entry 31980
##JCAMP-DX=Revision 4.10 
##DATA TYPE=MASS SPECTRUM
##SAMPLE DESCRIPTION=NIST Mass Spectrometry Data Center, 1990.
##NAMES=HP
##CAS NAME=3-Hexenedinitrile
##MOLFORM=C6H6N2
##CAS REGISTRY NO=1119-85-3
##MP= -300
##BP= -300
##MW= 106
##$RETENTION INDEX=0
##$CONDENSED SPECTRUM=NO
##NPOINTS= 23
##XYDATA=(XY..XY) 1 
    26         41
    27         59
    37         56
    38         80
    39        250
    40         77
    41         48
    50         78
    51        160
    52        215
    53        121
    54         69
    63         31
    64         81
    66        999
    67         55
    75         39
    76         46
    77         65
    78         58
    79        194
   105         34
   106        174