##TITLE=Library Entry 30351
##JCAMP-DX=Revision 4.10 
##DATA TYPE=MASS SPECTRUM
##SAMPLE DESCRIPTION=Exported from NIST MS Search
##NAMES=HP
##CAS NAME=Pentanedioic acid, dimethyl ester
##MOLFORM=C7H12O4
##CAS REGISTRY NO=1119-40-0
##MP= -300
##BP= -300
##MW= 160
##$RETENTION INDEX=1135
##$CONDENSED SPECTRUM=NO
##NPOINTS= 83
##XYDATA=(XY..XY) 1 
    12          1
    13          2
    14         15
    15        528
    16          7
    17          1
    18          6
    25          2
    26         16
    27        112
    28         58
    29        140
    30         12
    31         43
    32          2
    33          4
    34          9
    35         18
    36          1
    37          4
    38         11
    39        111
    40         25
    41        243
    42        308
    43        193
    44         15
    45         41
    46          1
    47          4
    48          1
    49         25
    50          1
    51          2
    52          1
    53          5
    54          4
    55        445
    56         34
    57          8
    58         72
    59        999
    60         28
    61          5
    65          2
    66          1
    67          1
    68         21
    69         47
    70         22
    71          7
    72         35
    73          5
    74         90
    75          6
    76          1
    82          1
    83          2
    84          1
    85         37
    86          2
    87        163
    88         14
    89          1
    95          4
    96          3
    97         79
    98          9
    99          9
   100        543
   101        374
   102         22
   103          2
   111          1
   113          1
   115          1
   127          3
   128        159
   129        377
   130         25
   131          3
   132          1
   160          1