##TITLE=Library Entry 34043
##JCAMP-DX=Revision 4.10 
##DATA TYPE=MASS SPECTRUM
##SAMPLE DESCRIPTION=NIST Mass Spectrometry Data Center, 1990.
##NAMES=HP
##CAS NAME=1-Pentene, 5-bromo-
##MOLFORM=C5H9Br
##CAS REGISTRY NO=1119-51-3
##MP= -300
##BP= -300
##MW= 148
##$RETENTION INDEX=0
##$CONDENSED SPECTRUM=NO
##NPOINTS= 47
##XYDATA=(XY..XY) 1 
    14         10
    15         31
    25          7
    26         77
    27        327
    28         87
    29         79
    31          5
    32          3
    37         33
    38         92
    39        554
    40        145
    41        880
    42        132
    43          8
    49          5
    50         28
    51         33
    52         19
    53        157
    54         23
    55        141
    56          7
    61          9
    62         12
    63         14
    65         23
    67        320
    68        254
    69        999
    70         52
    79         11
    80          5
    81         11
    82          6
    93         15
    95         16
   106         15
   107         71
   108         17
   109         57
   120         24
   121          5
   122         16
   148         20
   150         19