##TITLE=Library Entry 29847
##JCAMP-DX=Revision 4.10 
##DATA TYPE=MASS SPECTRUM
##SAMPLE DESCRIPTION=J.A.GILPIN DOW CHEMICAL CO., MIDLAND, MICHIGAN, USA
##NAMES=HP
##CAS NAME=Pentanamide, 4-methyl-
##MOLFORM=C6H13NO
##CAS REGISTRY NO=1119-29-5
##MP= -300
##BP= -300
##MW= 115
##$RETENTION INDEX=0
##$CONDENSED SPECTRUM=NO
##NPOINTS= 30
##XYDATA=(XY..XY) 1 
    15          3
    27         80
    28         40
    29         90
    30          8
    31          5
    41        150
    42         50
    43        220
    44        330
    45         20
    55         80
    56         30
    57        160
    58         20
    59        999
    60         30
    71         20
    72        330
    73         70
    74          5
    85          1
    86         70
    87          7
    99          9
   100         80
   101          5
   114          6
   115          6
   116         10