##TITLE=Library Entry 40906
##JCAMP-DX=Revision 4.10 
##DATA TYPE=MASS SPECTRUM
##SAMPLE DESCRIPTION=NIST Mass Spectrometry Data Center, 1990.
##NAMES=HP
##CAS NAME=5-Chlorovaleric acid
##MOLFORM=C5H9ClO2
##CAS REGISTRY NO=1119-46-6
##MP= -300
##BP= -300
##MW= 136
##$RETENTION INDEX=1174
##$CONDENSED SPECTRUM=NO
##NPOINTS= 67
##XYDATA=(XY..XY) 1 
    15         32
    16          5
    17          6
    18          4
    19          9
    25         15
    26        122
    27        608
    28        163
    29        351
    30         27
    31         61
    36         18
    37         22
    38         63
    39        318
    40         53
    41        543
    42        231
    43        495
    44         51
    45        436
    46         21
    48         12
    49         74
    50         35
    51         37
    52         12
    53         96
    54        326
    55        906
    56        304
    57         97
    58        218
    59        101
    60        357
    61         24
    62         36
    63         45
    64         13
    65         19
    69         15
    70         13
    71         21
    72         13
    73        999
    74        111
    75         25
    77         11
    78          2
    82        216
    83        155
    84         10
    85         10
    86          2
    87         97
    89          7
    90         26
    91         21
    93         14
    99         30
   100        225
   101         83
   102          6
   118         15
   119         13
   120          7