##TITLE=Library Entry 5629
##JCAMP-DX=Revision 4.10 
##DATA TYPE=MASS SPECTRUM
##SAMPLE DESCRIPTION=R.M. Teeter, 203 Del Valle Circle, El Sobrante, CA 9480
3-3373, USA
##NAMES=HP
##CAS NAME=Hexadecanoic acid, 2,2,3,3,4,4,5,5,6,6,7,7,8,8,8-pentadecafluoroo
ctyl ester
##MOLFORM=C24H33F15O2
##CAS REGISTRY NO=111918-97-9
##MP= -300
##BP= -300
##MW= 638
##$RETENTION INDEX=0
##$CONDENSED SPECTRUM=NO
##NPOINTS= 117
##XYDATA=(XY..XY) 1 
    26         20
    27         67
    28        549
    29        241
    30         15
    31        773
    32         26
    33         23
    39         39
    40         18
    41        299
    42        114
    43        999
    44        466
    45          6
    49         53
    50         11
    51         60
    53         18
    54         45
    55        347
    56        112
    57        485
    58         24
    59          7
    60          9
    61         33
    64         11
    65          7
    67         48
    68         57
    69        370
    70         72
    71        242
    72         13
    73         11
    77          7
    78          7
    79         13
    80          8
    81         68
    82         42
    83        170
    84         72
    85        134
    86         11
    88          7
    91          7
    93         16
    94          7
    95         60
    96         33
    97        107
    98         69
    99         31
   100         29
   101          7
   107          6
   109         20
   110         16
   111         46
   112         23
   113         29
   119         25
   121          7
   123         14
   124         10
   125         21
   126          8
   127         15
   131         57
   133          7
   135          7
   138          8
   139         14
   141          9
   152          7
   153          7
   163          7
   166          6
   169         11
   181         12
   194         28
   195          7
   196         19
   197         14
   220          8
   239        194
   240         36
   319         13
   427         16
   441          7
   442        258
   443        112
   444         13
   455        275
   456         41
   469         33
   470          7
   483         15
   497         26
   498         11
   511         74
   512         14
   525          7
   539         16
   553         16
   567         12
   588          8
   595         41
   596         11
   609          9
   619         27
   620          9
   638        363
   639        100
   640         14