##TITLE=Library Entry 27914
##JCAMP-DX=Revision 4.10 
##DATA TYPE=MASS SPECTRUM
##SAMPLE DESCRIPTION=Chemical Concepts
##NAMES=HP
##CAS NAME=Tetradonium Bromide
##MOLFORM=C17H38BrN
##CAS REGISTRY NO=1119-97-7
##MP= -300
##BP= -300
##MW= 335
##$RETENTION INDEX=0
##$CONDENSED SPECTRUM=NO
##NPOINTS= 79
##XYDATA=(XY..XY) 1 
    26          0
    27          8
    29         22
    30          9
    31          0
    39          4
    40          3
    41         35
    42         17
    43         40
    44         13
    45         13
    46          8
    47          0
    51          0
    53          1
    54          1
    55         24
    56          7
    57         23
    58        999
    59         34
    60          0
    65          0
    67          1
    68          0
    69         10
    70          3
    71         10
    72          3
    73          0
    77          0
    79          1
    80          0
    81          1
    82          0
    83          4
    84          6
    85          4
    86          0
    91          1
    92          1
    93          5
    94         31
    95          4
    96         30
    97          1
    98          0
    99          1
   100          1
   110          0
   111          0
   112          0
   113          0
   114          2
   119          0
   126          0
   127          0
   128          1
   135          6
   137          6
   138          0
   140          0
   141          0
   142          0
   149          1
   151          1
   156          0
   170          0
   184          0
   198          0
   207          0
   212          0
   213          0
   226          1
   240          5
   241         15
   242          2
   243          0