##TITLE=Library Entry 3241
##JCAMP-DX=Revision 4.10 
##DATA TYPE=MASS SPECTRUM
##SAMPLE DESCRIPTION=NIST Mass Spectrometry Data Center
##NAMES=HP
##CAS NAME=6-Heptenoic acid
##MOLFORM=C7H12O2
##CAS REGISTRY NO=1119-60-4
##MP= -300
##BP= -300
##MW= 128
##$RETENTION INDEX=0
##$CONDENSED SPECTRUM=NO
##NPOINTS= 70
##XYDATA=(XY..XY) 1 
    12          1
    13          2
    14          5
    15         22
    16          1
    17          4
    18          5
    19          1
    21          1
    23          1
    26         76
    27        575
    28        180
    29        211
    30         17
    32          7
    36          1
    37         22
    38         76
    39        790
    40        145
    41        999
    42        338
    43        379
    45        593
    46         14
    47          8
    50         43
    51         73
    52         29
    53        171
    54        205
    55        633
    56        145
    57         66
    58         65
    60        509
    61         41
    62          8
    63         12
    64          3
    65         30
    67        340
    68        960
    69        670
    70         41
    71         43
    73        205
    76          1
    77         15
    79         25
    80          5
    81         46
    82        245
    83         50
    84         10
    85         17
    86         18
    87         85
    88          3
    92          2
    93          2
    95         16
    99         34
   100         19
   110        310
   111         33
   112          1
   113         13
   128          2