##TITLE=Library Entry 27725
##JCAMP-DX=Revision 4.10 
##DATA TYPE=MASS SPECTRUM
##SAMPLE DESCRIPTION=Japan AIST/NIMC Database- Spectrum MS-NW-5582
##NAMES=HP
##CAS NAME=Dodecyltrimethylammonium bromide
##MOLFORM=C15H34BrN
##CAS REGISTRY NO=1119-94-4
##MP= -300
##BP= -300
##MW= 307
##$RETENTION INDEX=0
##$CONDENSED SPECTRUM=NO
##NPOINTS= 68
##XYDATA=(XY..XY) 1 
    14          1
    15         35
    17          1
    18          6
    26          1
    27         14
    28          6
    29         29
    30          9
    32          1
    39          9
    40          2
    41         49
    42         31
    43         45
    44         18
    45         14
    46          8
    53          3
    54          3
    55         31
    56         11
    57         27
    58        999
    59         41
    67          3
    68          2
    69         13
    70          8
    71         11
    72          5
    73          1
    79          3
    80          1
    81          4
    82          2
    83          5
    84         13
    85          5
    91          2
    92          1
    93          6
    94         40
    95          6
    96         39
    97          3
    98          2
    99          1
   100          3
   110          1
   111          1
   113          1
   114          4
   126          1
   128          2
   135          9
   137          9
   142          1
   149          2
   151          1
   156          1
   170          1
   184          1
   198          2
   211          1
   212          9
   213         35
   214          6