##TITLE=Library Entry 10816
##JCAMP-DX=Revision 4.10 
##DATA TYPE=MASS SPECTRUM
##SAMPLE DESCRIPTION=Chemical Concepts
##NAMES=HP
##CAS NAME=Isopropyl stearate
##MOLFORM=C21H42O2
##CAS REGISTRY NO=112-10-7
##MP= -300
##BP= -300
##MW= 326
##$RETENTION INDEX=2217
##$CONDENSED SPECTRUM=NO
##NPOINTS= 180
##XYDATA=(XY..XY) 1 
    26          5
    27        119
    28         21
    29        204
    30          4
    31          6
    33          0
    35          1
    36          0
    37          1
    38          2
    39         53
    40         14
    41        414
    42        152
    43        999
    44         40
    45         27
    46          0
    47          0
    49          0
    50          0
    51          1
    52          1
    53         15
    54         18
    55        310
    56        110
    57        573
    58         43
    59        184
    60        646
    61        350
    62         10
    63          2
    65          1
    66          2
    67         35
    68         23
    69        206
    70         63
    71        362
    72         22
    73        361
    74         64
    75          4
    76          0
    77          1
    78          0
    79          8
    80          2
    81         35
    82         21
    83        148
    84         68
    85        230
    86         16
    87        109
    88         13
    89          6
    93          8
    94          2
    95         38
    96         10
    97        134
    98         78
    99         67
   100          5
   101         47
   102        698
   103        137
   104          9
   107          7
   108          0
   109         18
   110          0
   111         69
   112         17
   113         36
   115         76
   116         45
   117          5
   118          0
   120          0
   121         11
   122          2
   123          6
   124          1
   125         31
   126          7
   127         15
   128          0
   129        212
   130         27
   131          3
   135          9
   136          0
   137          1
   139         19
   140          5
   141         16
   142          1
   143         51
   144         11
   145          1
   149          7
   150          0
   153         12
   154          5
   155          9
   156          1
   157         24
   158          8
   159          2
   163          4
   167          9
   168          2
   169          3
   170          0
   171         49
   172         13
   173          1
   177          3
   178          0
   181          4
   182          3
   183          1
   185        106
   186         15
   187          2
   191          2
   195          4
   196          5
   199         38
   200          5
   201          1
   204          0
   205          1
   209          2
   210          0
   213         16
   214          3
   215          1
   222          4
   223          3
   224         10
   225          5
   227         30
   228          5
   229          1
   230          0
   232          0
   238          0
   240          0
   241         87
   242         16
   243          1
   247          5
   248          7
   249          5
   250          0
   251          0
   255         16
   256          2
   261          0
   262          0
   266          1
   267        189
   268         35
   269          4
   279          5
   283         20
   284        524
   285        266
   286         41
   287          3
   322          0
   326         25
   327          5
   328          0