##TITLE=Library Entry 20039
##JCAMP-DX=Revision 4.10 
##DATA TYPE=MASS SPECTRUM
##SAMPLE DESCRIPTION=Chemical Concepts
##NAMES=HP
##CAS NAME=1,10-Decanediol
##MOLFORM=C10H22O2
##CAS REGISTRY NO=112-47-0
##MP= -300
##BP= -300
##MW= 174
##$RETENTION INDEX=1521
##$CONDENSED SPECTRUM=NO
##NPOINTS= 80
##XYDATA=(XY..XY) 1 
    26         12
    27        121
    28         32
    29        227
    30          9
    31        344
    39        107
    40         29
    41        740
    42        227
    43        353
    44         74
    45         62
    46          4
    49          5
    50          3
    51          6
    52          4
    53         60
    54        452
    55        999
    56        305
    57        226
    58         28
    59         12
    65         10
    66         89
    67        696
    68        850
    69        521
    70        210
    71        134
    72         26
    73         38
    74          6
    75          4
    77          8
    79         29
    80         23
    81        497
    82        646
    83        295
    84        108
    85         76
    86         19
    87         12
    91          6
    93         10
    94         15
    95        332
    96        265
    97        156
    98         75
    99         36
   100          9
   101          4
   107          4
   108          5
   109        130
   110        148
   111         29
   112         13
   113         15
   114          3
   115          2
   123         10
   124          4
   125          4
   126         40
   127          7
   128          5
   129          2
   136          2
   137          4
   138         13
   139          6
   140          3
   141          2
   144          3
   175          3