##TITLE=Library Entry 59366
##JCAMP-DX=Revision 4.10 
##DATA TYPE=MASS SPECTRUM
##SAMPLE DESCRIPTION=NIST Mass Spectrometry Data Center, 1998.
##NAMES=HP
##CAS NAME=Dodecane, 1-chloro-
##MOLFORM=C12H25Cl
##CAS REGISTRY NO=112-52-7
##MP= -300
##BP= -300
##MW= 204
##$RETENTION INDEX=1469
##$CONDENSED SPECTRUM=NO
##NPOINTS= 106
##XYDATA=(XY..XY) 1 
    15          1
    26          4
    27         91
    29        161
    30          4
    37          1
    38          3
    39        115
    40         22
    41        548
    42        137
    43        663
    44         23
    49         17
    50          2
    51         13
    52          4
    53         53
    54         50
    55        600
    56        193
    57        773
    58         34
    59          1
    61          2
    62          4
    63         29
    64          2
    65         17
    66          5
    67         56
    68         48
    69        439
    70        138
    71        332
    72         18
    73          1
    75          6
    76          3
    77         22
    78          2
    79         12
    80          1
    81         20
    82         31
    83        213
    84         76
    85        166
    86         11
    89          2
    91        999
    92         47
    93        328
    94         15
    95          6
    96          9
    97        127
    98         41
    99         11
   100          1
   103          1
   104         23
   105        282
   106         23
   107         91
   108          5
   109          2
   110          3
   111         39
   112         17
   113          5
   117          1
   118          6
   119         49
   120          5
   121         16
   122          1
   124          1
   125          7
   126          5
   127          2
   131          1
   132          4
   133         14
   134          2
   135          5
   139          1
   140          4
   141          1
   146          3
   147          7
   148          2
   149          2
   160          2
   161          4
   162          1
   163          1
   168          1
   174          2
   175          3
   176          1
   177          1
   202          1
   204          6
   205          1
   206          2