##TITLE=Library Entry 9831
##JCAMP-DX=Revision 4.10 
##DATA TYPE=MASS SPECTRUM
##SAMPLE DESCRIPTION=Exported from NIST MS Search
##NAMES=HP
##CAS NAME=Ethanol, 2-(hexyloxy)-
##MOLFORM=C8H18O2
##CAS REGISTRY NO=112-25-4
##MP= -300
##BP= -300
##MW= 146
##$RETENTION INDEX=1106
##$CONDENSED SPECTRUM=NO
##NPOINTS= 67
##XYDATA=(XY..XY) 1 
    15         11
    17          3
    18         14
    19         15
    26          5
    27        107
    28         36
    29        113
    30          5
    31         59
    32          4
    33          3
    38          2
    39         59
    40         12
    41        240
    42         71
    43        999
    44         60
    45        436
    46         12
    47          2
    50          2
    51          3
    52          2
    53         14
    54          9
    55        147
    56        190
    57        183
    58         13
    59          9
    60          2
    61          7
    62          4
    63        197
    64          5
    65          3
    67         10
    68          3
    69         55
    70          9
    71         10
    72          9
    73          6
    75        119
    76          5
    77          5
    79          1
    81          3
    82         11
    83        231
    84        154
    85        767
    86         52
    87          3
    89          2
    99         21
   100          4
   101         10
   103          9
   115         91
   116          7
   117         11
   145          1
   146          1
   147          3