##TITLE=Library Entry 27955
##JCAMP-DX=Revision 4.10 
##DATA TYPE=MASS SPECTRUM
##SAMPLE DESCRIPTION=Japan AIST/NIMC Database- Spectrum MS-NW- 699
##NAMES=HP
##CAS NAME=2-Undecanone
##MOLFORM=C11H22O
##CAS REGISTRY NO=112-12-9
##MP= -300
##BP= -300
##MW= 170
##$RETENTION INDEX=1294
##$CONDENSED SPECTRUM=NO
##NPOINTS= 72
##XYDATA=(XY..XY) 1 
    15         16
    18          2
    26          3
    27         66
    28         15
    29         96
    30          2
    31          2
    38          1
    39         49
    40          9
    41        168
    42         48
    43        566
    44         12
    45          8
    50          1
    51          3
    52          2
    53         11
    54         12
    55         81
    56         46
    57        112
    58        999
    59        311
    60         11
    65          2
    66          1
    67         17
    68         15
    69         38
    70         35
    71        266
    72         20
    73          2
    77          2
    78          2
    79          3
    80          1
    81         20
    82         28
    83         28
    84         17
    85         63
    86          8
    87          1
    95         20
    96         19
    97          7
    98          2
    99          7
   100          9
   109          5
   110         43
   111          5
   112         57
   113         14
   114          7
   117          1
   123          3
   127         20
   128          6
   135          3
   137          3
   141          6
   142          2
   152          8
   155         20
   156          2
   170         69
   171         10