##TITLE=Library Entry 20105
##JCAMP-DX=Revision 4.10 
##DATA TYPE=MASS SPECTRUM
##SAMPLE DESCRIPTION=Japan AIST/NIMC Database- Spectrum MS-NW- 268
##NAMES=HP
##CAS NAME=9-Octadecenoic acid, (E)-
##MOLFORM=C18H34O2
##CAS REGISTRY NO=112-79-8
##MP= -300
##BP= -300
##MW= 282
##$RETENTION INDEX=0
##$CONDENSED SPECTRUM=NO
##NPOINTS= 222
##XYDATA=(XY..XY) 1 
    15          2
    17          3
    18         11
    26          5
    27        111
    28         26
    29        242
    30          7
    31          9
    32          1
    39        102
    40         20
    41        697
    42        117
    43        512
    44         17
    45         54
    46          2
    50          2
    51          7
    52          6
    53         74
    54        263
    55        999
    56        362
    57        419
    58         18
    59         28
    60        141
    61         26
    62          1
    63          2
    65         19
    66         19
    67        307
    68        252
    69        833
    70        384
    71        184
    72          9
    73        193
    74         17
    75          2
    77         18
    78          7
    79         54
    80         38
    81        294
    82        259
    83        688
    84        314
    85        107
    86          8
    87         68
    88          9
    89          2
    91         19
    92          7
    93         30
    94         43
    95        186
    96        223
    97        504
    98        291
    99         44
   100         67
   101        103
   102         14
   103          2
   104          2
   105         11
   106          5
   107         26
   108         35
   109        104
   110        167
   111        247
   112        137
   113         38
   114        146
   115         69
   116         17
   117          3
   118          2
   119         26
   120         10
   121         33
   122         23
   123        112
   124        110
   125        133
   126         85
   127         86
   128         32
   129         66
   130         11
   131          2
   132          2
   133         29
   134         30
   135         30
   136         17
   137         84
   138         92
   139         82
   140         59
   141         24
   142         12
   143         27
   144          6
   145          2
   147         30
   148         25
   149         20
   150         13
   151         72
   152         67
   153         55
   154         37
   155         19
   156         10
   157         21
   158          5
   159          2
   161         18
   162         11
   163         12
   164         12
   165         57
   166         50
   167         37
   168         20
   169         25
   170          9
   171         17
   172          7
   173          2
   175         13
   176          6
   177          8
   178          7
   179         40
   180         76
   181         32
   182         14
   183         14
   184          8
   185         23
   186         14
   187          3
   189          9
   190          4
   191          5
   192          6
   193         32
   194         31
   195         16
   196          9
   197          8
   198          6
   199         15
   200          9
   201          3
   202         16
   203          6
   204          4
   205          3
   206          3
   207         28
   208         26
   209         11
   210          9
   211          7
   212          5
   213         12
   214          7
   215          2
   217          3
   218          3
   220         95
   221         47
   222        106
   223         25
   224          6
   225          7
   226          4
   227          6
   228          5
   229          2
   235         26
   236         29
   237          6
   238          2
   239         10
   240          4
   241          9
   242          4
   246         33
   247          9
   248          2
   249          3
   250          5
   251          2
   253          4
   254          9
   255          3
   256         26
   257          6
   263          4
   264        536
   265        117
   266         12
   267          2
   268          2
   270          4
   278          2
   280          6
   281          2
   282        219
   283         44
   284         53
   285          9