##TITLE=Library Entry 8671
##JCAMP-DX=Revision 4.10 
##DATA TYPE=MASS SPECTRUM
##SAMPLE DESCRIPTION=NIST Mass Spectrometry Data Center, 2010
##NAMES=HP
##CAS NAME=Acetic acid, octyl ester
##MOLFORM=C10H20O2
##CAS REGISTRY NO=112-14-1
##MP= -300
##BP= -300
##MW= 172
##$RETENTION INDEX=1210
##$CONDENSED SPECTRUM=NO
##NPOINTS= 79
##XYDATA=(XY..XY) 1 
    14          1
    15         11
    26          3
    27         59
    28         19
    29         97
    30          3
    31          8
    39         73
    40         16
    41        293
    42        191
    43        999
    44         31
    45          7
    50          2
    51          5
    52          2
    53         26
    54         38
    55        389
    56        445
    57        161
    58         39
    59          8
    61        329
    62          7
    63          2
    65          5
    66          3
    67         45
    68        102
    69        387
    70        509
    71        100
    72          7
    73         91
    74          5
    75          2
    77          3
    78          1
    79          5
    80          1
    81         15
    82        114
    83        403
    84        427
    85         33
    86          6
    87         17
    88          4
    91          1
    94          1
    95          4
    96          3
    97         55
    98         47
    99          5
   100          8
   101         29
   102          7
   103          1
   109          1
   110          6
   111         19
   112        145
   113         15
   114          4
   115          3
   116         52
   117          3
   125          1
   127          3
   128          2
   129          5
   130          2
   139          1
   157          1
   173          1