##TITLE=Library Entry 9638
##JCAMP-DX=Revision 4.10 
##DATA TYPE=MASS SPECTRUM
##SAMPLE DESCRIPTION=Japan AIST/NIMC Database- Spectrum MS-NW-6839
##NAMES=HP
##CAS NAME=1-Octadecanol
##MOLFORM=C18H38O
##CAS REGISTRY NO=112-92-5
##MP= -300
##BP= -300
##MW= 270
##$RETENTION INDEX=2082
##$CONDENSED SPECTRUM=NO
##NPOINTS= 112
##XYDATA=(XY..XY) 1 
    15          3
    17          5
    18         20
    19          1
    26          4
    27        114
    28         31
    29        335
    30          8
    31        129
    32          2
    38          1
    39         74
    40         17
    41        731
    42        190
    43        999
    44         36
    45         20
    50          1
    51          3
    52          2
    53         39
    54        102
    55        947
    56        512
    57        927
    58         39
    59          4
    65          5
    66         14
    67        143
    68        403
    69        823
    70        502
    71        435
    72         25
    73         19
    74          1
    77          4
    78          1
    79          9
    80          5
    81         81
    82        514
    83        973
    84        360
    85        251
    86         16
    87          3
    91          2
    93          2
    94          3
    95         43
    96        186
    97        760
    98        235
    99         68
   100          5
   108          1
   109         16
   110         82
   111        403
   112        166
   113         45
   114          4
   122          1
   123          9
   124         52
   125        232
   126        110
   127         26
   128          2
   137          6
   138         38
   139        107
   140         86
   141         17
   142          2
   151          1
   152         24
   153         62
   154         57
   155         11
   156          1
   166         15
   167         39
   168         50
   169         13
   170          1
   180         10
   181         25
   182         33
   183          9
   184          1
   194          7
   195         14
   196         32
   197          6
   208          4
   209          9
   210          9
   211          2
   222          3
   223          5
   224         78
   225         13
   226          1
   250          1
   252        103
   253         20
   254          2