##TITLE=Library Entry 15759
##JCAMP-DX=Revision 4.10 
##DATA TYPE=MASS SPECTRUM
##SAMPLE DESCRIPTION=RADIAN CORP
##NAMES=HP
##CAS NAME=1,2-Ethanediamine, N,N'-bis(2-aminoethyl)-
##MOLFORM=C6H18N4
##CAS REGISTRY NO=112-24-3
##MP= -300
##BP= -300
##MW= 146
##$RETENTION INDEX=0
##$CONDENSED SPECTRUM=NO
##NPOINTS= 79
##XYDATA=(XY..XY) 1 
    14          1
    15          8
    16          2
    17          2
    18         31
    26          3
    27         27
    28        122
    29         55
    30        266
    31          6
    39          4
    40          6
    41         41
    42        165
    43         88
    44        999
    45         38
    52          2
    53          2
    54         22
    55         30
    56        268
    57         58
    58         94
    59          9
    60          2
    61         61
    62          2
    67          2
    68         18
    69         19
    70        131
    71         33
    72         15
    73        414
    74         34
    75          3
    77          2
    80          2
    81          3
    82         16
    83         21
    84         18
    85         61
    86         29
    87         40
    88          2
    94          1
    95          5
    96          5
    97         79
    98         94
    99        201
   100         27
   101          6
   103          2
   104          3
   109          2
   110          3
   111         11
   112         20
   113         15
   114          3
   116        106
   117          7
   123          2
   124          2
   125         18
   126          4
   127         14
   128          2
   130          4
   138          6
   139          1
   140          2
   142         72
   143          6
   155          3