##TITLE=Library Entry 71003
##JCAMP-DX=Revision 4.10 
##DATA TYPE=MASS SPECTRUM
##SAMPLE DESCRIPTION=Japan AIST/NIMC Database- Spectrum MS-IW-3776
##NAMES=HP
##CAS NAME=Dodecanoyl chloride
##MOLFORM=C12H23ClO
##CAS REGISTRY NO=112-16-3
##MP= -300
##BP= -300
##MW= 218
##$RETENTION INDEX=0
##$CONDENSED SPECTRUM=NO
##NPOINTS= 119
##XYDATA=(XY..XY) 1 
    15          2
    26          5
    27        128
    28         27
    29        186
    30          4
    35          5
    36         47
    37          2
    38         14
    39        100
    40         20
    41        431
    42        128
    43        499
    44         17
    45          2
    49          1
    50          2
    51          7
    52          4
    53         36
    54         72
    55        641
    56        168
    57        299
    58         18
    59          3
    60          6
    61          1
    63         11
    64          1
    65          8
    66          8
    67         82
    68         87
    69        236
    70        167
    71        108
    72         10
    73          9
    74          2
    75          2
    76          1
    77          9
    78         25
    79         31
    80         24
    81         70
    82         80
    83        220
    84        558
    85         84
    86         10
    87          3
    91         28
    92          3
    93         24
    94         23
    95         52
    96         71
    97        213
    98        999
    99         75
   100         10
   101          2
   102         30
   103          2
   104          9
   105          8
   106          1
   107         13
   108         11
   109         28
   110         43
   111        148
   112        236
   113         19
   114          6
   115          2
   116         26
   117          2
   118          9
   119          2
   120          1
   121         29
   122          9
   123          8
   124          2
   125         34
   126         37
   127          9
   128          1
   129          3
   130          1
   133          2
   135         16
   136          5
   137          1
   138        105
   139         28
   140         16
   141          4
   147          1
   149          2
   151          1
   153          9
   154          3
   155          4
   157          2
   163          2
   164         23
   165          7
   166          1
   181          2
   182         14
   183        139
   184         17
   185          1