##TITLE=Library Entry 7667
##JCAMP-DX=Revision 4.10 
##DATA TYPE=MASS SPECTRUM
##SAMPLE DESCRIPTION=NIST Mass Spectrometry Data Center, 1990.
##NAMES=HP
##CAS NAME=2-Butoxyethyl acetate
##MOLFORM=C8H16O3
##CAS REGISTRY NO=112-07-2
##MP= -300
##BP= -300
##MW= 160
##$RETENTION INDEX=1090
##$CONDENSED SPECTRUM=NO
##NPOINTS= 43
##XYDATA=(XY..XY) 1 
    14         11
    15         60
    16          3
    19          6
    26         15
    27        117
    28         74
    29        277
    30         13
    31         30
    32          2
    37          1
    39         65
    41        410
    42         86
    43        999
    44        104
    45         87
    46          2
    53          7
    55         56
    56        389
    57        671
    58         47
    59          3
    60          2
    61         61
    62          1
    67          2
    69          3
    70         28
    71         22
    72         12
    73         38
    74         60
    75          8
    85        181
    87        337
    88         93
    89          6
   100         66
   101          5
   117          8