##TITLE=Library Entry 24524
##JCAMP-DX=Revision 4.10 
##DATA TYPE=MASS SPECTRUM
##SAMPLE DESCRIPTION=Japan AIST/NIMC Database- Spectrum MS-NW-5098
##NAMES=HP
##CAS NAME=Tetradecane, 1-bromo-
##MOLFORM=C14H29Br
##CAS REGISTRY NO=112-71-0
##MP= -300
##BP= -300
##MW= 276
##$RETENTION INDEX=1753
##$CONDENSED SPECTRUM=NO
##NPOINTS= 120
##XYDATA=(XY..XY) 1 
    14          1
    15          3
    26          6
    27        128
    28          6
    29        255
    30          6
    38          2
    39         85
    40         17
    41        513
    42        133
    43        912
    44         30
    50          1
    51          5
    52          4
    53         33
    54         41
    55        533
    56        178
    57        999
    58         51
    63          1
    65          5
    66          4
    67         43
    68         32
    69        433
    70        133
    71        570
    72         34
    77          4
    78          1
    79          6
    80          8
    81         16
    82         26
    83        232
    84         69
    85        323
    86         21
    91          3
    93          3
    95          8
    96         10
    97        136
    98         38
    99         78
   100          6
   105          1
   106          1
   107         16
   108          1
   109         16
   110          4
   111         45
   112         18
   113         52
   114          4
   119          1
   120          1
   121         13
   122          1
   123         11
   124          2
   125         13
   126          9
   127         36
   128          5
   133          1
   134          3
   135        590
   136         31
   137        581
   138         27
   139          5
   140          5
   141         26
   142          4
   148         11
   149        119
   150         16
   151        120
   152          7
   153          2
   154          2
   155         11
   156          2
   162          6
   163         22
   164          6
   165         20
   166          1
   168          3
   169          1
   176          2
   177          8
   178          2
   179          7
   190          1
   191          5
   192          1
   193          4
   194          1
   196          6
   197         11
   198          2
   205          2
   206          1
   207          2
   219          1
   221          2
   233          1
   235          1
   247          1
   249          1
   274          2
   276          3
   278          2