##TITLE=Library Entry 70257
##JCAMP-DX=Revision 4.10 
##DATA TYPE=MASS SPECTRUM
##SAMPLE DESCRIPTION=NIST Mass Spectrometry Data Center
##NAMES=HP
##CAS NAME=Tetraethylenepentamine
##MOLFORM=C8H23N5
##CAS REGISTRY NO=112-57-2
##MP= -300
##BP= -300
##MW= 189
##$RETENTION INDEX=0
##$CONDENSED SPECTRUM=NO
##NPOINTS= 115
##XYDATA=(XY..XY) 1 
    15          9
    18         27
    26          4
    27         29
    28         93
    29         57
    30        333
    31          7
    32          1
    38          1
    39          6
    40          7
    41         76
    42        382
    43        157
    44        749
    45         26
    46          1
    51          1
    52          3
    53          4
    54         70
    55        151
    56        530
    57        126
    58        264
    59         12
    60          4
    61         64
    62          2
    63         24
    65          1
    66          1
    67          7
    68         72
    69         66
    70        548
    71        115
    72         46
    73        147
    74          6
    75          3
    77          1
    78          1
    79          1
    80          8
    81         15
    82        141
    83        170
    84        137
    85        283
    86         55
    87        125
    88          6
    89          1
    92          1
    93          1
    94         12
    95         54
    96         28
    97        999
    98        953
    99        507
   100         60
   101        236
   102         22
   103          1
   104         96
   105          5
   106          1
   107          1
   108          3
   109         14
   110         30
   111        188
   112        211
   113        557
   114         59
   115          7
   116        163
   117         10
   121          1
   122          1
   123          9
   124          9
   125        270
   126         82
   127        176
   128         39
   129         41
   130        169
   131         14
   137          3
   138         41
   139         12
   140         36
   141         23
   142        654
   143         72
   144          5
   145          1
   147          1
   151          1
   152          2
   153          6
   154         21
   155         62
   156         16
   157          2
   159          2
   166          3
   167          1
   168         36
   169          6
   170          3