##TITLE=Library Entry 7176
##JCAMP-DX=Revision 4.10 
##DATA TYPE=MASS SPECTRUM
##SAMPLE DESCRIPTION=Japan AIST/NIMC Database- Spectrum MS-NW-1725
##NAMES=HP
##CAS NAME=1-Octadecene
##MOLFORM=C18H36
##CAS REGISTRY NO=112-88-9
##MP= -300
##BP= -300
##MW= 252
##$RETENTION INDEX=1793
##$CONDENSED SPECTRUM=NO
##NPOINTS= 100
##XYDATA=(XY..XY) 1 
    14          2
    15          4
    26          7
    27        150
    28         22
    29        399
    30          9
    31          1
    38          3
    39        154
    40         29
    41        935
    42        206
    43        999
    44         32
    45          2
    50          2
    51          6
    52          5
    53         67
    54        136
    55        939
    56        550
    57        880
    58         36
    63          1
    65          9
    66         13
    67        156
    68        141
    69        646
    70        498
    71        409
    72         21
    74          1
    77          8
    78          2
    79         15
    80          6
    81         79
    82        204
    83        716
    84        293
    85        225
    86         12
    91          3
    93          3
    94          2
    95         34
    96        111
    97        619
    98        197
    99         61
   100          4
   109         11
   110         55
   111        312
   112        133
   113         33
   114          2
   123          8
   124         31
   125        161
   126         90
   127         22
   128          2
   137          4
   138         21
   139         72
   140         58
   141         13
   142          1
   151          1
   152         13
   153         39
   154         46
   155          9
   166         10
   167         25
   168         29
   169          6
   180          7
   181         14
   182         27
   183          6
   194          4
   195         10
   196         13
   197          3
   208          2
   209          5
   210         13
   211          3
   222          1
   223          5
   224         22
   225          4
   252         55
   253         11
   254          3