##TITLE=Library Entry 23563
##JCAMP-DX=Revision 4.10 
##DATA TYPE=MASS SPECTRUM
##SAMPLE DESCRIPTION=NIST Mass Spectrometry Data Center, 2009
##NAMES=HP
##CAS NAME=1,2-Dibutoxyethane
##MOLFORM=C10H22O2
##CAS REGISTRY NO=112-48-1
##MP= -300
##BP= -300
##MW= 174
##$RETENTION INDEX=1130
##$CONDENSED SPECTRUM=NO
##NPOINTS= 60
##XYDATA=(XY..XY) 1 
    15          2
    19          1
    26          4
    27         46
    28         32
    29        152
    30          8
    31         15
    33          1
    38          1
    39         36
    40          6
    41        259
    42         21
    43         56
    44         34
    45        126
    46          5
    47          3
    50          1
    51          2
    52          1
    53          7
    54          4
    55         87
    56        258
    57        999
    58         54
    59         35
    60          3
    61          4
    63         10
    67          1
    69          9
    70          2
    71         39
    72         42
    73        106
    74         49
    75         63
    76          2
    83          1
    85          9
    86          2
    87        100
    88          6
    89          1
   100         12
   101         17
   102         69
   103         28
   104          2
   117          5
   118          1
   119         19
   120          1
   131         15
   132          1
   145          1
   174          2