##TITLE=Library Entry 20796
##JCAMP-DX=Revision 4.10 
##DATA TYPE=MASS SPECTRUM
##SAMPLE DESCRIPTION=NIST Mass Spectrometry Data Center
##NAMES=HP
##CAS NAME=n-Tridecan-1-ol
##MOLFORM=C13H28O
##CAS REGISTRY NO=112-70-9
##MP= -300
##BP= -300
##MW= 200
##$RETENTION INDEX=1577
##$CONDENSED SPECTRUM=NO
##NPOINTS= 83
##XYDATA=(XY..XY) 1 
    15          2
    19          2
    26          4
    27         86
    28         24
    29        196
    31        182
    32          2
    33          1
    37          1
    39        111
    40         27
    41        672
    42        191
    43        665
    44         37
    45         19
    46          1
    50          1
    51          6
    52          4
    53         62
    54        104
    55        999
    56        632
    57        642
    58         30
    59          4
    63          1
    65         11
    66         14
    67        155
    68        317
    69        821
    70        628
    71        243
    72         13
    73         20
    74          1
    77          7
    78          1
    79         14
    80          4
    81         70
    82        365
    83        834
    84        417
    85        124
    86          8
    87          3
    91          3
    93          2
    94          1
    95         23
    96        121
    97        603
    98        237
    99         26
   100          1
   109          5
   110         54
   111        309
   112        138
   113         15
   114          1
   123          2
   124         22
   125        127
   126         83
   127          9
   128          1
   137          1
   138          6
   139         20
   140         20
   141          3
   152          3
   153          7
   154         81
   155         10
   156          1
   182         14
   183          2