##TITLE=Library Entry 2713
##JCAMP-DX=Revision 4.10 
##DATA TYPE=MASS SPECTRUM
##SAMPLE DESCRIPTION=NIST Mass Spectrometry Data Center, 1990.
##NAMES=HP
##CAS NAME=1-Dodecanethiol
##MOLFORM=C12H26S
##CAS REGISTRY NO=112-55-0
##MP= -300
##BP= -300
##MW= 202
##$RETENTION INDEX=1536
##$CONDENSED SPECTRUM=NO
##NPOINTS= 89
##XYDATA=(XY..XY) 1 
    15          6
    16          0
    17          3
    18          9
    27        239
    28         66
    29        406
    30         11
    32          5
    34          4
    35         26
    36          4
    39        189
    41        999
    42        250
    43        791
    44         32
    45         56
    46         23
    47        206
    48          9
    49         11
    50          3
    51          9
    52          3
    53         76
    54        125
    55        927
    56        625
    57        520
    58         29
    59         21
    60         37
    61        105
    62         10
    63          6
    65         12
    66         17
    67        141
    68        237
    69        690
    70        546
    71        165
    72         11
    73         10
    74          5
    75          5
    77          7
    78          2
    79         13
    80          2
    81         52
    82        243
    83        555
    84        298
    85         98
    86          7
    87         22
    88         23
    89        145
    90         10
    91          7
    96        134
    97        390
    98        151
    99         20
   101          8
   102          3
   103         14
   110         42
   111        202
   112         95
   113         10
   115          3
   117          2
   124         17
   125         73
   126         27
   127          4
   138          8
   139         22
   140         64
   141          9
   168         93
   169         12
   201         20
   202        128
   203         21
   204          6