##TITLE=Library Entry 28132
##JCAMP-DX=Revision 4.10 
##DATA TYPE=MASS SPECTRUM
##SAMPLE DESCRIPTION=Japan AIST/NIMC Database- Spectrum MS-IW-3967
##NAMES=HP
##CAS NAME=Dodecyltrimethylammonium chloride
##MOLFORM=C15H34ClN
##CAS REGISTRY NO=112-00-5
##MP= -300
##BP= -300
##MW= 263
##$RETENTION INDEX=0
##$CONDENSED SPECTRUM=NO
##NPOINTS= 73
##XYDATA=(XY..XY) 1 
    15          7
    27          6
    28          5
    29         16
    30         10
    36          1
    39          4
    40          1
    41         35
    42         21
    43         48
    44         20
    45         20
    46         11
    47          3
    48          1
    49          5
    50         76
    51          2
    52         24
    53          2
    54          2
    55         36
    56         12
    57         41
    58        999
    59         66
    60          1
    67          3
    68          1
    69         21
    70          9
    71         16
    72          8
    73          1
    77          1
    81          2
    82          2
    83          9
    84         22
    85          7
    86          1
    91         24
    92          1
    93          7
    95          1
    96          1
    97          5
    98          3
    99          1
   100          3
   105          6
   107          2
   108          1
   110          1
   111          2
   112          1
   114          5
   119          1
   126          1
   128          3
   135          3
   140          1
   142          1
   156          1
   170          1
   184          2
   198          3
   210          1
   211          1
   212         13
   213         50
   214          8