##TITLE=Library Entry 28227
##JCAMP-DX=Revision 4.10 
##DATA TYPE=MASS SPECTRUM
##SAMPLE DESCRIPTION=Japan AIST/NIMC Database- Spectrum MS-NW-2730
##NAMES=HP
##CAS NAME=1-Dodecanamine, N,N-dimethyl-
##MOLFORM=C14H31N
##CAS REGISTRY NO=112-18-5
##MP= -300
##BP= -300
##MW= 213
##$RETENTION INDEX=1519
##$CONDENSED SPECTRUM=NO
##NPOINTS= 45
##XYDATA=(XY..XY) 1 
    15          2
    27          8
    28         11
    29         16
    30          5
    32          2
    39          5
    40          1
    41         27
    42         17
    43         25
    44         13
    45         12
    46          5
    53          1
    54          1
    55         17
    56          8
    57         13
    58        999
    59         36
    67          1
    68          1
    69          7
    70          5
    71          6
    72          5
    73          1
    82          1
    83          3
    84         18
    85          2
    97          1
    98          2
   100          2
   110          1
   114          3
   128          2
   142          1
   184          1
   198          2
   211          1
   212          7
   213         19
   214          3