##TITLE=Library Entry 24396
##JCAMP-DX=Revision 4.10 
##DATA TYPE=MASS SPECTRUM
##SAMPLE DESCRIPTION=Japan AIST/NIMC Database- Spectrum MS-NW-5348
##NAMES=HP
##CAS NAME=Octadecane, 1-bromo-
##MOLFORM=C18H37Br
##CAS REGISTRY NO=112-89-0
##MP= -300
##BP= -300
##MW= 332
##$RETENTION INDEX=2161
##$CONDENSED SPECTRUM=NO
##NPOINTS= 166
##XYDATA=(XY..XY) 1 
    15          2
    26          3
    27         86
    28          9
    29        215
    30          5
    38          1
    39         58
    40         13
    41        471
    42        106
    43        788
    44         27
    45          1
    50          1
    51          2
    52          2
    53         29
    54         39
    55        476
    56        162
    57        999
    58         45
    59          1
    65          5
    66          3
    67         47
    68         33
    69        345
    70        122
    71        601
    72         39
    73          2
    77          4
    78          2
    79          6
    80          3
    81         25
    82         31
    83        236
    84         71
    85        393
    86         28
    87          1
    91          3
    92          1
    93          2
    94          1
    95         13
    96         14
    97        152
    98         42
    99        119
   100          9
   101          1
   105          1
   107         11
   109         10
   110          7
   111         72
   112         26
   113         79
   114          8
   119          1
   121          8
   122          1
   123          7
   124          4
   125         25
   126         16
   127         56
   128          7
   133          1
   134          2
   135        305
   136         15
   137        301
   138         14
   139         10
   140         10
   141         39
   142          5
   148         10
   149         70
   150         14
   151         67
   152          5
   153          5
   154          8
   155         31
   156          5
   161          1
   162          5
   163         21
   164          7
   165         20
   166          2
   167          4
   168          6
   169         24
   170          4
   175          1
   176          1
   177         11
   178          2
   179         11
   180          1
   181          2
   182          4
   183         19
   184          4
   190          1
   191          9
   192          2
   193          9
   194          1
   195          1
   196          3
   197         13
   198          2
   204          1
   205          7
   206          2
   207          6
   208          1
   209          1
   210          2
   211          8
   212          2
   219          6
   220          2
   221          5
   222          1
   224          2
   225          4
   226          1
   232          1
   233          3
   234          1
   235          3
   238          1
   239          4
   240          1
   246          1
   247          3
   248          1
   249          3
   252          3
   253         19
   254          4
   261          2
   262          1
   263          2
   267          2
   274          1
   275          2
   276          2
   277          2
   280          1
   281          3
   289          1
   291          1
   302          1
   303          4
   304          2
   332          1