##TITLE=Library Entry 2536
##JCAMP-DX=Revision 4.10 
##DATA TYPE=MASS SPECTRUM
##SAMPLE DESCRIPTION=NIST Mass Spectrometry Data Center, 1994
##NAMES=HP
##CAS NAME=Myristoyl chloride
##MOLFORM=C14H27ClO
##CAS REGISTRY NO=112-64-1
##MP= -300
##BP= -300
##MW= 246
##$RETENTION INDEX=0
##$CONDENSED SPECTRUM=NO
##NPOINTS= 111
##XYDATA=(XY..XY) 1 
    15         11
    27        304
    28          1
    29        526
    30         14
    35          3
    36          0
    37          5
    38          0
    39        208
    40          0
    41        999
    42        270
    43        929
    44         29
    45          2
    49          5
    50          3
    51         10
    52          0
    53         72
    54        103
    55        794
    56        214
    57        438
    58         34
    59          6
    63         40
    65         25
    66         17
    67        115
    68         98
    69        344
    70        151
    71        152
    72         24
    73          5
    75          4
    76          3
    77         17
    78         55
    79         56
    80         46
    81        106
    82        106
    83        272
    84        512
    85        105
    86         26
    87          5
    91         33
    92          6
    93         42
    94         36
    95         84
    96        100
    97        273
    98        820
    99         72
   100         16
   101          5
   102         24
   104          8
   105          6
   107         25
   108         23
   109         44
   110         68
   111        181
   112        224
   113         27
   114          8
   115          4
   116         19
   118          7
   119          4
   121         45
   122         19
   123         28
   124         32
   125         64
   126         49
   127          8
   128          4
   135         32
   136         14
   137         13
   138         25
   139         31
   140         30
   141          5
   142          2
   149         15
   150          5
   151          3
   152          3
   153         20
   154         34
   155          5
   163         12
   164          4
   166         48
   167         28
   168         17
   169          5
   181         11
   182          4
   192         11
   193          6
   211        186
   212         29