##TITLE=Library Entry 17216
##JCAMP-DX=Revision 4.10 
##DATA TYPE=MASS SPECTRUM
##SAMPLE DESCRIPTION=NIST Mass Spectrometry Data Center, 1994
##NAMES=HP
##CAS NAME=Ethanol, 2-[2-(2-ethoxyethoxy)ethoxy]-
##MOLFORM=C8H18O4
##CAS REGISTRY NO=112-50-5
##MP= -300
##BP= -300
##MW= 178
##$RETENTION INDEX=1243
##$CONDENSED SPECTRUM=NO
##NPOINTS= 53
##XYDATA=(XY..XY) 1 
    14          3
    15         25
    16          2
    19         25
    25          1
    26         12
    27         87
    28         78
    29        157
    30          1
    31        183
    32          4
    33          3
    39          1
    41         19
    42         17
    43        124
    44        123
    45        999
    46         24
    47          7
    51          2
    55          1
    57         13
    58         44
    59        219
    60         15
    61          9
    62          1
    63          1
    70          4
    72        247
    73        192
    74         10
    75         31
    76         12
    77          1
    87         46
    88         47
    89        149
    90          7
    91          1
   101         15
   102          9
   103         44
   104          3
   105          1
   106          2
   116         16
   117          9
   119          9
   133          1
   148          1