##TITLE=Library Entry 6391
##JCAMP-DX=Revision 4.10 
##DATA TYPE=MASS SPECTRUM
##SAMPLE DESCRIPTION=Chuck Anderson, Aldrich Chemical Co.
##NAMES=HP
##CAS NAME=Decane, 1-bromo-
##MOLFORM=C10H21Br
##CAS REGISTRY NO=112-29-8
##MP= -300
##BP= -300
##MW= 220
##$RETENTION INDEX=1337
##$CONDENSED SPECTRUM=NO
##NPOINTS= 108
##XYDATA=(XY..XY) 1 
    15          1
    25          0
    26          7
    27        198
    28         49
    29        330
    30          7
    34          0
    35          0
    36          0
    37          1
    38          5
    39        209
    40         39
    41        868
    42        194
    43        999
    44         31
    45          0
    46          0
    47          0
    48          0
    49          0
    50          2
    51          9
    52          5
    53         53
    54         38
    55        720
    56        198
    57        768
    58         31
    59          0
    62          0
    63          1
    64          0
    65          7
    66          2
    67         35
    68         19
    69        336
    70         86
    71        294
    72         15
    73          0
    77          3
    78          0
    79          4
    80          1
    81          5
    82          6
    83         92
    84         23
    85        281
    86         17
    87          0
    91          1
    92          0
    93          8
    94          0
    95          9
    96          1
    97         46
    98          9
    99         49
   100          3
   105          1
   106          3
   107         37
   108          3
   109         34
   110          1
   111          8
   112          4
   113          0
   119          2
   120          1
   121         18
   122          2
   123         16
   124          0
   133          0
   135        778
   136         28
   137        720
   138         27
   139          0
   140          1
   141          0
   148          1
   149        114
   150          7
   151        109
   152          5
   153          0
   162          0
   163          6
   164          1
   165          7
   166          0
   177          0
   178          0
   179          0
   218          0
   220          3
   221          0
   222          3
   223          0