##TITLE=Library Entry 17072
##JCAMP-DX=Revision 4.10 
##DATA TYPE=MASS SPECTRUM
##SAMPLE DESCRIPTION=NIST Mass Spectrometry Data Center
##NAMES=HP
##CAS NAME=Triethylene glycol
##MOLFORM=C6H14O4
##CAS REGISTRY NO=112-27-6
##MP= -300
##BP= -300
##MW= 150
##$RETENTION INDEX=1160
##$CONDENSED SPECTRUM=NO
##NPOINTS= 43
##XYDATA=(XY..XY) 1 
    15          7
    19         12
    26          5
    27         44
    28         39
    29         65
    30          9
    31         90
    32          4
    33          6
    41          3
    42         11
    43         84
    44         82
    45        999
    46         25
    47          3
    57         10
    58        147
    59         56
    60         12
    61         10
    62          7
    63          2
    70          1
    72          1
    73          6
    75         81
    76          3
    77          3
    86          1
    87         48
    88         34
    89        146
    90         44
    91          3
   101         14
   102         11
   103          1
   105          2
   107          2
   119         19
   120          1