##TITLE=Library Entry 71002
##JCAMP-DX=Revision 4.10 
##DATA TYPE=MASS SPECTRUM
##SAMPLE DESCRIPTION=NIST Mass Spectrometry Data Center
##NAMES=HP
##CAS NAME=Palmitoyl chloride
##MOLFORM=C16H31ClO
##CAS REGISTRY NO=112-67-4
##MP= -300
##BP= -300
##MW= 274
##$RETENTION INDEX=0
##$CONDENSED SPECTRUM=NO
##NPOINTS= 138
##XYDATA=(XY..XY) 1 
    26          2
    27         47
    29        113
    30          2
    35          2
    36          8
    37          1
    38          4
    39         63
    40         11
    41        416
    42        102
    43        481
    44         16
    49          1
    50          1
    51          4
    52          2
    53         37
    54         55
    55        584
    56        158
    57        402
    58         38
    59          9
    63         17
    65         12
    66          9
    67        104
    68         85
    69        310
    70        146
    71        194
    72         32
    73          5
    75          1
    77         11
    78         39
    79         46
    80         42
    81        110
    82        123
    83        324
    84        485
    85        138
    86         40
    87          8
    89          1
    91         26
    92          3
    93         46
    94         41
    95        101
    96        115
    97        320
    98        999
    99        104
   100         33
   101          8
   102         21
   103          1
   104          7
   105          6
   106          1
   107         33
   108         33
   109         59
   110         58
   111        268
   112        328
   113         55
   114         24
   115          6
   116         20
   117          1
   118          6
   119          3
   120          2
   121         70
   122         31
   123         32
   124         43
   125        118
   126         76
   127         26
   128         16
   129          3
   130          1
   133          1
   135         48
   136         21
   137         18
   138         39
   139         56
   140         55
   141         15
   142         10
   143          1
   149         28
   150         11
   151         10
   152         22
   153         40
   154         80
   155         15
   156          5
   157          1
   163         14
   164          5
   165          6
   166         14
   167         40
   168         72
   169         11
   170          3
   177         12
   178          5
   181         34
   182         61
   183         12
   184          1
   191          7
   192          3
   193          1
   194         37
   195         39
   196         39
   197          8
   209         23
   210          6
   220         13
   221          4
   223          4
   237          3
   238         25
   239        180
   240         30
   241          2