##TITLE=Library Entry 2712
##JCAMP-DX=Revision 4.10 
##DATA TYPE=MASS SPECTRUM
##SAMPLE DESCRIPTION=NIST Mass Spectrometry Data Center, 1994
##NAMES=HP
##CAS NAME=Oleic Acid
##MOLFORM=C18H34O2
##CAS REGISTRY NO=112-80-1
##MP= -300
##BP= -300
##MW= 282
##$RETENTION INDEX=2141
##$CONDENSED SPECTRUM=NO
##NPOINTS= 143
##XYDATA=(XY..XY) 1 
    15         12
    27        258
    28         40
    29        504
    30         11
    31         21
    39        218
    41        999
    42        190
    43        595
    44         27
    45        123
    46          5
    51         13
    53        111
    54        254
    55        824
    56        225
    57        241
    58         19
    59         42
    60        156
    61         13
    65         29
    67        253
    68        160
    69        425
    70        161
    71         83
    72         13
    73        104
    74         13
    77         24
    79         69
    80         40
    81        170
    82        143
    83        299
    84        160
    85         51
    86          9
    87         37
    88          4
    91         12
    92          0
    93         23
    94         29
    95         97
    96        139
    97        216
    98        122
    99         27
   100         23
   101         29
   102          5
   105          8
   106          2
   107         15
   108         21
   109         60
   110         75
   111         92
   112         38
   113         18
   114         29
   115         15
   116          5
   119         14
   120          7
   121         18
   122         15
   123         44
   124         40
   125         38
   126         17
   127         28
   128          8
   129         15
   130          3
   133         12
   134         11
   135         11
   136         11
   137         32
   138         28
   139         19
   140         10
   141          6
   143          6
   144          2
   147         12
   149          4
   150          5
   151         23
   152         13
   153          9
   154          6
   155          5
   157          3
   161          8
   162          4
   163          6
   164          7
   165         13
   166         16
   167          2
   168          4
   169          6
   171          3
   172          2
   175          8
   176          3
   177          3
   179         14
   180         13
   181          7
   182          3
   183          4
   185          5
   186          4
   189          4
   193          9
   194          7
   195          3
   199          4
   207          5
   208          6
   209          2
   220         16
   221         15
   222         16
   223          5
   235         11
   236          5
   239          3
   241          3
   246          6
   264         58
   265         16
   266          2
   280          2
   282         10
   283          2