##TITLE=Library Entry 27724
##JCAMP-DX=Revision 4.10 
##DATA TYPE=MASS SPECTRUM
##SAMPLE DESCRIPTION=Tox21 Consortium/NIST Mass Spectrometry Data Center, 20
12
##NAMES=HP
##CAS NAME=1-Tetradecanamine, N,N-dimethyl-
##MOLFORM=C16H35N
##CAS REGISTRY NO=112-75-4
##MP= -300
##BP= -300
##MW= 241
##$RETENTION INDEX=1694
##$CONDENSED SPECTRUM=NO
##NPOINTS= 54
##XYDATA=(XY..XY) 1 
    15          1
    26          1
    27          7
    28          4
    29         17
    30          6
    39          6
    40          2
    41         47
    42         26
    43         45
    44         15
    45         12
    46          8
    53          3
    54          2
    55         31
    56         12
    57         21
    58        999
    59         38
    60          1
    65          1
    67          3
    68          2
    69         10
    70          7
    71          8
    72          4
    73          1
    79          1
    81          1
    82          2
    83          3
    84         18
    85          2
    97          1
    98          2
   100          2
   110          1
   112          1
   114          4
   126          1
   128          2
   140          1
   142          1
   156          1
   170          1
   184          1
   212          1
   226          1
   240          4
   241         12
   242          2