##TITLE=Library Entry 9088
##JCAMP-DX=Revision 4.10 
##DATA TYPE=MASS SPECTRUM
##SAMPLE DESCRIPTION=Japan AIST/NIMC Database- Spectrum MS-NW-5738
##NAMES=HP
##CAS NAME=Disulfide, dipentyl
##MOLFORM=C10H22S2
##CAS REGISTRY NO=112-51-6
##MP= -300
##BP= -300
##MW= 206
##$RETENTION INDEX=1474
##$CONDENSED SPECTRUM=NO
##NPOINTS= 90
##XYDATA=(XY..XY) 1 
    14          1
    15          3
    26          5
    27         88
    28          7
    29        142
    30          4
    32          1
    33          1
    34          4
    35          4
    37          1
    38          3
    39         50
    40          9
    41        217
    42         60
    43        999
    44         32
    45         28
    46         16
    47         29
    48          2
    49          2
    50          1
    51          2
    52          1
    53         10
    54          3
    55         80
    56          9
    57         10
    58          4
    59         21
    60         19
    61         19
    62          2
    63          2
    64          7
    65          3
    66          6
    67         14
    68         10
    69         64
    70         46
    71        501
    72         27
    73         12
    74          7
    75          2
    76          5
    78          3
    79         23
    80          2
    81          3
    85          1
    87         20
    88          1
    89          1
    92          1
    93          5
    94          1
    95          1
    99          1
   101         29
   102         26
   103         93
   104         13
   105          6
   106          2
   107          2
   108          1
   117          1
   122          1
   131          1
   134          1
   135          2
   136        242
   137         17
   138         23
   139          2
   140          1
   163          1
   173          1
   174          3
   206        291
   207         40
   208         28
   209          4
   210          1