##TITLE=Library Entry 53777
##JCAMP-DX=Revision 4.10 
##DATA TYPE=MASS SPECTRUM
##SAMPLE DESCRIPTION=NIST Mass Spectrometry Data Center
##NAMES=HP
##CAS NAME=Decanoyl chloride
##MOLFORM=C10H19ClO
##CAS REGISTRY NO=112-13-0
##MP= -300
##BP= -300
##MW= 190
##$RETENTION INDEX=1316
##$CONDENSED SPECTRUM=NO
##NPOINTS= 119
##XYDATA=(XY..XY) 1 
    15          2
    26          9
    27        128
    28         42
    29        188
    30          4
    35          1
    36          1
    37          2
    38          7
    39        193
    40         41
    41        681
    42        219
    43        575
    44         22
    45          1
    46          1
    47          1
    48          1
    49          7
    50          6
    51         19
    52          9
    53         81
    54         98
    55        935
    56        281
    57        443
    58         27
    59          2
    61          2
    62          2
    63         68
    64          2
    65         37
    66         13
    67        117
    68        159
    69        350
    70        236
    71        287
    72         27
    73          3
    75          6
    76          2
    77         26
    78        111
    79         78
    80         68
    81        179
    82        109
    83        330
    84        999
    85        149
    86         29
    87          4
    88          2
    89          3
    91        108
    92          9
    93         71
    94         46
    95        101
    96         21
    97        293
    98        922
    99         76
   100          7
   101          2
   102         63
   103          5
   104         22
   105         30
   106          3
   107         52
   108         23
   110        485
   111        187
   112        179
   113         17
   114          1
   115          2
   116         46
   117          4
   118         15
   119          9
   120          2
   121         30
   122          3
   123          6
   124          1
   125         34
   126         25
   127          8
   128          1
   129          1
   130          2
   131          1
   132          1
   133          9
   134          1
   135          7
   136         30
   137         28
   138          3
   139          3
   143          1
   144          1
   147          4
   149          1
   153          2
   154          8
   155        462
   156         52
   157          3
   161          1
   162          3
   164          1