##TITLE=Library Entry 37350
##JCAMP-DX=Revision 4.10 
##DATA TYPE=MASS SPECTRUM
##SAMPLE DESCRIPTION=NIST Mass Spectrometry Data Center, 2010
##NAMES=HP
##CAS NAME=1-Decanol
##MOLFORM=C10H22O
##CAS REGISTRY NO=112-30-1
##MP= -300
##BP= -300
##MW= 158
##$RETENTION INDEX=1273
##$CONDENSED SPECTRUM=NO
##NPOINTS= 76
##XYDATA=(XY..XY) 1 
    15          2
    19          3
    25          1
    26          5
    27        132
    28         34
    29        244
    30         10
    31        184
    32          4
    33          1
    37          1
    38          3
    39        149
    40         34
    41        727
    42        301
    43        732
    44         50
    45         28
    46          1
    50          4
    51          9
    52          5
    53         58
    54         85
    55        987
    56        859
    57        452
    58         18
    59          5
    62          1
    63          1
    65         10
    66          7
    67        123
    68        303
    69        823
    70        999
    71        182
    72          9
    73         27
    74          2
    77          7
    78          2
    79         12
    80          2
    81         35
    82        275
    83        724
    84        476
    85         94
    86          4
    87          3
    91          2
    93          2
    95         10
    96         53
    97        389
    98        155
    99         13
   101          1
   109          4
   110         19
   111        207
   112        254
   113         24
   114          1
   123          1
   125          5
   126          1
   128          1
   138          1
   140         20
   141          3
   157          1