##TITLE=Library Entry 71855
##JCAMP-DX=Revision 4.10 
##DATA TYPE=MASS SPECTRUM
##SAMPLE DESCRIPTION=RADIAN CORP
##NAMES=HP
##CAS NAME=Octadecane, 1-isocyanato-
##MOLFORM=C19H37NO
##CAS REGISTRY NO=112-96-9
##MP= -300
##BP= -300
##MW= 295
##$RETENTION INDEX=0
##$CONDENSED SPECTRUM=NO
##NPOINTS= 90
##XYDATA=(XY..XY) 1 
    27         54
    29        138
    30         26
    39         62
    41        460
    42        105
    43        522
    44         23
    45          6
    46          7
    53         34
    54         57
    55        499
    56        270
    57        379
    58         61
    59         25
    60          6
    65          7
    66          4
    67         83
    68         63
    69        291
    70        128
    71        168
    72         22
    73         11
    77          7
    79         18
    80          7
    81         50
    82         56
    83        138
    84        109
    85        191
    86         36
    87          8
    91         31
    93         16
    94          4
    95         29
    96         44
    97         85
    98        284
    99        999
   100         86
   101          9
   105         10
   107          6
   109         12
   110         25
   111         28
   112        416
   113        302
   114         30
   115          4
   119          4
   122          2
   123          9
   124         23
   125         10
   126        176
   127         51
   128         10
   133          4
   137          7
   138         14
   139          3
   140         61
   141         14
   142          5
   152          8
   153          1
   154         32
   155          6
   156          3
   166          4
   168         19
   169          1
   180          3
   182         13
   194          3
   196         12
   208          3
   210         12
   222          3
   224         12
   236          1
   238          9
   252          6