##TITLE=Library Entry 20218
##JCAMP-DX=Revision 4.10 
##DATA TYPE=MASS SPECTRUM
##SAMPLE DESCRIPTION=NIST Mass Spectrometry Data Center
##NAMES=HP
##CAS NAME=9-Octadecenoic acid (Z)-, methyl ester
##MOLFORM=C19H36O2
##CAS REGISTRY NO=112-62-9
##MP= -300
##BP= -300
##MW= 296
##$RETENTION INDEX=2091
##$CONDENSED SPECTRUM=NO
##NPOINTS= 214
##XYDATA=(XY..XY) 1 
    15          7
    26          2
    27         35
    28         10
    29         90
    30          3
    31          4
    33          1
    39         76
    40         18
    41        463
    42        103
    43        379
    44         14
    45         19
    50          1
    51          6
    52          5
    53         77
    54        200
    55        999
    56        219
    57        195
    58         12
    59        208
    60          7
    61          2
    62          1
    63          1
    64          1
    65         27
    66         20
    67        317
    68        171
    69        656
    70        161
    71         86
    72         10
    73         51
    74        535
    75         73
    76          5
    77         25
    78          9
    79         85
    80         41
    81        284
    82        197
    83        516
    84        379
    85         88
    87        421
    88         39
    89          3
    91         25
    92          7
    93         53
    94         55
    95        269
    96        436
    97        512
    98        361
    99         50
   100         11
   101         75
   102          9
   103          2
   104          1
   105         13
   106          6
   107         40
   108         39
   109        157
   110        234
   111        239
   112         89
   113         39
   114         47
   115         77
   116         12
   117          2
   118          3
   119         36
   120         14
   121         58
   122         25
   123        164
   124        127
   125        133
   126         28
   127         39
   128         55
   129         57
   130         16
   131          3
   132          2
   133         35
   134         34
   135         55
   136         18
   137        102
   138        102
   139         83
   140         14
   141         77
   142         15
   143         53
   144          8
   145          2
   146          1
   147         26
   148         29
   149         38
   150         16
   151         73
   152         89
   153         47
   154          8
   155         19
   156          4
   157         18
   158          4
   159          1
   161         20
   162         10
   163         21
   164         15
   165         47
   166         68
   167         29
   168          6
   169         28
   170          5
   171         12
   172          3
   173          1
   175         17
   176          5
   177         11
   178          6
   179         28
   180        130
   181         33
   182          6
   183         19
   184          3
   185          9
   186          3
   187          1
   189         10
   190          3
   191          5
   192          3
   193         23
   194         24
   195          9
   196          3
   197          5
   198          1
   199         13
   200          7
   201          1
   203          5
   204          2
   205          2
   206          2
   207         24
   208         18
   209          9
   210          3
   211          2
   212          1
   213         11
   214          7
   215          1
   217          3
   218          1
   220         49
   221         47
   222        164
   223         36
   224          4
   225          2
   227          4
   228          4
   229          1
   231          1
   233          1
   235         30
   236         19
   237          3
   239          2
   240          1
   241          2
   245          2
   246         18
   247          8
   248          1
   249          5
   250          1
   253         12
   254          2
   255          1
   264        287
   265        194
   266         34
   267          6
   268          1
   278          4
   279          1
   294          1
   296         60
   297         15
   298          2