##TITLE=Library Entry 19695
##JCAMP-DX=Revision 4.10 
##DATA TYPE=MASS SPECTRUM
##SAMPLE DESCRIPTION=Japan AIST/NIMC Database- Spectrum MS-NW-1608
##NAMES=HP
##CAS NAME=1-Dodecanol
##MOLFORM=C12H26O
##CAS REGISTRY NO=112-53-8
##MP= -300
##BP= -300
##MW= 186
##$RETENTION INDEX=1473
##$CONDENSED SPECTRUM=NO
##NPOINTS= 73
##XYDATA=(XY..XY) 1 
    15          6
    17          2
    18         10
    19          5
    26          5
    27        162
    28         25
    29        341
    30          8
    31        181
    32          4
    38          2
    39        104
    40         21
    41        733
    42        271
    43        961
    44         32
    45         23
    50          1
    51          4
    52          3
    53         38
    54         87
    55        999
    56        839
    57        684
    58         29
    59          4
    65          5
    66          8
    67        110
    68        324
    69        863
    70        757
    71        228
    72         10
    73         26
    74          2
    77          4
    79          6
    80          2
    81         38
    82        297
    83        747
    84        482
    85        120
    86          7
    87          3
    91          2
    93          1
    95         11
    96         89
    97        461
    98        283
    99         28
   100          1
   109          3
   110         34
   111        233
   112        151
   113         13
   123          1
   124         10
   125         78
   126         52
   127          6
   138          4
   139         22
   140        153
   141         15
   168         44
   169          6