##TITLE=Library Entry 17098
##JCAMP-DX=Revision 4.10 
##DATA TYPE=MASS SPECTRUM
##SAMPLE DESCRIPTION=NIST Mass Spectrometry Data Center, 2007
##NAMES=HP
##CAS NAME=Ethanol, 2-[2-(2-methoxyethoxy)ethoxy]-
##MOLFORM=C7H16O4
##CAS REGISTRY NO=112-35-6
##MP= -300
##BP= -300
##MW= 164
##$RETENTION INDEX=1219
##$CONDENSED SPECTRUM=NO
##NPOINTS= 57
##XYDATA=(XY..XY) 1 
    14          2
    15         43
    16          2
    17          1
    18          1
    19         16
    26         10
    27         64
    28         93
    29        221
    30         20
    31        206
    32          5
    33          9
    39          2
    40          1
    41         14
    42         19
    43        133
    44         98
    45        999
    46         25
    47          5
    56          1
    57         18
    58        345
    59        724
    60         35
    61          6
    69          1
    70          5
    71          4
    72          7
    73         16
    74          2
    75         42
    76          7
    77          2
    86          2
    87         79
    88         66
    89        317
    90         18
    91          3
   100          1
   101         21
   102         45
   103         51
   104          4
   105          1
   115          1
   119         29
   120          2
   121          2
   131          1
   133         15
   134          3