##TITLE=Library Entry 32868
##JCAMP-DX=Revision 4.10 
##DATA TYPE=MASS SPECTRUM
##SAMPLE DESCRIPTION=NIST Mass Spectrometry Data Center
##NAMES=HP
##CAS NAME=9,12-Octadecadienoic acid (Z,Z)-, methyl ester
##MOLFORM=C19H34O2
##CAS REGISTRY NO=112-63-0
##MP= -300
##BP= -300
##MW= 294
##$RETENTION INDEX=2092
##$CONDENSED SPECTRUM=NO
##NPOINTS= 199
##XYDATA=(XY..XY) 1 
    15         11
    26          2
    27         47
    28         14
    29        113
    30          3
    31          5
    33          1
    37          1
    39         97
    40         20
    41        456
    42         62
    43        194
    44          8
    45         21
    50          2
    51         14
    52         13
    53        119
    54        349
    55        650
    56         62
    57         63
    59        200
    60          6
    61          2
    62          1
    63          3
    65         82
    66         75
    67        999
    68        423
    69        321
    70         31
    71         28
    72          3
    73         31
    74        137
    75         13
    77        158
    78         48
    79        474
    80        247
    81        956
    82        534
    83        208
    84         43
    85         47
    87         97
    88          9
    89          5
    91        142
    92         29
    93        194
    94        173
    95        720
    96        472
    97        165
    98         36
    99         24
   100          5
   101         29
   102          3
   103          6
   104          7
   105         40
   106         22
   107        129
   108        127
   109        372
   110        280
   111         83
   112         11
   113         13
   114          7
   115         44
   116          5
   117         14
   118          7
   119         33
   120         33
   121        146
   122        122
   123        193
   124        147
   125         45
   126          9
   127         16
   128          9
   129         32
   130          4
   131         31
   132         11
   133         40
   134         18
   135        145
   136        147
   137        104
   138         76
   139         26
   140         17
   141         21
   142          4
   143         17
   144          3
   145         21
   146         12
   147         24
   148          9
   149        112
   150        160
   151         71
   152         42
   153         20
   154         18
   155          9
   156          1
   157          8
   158          1
   159         19
   160          6
   161         11
   162          4
   163         61
   164        103
   165         37
   166         21
   167         15
   168         14
   169          4
   170          1
   171          5
   172          1
   173         24
   174          6
   175          6
   176          2
   177         32
   178         61
   179         22
   180          9
   181         13
   182          9
   183          2
   185          2
   187         15
   188          3
   189          3
   191         17
   192         17
   193          8
   194          3
   195          9
   196          9
   197          2
   199          1
   201          5
   202          1
   203          1
   205         11
   206          9
   207          3
   208          2
   209          7
   210          7
   211          1
   213          1
   215          2
   216          1
   218          5
   219          7
   220         38
   221          8
   223          5
   224          5
   225          1
   227          1
   233          4
   234          8
   235          2
   237          4
   238          3
   239          1
   244          1
   245          4
   246          1
   247          1
   251          3
   252          2
   262         78
   263        123
   264         23
   265          5
   266          1
   279          1
   294        189
   295         40
   296          5