##TITLE=Library Entry 19184
##JCAMP-DX=Revision 4.10 
##DATA TYPE=MASS SPECTRUM
##SAMPLE DESCRIPTION=NIST Mass Spectrometry Data Center, 1990.
##NAMES=HP
##CAS NAME=10-Undecen-1-ol
##MOLFORM=C11H22O
##CAS REGISTRY NO=112-43-6
##MP= -300
##BP= -300
##MW= 170
##$RETENTION INDEX=1664
##$CONDENSED SPECTRUM=NO
##NPOINTS= 68
##XYDATA=(XY..XY) 1 
    14          9
    15          3
    16          6
    18          4
    27        130
    28         18
    29        183
    30          3
    31        223
    39        294
    40         72
    41        847
    42        164
    43        205
    44         47
    45         30
    50          7
    51         22
    52         15
    53        139
    54        478
    55        999
    56        162
    57        162
    58         16
    59          5
    63          4
    65         33
    66         80
    67        773
    68        597
    69        434
    70         75
    71         72
    72         13
    73          6
    77         19
    78          6
    79         58
    80          4
    81        509
    82        509
    83        135
    84         28
    85         38
    86          9
    91         10
    92          2
    93         17
    94          2
    95        293
    96        211
    97         51
    98         13
    99         11
   105          3
   107          4
   109         94
   110         69
   111         11
   113          4
   121          5
   123         33
   124         42
   125          4
   126          3
   137          4
   152          7