##TITLE=Library Entry 2407
##JCAMP-DX=Revision 4.10 
##DATA TYPE=MASS SPECTRUM
##SAMPLE DESCRIPTION=CONTINENTAL OIL CO., PONCA CITY, OKLA, USA
##NAMES=HP
##CAS NAME=1-Dodecene
##MOLFORM=C12H24
##CAS REGISTRY NO=112-41-4
##MP= -300
##BP= -300
##MW= 168
##$RETENTION INDEX=1190
##$CONDENSED SPECTRUM=NO
##NPOINTS= 81
##XYDATA=(XY..XY) 1 
    26         24
    27        416
    28        101
    29        543
    30         12
    32          1
    37          4
    38         11
    39        339
    40         45
    41        999
    42        282
    43        937
    44         32
    45          0
    50          6
    51         17
    52         11
    53         97
    54        144
    55        808
    56        645
    57        507
    58         22
    62          1
    63          3
    64          1
    65         13
    66         11
    67        111
    68        118
    69        581
    70        563
    71        207
    72         10
    75          2
    76          1
    77         16
    78          5
    79         19
    80          5
    81         47
    82        118
    83        528
    84        402
    85        121
    86          7
    91          5
    92          1
    93          2
    94          0
    95         11
    96         43
    97        368
    98        192
    99         16
   100          0
   105          1
   109          2
   110         14
   111        109
   112         68
   113          6
   115          0
   117          1
   119          0
   123          1
   124          6
   125         37
   126         48
   127          5
   128          0
   138          2
   139         10
   140         37
   141          4
   153          0
   166          2
   168         79
   169         10
   170          0