##TITLE=Library Entry 27951
##JCAMP-DX=Revision 4.10 
##DATA TYPE=MASS SPECTRUM
##SAMPLE DESCRIPTION=Japan AIST/NIMC Database- Spectrum MS-NW-9030
##NAMES=HP
##CAS NAME=Stearyltrimethylammonium chloride
##MOLFORM=C21H46ClN
##CAS REGISTRY NO=112-03-8
##MP= -300
##BP= -300
##MW= 347
##$RETENTION INDEX=0
##$CONDENSED SPECTRUM=NO
##NPOINTS= 99
##XYDATA=(XY..XY) 1 
    14          1
    15          9
    26          1
    27          6
    28          4
    29         18
    30          7
    35          1
    36          3
    38          1
    39          5
    40          2
    41         44
    42         19
    43         61
    44          8
    45         15
    46         13
    47          2
    48          1
    49          3
    50         30
    51          1
    52          9
    53          2
    54          3
    55         43
    56         14
    57         48
    58        999
    59         41
    60          1
    65          1
    67          7
    68          4
    69         28
    70         12
    71         27
    72          7
    73          2
    77          1
    79          2
    81          5
    82          7
    83         20
    84         23
    85         15
    86          1
    91          9
    92          1
    93          3
    95          3
    96          4
    97         15
    98          6
    99          5
   100          3
   105          5
   107          1
   109          1
   110          3
   111          8
   112          3
   113          3
   114          3
   119          2
   121          1
   123          1
   124          1
   125          3
   126          2
   127          2
   128          3
   133          1
   135          1
   138          1
   139          1
   140          2
   141          1
   142          1
   147          1
   149          2
   153          1
   154          1
   155          1
   156          1
   161          1
   168          1
   170          1
   182          1
   184          1
   240          1
   252          1
   254          1
   268          1
   282          2
   296         13
   297         20
   298          5