##TITLE=Library Entry 17022
##JCAMP-DX=Revision 4.10 
##DATA TYPE=MASS SPECTRUM
##SAMPLE DESCRIPTION=NIST Mass Spectrometry Data Center, 1994
##NAMES=HP
##CAS NAME=Ethanol, 2-(2-butoxyethoxy)-
##MOLFORM=C8H18O3
##CAS REGISTRY NO=112-34-5
##MP= -300
##BP= -300
##MW= 162
##$RETENTION INDEX=1192
##$CONDENSED SPECTRUM=NO
##NPOINTS= 74
##XYDATA=(XY..XY) 1 
    11          0
    12          0
    13          3
    15         74
    18          4
    19         57
    26         46
    27        261
    29        509
    30         51
    31        212
    33         18
    36          0
    37          2
    39         77
    41        422
    42         52
    43        165
    44        174
    45        999
    46         25
    47          6
    50          1
    51          2
    52          2
    53          9
    54          1
    55         74
    56        204
    57        773
    58         58
    59         96
    60         58
    61         36
    62         33
    63         12
    64          0
    67          1
    69         11
    71         51
    72         89
    73         49
    74          0
    75        151
    76          9
    77         20
    78          0
    81          0
    82          3
    83          5
    84          0
    85         49
    86          0
    87        107
    88         21
    89         76
    90          8
    91          1
    98          1
   100         55
   101         52
   102          5
   103          3
   104          0
   107          1
   115          2
   117          0
   119          4
   120          0
   129          2
   131         16
   132         19
   133          1
   144          1