##TITLE=Library Entry 24350
##JCAMP-DX=Revision 4.10 
##DATA TYPE=MASS SPECTRUM
##SAMPLE DESCRIPTION=Japan AIST/NIMC Database- Spectrum MS-NW-8345
##NAMES=HP
##CAS NAME=Hexadecane, 1-bromo-
##MOLFORM=C16H33Br
##CAS REGISTRY NO=112-82-3
##MP= -300
##BP= -300
##MW= 304
##$RETENTION INDEX=1957
##$CONDENSED SPECTRUM=NO
##NPOINTS= 110
##XYDATA=(XY..XY) 1 
    14          2
    15          1
    26          3
    27         49
    28         12
    29        124
    30          3
    36          2
    38          1
    39         33
    40          7
    41        288
    42         73
    43        696
    44         23
    51          1
    52          1
    53         14
    54         20
    55        361
    56        132
    57        999
    58         44
    59          1
    60          1
    65          2
    66          2
    67         24
    68         19
    69        339
    70         97
    71        590
    72         31
    73          1
    77          2
    79          3
    80          4
    81         11
    82         21
    83        200
    84         53
    85        349
    86         23
    87          1
    91          2
    93          1
    94          1
    95          6
    96          9
    97        124
    98         29
    99         96
   100          7
   107          8
   109          8
   110          3
   111         48
   112         15
   113         55
   114          5
   121          7
   123          6
   124          3
   125         13
   126          8
   127         35
   128          3
   134          1
   135        416
   136         19
   137        404
   138         16
   139          4
   140          4
   141         25
   142          3
   148          8
   149         84
   150         11
   151         81
   152          4
   153          2
   154          2
   155         20
   156          2
   162          3
   163         15
   164          4
   165         15
   166          1
   168          1
   169         11
   170          1
   173          1
   177          7
   178          1
   179          6
   183          5
   191          4
   193          4
   196          1
   205          3
   207          2
   219          1
   221          1
   225          7
   226          1
   233          1
   304          1
   306          1