##TITLE=Library Entry 8663
##JCAMP-DX=Revision 4.10 
##DATA TYPE=MASS SPECTRUM
##SAMPLE DESCRIPTION=NIST Mass Spectrometry Data Center, 2010
##NAMES=HP
##CAS NAME=Acetic acid, decyl ester
##MOLFORM=C12H24O2
##CAS REGISTRY NO=112-17-4
##MP= -300
##BP= -300
##MW= 200
##$RETENTION INDEX=1408
##$CONDENSED SPECTRUM=NO
##NPOINTS= 93
##XYDATA=(XY..XY) 1 
    14          1
    15          9
    26          3
    27         50
    28         16
    29        102
    30          3
    31          6
    38          1
    39         64
    40         14
    41        319
    42        146
    43        999
    44         30
    45          7
    50          1
    51          3
    52          2
    53         30
    54         56
    55        466
    56        430
    57        240
    58         36
    59          7
    61        362
    62          8
    63          2
    65          5
    66          5
    67         79
    68        145
    69        436
    70        523
    71        117
    72          8
    73         69
    74          4
    75          1
    77          3
    78          1
    79          8
    80          2
    81         30
    82        183
    83        439
    84        289
    85         71
    86          6
    87         13
    88          4
    91          1
    93          1
    94          1
    95         11
    96         64
    97        331
    98        185
    99         16
   100          3
   101         22
   102          5
   103          1
   109          4
   110         28
   111        210
   112        238
   113         22
   114          4
   115          4
   116         72
   117          5
   118          1
   123          1
   124          1
   125          7
   126          2
   127          2
   128          7
   129          4
   130          5
   138          4
   139          2
   140        100
   141         12
   142          3
   143          1
   155          1
   156          1
   157          1
   167          1
   185          2