##TITLE=Library Entry 7282
##JCAMP-DX=Revision 4.10 
##DATA TYPE=MASS SPECTRUM
##SAMPLE DESCRIPTION=Exported from NIST MS Search
##NAMES=HP
##CAS NAME=1-Tetradecanol
##MOLFORM=C14H30O
##CAS REGISTRY NO=112-72-1
##MP= -300
##BP= -300
##MW= 214
##$RETENTION INDEX=1676
##$CONDENSED SPECTRUM=NO
##NPOINTS= 135
##XYDATA=(XY..XY) 1 
    13          1
    15          2
    16          1
    19          1
    25          1
    26          7
    27        137
    28         23
    29        365
    30         11
    31        201
    32         29
    33          1
    36          2
    37          1
    38          2
    39         96
    40         23
    41        731
    42        230
    43        999
    44         55
    45         28
    46          1
    48          1
    49          2
    50          3
    51          4
    52          1
    53         44
    54        111
    55        943
    56        596
    57        684
    58         31
    59          6
    60          2
    61          2
    62          1
    63          2
    64          1
    65          6
    66         16
    67        139
    68        357
    69        733
    70        526
    71        280
    72         14
    73         24
    74          2
    75          2
    76          1
    77          5
    78          2
    79          9
    80          5
    81         68
    82        308
    83        695
    84        351
    85        143
    86         10
    87          3
    88          1
    89          1
    91          4
    92          1
    93          4
    94          3
    95         28
    96        111
    97        483
    98        184
    99         28
   100          3
   101          1
   102          1
   103          1
   104          1
   105          1
   107          1
   108          1
   109         13
   110         50
   111        193
   112        145
   113         18
   114          1
   115          1
   116          1
   117          1
   118          1
   119          1
   120          1
   121          2
   123          5
   124         29
   125        111
   126         86
   127         11
   129          1
   131          1
   132          1
   133          1
   137          4
   138         13
   139         36
   140         49
   141          6
   142          1
   143          1
   144          1
   145          1
   150          1
   151          1
   152          5
   153         11
   154         12
   155          3
   165          1
   166          4
   167          6
   168         87
   169         13
   170          1
   171          1
   177          1
   182          1
   183          1
   185          1
   195          1
   196         34
   197          6
   198          2