##TITLE=Library Entry 19235
##JCAMP-DX=Revision 4.10 
##DATA TYPE=MASS SPECTRUM
##SAMPLE DESCRIPTION=Japan AIST/NIMC Database- Spectrum MS-NW- 558
##NAMES=HP
##CAS NAME=Undecylenic acid
##MOLFORM=C11H20O2
##CAS REGISTRY NO=112-38-9
##MP= -300
##BP= -300
##MW= 184
##$RETENTION INDEX=1484
##$CONDENSED SPECTRUM=NO
##NPOINTS= 137
##XYDATA=(XY..XY) 1 
    12          1
    14          3
    15         11
    16          4
    17         23
    18        110
    19          1
    20          1
    22          1
    26         10
    27        176
    28         37
    29        214
    30          6
    31         19
    32          7
    36          2
    37          1
    38          6
    39        191
    40         30
    41        634
    42        133
    43        175
    44         73
    45         80
    46          2
    47          2
    50          5
    51         12
    52          8
    53         68
    54        150
    55        999
    56        213
    57         67
    58         19
    59         67
    60        276
    61         28
    62          3
    63          3
    64          1
    65         10
    66         13
    67        157
    68        271
    69        518
    70        140
    71         51
    72          6
    73        258
    74         27
    75          3
    76          1
    77          9
    78          6
    79         34
    80         41
    81        145
    82        332
    83        395
    84        226
    85         36
    86         10
    87         82
    88         10
    89          2
    91          9
    92          4
    93         20
    94         36
    95        101
    96        249
    97        174
    98        140
    99         36
   100         98
   101         87
   102         12
   103          4
   104          1
   105          6
   106          9
   107         15
   108          9
   109         43
   110         86
   111         50
   112         22
   113         30
   114         94
   115         22
   116          8
   117          3
   118          1
   119         16
   120          9
   121          4
   122         74
   123         81
   124        180
   125         55
   126          5
   127         24
   128          9
   129          8
   130          2
   131          1
   132          1
   133          6
   134          1
   135          4
   136          2
   137         49
   138         31
   139          3
   140          1
   141         11
   142          4
   143          2
   145          1
   147          2
   148         26
   149          6
   150          1
   151          6
   152          1
   155          5
   156          1
   165          1
   166         50
   167          7
   168          1
   182          1
   184          5
   185          1