##TITLE=Library Entry 3047
##JCAMP-DX=Revision 4.10 
##DATA TYPE=MASS SPECTRUM
##SAMPLE DESCRIPTION=NIST Mass Spectrometry Data Center, 1990.
##NAMES=HP
##CAS NAME=Dodecanal
##MOLFORM=C12H24O
##CAS REGISTRY NO=112-54-9
##MP= -300
##BP= -300
##MW= 184
##$RETENTION INDEX=1409
##$CONDENSED SPECTRUM=NO
##NPOINTS= 49
##XYDATA=(XY..XY) 1 
    14         18
    27        216
    28          4
    29        418
    31         15
    39        261
    41        999
    42        240
    43        768
    44        347
    45        102
    51         16
    53        100
    54        192
    55        822
    56        457
    57        994
    58         71
    65         22
    66         92
    67        509
    68        459
    69        454
    70        376
    71        356
    72         85
    79         49
    80         38
    81        390
    82        634
    83        288
    84        145
    85        191
    86         25
    95        277
    96        344
    97        197
    98         87
    99         42
   109        124
   110        142
   111        103
   112         57
   123         62
   124         58
   137         28
   138         63
   140        102
   156         17