##TITLE=Library Entry 7277
##JCAMP-DX=Revision 4.10 
##DATA TYPE=MASS SPECTRUM
##SAMPLE DESCRIPTION=NIST Mass Spectrometry Data Center
##NAMES=HP
##CAS NAME=Lauryl acetate
##MOLFORM=C14H28O2
##CAS REGISTRY NO=112-66-3
##MP= -300
##BP= -300
##MW= 228
##$RETENTION INDEX=1607
##$CONDENSED SPECTRUM=NO
##NPOINTS= 92
##XYDATA=(XY..XY) 1 
    15          8
    26          3
    27         48
    28         17
    29        113
    30          4
    31          5
    37          1
    38          1
    39         52
    40         12
    41        335
    42        123
    43        999
    44         32
    45          6
    50          1
    51          2
    52          2
    53         25
    54         59
    55        438
    56        341
    57        288
    58         30
    59          7
    60          3
    61        334
    62          7
    63          1
    65          4
    66          6
    67         71
    68        113
    69        354
    70        296
    71        110
    72          7
    73         34
    74          2
    75          1
    77          2
    78          1
    79          7
    80          2
    81         31
    82        163
    83        342
    84        187
    85         57
    86          4
    87          6
    88          2
    91          1
    93          1
    94          1
    95         12
    96         66
    97        267
    98        133
    99         13
   101         10
   102          3
   109          3
   110         25
   111        146
   112         60
   113          7
   114          1
   115          2
   116         40
   117          3
   123          1
   124          9
   125         48
   126         24
   127          3
   128          1
   129          2
   130          4
   137          1
   138          4
   139         11
   140         76
   141          9
   142          2
   156          2
   166          1
   168         31
   169          4
   170          1
   213          1