##TITLE=Library Entry 6891
##JCAMP-DX=Revision 4.10 
##DATA TYPE=MASS SPECTRUM
##SAMPLE DESCRIPTION=Japan AIST/NIMC Database- Spectrum MS-NW-5280
##NAMES=HP
##CAS NAME=Diethylene glycol hexyl ether
##MOLFORM=C10H22O3
##CAS REGISTRY NO=112-59-4
##MP= -300
##BP= -300
##MW= 190
##$RETENTION INDEX=1369
##$CONDENSED SPECTRUM=NO
##NPOINTS= 99
##XYDATA=(XY..XY) 1 
    14          1
    15         15
    16          1
    17          3
    18         10
    19          4
    26          6
    27         87
    28         32
    29         94
    30          6
    31         56
    32          2
    33         10
    38          1
    39         37
    40          8
    41        184
    42         65
    43        999
    44         64
    45        782
    46         18
    47          6
    51          1
    52          1
    53          9
    54          7
    55        121
    56        145
    57        203
    58         18
    59         76
    60         34
    61         28
    62         40
    63         21
    64          1
    65          1
    66          1
    67         10
    68          5
    69         51
    70          8
    71         15
    72         24
    73         22
    74          3
    75        177
    76         17
    77        125
    78          5
    79          1
    81          4
    82         94
    83        120
    84        104
    85        473
    86         32
    87         31
    88         10
    89        138
    90         17
    91          8
    92          2
    95          2
    97         19
    98          6
    99         29
   100          9
   101         23
   102          2
   103          5
   104          1
   105          1
   107         12
   108          1
   110          7
   111          2
   112          1
   113         21
   114          2
   115         28
   116          2
   117          2
   119          9
   127          1
   128          5
   129         12
   130          1
   131          2
   133          4
   143          1
   145          1
   147          1
   159         10
   160          5
   161          9
   162          1