##TITLE=Library Entry 44729
##JCAMP-DX=Revision 4.10 
##DATA TYPE=MASS SPECTRUM
##SAMPLE DESCRIPTION=NIST Mass Spectrometry Data Center
##NAMES=HP
##CAS NAME=Hexadecanoic acid, methyl ester
##MOLFORM=C17H34O2
##CAS REGISTRY NO=112-39-0
##MP= -300
##BP= -300
##MW= 270
##$RETENTION INDEX=1926
##$CONDENSED SPECTRUM=NO
##NPOINTS= 144
##XYDATA=(XY..XY) 1 
    15          5
    26          1
    27         22
    28          7
    29         66
    30          2
    31          3
    33          1
    38          1
    39         29
    40          7
    41        228
    42         51
    43        325
    44         12
    45         12
    51          1
    52          1
    53         19
    54         22
    55        310
    56         59
    57        183
    58         13
    59        106
    60          4
    61          2
    65          4
    66          2
    67         32
    68         14
    69        132
    70         24
    71         52
    72          5
    73         25
    74        999
    75        188
    76         10
    77          4
    78          1
    79         10
    80          3
    81         24
    82         12
    83         89
    84         36
    85         29
    87        720
    88         61
    89          5
    91          2
    93          8
    94          2
    95         21
    96         10
    97         72
    98         33
    99          8
   100          3
   101         66
   102          8
   103          1
   105          1
   107          7
   108          1
   109         11
   110          5
   111         26
   112          8
   113          4
   114          2
   115         30
   116         12
   117          1
   121          7
   122          1
   123          5
   124          3
   125         13
   126          2
   127          2
   129         83
   130         18
   131          1
   135          6
   136          1
   137          2
   138          2
   139          6
   140          1
   141          1
   143        208
   144         21
   145          2
   149          4
   150          1
   151          1
   152          1
   153          3
   154          1
   155          1
   157         26
   158          5
   159          1
   163          2
   165          1
   166          1
   167          2
   168          1
   171         55
   172          8
   173          1
   177          1
   181          1
   185         58
   186          8
   187          1
   191          1
   194          2
   195          1
   196          3
   199         46
   200          7
   201          1
   209          1
   213         20
   214          4
   219          1
   220          1
   221          1
   223          1
   227        110
   228         18
   229          2
   237          1
   239         55
   240         10
   241         29
   242          5
   243          1
   270        103
   271         20
   272          2