##TITLE=Library Entry 6100
##JCAMP-DX=Revision 4.10 
##DATA TYPE=MASS SPECTRUM
##SAMPLE DESCRIPTION=Japan AIST/NIMC Database- Spectrum MS-NW- 922
##NAMES=HP
##CAS NAME=Decanal
##MOLFORM=C10H20O
##CAS REGISTRY NO=112-31-2
##MP= -300
##BP= -300
##MW= 156
##$RETENTION INDEX=1206
##$CONDENSED SPECTRUM=NO
##NPOINTS= 86
##XYDATA=(XY..XY) 1 
    14          1
    15         17
    17          3
    18         10
    26         14
    27        336
    28         70
    29        507
    30         13
    31         24
    32          1
    37          2
    38          5
    39        192
    40         32
    41        807
    42        304
    43        999
    44        539
    45        173
    46          5
    50          3
    51         10
    52          5
    53         49
    54        145
    55        618
    56        429
    57        621
    58         54
    59          9
    60         27
    61          4
    63          2
    65          8
    66         39
    67        261
    68        343
    69        295
    70        471
    71        337
    72         67
    73         26
    74          2
    77          5
    78          2
    79         14
    80          9
    81        222
    82        334
    83        276
    84        162
    85         42
    86         12
    87          5
    91          2
    93          4
    94          7
    95        173
    96        145
    97         51
    98          9
    99         24
   100          8
   101          2
   107          1
   108          1
   109         73
   110        120
   111         13
   112        215
   113         29
   114          4
   115          3
   123          6
   125          1
   127          4
   128         37
   129          9
   135          1
   137          1
   138         20
   139          2
   141          3
   155          1
   156          2