##TITLE=Library Entry 70125
##JCAMP-DX=Revision 4.10 
##DATA TYPE=MASS SPECTRUM
##SAMPLE DESCRIPTION=Japan AIST/NIMC Database- Spectrum MS-NW-9769
##NAMES=HP
##CAS NAME=2-Butene-1,4-diamine, N,N'-diethyl-
##MOLFORM=C8H18N2
##CAS REGISTRY NO=112-21-0
##MP= -300
##BP= -300
##MW= 142
##$RETENTION INDEX=0
##$CONDENSED SPECTRUM=NO
##NPOINTS= 76
##XYDATA=(XY..XY) 1 
    15          9
    26          5
    27         75
    28        315
    29        127
    30        299
    31          4
    37          1
    38          5
    39         62
    40         13
    41        136
    42         93
    43        109
    44        243
    45         37
    46         30
    47          2
    48          2
    49          3
    50          3
    51          8
    52          8
    53         58
    54         89
    55        157
    56        559
    57         55
    58        597
    59         23
    60          1
    63         19
    65          7
    66          7
    67         47
    68        248
    69         58
    70        146
    71         20
    72          6
    77          2
    78          5
    79          6
    80         68
    81         15
    82        627
    83         44
    84        240
    85         31
    86          7
    92          1
    93          2
    94         12
    95         44
    96        126
    97        999
    98        524
    99        142
   100          9
   101          1
   108          2
   109          2
   110          3
   111          3
   112         18
   113          4
   122          5
   123          2
   124          1
   125          2
   127         14
   128          2
   141          8
   142          1
   143         10
   144          1