##TITLE=Library Entry 31619
##JCAMP-DX=Revision 4.10 
##DATA TYPE=MASS SPECTRUM
##SAMPLE DESCRIPTION=Japan AIST/NIMC Database- Spectrum MS-NW-1221
##NAMES=HP
##CAS NAME=Ethane, 1,2-bis(2-chloroethoxy)-
##MOLFORM=C6H12Cl2O2
##CAS REGISTRY NO=112-26-5
##MP= -300
##BP= -300
##MW= 186
##$RETENTION INDEX=1626
##$CONDENSED SPECTRUM=NO
##NPOINTS= 74
##XYDATA=(XY..XY) 1 
    14          7
    15         42
    16          2
    17          2
    18          9
    19         10
    20          3
    26         22
    27        413
    28         82
    29         55
    30          7
    31         98
    32          4
    36          3
    38          1
    39          3
    41          9
    42          9
    43        180
    44         42
    45        259
    46          6
    47          1
    48          2
    49         31
    50          6
    51          9
    52          1
    57          9
    58          9
    59         73
    60          3
    61          6
    62         33
    63        999
    64         31
    65        317
    66          7
    70          3
    71          4
    72         27
    73        105
    74          4
    75          7
    76          1
    77          4
    78          1
    79          5
    81          1
    84          1
    86          4
    87          4
    88          1
    93        488
    94         15
    95        152
    96          5
    99          1
   101         12
   106        125
   107        218
   108         49
   109         68
   110          3
   114          1
   115          9
   121          2
   123          1
   137         47
   138          2
   139         14
   140          1
   150          1