##TITLE=Library Entry 30001
##JCAMP-DX=Revision 4.10 
##DATA TYPE=MASS SPECTRUM
##SAMPLE DESCRIPTION=NIST Mass Spectrometry Data Center
##NAMES=HP
##CAS NAME=2,5,8,11-Tetraoxadodecane
##MOLFORM=C8H18O4
##CAS REGISTRY NO=112-49-2
##MP= -300
##BP= -300
##MW= 178
##$RETENTION INDEX=1232
##$CONDENSED SPECTRUM=NO
##NPOINTS= 44
##XYDATA=(XY..XY) 1 
    15         18
    26          4
    27         19
    28         39
    29        139
    30          9
    31        113
    32          1
    33          4
    39          1
    41         12
    42         11
    43         90
    44         22
    45        239
    46          6
    47          1
    57         14
    58        362
    59        999
    60         37
    61          3
    70          6
    71          4
    72          6
    73         16
    74          1
    75          6
    86          3
    87         76
    88         13
    89         93
    90          7
   100          1
   101         11
   102         28
   103        133
   104          7
   115          3
   118          1
   119          5
   131          1
   133         43
   134          2