##TITLE=Library Entry 24626
##JCAMP-DX=Revision 4.10 
##DATA TYPE=MASS SPECTRUM
##SAMPLE DESCRIPTION=Japan AIST/NIMC Database- Spectrum MS-NW-8489
##NAMES=HP
##CAS NAME=Butane, 1,1'-[oxybis(2,1-ethanediyloxy)]bis-
##MOLFORM=C12H26O3
##CAS REGISTRY NO=112-73-2
##MP= -300
##BP= -300
##MW= 218
##$RETENTION INDEX=1727
##$CONDENSED SPECTRUM=NO
##NPOINTS= 69
##XYDATA=(XY..XY) 1 
    15         12
    18          2
    19          1
    26          5
    27         66
    28         70
    29        313
    30         14
    31         34
    33          2
    39         29
    40          4
    41        327
    42         24
    43         68
    44         62
    45        517
    46         11
    47          2
    51          6
    53          5
    54          2
    55         72
    56        305
    57        999
    58         53
    59        156
    60         10
    61          9
    62          4
    63          9
    67          2
    69         20
    70          4
    71         46
    72         67
    73         50
    74          4
    75        237
    76          8
    77          3
    82          3
    83         13
    84          2
    85        147
    86          9
    87        105
    88         11
    89         41
    90          2
    91          2
    98          2
    99          5
   100        116
   101        120
   102          9
   103         19
   104          1
   107          2
   115          3
   116          4
   117         16
   118          8
   119          5
   129          2
   131         30
   132          3
   144          9
   145          5