##TITLE=Library Entry 20117
##JCAMP-DX=Revision 4.10 
##DATA TYPE=MASS SPECTRUM
##SAMPLE DESCRIPTION=NIST Mass Spectrometry Data Center
##NAMES=HP
##CAS NAME=Erucic acid
##MOLFORM=C22H42O2
##CAS REGISTRY NO=112-86-7
##MP= -300
##BP= -300
##MW= 338
##$RETENTION INDEX=2547
##$CONDENSED SPECTRUM=NO
##NPOINTS= 204
##XYDATA=(XY..XY) 1 
    15          3
    16          4
    17          8
    18         10
    26          6
    27         78
    28         91
    29        189
    30         10
    31          8
    36         13
    38          9
    39         90
    40         18
    41        628
    42        127
    43        555
    44         34
    45         56
    50          7
    51         14
    52         11
    53         64
    54        206
    55        999
    56        299
    57        399
    58         21
    59         28
    60        180
    61         18
    62          4
    63         11
    64          4
    65         27
    66         20
    67        279
    68        166
    69        703
    70        282
    71        180
    72         11
    73        124
    74         17
    75          8
    76          9
    77         32
    78         11
    79         68
    80         39
    81        224
    82        220
    83        626
    84        288
    85        117
    86         13
    87         44
    88          6
    89          6
    90          6
    91         65
    92         12
    93         33
    94         36
    95        179
    96        251
    97        564
    98        247
    99         52
   100         32
   101         55
   102         11
   103          3
   104          3
   105         16
   106          7
   107         28
   108         29
   109        111
   110        148
   111        285
   112        103
   113         37
   114         67
   115         48
   116         12
   117          4
   118          4
   119         27
   120         12
   121         36
   122         25
   123         99
   124         93
   125        147
   126         59
   127         70
   128         20
   129         37
   130          7
   131          4
   132          3
   133         24
   134         30
   135         45
   136         20
   137         73
   138         72
   139         74
   140         35
   141         20
   142          6
   143         15
   144          3
   146          4
   147         21
   148         23
   149         28
   150         19
   151         63
   152         76
   153         48
   154         21
   155         13
   156          5
   157         11
   158          4
   159          3
   160         67
   161         24
   162          9
   163         16
   164         12
   165         56
   166         31
   167         33
   168         15
   169         12
   170          3
   171          8
   172          3
   175         13
   176          5
   177         11
   178         12
   179         42
   180         35
   181        150
   182         30
   183          8
   184          4
   185          8
   189          8
   191          4
   192          3
   193         19
   194         16
   195         12
   196          9
   197          6
   199          3
   203          4
   206          3
   207         16
   208         15
   209          8
   210          4
   211          3
   213          3
   221         17
   222         16
   223          9
   224          4
   225          4
   226          7
   227          3
   228          3
   235         17
   236         20
   237          7
   238          3
   239          4
   241          4
   242          3
   243         16
   244          5
   245          4
   249         18
   250         12
   251          3
   263         19
   264          9
   265          3
   276         10
   277         15
   278         16
   279          4
   291         12
   292          6
   302          3
   320         91
   321         25
   322          3
   338          7