##TITLE=Library Entry 17368
##JCAMP-DX=Revision 4.10 
##DATA TYPE=MASS SPECTRUM
##SAMPLE DESCRIPTION=NIST Mass Spectrometry Data Center, 2007
##NAMES=HP
##CAS NAME=Tetraethylene glycol
##MOLFORM=C8H18O5
##CAS REGISTRY NO=112-60-7
##MP= -300
##BP= -300
##MW= 194
##$RETENTION INDEX=1511
##$CONDENSED SPECTRUM=NO
##NPOINTS= 68
##XYDATA=(XY..XY) 1 
    14          2
    15         21
    16          1
    19         25
    26          7
    27         65
    28         77
    29         93
    30         14
    31        123
    32          4
    33          5
    39          1
    40          1
    41          8
    42         16
    43        110
    44        111
    45        999
    46         25
    47          3
    51          2
    55          1
    56          1
    57         14
    58         92
    59         81
    60          9
    61          9
    62          3
    63          2
    69          1
    70          5
    71          5
    72          7
    73         26
    74          3
    75         55
    76          9
    77         11
    78          1
    86          4
    87        100
    88        100
    89        289
    90         21
    91          2
    99          1
   100          1
   101         20
   102         21
   103         15
   104          2
   105          2
   107          1
   115          1
   116          1
   117          1
   119         34
   120          2
   121          1
   131          2
   132          2
   133         12
   134          4
   151          2
   163          3
   164          2