##TITLE=Library Entry 57345
##JCAMP-DX=Revision 4.10 
##DATA TYPE=MASS SPECTRUM
##SAMPLE DESCRIPTION=V.G. Zaikin, R.S.Borisov, TIPS RAS, Moscow, Russia
##NAMES=HP
##CAS NAME=Octadecyl methacrylate
##MOLFORM=C22H42O2
##CAS REGISTRY NO=112-08-3
##MP= -300
##BP= -300
##MW= 338
##$RETENTION INDEX=0
##$CONDENSED SPECTRUM=NO
##NPOINTS= 167
##XYDATA=(XY..XY) 1 
    26          5
    27         19
    28         19
    29         48
    30          1
    31          1
    37          1
    39         49
    40         17
    41        332
    42         64
    43        328
    44         17
    45          3
    51          1
    53         12
    54         59
    55        369
    56        207
    57        410
    58         21
    59          6
    65          3
    66          7
    67         92
    68        113
    69        737
    70        313
    71        262
    72         14
    73          5
    74         17
    77          2
    78          1
    79          5
    80          6
    81         74
    82        168
    83        533
    84        181
    85        167
    86         34
    87        999
    88        526
    89         52
    90          3
    91          2
    93          3
    94          4
    95         56
    96        106
    97        512
    98        126
    99         46
   100          6
   101          3
   107          1
   108          3
   109         35
   110         54
   111        266
   112         86
   113         78
   114         11
   115          6
   116          1
   121          1
   122          2
   123         24
   124         38
   125        125
   126         54
   127         76
   128         26
   129          8
   130          1
   135          1
   136          2
   137         18
   138         26
   139         49
   140         35
   141         42
   142         15
   143          7
   144          1
   149          1
   151         10
   152         18
   153         29
   154         26
   155         13
   156          9
   157          5
   165          7
   166         12
   167         18
   168         18
   169         15
   170          8
   171          5
   179          5
   180         10
   181         12
   182         13
   183         10
   184          3
   185          5
   193          5
   194          9
   195          8
   196         11
   197          8
   198          2
   199          4
   207          1
   208          5
   209          5
   210          5
   211         10
   212          2
   213          3
   221          4
   222          8
   223          5
   224         29
   225         13
   226          2
   227          3
   235          2
   236          2
   237          1
   238          1
   239          6
   240          1
   241          2
   249          3
   250         24
   251          6
   252         35
   253         11
   254          1
   255          1
   262          1
   263          1
   264          3
   265          9
   266          3
   267          7
   268          1
   269          4
   270          1
   277          4
   278          3
   279          6
   280          1
   281          1
   291          1
   292          1
   294          1
   295         29
   296          6
   297          3
   320          6
   321          1
   338         15
   339          4