##TITLE=Library Entry 7362
##JCAMP-DX=Revision 4.10 
##DATA TYPE=MASS SPECTRUM
##SAMPLE DESCRIPTION=J. Klune, Insect Chem. Ecol. Lab., USDA, Beltsville, MD
 20705
##NAMES=HP
##CAS NAME=10-Undecen-1-yl acetate
##MOLFORM=C13H24O2
##CAS REGISTRY NO=112-19-6
##MP= -300
##BP= -300
##MW= 212
##$RETENTION INDEX=0
##$CONDENSED SPECTRUM=NO
##NPOINTS= 140
##XYDATA=(XY..XY) 1 
    41        547
    42        123
    43        999
    44         31
    45          6
    49          1
    50          2
    51          6
    52          5
    53         62
    54        421
    55        577
    56         95
    57         80
    58         14
    59          6
    60          3
    61        119
    62          2
    63          1
    65         14
    66         58
    67        440
    68        524
    69        341
    70         55
    71         48
    72         17
    73         29
    74          1
    75          1
    76          2
    77         15
    78          3
    79         37
    80         35
    81        413
    82        550
    83        196
    84         33
    85         26
    86          7
    87          6
    88          1
    89          2
    91          6
    92          1
    93         17
    94         25
    95        304
    96        350
    97        156
    98         29
    99          9
   100          5
   101         15
   102          2
   103          1
   104          2
   105          5
   106          1
   107          8
   108         12
   109        153
   110        197
   111         58
   112          9
   113          4
   114          2
   115          3
   116          4
   117          1
   119          2
   120          1
   121         10
   122          9
   123         81
   124         90
   125         14
   126          3
   127          3
   128          1
   129          3
   131          0
   132          1
   133          5
   134          1
   135          6
   136          4
   137         16
   138          5
   139          3
   140          1
   141          2
   142          0
   143          1
   145          1
   147          1
   148          1
   149         24
   150          7
   151         13
   152        130
   153         43
   154          5
   155          3
   156          0
   157          1
   159          1
   163          1
   164          1
   165          2
   166          4
   167          4
   168          2
   169          3
   170          1
   171          4
   172          0
   173          1
   175          1
   177          2
   178          1
   179          1
   180          0
   181          1
   182          0
   183          2
   184          1
   185          2
   194          0
   195          1
   196          0
   197          5
   198          0
   210          3
   211          1
   212         32
   213          4
   214          2