##TITLE=Library Entry 25978
##JCAMP-DX=Revision 4.10 
##DATA TYPE=MASS SPECTRUM
##SAMPLE DESCRIPTION=NIST Mass Spectrometry Data Center, 1998.
##NAMES=HP
##CAS NAME=Lethane
##MOLFORM=C9H17NO2S
##CAS REGISTRY NO=112-56-1
##MP= -300
##BP= -300
##MW= 203
##$RETENTION INDEX=1513
##$CONDENSED SPECTRUM=NO
##NPOINTS= 105
##XYDATA=(XY..XY) 1 
    15          5
    26          8
    27         80
    28         36
    29        140
    30         11
    31         20
    32          2
    33          1
    34          1
    35          2
    37          1
    38          2
    39         41
    40          7
    41        256
    42         35
    43         71
    44         39
    45        164
    46         22
    47          7
    48          2
    49          1
    50          1
    51          3
    52          1
    53          7
    54          7
    55         48
    56        120
    57        999
    58         79
    59        123
    60        235
    61         87
    62         13
    63          4
    67          1
    68          1
    69          6
    70          7
    71         23
    72         41
    73         54
    74          7
    75         21
    76          7
    77          4
    78          1
    81          1
    82          5
    83          6
    84          8
    85         48
    86        362
    87        153
    88         30
    89         53
    90         74
    91          8
    92          4
    97          1
    98          4
    99          4
   100         34
   101        111
   102         11
   103         29
   104         67
   105          9
   106          3
   110          1
   112          1
   113          3
   114          7
   115         10
   116         17
   117         16
   118          5
   119          4
   120          1
   121          1
   125          2
   126          3
   127          1
   128          1
   129          6
   130         39
   131         13
   132          4
   133          2
   142          2
   143          5
   144          5
   145          2
   146         20
   147          3
   148          3
   158          1
   160         16
   161          3
   162          1
   174          1
   176          3