##TITLE=Library Entry 69713
##JCAMP-DX=Revision 4.10 
##DATA TYPE=MASS SPECTRUM
##SAMPLE DESCRIPTION=RADIAN CORP
##NAMES=HP
##CAS NAME=2-Butyne-1,4-diamine, N,N'-diethyl-
##MOLFORM=C8H16N2
##CAS REGISTRY NO=112-22-1
##MP= -300
##BP= -300
##MW= 140
##$RETENTION INDEX=0
##$CONDENSED SPECTRUM=NO
##NPOINTS= 56
##XYDATA=(XY..XY) 1 
    14          5
    15         31
    18         35
    26         42
    27        234
    28        563
    29        284
    30        471
    31          2
    32          8
    37          5
    38         35
    39        196
    40         90
    41        449
    42        801
    43         81
    44        550
    45        109
    46        134
    50         33
    51        110
    52        180
    53        302
    54        337
    55        489
    56        277
    57        237
    58        384
    59         13
    62         35
    65         62
    66         59
    67        224
    68        364
    69        120
    70         31
    77         68
    78         23
    79         46
    80        238
    81        172
    82        371
    83         42
    84         28
    92          2
    93         34
    94        307
    95        327
    96         74
    97        999
    98         82
   108          7
   109          7
   110          6
   125         29