##TITLE=Library Entry 22524
##JCAMP-DX=Revision 4.10 
##DATA TYPE=MASS SPECTRUM
##SAMPLE DESCRIPTION=Philip Morris R&D
##NAMES=HP
##CAS NAME=Formic acid, octyl ester
##MOLFORM=C9H18O2
##CAS REGISTRY NO=112-32-3
##MP= -300
##BP= -300
##MW= 158
##$RETENTION INDEX=1114
##$CONDENSED SPECTRUM=NO
##NPOINTS= 56
##XYDATA=(XY..XY) 1 
    36          1
    38          3
    39         90
    40         22
    41        589
    42        453
    43        536
    44         38
    45         20
    47         25
    50          1
    51          4
    52          1
    53         28
    54         54
    55        760
    56        999
    57        271
    58         12
    59          8
    60          0
    63          0
    65          3
    66          1
    67         60
    68        196
    69        605
    70        790
    71        101
    72          3
    73         13
    74          2
    77          1
    79          3
    81          8
    82        158
    83        585
    84        647
    85         44
    87         18
    88          2
    91          0
    93          0
    95          0
    96          1
    97         54
    98          6
   100          0
   101          2
   102          3
   110          3
   111          4
   112         73
   113          7
   115          0
   159          0