##TITLE=Library Entry 30970
##JCAMP-DX=Revision 4.10 
##DATA TYPE=MASS SPECTRUM
##SAMPLE DESCRIPTION=Japan AIST/NIMC Database- Spectrum MS-NW- 795
##NAMES=HP
##CAS NAME=Nonanoic acid
##MOLFORM=C9H18O2
##CAS REGISTRY NO=112-05-0
##MP= -300
##BP= -300
##MW= 158
##$RETENTION INDEX=1273
##$CONDENSED SPECTRUM=NO
##NPOINTS= 92
##XYDATA=(XY..XY) 1 
    15          1
    17          1
    18          3
    26          8
    27        142
    28         36
    29        160
    30          6
    31         16
    37          1
    38          3
    39        110
    40         17
    41        339
    42         52
    43        274
    44          9
    45         65
    46          3
    47          3
    49          1
    50          4
    51          8
    52          4
    53         27
    54         27
    55        286
    56        103
    57        508
    58         24
    59         32
    60        999
    61        137
    62          7
    63          2
    65          4
    66          2
    67         20
    68         20
    69        156
    70         63
    71         29
    72          1
    73        774
    74         74
    75          6
    76          1
    77          3
    78          3
    79          6
    80          2
    81         15
    82          6
    83         54
    84         38
    85         22
    86          4
    87        107
    88          9
    89          2
    91          2
    92          1
    93          3
    94          2
    95          3
    96         38
    97         26
    98        143
    99         42
   100          6
   101         63
   102          9
   103          1
   110          1
   111          8
   112          8
   113          2
   115        191
   116         15
   117          2
   121          1
   122          4
   125          1
   129        161
   130         15
   131          2
   139          3
   141          7
   143          2
   144          1
   158         46
   159          7