##TITLE=Library Entry 24346
##JCAMP-DX=Revision 4.10 
##DATA TYPE=MASS SPECTRUM
##SAMPLE DESCRIPTION=Japan AIST/NIMC Database- Spectrum MS-NW-5300
##NAMES=HP
##CAS NAME=Silane, trichlorooctadecyl-
##MOLFORM=C18H37Cl3Si
##CAS REGISTRY NO=112-04-9
##MP= -300
##BP= -300
##MW= 386
##$RETENTION INDEX=0
##$CONDENSED SPECTRUM=NO
##NPOINTS= 176
##XYDATA=(XY..XY) 1 
    15          1
    26          2
    27         77
    28          9
    29        253
    30          5
    36          5
    38          1
    39         51
    40         10
    41        417
    42        112
    43        835
    44         25
    51          1
    52          1
    53         19
    54         30
    55        250
    56        160
    57        999
    58         40
    63          7
    65          3
    66          2
    67         25
    68         16
    69        109
    70        101
    71        543
    72         28
    77          1
    79          2
    80          1
    81          7
    82         16
    83         63
    84         74
    85        338
    86         22
    95          2
    96          7
    97         38
    98         53
    99        113
   100          8
   101          3
   110          3
   111         17
   112         46
   113         74
   114          5
   115          2
   117          3
   119          1
   124          1
   125          8
   126         27
   127         47
   128          5
   129          2
   131          2
   133         50
   134          3
   135         51
   136          2
   137         14
   138          1
   139          8
   140         18
   141         34
   142          3
   143          1
   153          4
   154          9
   155         22
   156          2
   161          9
   163          9
   165          3
   167          2
   168          6
   169         14
   170          2
   174          4
   175         23
   176          6
   177         21
   178          4
   179          7
   181          1
   182          2
   183          8
   184          1
   187          1
   188          2
   189         13
   190          2
   191         13
   192          2
   193          5
   196          1
   197          5
   201          1
   202          1
   203         10
   204          2
   205          9
   206          1
   207          3
   211          1
   216          1
   217          9
   218          2
   219          8
   220          1
   221          3
   225          5
   230          1
   231          6
   232          2
   233          5
   234          1
   235          2
   244          2
   245          6
   246          2
   247          5
   248          1
   249          1
   253          1
   254          1
   258          2
   259          5
   260          2
   261          5
   262          1
   263          1
   272          2
   273          4
   274          3
   275          4
   276          1
   277          2
   286          1
   287          3
   288          2
   289          3
   290          1
   291          1
   300          2
   301          3
   302          2
   303          4
   304          1
   305          1
   314          1
   315          3
   316          2
   317          2
   318          1
   319          1
   328          1
   329          2
   330          1
   331          3
   332          1
   333          1
   343          1
   345          1
   357          1
   359          1
   386          3
   387          1
   388          3
   390          1