##TITLE=Library Entry 70873
##JCAMP-DX=Revision 4.10 
##DATA TYPE=MASS SPECTRUM
##SAMPLE DESCRIPTION=Japan AIST/NIMC Database- Spectrum MS-NW-8474
##NAMES=HP
##CAS NAME=Stearic acid chloride
##MOLFORM=C18H35ClO
##CAS REGISTRY NO=112-76-5
##MP= -300
##BP= -300
##MW= 302
##$RETENTION INDEX=0
##$CONDENSED SPECTRUM=NO
##NPOINTS= 165
##XYDATA=(XY..XY) 1 
    17          1
    18          4
    26          2
    27         57
    28         19
    29        161
    30          3
    35          7
    36         70
    37          2
    38         22
    39         38
    40          9
    41        370
    42         86
    43        580
    44         19
    45          1
    51          1
    53         20
    54         47
    55        469
    56        146
    57        438
    58         48
    59         16
    63          6
    65          4
    66          7
    67         81
    68         82
    69        277
    70        130
    71        210
    72         32
    73          6
    75          1
    77          5
    78         11
    79         22
    80         30
    81         82
    82        107
    83        244
    84        353
    85        126
    86         36
    87          9
    91         11
    92          2
    93         24
    94         31
    95         78
    96        101
    97        219
    98        999
    99        101
   100         33
   101          8
   102         10
   103          1
   104          4
   105          3
   106          1
   107         17
   108         25
   109         44
   110         46
   111        185
   112        275
   113         59
   114         30
   115          8
   116         10
   117          1
   118          3
   119          2
   120          2
   121         46
   122         24
   123         25
   124         31
   125         88
   126         70
   127         34
   128         22
   129          6
   133          1
   134          1
   135         33
   136         19
   137         14
   138         26
   139         41
   140         51
   141         22
   142         15
   143          4
   149         20
   150         11
   151          7
   152         23
   153         35
   154         82
   155         19
   156          9
   157          2
   163         11
   164          8
   165          5
   166         19
   167         35
   168        100
   169         17
   170         11
   171          1
   177          8
   178          7
   179          4
   180         11
   181         35
   182        124
   183         20
   184          5
   191          5
   192          8
   193          3
   194          6
   195         34
   196        138
   197         22
   198          3
   205          4
   206          6
   207          2
   208          1
   209         27
   210        111
   211         20
   212          2
   219          3
   220          3
   222         16
   223         29
   224         66
   225         11
   226          1
   237         14
   238          9
   239          6
   240          1
   247          1
   248         33
   249          7
   250          1
   251          2
   252          1
   253          1
   264          1
   265          7
   266        160
   267        155
   268         28
   269          2
   284          1