##TITLE=Library Entry 2471
##JCAMP-DX=Revision 4.10 
##DATA TYPE=MASS SPECTRUM
##SAMPLE DESCRIPTION=NIST Mass Spectrometry Data Center, 1990.
##NAMES=HP
##CAS NAME=Undecanal
##MOLFORM=C11H22O
##CAS REGISTRY NO=112-44-7
##MP= -300
##BP= -300
##MW= 170
##$RETENTION INDEX=1307
##$CONDENSED SPECTRUM=NO
##NPOINTS= 48
##XYDATA=(XY..XY) 1 
    15         21
    27        410
    28         96
    29        631
    30         16
    31         21
    39        297
    41        999
    42        279
    43        902
    44        406
    45        121
    51         16
    53         83
    54        166
    55        653
    56        419
    57        699
    58         48
    65         17
    66         69
    67        346
    68        340
    69        293
    70        239
    71        285
    72         63
    79         28
    81        267
    82        461
    83        209
    84        155
    85        122
    86         17
    95        210
    96        240
    97        180
    98         70
    99         22
   109         73
   110         80
   111         15
   123         38
   124         73
   126        106
   127         13
   142         22
   152          9