##TITLE=Library Entry 8673
##JCAMP-DX=Revision 4.10 
##DATA TYPE=MASS SPECTRUM
##SAMPLE DESCRIPTION=NIST Mass Spectrometry Data Center, 2010
##NAMES=HP
##CAS NAME=Acetic acid, heptyl ester
##MOLFORM=C9H18O2
##CAS REGISTRY NO=112-06-1
##MP= -300
##BP= -300
##MW= 158
##$RETENTION INDEX=1113
##$CONDENSED SPECTRUM=NO
##NPOINTS= 67
##XYDATA=(XY..XY) 1 
    14          2
    15         20
    26          6
    27         76
    28         25
    29        106
    30          3
    31          9
    37          1
    39         86
    40         20
    41        299
    42        189
    43        999
    44         33
    45          9
    50          2
    51          6
    53         24
    54         45
    55        390
    56        563
    57        181
    58         46
    59          9
    61        338
    62          8
    63          3
    65          4
    66          2
    67         26
    68         97
    69        367
    70        685
    71         60
    72          7
    73        118
    74          7
    75          2
    77          2
    79          4
    80          1
    81         18
    82          8
    83        100
    84         10
    85          9
    86         11
    87         22
    88          4
    95          2
    96         10
    97         49
    98        318
    99         28
   100          7
   101         35
   102          8
   111          9
   113          6
   114          3
   115          5
   116         43
   117          3
   125          1
   129          2
   143          2