##TITLE=Library Entry 1043
##JCAMP-DX=Revision 4.10 
##DATA TYPE=MASS SPECTRUM
##SAMPLE DESCRIPTION=CARL DJERASSI DEPT OF CHEM STANFORD UNIV STANFORD CALIF
 94305
##NAMES=HP
##CAS NAME=1-Nonanamine
##MOLFORM=C9H21N
##CAS REGISTRY NO=112-20-9
##MP= -300
##BP= -300
##MW= 143
##$RETENTION INDEX=1137
##$CONDENSED SPECTRUM=NO
##NPOINTS= 25
##XYDATA=(XY..XY) 1 
    27         30
    28         20
    29         40
    30        999
    39         10
    41         60
    42         20
    43         40
    45         70
    53         10
    54         10
    55         40
    56         30
    57         10
    58         10
    59         10
    69         20
    70         10
    72         10
    83         10
    84         10
    86         30
   100         10
   115         10
   143         20