##TITLE=Library Entry 37568
##JCAMP-DX=Revision 4.10 
##DATA TYPE=MASS SPECTRUM
##SAMPLE DESCRIPTION=NIST Mass Spectrometry Data Center, 1994
##NAMES=HP
##CAS NAME=S-(-)-1,1-Diphenylprolinol
##MOLFORM=C17H19NO
##CAS REGISTRY NO=112068-01-6
##MP= -300
##BP= -300
##MW= 253
##$RETENTION INDEX=0
##$CONDENSED SPECTRUM=NO
##NPOINTS= 94
##XYDATA=(XY..XY) 1 
    15          3
    17          0
    18          9
    27          9
    28        101
    30         21
    37          0
    38          1
    39         16
    40          3
    41         45
    42         14
    43         77
    44          3
    50         10
    51         43
    52          7
    53          6
    54          1
    55          2
    56          1
    62          1
    63          5
    64          1
    65          3
    66          0
    68         38
    70        999
    71         50
    72          1
    75          3
    76          9
    77        122
    78         15
    79          2
    82          1
    86          0
    87          1
    88          1
    89          4
    90          1
    91          4
    92          0
    96          0
   101          1
   102          2
   103          2
   105         72
   106          6
   107          0
   113          0
   114          0
   115          5
   116          1
   117          1
   118          0
   126          1
   127          2
   128          3
   129          1
   130          4
   131          1
   139          2
   143          0
   146          0
   150          1
   151          2
   152          8
   153          4
   154          1
   155          0
   156          0
   158          2
   159          0
   163          1
   164          2
   165          9
   166          1
   167          1
   176          2
   177          1
   178          2
   179          1
   181          8
   182          7
   183          6
   184          0
   189          0
   191          0
   204          0
   206          2
   207          0
   234          1
   235          1