##TITLE=Library Entry 64377
##JCAMP-DX=Revision 4.10 
##DATA TYPE=MASS SPECTRUM
##SAMPLE DESCRIPTION=Chemical Concepts
##NAMES=HP
##CAS NAME=4-Benzylidene-3-phenethyl-4H-isoxazol-5-one
##MOLFORM=C18H15NO2
##CAS REGISTRY NO=112082-74-3
##MP= -300
##BP= -300
##MW= 277
##$RETENTION INDEX=0
##$CONDENSED SPECTRUM=NO
##NPOINTS= 204
##XYDATA=(XY..XY) 1 
    26          3
    27         29
    28         22
    29          5
    30          6
    31          4
    32          4
    37          1
    38          4
    39         58
    40          4
    41         22
    42          4
    43         11
    44         17
    45          3
    46          2
    50         24
    51         73
    52         24
    53         10
    54          3
    55         11
    56          3
    57         10
    59          2
    60          2
    61          4
    62          9
    63         39
    64         10
    65        116
    66          7
    67          3
    68          2
    69          7
    70          2
    71          4
    72          1
    73          3
    74         11
    75         20
    76         30
    77        103
    78         37
    79         34
    80          4
    81          5
    82          3
    83          5
    84          1
    85          2
    86          2
    87          6
    88          6
    89         31
    90         25
    91        999
    92         99
    93          6
    94          2
    95          5
    96          2
    97          4
    98          2
    99          3
   100          2
   101         15
   102        160
   103         55
   104         51
   105         67
   106         10
   107          4
   108          4
   109          5
   110          7
   111          3
   112          1
   113          5
   114          9
   115         74
   116         18
   117         22
   118         11
   119          2
   120          1
   121          2
   122          2
   123          1
   125          2
   126         10
   127         30
   128        114
   129         99
   130         34
   131         13
   132          2
   133          2
   135          1
   137          1
   138          1
   139          7
   140          5
   141         15
   142         35
   143         12
   144          9
   145          2
   146          2
   147          3
   149          2
   150          1
   151          2
   152          3
   153          2
   154         15
   155         12
   156         27
   157          4
   158          4
   159          1
   163          1
   164          1
   165          7
   166          2
   167          7
   168          3
   169          1
   170         20
   171          3
   172          7
   173          1
   174          1
   175          1
   176          2
   177          2
   178          9
   179          6
   180          9
   181          2
   182          2
   184          1
   185         17
   186         47
   187          6
   188          1
   189          6
   190          3
   191         10
   192          8
   193          5
   194          4
   195          3
   196          2
   197          1
   198          4
   199         19
   200         32
   201          6
   202         14
   203         11
   204         14
   205         14
   206         10
   207          2
   208          1
   209          1
   210          7
   211          2
   212          1
   213          5
   214          3
   215         32
   216         15
   217         24
   218         22
   219          5
   220          5
   221          4
   227          1
   228          2
   229          4
   230         34
   231         19
   232        184
   233         53
   234         11
   235          4
   241          1
   246          1
   248          5
   249          2
   258          6
   259          2
   260          2
   270          1
   271          1
   275          4
   276         78
   277        377
   278         74
   279          9
   280          1