##TITLE=Library Entry 32311
##JCAMP-DX=Revision 4.10 
##DATA TYPE=MASS SPECTRUM
##SAMPLE DESCRIPTION=B. Derendyaev, Novosibirsk Institute of Organic Chemist
ry
##NAMES=HP
##CAS NAME=Cyclopentene, 3-methyl-
##MOLFORM=C6H10
##CAS REGISTRY NO=1120-62-3
##MP= -300
##BP= -300
##MW= 82
##$RETENTION INDEX=607
##$CONDENSED SPECTRUM=NO
##NPOINTS= 48
##XYDATA=(XY..XY) 1 
    14          1
    15          6
    25          1
    26         12
    27        102
    28         11
    29         17
    30          1
    31          1
    37          5
    38         16
    39        205
    40         32
    41        187
    42         16
    43          5
    44          1
    45          1
    49          2
    50         22
    51         40
    52         18
    53         67
    54         43
    55         15
    56          4
    57          1
    58          1
    61          2
    62          4
    63          9
    64          2
    65         52
    66         19
    67        999
    68         43
    69          2
    73          1
    74          2
    75          1
    76          1
    77         20
    78          5
    79         37
    80          7
    81         91
    82        179
    83         11