##TITLE=Library Entry 30123
##JCAMP-DX=Revision 4.10 
##DATA TYPE=MASS SPECTRUM
##SAMPLE DESCRIPTION=Japan AIST/NIMC Database- Spectrum MS-NW- 626
##NAMES=HP
##CAS NAME=Dodecanamide
##MOLFORM=C12H25NO
##CAS REGISTRY NO=1120-16-7
##MP= -300
##BP= -300
##MW= 199
##$RETENTION INDEX=2784
##$CONDENSED SPECTRUM=NO
##NPOINTS= 72
##XYDATA=(XY..XY) 1 
    15          2
    17          1
    18          2
    26          2
    27         48
    28         12
    29         84
    30          5
    31          2
    39         27
    40          5
    41        132
    42         26
    43        159
    44        101
    45          3
    46          2
    51          1
    53          8
    54          7
    55         65
    56         15
    57         59
    58          4
    59        999
    60         62
    61          3
    67          6
    68          3
    69         27
    70          6
    71         15
    72        308
    73         48
    74          2
    79          2
    81          5
    82          3
    83         15
    84          9
    85          5
    86         60
    87          6
    93          1
    95          3
    96          3
    97         11
    98         12
    99          1
   100         17
   101          9
   109          1
   110          2
   111          4
   112          2
   114         36
   115          9
   124          2
   125          1
   128         33
   129          4
   138          1
   142          7
   143          1
   156         14
   157          3
   170          9
   171          2
   184          4
   198          2
   199          9
   200          2