##TITLE=Library Entry 20213
##JCAMP-DX=Revision 4.10 
##DATA TYPE=MASS SPECTRUM
##SAMPLE DESCRIPTION=NIST Mass Spectrometry Data Center
##NAMES=HP
##CAS NAME=9-Hexadecenoic acid, methyl ester, (Z)-
##MOLFORM=C17H32O2
##CAS REGISTRY NO=1120-25-8
##MP= -300
##BP= -300
##MW= 268
##$RETENTION INDEX=1899
##$CONDENSED SPECTRUM=NO
##NPOINTS= 187
##XYDATA=(XY..XY) 1 
    15         14
    26          3
    27         59
    28         19
    29        129
    30          4
    31          5
    33          2
    39        114
    40         26
    41        573
    42        120
    43        401
    44         16
    45         25
    46          1
    50          2
    51          9
    52          9
    53        103
    54        241
    55        999
    56        215
    57        167
    58         11
    59        258
    60          8
    61          3
    62          1
    63          2
    65         37
    66         24
    67        376
    68        216
    69        669
    70        151
    71         82
    72         13
    73         61
    74        643
    75         81
    76          6
    77         37
    78         13
    79        117
    80         56
    81        366
    82        239
    83        547
    84        454
    85         93
    87        510
    88         48
    89          4
    91         39
    92         11
    93         61
    94         61
    95        278
    96        505
    97        495
    98        425
    99         60
   100         15
   101        100
   102         11
   103          2
   104          1
   105         24
   106         10
   107         47
   108         43
   109        174
   110        289
   111        247
   112         98
   113         55
   114         64
   115         96
   116         15
   117          3
   118          3
   119         50
   120         18
   121         60
   122         31
   123        223
   124        150
   125        131
   126         28
   127         57
   128         68
   129         61
   130         13
   131          3
   132          2
   133         44
   134         39
   135         54
   136         27
   137        135
   138        138
   139         77
   140         15
   141        119
   142         21
   143         48
   144          7
   145          2
   146          1
   147         37
   148         32
   149         31
   150         14
   151         86
   152        247
   153         68
   154         10
   155         34
   156          6
   157         13
   158          4
   159          1
   161         22
   162          8
   163         12
   164          6
   165         52
   166         45
   167         17
   168          3
   169         10
   170          2
   171         15
   172          9
   173          2
   175         14
   176          5
   177          4
   178          4
   179         31
   180         16
   181         10
   182          3
   183          5
   184          1
   185         15
   186          9
   187          2
   189          8
   190          2
   192         69
   193         52
   194        228
   195         47
   196          4
   197          3
   198          1
   199          5
   200          5
   201          1
   203          1
   205          1
   207         30
   208         22
   209          3
   211          2
   213          3
   217          2
   218         21
   219         13
   220          2
   221          6
   222          1
   225         13
   226          2
   227          2
   236        267
   237        214
   238         35
   239          6
   240          1
   250          5
   251          1
   268         69
   269         16
   270          2