##TITLE=Library Entry 30121
##JCAMP-DX=Revision 4.10 
##DATA TYPE=MASS SPECTRUM
##SAMPLE DESCRIPTION=J.A.GILPIN DOW CHEMICAL CO., MIDLAND, MICHIGAN, USA
##NAMES=HP
##CAS NAME=Nonanamide
##MOLFORM=C9H19NO
##CAS REGISTRY NO=1120-07-6
##MP= -300
##BP= -300
##MW= 157
##$RETENTION INDEX=0
##$CONDENSED SPECTRUM=NO
##NPOINTS= 35
##XYDATA=(XY..XY) 1 
    15          2
    27         40
    28         30
    29         50
    30          4
    31          2
    41         90
    42         30
    43        130
    44        130
    45          6
    55         60
    56         10
    57         50
    58          3
    59        999
    60         50
    71         20
    72        270
    73         50
    74          3
    85          3
    86         60
    87          5
    99          1
   100         10
   101          4
   114         40
   115          5
   128         20
   129          3
   141          2
   142          1
   156          1
   157          9