##TITLE=Library Entry 7220
##JCAMP-DX=Revision 4.10 
##DATA TYPE=MASS SPECTRUM
##SAMPLE DESCRIPTION=Japan AIST/NIMC Database- Spectrum MS-NW-5130
##NAMES=HP
##CAS NAME=1-Tetradecene
##MOLFORM=C14H28
##CAS REGISTRY NO=1120-36-1
##MP= -300
##BP= -300
##MW= 196
##$RETENTION INDEX=1392
##$CONDENSED SPECTRUM=NO
##NPOINTS= 86
##XYDATA=(XY..XY) 1 
    14          1
    15          5
    26          7
    27        174
    28         11
    29        372
    30          8
    32          2
    35          2
    36         12
    37          1
    38          4
    39        164
    40         32
    41        797
    42        219
    43        999
    44         33
    50          3
    51          9
    52          5
    53         65
    54        130
    55        921
    56        780
    57        910
    58         41
    59          1
    60          1
    63          2
    65         10
    66         11
    67        129
    68        148
    69        758
    70        762
    71        367
    72         20
    77          8
    78          2
    79         10
    80          4
    81         56
    82        178
    83        776
    84        441
    85        177
    86         11
    91          2
    93          1
    94          1
    95         18
    96         74
    97        544
    98        242
    99         33
   100          2
   109          5
   110         35
   111        238
   112        148
   113         18
   114          1
   123          2
   124         16
   125         99
   126         89
   127         11
   128          1
   138          8
   139         29
   140         36
   141          6
   142          1
   152          4
   153         13
   154         33
   155          6
   166          1
   167          9
   168         34
   169          6
   170          2
   196         47
   197          8
   198          2