##TITLE=Library Entry 10718
##JCAMP-DX=Revision 4.10 
##DATA TYPE=MASS SPECTRUM
##SAMPLE DESCRIPTION=NIST Mass Spectrometry Data Center, 1990.
##NAMES=HP
##CAS NAME=1,3-Dioxane, 4-methyl-
##MOLFORM=C5H10O2
##CAS REGISTRY NO=1120-97-4
##MP= -300
##BP= -300
##MW= 102
##$RETENTION INDEX=754
##$CONDENSED SPECTRUM=NO
##NPOINTS= 50
##XYDATA=(XY..XY) 1 
    12          2
    13          2
    14         16
    15         90
    17          1
    18          2
    26         82
    27        317
    28        311
    29        456
    30        116
    31        403
    33          1
    37         15
    38         34
    39        197
    40         52
    41        268
    42        343
    43        999
    44        129
    45        286
    46          9
    47          2
    49          2
    50          8
    51          7
    52          3
    53         19
    54          2
    55        472
    56         28
    57        186
    58        104
    59         21
    61          3
    68          1
    69          6
    70          4
    71         40
    72        315
    73         18
    74          3
    75          1
    85          1
    87        135
    88          5
   101        612
   102         37
   103          5