##TITLE=Library Entry 58768
##JCAMP-DX=Revision 4.10 
##DATA TYPE=MASS SPECTRUM
##SAMPLE DESCRIPTION=Humboldt-Universitat zu Berlin, Department of Chemistry
, Analytical Group
##NAMES=HP
##CAS NAME=Bis-(3-azidophenyl)methanone
##MOLFORM=C13H8N6O
##CAS REGISTRY NO=112028-53-2
##MP= -300
##BP= -300
##MW= 264
##$RETENTION INDEX=0
##$CONDENSED SPECTRUM=NO
##NPOINTS= 134
##XYDATA=(XY..XY) 1 
    12          2
    13          1
    14         12
    15          7
    16          4
    17         26
    18         89
    25          2
    26         32
    27         39
    28        100
    29         15
    31          1
    32          1
    37        137
    38        165
    39        671
    40         57
    41          9
    42          3
    43          3
    44          3
    45          5
    49          9
    50        188
    51         81
    52         54
    53         42
    54          4
    55          4
    56          2
    57          2
    59          1
    60          2
    61         55
    62        158
    63        960
    64        357
    65         31
    66          5
    67          2
    68          1
    70          5
    71          1
    73          7
    74         51
    75         54
    76        109
    77         58
    78         13
    79          7
    80          1
    83          1
    84          1
    85          4
    86         10
    87         27
    88         42
    89         43
    90        999
    91         89
    92          9
    93          2
    97          1
    98          7
    99         14
   100         17
   101         19
   102         24
   103         28
   104         12
   105          9
   106          2
   110          2
   111          4
   112          3
   113         10
   114         11
   115          7
   116          8
   117         11
   118         55
   119          6
   120          4
   123          2
   124          2
   125         29
   126         90
   127         78
   128         34
   129         31
   130         10
   131          2
   138          5
   139         10
   140         61
   141         11
   142          3
   144          3
   146        111
   147         10
   150          2
   151         11
   152        101
   153        278
   154        132
   155         20
   156         12
   157          3
   163          2
   164          5
   165         20
   166          6
   167          6
   168         57
   169          8
   177          2
   179        450
   180        140
   181         64
   182         41
   183          5
   190          6
   191          2
   207         69
   208         98
   209         15
   210          2
   236         16
   237          3
   238          2
   264         89
   265         16
   266          1