##TITLE=Library Entry 19066
##JCAMP-DX=Revision 4.10 
##DATA TYPE=MASS SPECTRUM
##SAMPLE DESCRIPTION=Japan AIST/NIMC Database- Spectrum MS-NW-5758
##NAMES=HP
##CAS NAME=13-Docosenoic acid, methyl ester, (Z)-
##MOLFORM=C23H44O2
##CAS REGISTRY NO=1120-34-9
##MP= -300
##BP= -300
##MW= 352
##$RETENTION INDEX=2508
##$CONDENSED SPECTRUM=NO
##NPOINTS= 276
##XYDATA=(XY..XY) 1 
    14          1
    15         99
    16          1
    25          1
    26          7
    27        127
    28         39
    29        342
    30          8
    31         13
    32          1
    33          1
    38          2
    39        110
    40         22
    41        808
    42        132
    43        620
    44         20
    45         23
    50          1
    51          6
    52          6
    53         69
    54        211
    55        999
    56        240
    57        375
    58         16
    59        109
    60          4
    61          2
    63          1
    65         16
    66         18
    67        296
    68        173
    69        600
    70        169
    71        121
    72          8
    73         34
    74        478
    75        104
    76          6
    77         18
    78          8
    79         62
    80         47
    81        237
    82        186
    83        439
    84        267
    85         65
    86          5
    87        288
    88         28
    89          2
    91         16
    92          6
    93         32
    94         44
    95        173
    96        260
    97        313
    98        263
    99         38
   100          6
   101         44
   102          6
   103          1
   104          1
   105          8
   106          4
   107         25
   108         35
   109         96
   110        128
   111        146
   112         66
   113         17
   114         24
   115         44
   116         10
   117          2
   118          2
   119         15
   120          8
   121         35
   122         19
   123         75
   124         69
   125         77
   126         24
   127         22
   128         37
   129         40
   130         20
   131          3
   132          2
   133         14
   134         18
   135         32
   136         13
   137         52
   138         56
   139         54
   140         14
   141         67
   142         15
   143         56
   144          8
   145          2
   147         11
   148         16
   149         23
   150          9
   151         37
   152         66
   153         37
   154         10
   155          9
   156          4
   157         18
   158          4
   159          1
   161          9
   162          6
   163         14
   164          8
   165         25
   166         35
   167         24
   168          8
   169          7
   170          3
   171         13
   172          5
   173          1
   175          8
   176          3
   177          9
   178          5
   179         15
   180         22
   181         17
   182          6
   183          6
   184          2
   185         14
   186          5
   187          2
   189          5
   190          2
   191          6
   192          4
   193         12
   194         23
   195         13
   196          5
   197          6
   198          2
   199         13
   200          4
   201          1
   203          3
   204          1
   205          3
   206          4
   207         12
   208         26
   209         12
   210          5
   211          6
   212          2
   213         12
   214          3
   215          1
   217          2
   218          1
   219          2
   220          6
   221         15
   222         36
   223         12
   224          6
   225          9
   226          2
   227          8
   228          3
   229          1
   231          1
   233          2
   234          2
   235         16
   236         60
   237         17
   238          7
   239          8
   240          2
   241          6
   242          3
   243          1
   245          1
   247          1
   248          3
   249         17
   250         21
   251          7
   252          3
   253          4
   254          2
   255          9
   256          6
   257          1
   259          1
   260          1
   261          1
   262          2
   263         17
   264         16
   265          6
   266          3
   267          3
   268          2
   269          6
   270          5
   271          1
   274          1
   275          1
   276         19
   277         18
   278         55
   279         17
   280          3
   281          2
   282          1
   283          3
   284          3
   285          1
   291         10
   292         28
   293          9
   294          4
   295          3
   296          2
   297          2
   298          3
   302         15
   303          5
   304          1
   305          1
   306          2
   309          5
   310          2
   311          2
   318          2
   319          3
   320        373
   321        136
   322         24
   323          5
   324          5
   325          2
   326          5
   327          1
   334          3
   335          1
   348          3
   349          1
   350          5
   351          2
   352         72
   353         22
   354         11
   355          2