##TITLE=Library Entry 94400
##JCAMP-DX=Revision 4.10 
##DATA TYPE=MASS SPECTRUM
##SAMPLE DESCRIPTION=ASES Database, Dalian Institute, P.R. China
##NAMES=HP
##CAS NAME=N-Vinylthio-naphthalene-1-amine
##MOLFORM=C12H11NS
##CAS REGISTRY NO=112011-01-5
##MP= -300
##BP= -300
##MW= 201
##$RETENTION INDEX=0
##$CONDENSED SPECTRUM=NO
##NPOINTS= 10
##XYDATA=(XY..XY) 1 
    58        199
    59        237
    63        100
    89        100
   115        999
   116         99
   142        468
   143        121
   168         79
   201        239