##TITLE=Library Entry 4710
##JCAMP-DX=Revision 4.10 
##DATA TYPE=MASS SPECTRUM
##SAMPLE DESCRIPTION=NIST Mass Spectrometry Data Center, 1990.
##NAMES=HP
##CAS NAME=Cyclopentanone, 2-methyl-
##MOLFORM=C6H10O
##CAS REGISTRY NO=1120-72-5
##MP= -300
##BP= -300
##MW= 98
##$RETENTION INDEX=846
##$CONDENSED SPECTRUM=NO
##NPOINTS= 33
##XYDATA=(XY..XY) 1 
    14          5
    15         14
    26         52
    27         71
    28        120
    29         62
    37         19
    38         52
    39        314
    40         97
    41        461
    42        999
    43        120
    50         34
    51         36
    52         16
    53         70
    54         76
    55        730
    56        230
    57         21
    62         10
    63         10
    65         11
    67         22
    69        450
    70        257
    71         15
    79         20
    80         53
    83        151
    98        543
    99         34