##TITLE=Library Entry 32812
##JCAMP-DX=Revision 4.10 
##DATA TYPE=MASS SPECTRUM
##SAMPLE DESCRIPTION=Exported from NIST MS Search
##NAMES=HP
##CAS NAME=9-Octadecynoic acid, methyl ester
##MOLFORM=C19H34O2
##CAS REGISTRY NO=1120-32-7
##MP= -300
##BP= -300
##MW= 294
##$RETENTION INDEX=2124
##$CONDENSED SPECTRUM=NO
##NPOINTS= 174
##XYDATA=(XY..XY) 1 
    14         14
    15        127
    18         14
    26         14
    27        202
    29        417
    30         21
    31         38
    33         17
    39        234
    40         68
    41        676
    42        127
    43        608
    44         38
    45         57
    46         14
    50         17
    51         51
    52         78
    53        225
    54        489
    55        808
    56        127
    57        170
    58         17
    59        280
    60         17
    63         12
    64          4
    65        106
    66        119
    67        999
    68        574
    69        382
    70         57
    71         72
    72         14
    73         85
    74        251
    75         36
    76          6
    77        165
    78         57
    79        446
    80        259
    81        995
    82        629
    83        270
    84         70
    85         63
    87        127
    88         25
    91        153
    92         59
    93        323
    94        280
    95        727
    96        553
    97        212
    98         55
    99         42
   100         17
   101         42
   103         21
   104         21
   105         59
   106         27
   107        183
   108        148
   109        344
   110        263
   111         93
   112         21
   113         21
   114         17
   115         51
   116         17
   117         27
   118         21
   119         48
   120         57
   121        206
   122        176
   123        185
   124        246
   125         68
   126         25
   127         36
   128         21
   129         38
   130         17
   131         46
   132         31
   133         42
   134         38
   135        170
   136        208
   137        106
   138        212
   139         53
   140         46
   141         36
   142         17
   143         46
   144          8
   145         38
   146         17
   147         68
   148         14
   149        110
   150        272
   151         70
   152        187
   153         42
   154         48
   155         17
   156          8
   157         21
   159         17
   160         14
   161         17
   163         51
   164        195
   165         46
   166         85
   167         36
   168         42
   173         21
   177         34
   178        165
   179         38
   180         25
   181         21
   182         55
   183         21
   187         17
   188          8
   191         17
   192         68
   193         21
   195         17
   196         59
   197         21
   201         14
   205         21
   206         25
   207         21
   208         17
   209         17
   210        127
   211         25
   219          4
   220         31
   221         42
   222         17
   223         12
   224         59
   225         14
   234         17
   237         14
   238         21
   245         17
   246         12
   251          8
   261         31
   262         63
   263         25
   264         17
   265          6
   266          6
   281         21
   294         42
   295         29