##TITLE=Library Entry 33052
##JCAMP-DX=Revision 4.10 
##DATA TYPE=MASS SPECTRUM
##SAMPLE DESCRIPTION=Chuck Anderson, Aldrich Chemical Co.
##NAMES=HP
##CAS NAME=2-Cyclopenten-1-one, 2-methyl-
##MOLFORM=C6H8O
##CAS REGISTRY NO=1120-73-6
##MP= -300
##BP= -300
##MW= 96
##$RETENTION INDEX=913
##$CONDENSED SPECTRUM=NO
##NPOINTS= 58
##XYDATA=(XY..XY) 1 
    13          0
    14          3
    15          8
    25          2
    26         27
    27        115
    28         60
    29         14
    31         21
    32         14
    33          8
    34          6
    36          2
    37         32
    38         70
    39        402
    40        257
    41        223
    42        138
    43         20
    44          1
    45          0
    46          1
    47          1
    48          1
    49         11
    50         57
    51         73
    52         43
    53        468
    54         48
    55         24
    56         39
    57          2
    60          3
    61         14
    62         22
    63         30
    64          5
    65         74
    66         45
    67        999
    68        167
    69         33
    70          1
    73          1
    74          2
    75          0
    77          6
    78          2
    79          3
    81         46
    82          2
    94          0
    95         74
    96        792
    97         54
    98          3