##TITLE=Library Entry 20927
##JCAMP-DX=Revision 4.10 
##DATA TYPE=MASS SPECTRUM
##SAMPLE DESCRIPTION=Japan AIST/NIMC Database- Spectrum MS-NW-8803
##NAMES=HP
##CAS NAME=Oxazole, 4,5-dihydro-2-methyl-
##MOLFORM=C4H7NO
##CAS REGISTRY NO=1120-64-5
##MP= -300
##BP= -300
##MW= 85
##$RETENTION INDEX=0
##$CONDENSED SPECTRUM=NO
##NPOINTS= 30
##XYDATA=(XY..XY) 1 
    13          3
    14         19
    15        126
    16          2
    25          3
    26         35
    27         71
    28        193
    29         35
    30          8
    31          2
    38          3
    39          6
    40         18
    41         24
    42        106
    43        198
    44         13
    45          1
    51          5
    52         15
    53          6
    54        249
    55        999
    56        111
    57          4
    84         15
    85        484
    86         35
    87          2