##TITLE=Library Entry 71097
##JCAMP-DX=Revision 4.10 
##DATA TYPE=MASS SPECTRUM
##SAMPLE DESCRIPTION=V.A.Korolev, Moscow, Russia
##NAMES=HP
##CAS NAME=Pyrazole-1-methanol
##MOLFORM=C4H6N2O
##CAS REGISTRY NO=1120-82-7
##MP= -300
##BP= -300
##MW= 98
##$RETENTION INDEX=0
##$CONDENSED SPECTRUM=NO
##NPOINTS= 34
##XYDATA=(XY..XY) 1 
    29         13
    30         54
    31        202
    33          4
    34         24
    36         22
    37        132
    38        322
    39        381
    40        221
    41        465
    42         55
    43         16
    44         21
    45         10
    50         39
    51        185
    52        336
    53        190
    54        205
    55         20
    66          7
    67        385
    68        666
    69        333
    70          3
    80         14
    81        547
    82         36
    96         24
    97        460
    98        999
    99         47
   100          4