##TITLE=Library Entry 44731
##JCAMP-DX=Revision 4.10 
##DATA TYPE=MASS SPECTRUM
##SAMPLE DESCRIPTION=Chemical Concepts
##NAMES=HP
##CAS NAME=Eicosanoic acid, methyl ester
##MOLFORM=C21H42O2
##CAS REGISTRY NO=1120-28-1
##MP= -300
##BP= -300
##MW= 326
##$RETENTION INDEX=2329
##$CONDENSED SPECTRUM=NO
##NPOINTS= 151
##XYDATA=(XY..XY) 1 
    26         10
    27         73
    28         17
    29        234
    30          6
    31         11
    39         42
    40         10
    41        437
    42         88
    43        673
    44         25
    45         16
    51          3
    53         21
    54         32
    55        473
    56         96
    57        411
    58         24
    59        106
    60          6
    61          4
    65          6
    66          4
    67         68
    68         32
    69        296
    70         59
    71        169
    72         11
    73         38
    74        999
    75        414
    76         20
    77          6
    79         19
    80          8
    81         67
    82         31
    83        213
    84         63
    85         98
    86          7
    87        879
    88         96
    89          8
    91         15
    93         21
    94          6
    95         57
    96         26
    97        177
    98         64
    99         26
   100          6
   101        136
   102         17
   105          6
   107         19
   108          5
   109         35
   110         15
   111         82
   112         20
   113         16
   114          3
   115         62
   116         29
   117          3
   119          4
   121         25
   122          4
   123         20
   124          9
   125         43
   126         10
   127          9
   129        158
   130         50
   131          5
   133          3
   135         24
   136          4
   137         12
   138          6
   139         25
   140          7
   141          6
   143        418
   144         47
   145          5
   147          3
   149         18
   150          3
   151          6
   152          6
   153         16
   154          5
   155          4
   157         71
   158         18
   159          3
   163         10
   165          3
   166          3
   167         10
   168          3
   169          3
   171         85
   172         21
   173          3
   177          6
   180          3
   181          8
   182          3
   185        111
   186         26
   187          3
   191          4
   195          5
   199        129
   200         22
   205          3
   208          3
   209          4
   213         49
   214         15
   223          3
   227        110
   228         23
   229          3
   241         78
   242         15
   252          6
   255         49
   256         10
   269         36
   270          9
   277          3
   283        164
   284         34
   285          4
   293          3
   295         66
   296         14
   297         37
   298          8
   326        404
   327        100
   328         14