##TITLE=Library Entry 24369
##JCAMP-DX=Revision 4.10 
##DATA TYPE=MASS SPECTRUM
##SAMPLE DESCRIPTION=Japan AIST/NIMC Database- Spectrum MS-NW-3972
##NAMES=HP
##CAS NAME=Undecane
##MOLFORM=C11H24
##CAS REGISTRY NO=1120-21-4
##MP= -300
##BP= -300
##MW= 156
##$RETENTION INDEX=1100
##$CONDENSED SPECTRUM=NO
##NPOINTS= 54
##XYDATA=(XY..XY) 1 
    14          1
    15          2
    18          2
    26          5
    27         96
    28          7
    29        178
    30          3
    32          1
    38          2
    39         57
    40         10
    41        273
    42        105
    43        897
    44         31
    50          1
    51          2
    52          1
    53         12
    54         10
    55        116
    56        151
    57        999
    58         47
    59          1
    65          2
    67          6
    68          5
    69         47
    70        119
    71        465
    72         27
    77          1
    79          1
    81          1
    82          3
    83         15
    84         76
    85        273
    86         17
    97          5
    98         48
    99         51
   100          4
   105          1
   112         20
   113         40
   114          3
   126          9
   127         24
   128          3
   156         38
   157          5