##TITLE=Library Entry 224
##JCAMP-DX=Revision 4.10 
##DATA TYPE=MASS SPECTRUM
##SAMPLE DESCRIPTION=Japan AIST/NIMC Database- Spectrum MS-IW-5639
##NAMES=HP
##CAS NAME=1,2-Oxathiolane, 2,2-dioxide
##MOLFORM=C3H6O3S
##CAS REGISTRY NO=1120-71-4
##MP= -300
##BP= -300
##MW= 122
##$RETENTION INDEX=0
##$CONDENSED SPECTRUM=NO
##NPOINTS= 70
##XYDATA=(XY..XY) 1 
    14          6
    15          7
    16          4
    17         95
    18        341
    19          2
    25          3
    26         57
    27        121
    28        999
    29        304
    30        257
    31         21
    32         45
    33          1
    34          2
    36          1
    37          5
    38         14
    39         62
    40         38
    41         99
    42         68
    43         17
    44         10
    45          6
    46          2
    47          2
    48         70
    49          5
    50          5
    51          3
    53          2
    54          1
    55         45
    56         11
    57        366
    58        652
    59         26
    60          2
    62          1
    64         97
    65         82
    66         33
    67          4
    68          2
    69          9
    70          2
    71          2
    72          1
    73          1
    76          4
    77          5
    78          1
    79          7
    81          1
    84          1
    85          2
    90          3
    91          3
    92         12
    93          1
   105          3
   107          5
   119          1
   120          1
   121         37
   122         90
   123         10
   124          5