##TITLE=Library Entry 16817
##JCAMP-DX=Revision 4.10 
##DATA TYPE=MASS SPECTRUM
##SAMPLE DESCRIPTION=M.C. HAMMING CONTINENTAL OIL CO., PONCA CITY, OKLA, USA
##NAMES=HP
##CAS NAME=2-Decanol
##MOLFORM=C10H22O
##CAS REGISTRY NO=1120-06-5
##MP= -300
##BP= -300
##MW= 158
##$RETENTION INDEX=1200
##$CONDENSED SPECTRUM=NO
##NPOINTS= 79
##XYDATA=(XY..XY) 1 
    13          0
    14          3
    15         30
    16          1
    17          1
    18          4
    19          1
    25          0
    26          8
    27        148
    28         33
    29        169
    30          5
    31         25
    32          0
    35          0
    36          1
    37          1
    38          3
    39         70
    40         14
    41        213
    42         69
    43        227
    44         67
    45        999
    46         23
    47          2
    50          1
    51          3
    52          2
    53         14
    54         13
    55        144
    56         86
    57        104
    58         21
    59          7
    60          0
    63          0
    65          2
    66          1
    67         11
    68          9
    69        129
    70         63
    71         41
    72          4
    73          0
    77          1
    79          1
    81          4
    82         10
    83         69
    84         31
    85         26
    86          2
    87          2
    91          0
    95          1
    96          3
    97         19
    98         16
    99          1
   109          0
   110          1
   111          9
   112         27
   113          2
   114          5
   115          0
   125          1
   126          0
   140         17
   141          2
   143         14
   144          1
   156          0
   157          1