##TITLE=Library Entry 48580
##JCAMP-DX=Revision 4.10 
##DATA TYPE=MASS SPECTRUM
##SAMPLE DESCRIPTION=Japan AIST/NIMC Database- Spectrum MS-NW- 997
##NAMES=HP
##CAS NAME=2-Pyridinecarboxaldehyde
##MOLFORM=C6H5NO
##CAS REGISTRY NO=1121-60-4
##MP= -300
##BP= -300
##MW= 107
##$RETENTION INDEX=943
##$CONDENSED SPECTRUM=NO
##NPOINTS= 40
##XYDATA=(XY..XY) 1 
    12          1
    17          2
    18          7
    24          1
    25          6
    26         47
    27         50
    28         19
    29         38
    31          1
    36          4
    37         19
    38         25
    39         50
    40          4
    41          1
    44          2
    48          4
    49         25
    50        123
    51        307
    52        548
    53         63
    54          2
    60          2
    61          5
    62          5
    63          7
    64          4
    74          2
    75         17
    76         20
    77          9
    78        346
    79        999
    80         58
    81          1
   106          2
   107        200
   108         14