##TITLE=Library Entry 4817
##JCAMP-DX=Revision 4.10 
##DATA TYPE=MASS SPECTRUM
##SAMPLE DESCRIPTION=Exported from NIST MS Search
##NAMES=HP
##CAS NAME=Cyclopentanone, 2,4-dimethyl-
##MOLFORM=C7H12O
##CAS REGISTRY NO=1121-33-1
##MP= -300
##BP= -300
##MW= 112
##$RETENTION INDEX=0
##$CONDENSED SPECTRUM=NO
##NPOINTS= 39
##XYDATA=(XY..XY) 1 
    29        110
    31          3
    33          6
    37          3
    38         17
    39         27
    40         51
    41        568
    42        999
    43        155
    50         10
    51         17
    52          6
    53         34
    54         17
    55        344
    56        144
    57         17
    58          6
    59          6
    63          6
    65         10
    66          6
    67         17
    68         27
    69        706
    70        165
    71         17
    79         10
    81         10
    83         41
    84         17
    94         17
    97         75
    98          6
   111          6
   112        137
   113          6
   114          6