##TITLE=Library Entry 80504
##JCAMP-DX=Revision 4.10 
##DATA TYPE=MASS SPECTRUM
##SAMPLE DESCRIPTION=Exported from NIST MS Search
##NAMES=HP
##CAS NAME=Pyridine, 3-ethenyl-
##MOLFORM=C7H7N
##CAS REGISTRY NO=1121-55-7
##MP= -300
##BP= -300
##MW= 105
##$RETENTION INDEX=975
##$CONDENSED SPECTRUM=NO
##NPOINTS= 44
##XYDATA=(XY..XY) 1 
    25         16
    26        119
    27        132
    28        124
    29          2
    31          2
    32          3
    36         10
    37         74
    38         99
    39        176
    40         18
    41         14
    42          4
    48          6
    49          9
    50        303
    51        429
    52        368
    53         32
    54          7
    60          4
    61         19
    62         26
    63         57
    64         15
    65         43
    66          7
    73         15
    74         55
    75         44
    76         60
    77        152
    78        310
    79        158
    80         10
    90          3
    91          2
    92          5
    93          3
   104        572
   105        999
   106         90
   107          7