##TITLE=Library Entry 67700
##JCAMP-DX=Revision 4.10 
##DATA TYPE=MASS SPECTRUM
##SAMPLE DESCRIPTION=Chemical Concepts
##NAMES=HP
##CAS NAME=Bicyclo[4.1.0]heptane, 7-bromo-
##MOLFORM=C7H11Br
##CAS REGISTRY NO=1121-39-7
##MP= -300
##BP= -300
##MW= 174
##$RETENTION INDEX=0
##$CONDENSED SPECTRUM=NO
##NPOINTS= 64
##XYDATA=(XY..XY) 1 
    24          6
    27        158
    29         51
    30          0
    31          1
    37          6
    38         27
    39        239
    40         49
    41        268
    42         32
    43          6
    44          5
    45         11
    46         11
    47          2
    49          2
    50         25
    51         59
    52         30
    53        214
    54        104
    55        215
    56          9
    61          3
    62          6
    63         15
    64          6
    65         65
    66         53
    67        234
    68        109
    69          4
    72          3
    74          1
    75          3
    76          2
    77         90
    78         20
    79        161
    80         23
    81        181
    82         12
    89          2
    91         39
    92          6
    93         35
    94         38
    95        999
    96         66
    97          2
   107          1
   119          6
   121          7
   132         65
   133          7
   134         67
   135          6
   146          2
   148          2
   174         23
   175          1
   176         24
   177          2