##TITLE=Library Entry 34062
##JCAMP-DX=Revision 4.10 
##DATA TYPE=MASS SPECTRUM
##SAMPLE DESCRIPTION=NIST Mass Spectrometry Data Center, 1990.
##NAMES=HP
##CAS NAME=Methanone, dicyclopropyl-
##MOLFORM=C7H10O
##CAS REGISTRY NO=1121-37-5
##MP= -300
##BP= -300
##MW= 110
##$RETENTION INDEX=0
##$CONDENSED SPECTRUM=NO
##NPOINTS= 38
##XYDATA=(XY..XY) 1 
    15          6
    26         20
    27         45
    28         25
    29          9
    32         18
    37         20
    38         56
    39        373
    40         62
    41        529
    42         32
    43          7
    50         19
    51         18
    52          8
    53         31
    54         12
    55         49
    63          6
    65         12
    66          7
    67         29
    68        102
    69        999
    70         42
    77         22
    79         32
    80          7
    81         35
    82         80
    83          6
    84          9
    91          9
    95         37
   109         80
   110        103
   111          7