##TITLE=Library Entry 50319
##JCAMP-DX=Revision 4.10 
##DATA TYPE=MASS SPECTRUM
##SAMPLE DESCRIPTION=Japan AIST/NIMC Database- Spectrum MS-IW-5085
##NAMES=HP
##CAS NAME=Cyclohexane, 1,2-dichloro-
##MOLFORM=C6H10Cl2
##CAS REGISTRY NO=1121-21-7
##MP= -300
##BP= -300
##MW= 152
##$RETENTION INDEX=1416
##$CONDENSED SPECTRUM=NO
##NPOINTS= 74
##XYDATA=(XY..XY) 1 
    15          1
    26          7
    27         54
    28          6
    29         11
    35          6
    36         53
    37          5
    38         20
    39         98
    40         17
    41        142
    42         16
    43          3
    44          2
    49         13
    50         22
    51         45
    52         20
    53         76
    54         79
    55        117
    56         11
    57          9
    58          1
    60          1
    61          7
    62         37
    63         10
    64         11
    65         22
    66          7
    67         79
    68          6
    69          9
    70          2
    71          3
    73          6
    74          5
    75         91
    76         13
    77         90
    78         27
    79        200
    80        629
    81        999
    82         75
    83          3
    85          2
    87          3
    88         36
    89         14
    90         33
    91          5
    92          7
    96          3
    97          1
    98          2
    99          1
   101          5
   103          5
   105          1
   109          3
   110          1
   111          2
   115          3
   116         54
   117          9
   118         17
   119          3
   152         11
   153          1
   154          8
   156          1