##TITLE=Library Entry 1085
##JCAMP-DX=Revision 4.10 
##DATA TYPE=MASS SPECTRUM
##SAMPLE DESCRIPTION=Japan AIST/NIMC Database- Spectrum MS-NW-3915
##NAMES=HP
##CAS NAME=Azocine, octahydro-
##MOLFORM=C7H15N
##CAS REGISTRY NO=1121-92-2
##MP= -300
##BP= -300
##MW= 113
##$RETENTION INDEX=938
##$CONDENSED SPECTRUM=NO
##NPOINTS= 66
##XYDATA=(XY..XY) 1 
    14          3
    15         33
    16          1
    26         19
    27        161
    28        242
    29        158
    30        999
    31         28
    32         16
    33          1
    37          4
    38          9
    39        153
    40         26
    41        363
    42        272
    43        616
    44        622
    45         27
    46          3
    49          1
    50          9
    51         13
    52          9
    53         36
    54         46
    55        193
    56        970
    57        628
    58         67
    59         22
    63          2
    65          7
    66          4
    67         43
    68         83
    69         51
    70        877
    71         99
    72        103
    73          6
    77          4
    78          2
    79          5
    80          7
    81         12
    82         40
    83         26
    84        557
    85         49
    86          2
    91          1
    93          1
    94          1
    95          3
    96         10
    97          2
    98        112
    99          9
   110          4
   111          3
   112         97
   113        486
   114         43
   115          2