##TITLE=Library Entry 85098
##JCAMP-DX=Revision 4.10 
##DATA TYPE=MASS SPECTRUM
##SAMPLE DESCRIPTION=A.A.Kutin, Moscow, Russia
##NAMES=HP
##CAS NAME=N-Methyl-4-pyridinamine
##MOLFORM=C6H8N2
##CAS REGISTRY NO=1121-58-0
##MP= -300
##BP= -300
##MW= 108
##$RETENTION INDEX=0
##$CONDENSED SPECTRUM=NO
##NPOINTS= 24
##XYDATA=(XY..XY) 1 
    33          6
    40          2
    41         17
    42         16
    44          9
    45         37
    51        222
    52        118
    53         39
    54          4
    55         10
    56         13
    65         27
    66        101
    67        123
    68         11
    69         29
    78        202
    79        321
    81         49
   106         66
   107        942
   108        999
   109         17