##TITLE=Library Entry 85840
##JCAMP-DX=Revision 4.10 
##DATA TYPE=MASS SPECTRUM
##SAMPLE DESCRIPTION=Japan AIST/NIMC Database- Spectrum MS-NW-6534
##NAMES=HP
##CAS NAME=3-Pyridinol, 6-methyl-
##MOLFORM=C6H7NO
##CAS REGISTRY NO=1121-78-4
##MP= -300
##BP= -300
##MW= 109
##$RETENTION INDEX=2430
##$CONDENSED SPECTRUM=NO
##NPOINTS= 65
##XYDATA=(XY..XY) 1 
    14          4
    15          7
    16          1
    25          4
    26         27
    27         94
    28         30
    29         17
    30          7
    31          2
    36          4
    37         14
    38         27
    39        102
    40         18
    41         24
    42         40
    43          9
    44          7
    46          1
    48          2
    49         11
    50         47
    51         61
    52         56
    53        137
    54         95
    55         49
    56          6
    57         12
    60          1
    61          4
    62          6
    63         11
    64         16
    65          9
    66         11
    67         10
    68         19
    69          5
    70          9
    74          1
    75          3
    76          8
    77          5
    78          5
    79          9
    80        363
    81        117
    82         45
    83          7
    89          1
    90          1
    91         10
    92          6
    93          1
    94         25
    95          4
   105          1
   106          1
   107          7
   108        142
   109        999
   110         74
   111          6