##TITLE=Library Entry 5139
##JCAMP-DX=Revision 4.10 
##DATA TYPE=MASS SPECTRUM
##SAMPLE DESCRIPTION=NIST Mass Spectrometry Data Center
##NAMES=HP
##CAS NAME=Glutarimide
##MOLFORM=C5H7NO2
##CAS REGISTRY NO=1121-89-7
##MP= -300
##BP= -300
##MW= 113
##$RETENTION INDEX=1154
##$CONDENSED SPECTRUM=NO
##NPOINTS= 35
##XYDATA=(XY..XY) 1 
    25          1
    26         10
    27         35
    28         14
    29          7
    30          1
    34          2
    35          2
    36          2
    37         15
    38         32
    39        166
    40         88
    41        348
    42        999
    43         70
    44         29
    45          4
    49          2
    52          7
    53         13
    54         10
    55         34
    56          3
    68          4
    69         11
    70        600
    71         26
    72          5
    74          5
    84         17
    85          9
   113        760
   114         45
   115          5