##TITLE=Library Entry 49716
##JCAMP-DX=Revision 4.10 
##DATA TYPE=MASS SPECTRUM
##SAMPLE DESCRIPTION=Chemical Concepts
##NAMES=HP
##CAS NAME=2-Cyclohepten-1-one
##MOLFORM=C7H10O
##CAS REGISTRY NO=1121-66-0
##MP= -300
##BP= -300
##MW= 110
##$RETENTION INDEX=1022
##$CONDENSED SPECTRUM=NO
##NPOINTS= 73
##XYDATA=(XY..XY) 1 
    24          2
    25          2
    26         92
    27        387
    29         54
    30          3
    31          5
    33          1
    35          5
    36          4
    37         27
    38         68
    39        619
    40        205
    41        337
    42        109
    43         30
    44          3
    45          0
    46          2
    47          2
    48          3
    49         14
    50         67
    51         96
    52         53
    53        405
    54        559
    55        277
    56         31
    57          2
    58          2
    60          4
    61          9
    62         14
    63         19
    64          7
    65         32
    66        538
    67        586
    68        503
    69         31
    70          1
    71          2
    73          4
    74          9
    75          2
    76          2
    77         28
    78          8
    79         41
    80         10
    81        999
    82        226
    83         18
    84          3
    85          3
    86          3
    87          2
    89          2
    90          2
    91         10
    92         12
    93          2
    94          4
    95         31
    96          1
   106          2
   108          2
   109         21
   110        276
   111         20
   112          3