##TITLE=Library Entry 4701
##JCAMP-DX=Revision 4.10 
##DATA TYPE=MASS SPECTRUM
##SAMPLE DESCRIPTION=L.E. Slivon, Battelle Columbus Laboratories, Columbus,
 Ohio 43201
##NAMES=HP
##CAS NAME=2H-Pyran-2-one, tetrahydro-4-methyl-
##MOLFORM=C6H10O2
##CAS REGISTRY NO=1121-84-2
##MP= -300
##BP= -300
##MW= 114
##$RETENTION INDEX=1803
##$CONDENSED SPECTRUM=NO
##NPOINTS= 35
##XYDATA=(XY..XY) 1 
    40         50
    41        403
    42        999
    43        115
    45          5
    48          0
    49          1
    50          6
    52          0
    53         39
    54         24
    55        874
    56        410
    57         31
    58          3
    60          0
    67         12
    68          9
    69        112
    70        156
    71         14
    81          2
    82          2
    83          2
    84         21
    85          6
    86          0
    95          0
    96          0
    97          0
    99          1
   112          0
   113          3
   114        149
   115          5