##TITLE=Library Entry 48820
##JCAMP-DX=Revision 4.10 
##DATA TYPE=MASS SPECTRUM
##SAMPLE DESCRIPTION=Japan AIST/NIMC Database- Spectrum MS-NW-5640
##NAMES=HP
##CAS NAME=Ethanone, 1-(2-pyridinyl)-
##MOLFORM=C7H7NO
##CAS REGISTRY NO=1122-62-9
##MP= -300
##BP= -300
##MW= 121
##$RETENTION INDEX=1035
##$CONDENSED SPECTRUM=NO
##NPOINTS= 64
##XYDATA=(XY..XY) 1 
    12          1
    13          2
    14         10
    15         62
    18          2
    25          3
    26         31
    27         66
    28         34
    29          4
    31          4
    32          2
    36          2
    37         19
    38         30
    39         66
    40          8
    41          5
    42         41
    43        422
    44         11
    45          2
    48          3
    49         18
    50        101
    51        296
    52        326
    53         37
    54          3
    60          2
    61          7
    62          9
    63         14
    64          9
    65         20
    66         19
    67          4
    71          1
    72          1
    73          2
    74          6
    75         15
    76         26
    77         15
    78        784
    79        999
    80         95
    81          4
    91          3
    92         11
    93        338
    94         24
    95          1
   104          4
   105          3
   106         59
   107          9
   108          2
   118          1
   119          1
   120          2
   121        623
   122         52
   123          4