##TITLE=Library Entry 8180
##JCAMP-DX=Revision 4.10 
##DATA TYPE=MASS SPECTRUM
##SAMPLE DESCRIPTION=NIST Mass Spectrometry Data Center, 1994
##NAMES=HP
##CAS NAME=2-Propanone, 1-cyclopentyl-
##MOLFORM=C8H14O
##CAS REGISTRY NO=1122-98-1
##MP= -300
##BP= -300
##MW= 126
##$RETENTION INDEX=1075
##$CONDENSED SPECTRUM=NO
##NPOINTS= 65
##XYDATA=(XY..XY) 1 
    13          2
    14         19
    15        146
    16          2
    17          0
    18          3
    26         26
    27        182
    28         47
    29         92
    30          3
    31          8
    37          5
    39        241
    40         47
    41        343
    42          3
    43        999
    44         24
    45          6
    50         15
    51         25
    52         13
    53         54
    54         34
    55        312
    56         20
    57          6
    58        472
    59        559
    60         19
    61          2
    62          2
    63          6
    65         16
    66         15
    67        100
    68         99
    69         43
    70          3
    71         13
    72          1
    74          1
    77         10
    78          2
    79         13
    80          2
    81          9
    82          1
    83        148
    84         14
    85          2
    91          2
    93         10
    94          1
    95          0
    96          0
    97         32
    98          3
   108         11
   109          1
   111         23
   112          1
   126         61
   127          6