##TITLE=Library Entry 20383
##JCAMP-DX=Revision 4.10 
##DATA TYPE=MASS SPECTRUM
##SAMPLE DESCRIPTION=NIST Mass Spectrometry Data Center, 1994
##NAMES=HP
##CAS NAME=Cyclohexanecarboxamide
##MOLFORM=C7H13NO
##CAS REGISTRY NO=1122-56-1
##MP= -300
##BP= -300
##MW= 127
##$RETENTION INDEX=0
##$CONDENSED SPECTRUM=NO
##NPOINTS= 63
##XYDATA=(XY..XY) 1 
    11          6
    14          2
    15         31
    16         50
    17         21
    18         22
    26         50
    27        363
    28        131
    29        164
    30         33
    32          2
    37         15
    38         38
    39        495
    40         83
    41        612
    42         95
    43         88
    44        544
    45         12
    46         40
    50         37
    51         75
    52         35
    53        139
    54        131
    55        999
    56        156
    57         15
    58         12
    59        526
    60         32
    63         13
    65         31
    66         19
    67        122
    68         29
    69         45
    70         16
    71         13
    72        847
    73         82
    77         33
    79         41
    80         14
    81         61
    82         47
    83        269
    84         43
    85         87
    86        146
    87         10
    98        331
    99         72
   109         10
   110         20
   111          9
   112        106
   113         11
   126         76
   127        247
   128         19