##TITLE=Library Entry 20651
##JCAMP-DX=Revision 4.10 
##DATA TYPE=MASS SPECTRUM
##SAMPLE DESCRIPTION=Japan AIST/NIMC Database- Spectrum MS-NW-5397
##NAMES=HP
##CAS NAME=Cyclohexane, isothiocyanato-
##MOLFORM=C7H11NS
##CAS REGISTRY NO=1122-82-3
##MP= -300
##BP= -300
##MW= 141
##$RETENTION INDEX=1256
##$CONDENSED SPECTRUM=NO
##NPOINTS= 88
##XYDATA=(XY..XY) 1 
    14          1
    15          9
    26         17
    27        154
    28         37
    29        100
    30          6
    31          1
    32          7
    33          1
    34          1
    36          2
    37          5
    38         12
    39        189
    40         26
    41        531
    42         29
    43         52
    44         10
    45         14
    46          2
    47          1
    49          2
    50         13
    51         25
    52         13
    53         71
    54         92
    55        999
    56         62
    57          6
    58         38
    59         29
    60         13
    61          2
    62          5
    63          4
    64          2
    65         11
    66          8
    67        182
    68         14
    69          6
    70          9
    71          9
    72         51
    73          4
    74          5
    75          1
    76          3
    77         13
    78         11
    79         19
    80          6
    81         45
    82        284
    83        609
    84         46
    85         33
    86          8
    87          3
    88          1
    90          6
    93          1
    94          1
    96          2
    97          4
    98         43
    99          6
   100          5
   101          1
   102          2
   108          2
   109          1
   110          1
   112          7
   113          6
   114          1
   115          1
   124          1
   126          1
   139          1
   140          5
   141        528
   142         55
   143         28
   144          2