##TITLE=Library Entry 109415
##JCAMP-DX=Revision 4.10 
##DATA TYPE=MASS SPECTRUM
##SAMPLE DESCRIPTION=Japan AIST/NIMC Database- Spectrum MS-IW- 68
##NAMES=HP
##CAS NAME=Pyridine, 4-methoxy-1-oxide-
##MOLFORM=C6H7NO2
##CAS REGISTRY NO=1122-96-9
##MP= -300
##BP= -300
##MW= 125
##$RETENTION INDEX=0
##$CONDENSED SPECTRUM=NO
##NPOINTS= 68
##XYDATA=(XY..XY) 1 
    15         10
    25          1
    26         24
    27         46
    28         76
    29         22
    30         34
    31          2
    33          2
    37          7
    38         22
    39         52
    40         28
    41         17
    42          7
    43          7
    44          1
    49          4
    50         23
    51         40
    52         47
    53         32
    54         33
    55         24
    56         20
    57          2
    58          3
    59          2
    61          5
    62         16
    63         26
    64         12
    65         10
    66         18
    67         11
    68         53
    69         36
    70          2
    71          1
    75          2
    76          3
    77          1
    78         14
    79         43
    80          6
    81          3
    82         53
    83         24
    84         26
    85          1
    92          9
    93         12
    94          6
    95          1
    96          6
    97          2
    98         16
    99          1
   108         22
   109         69
   110        316
   111         18
   112          1
   122          1
   124          5
   125        999
   126         81
   127          7