##TITLE=Library Entry 66512
##JCAMP-DX=Revision 4.10 
##DATA TYPE=MASS SPECTRUM
##SAMPLE DESCRIPTION=Japan AIST/NIMC Database- Spectrum MS-NW-1017
##NAMES=HP
##CAS NAME=Pyridine, 4-propyl-
##MOLFORM=C8H11N
##CAS REGISTRY NO=1122-81-2
##MP= -300
##BP= -300
##MW= 121
##$RETENTION INDEX=1035
##$CONDENSED SPECTRUM=NO
##NPOINTS= 74
##XYDATA=(XY..XY) 1 
    15          6
    26         21
    27         84
    28         31
    29         88
    30          3
    31          1
    37         10
    38         30
    39        223
    40         27
    41         61
    42         20
    43         23
    44          2
    45          2
    49          5
    50         52
    51        129
    52         89
    53         36
    54         33
    55          8
    56          8
    57         10
    58          2
    59          3
    61          7
    62         14
    63         43
    64         25
    65        257
    66         84
    67         39
    68          4
    69          1
    71          1
    72          1
    73          1
    74          5
    75          6
    76          8
    77         57
    78         51
    79        116
    80         35
    81          4
    82          3
    83          2
    86          1
    87          1
    88          1
    89          5
    90          5
    91         37
    92        501
    93        999
    94         85
    95          4
   102          1
   103          2
   104         15
   105          9
   106        436
   107         49
   108          3
   116          1
   117          9
   118         18
   119          4
   120         97
   121        949
   122         85
   123          3