##TITLE=Library Entry 97964
##JCAMP-DX=Revision 4.10 
##DATA TYPE=MASS SPECTRUM
##SAMPLE DESCRIPTION=NIST Mass Spectrometry Data Center, 1994
##NAMES=HP
##CAS NAME=1H-Imidazole-4,5-dicarbonitrile
##MOLFORM=C5H2N4
##CAS REGISTRY NO=1122-28-7
##MP= -300
##BP= -300
##MW= 118
##$RETENTION INDEX=0
##$CONDENSED SPECTRUM=NO
##NPOINTS= 30
##XYDATA=(XY..XY) 1 
    12         46
    13         16
    14          8
    17         20
    18         27
    24         32
    26         32
    27         88
    28        232
    36         46
    38        495
    39        222
    41         22
    42         25
    44         17
    50         47
    51         30
    52         32
    53        258
    64        370
    65        133
    66        213
    76         38
    77         25
    91        916
    92         63
   105         21
   118        999
   119         72
   120         12