##TITLE=Library Entry 33143
##JCAMP-DX=Revision 4.10 
##DATA TYPE=MASS SPECTRUM
##SAMPLE DESCRIPTION=NIST Mass Spectrometry Data Center, 1990.
##NAMES=HP
##CAS NAME=2-Ethylidenecyclohexanone
##MOLFORM=C8H12O
##CAS REGISTRY NO=1122-24-3
##MP= -300
##BP= -300
##MW= 124
##$RETENTION INDEX=0
##$CONDENSED SPECTRUM=NO
##NPOINTS= 34
##XYDATA=(XY..XY) 1 
    26         22
    27        105
    28          9
    29         30
    32          5
    38         32
    39        270
    40         80
    41        143
    42         63
    50         40
    51         75
    52         40
    53        211
    54        144
    55        175
    56         16
    62         13
    63         25
    65         66
    66        128
    67        999
    68        255
    69         25
    77         44
    79        112
    81        304
    82         29
    91         22
    95         65
    96        123
   109        122
   124        356
   125         32