##TITLE=Library Entry 57525
##JCAMP-DX=Revision 4.10 
##DATA TYPE=MASS SPECTRUM
##SAMPLE DESCRIPTION=Japan AIST/NIMC Database- Spectrum MS-NW-8851
##NAMES=HP
##CAS NAME=2,5-Furandione, 3,4-dichloro-
##MOLFORM=C4Cl2O3
##CAS REGISTRY NO=1122-17-4
##MP= -300
##BP= -300
##MW= 166
##$RETENTION INDEX=0
##$CONDENSED SPECTRUM=NO
##NPOINTS= 62
##XYDATA=(XY..XY) 1 
    12         17
    16          4
    24         85
    25          2
    28         95
    29          1
    35         43
    37         14
    44         90
    45          1
    47        183
    48         24
    49         52
    51          1
    52         82
    53          3
    59        313
    60          9
    61        109
    62          5
    68          1
    70          2
    71          6
    72          1
    73          2
    75          5
    76          2
    77          1
    79          1
    80          1
    81          1
    82          3
    84          2
    87        999
    88         33
    89        329
    90         11
    91          1
    94        463
    95         13
    96        301
    97          9
    98         48
    99          1
   103          2
   105          1
   122        366
   123         11
   124        237
   125          8
   126         38
   127          2
   131          3
   133          1
   138          2
   140          3
   166        652
   167         29
   168        421
   169         18
   170         70
   171          3