##TITLE=Library Entry 47209
##JCAMP-DX=Revision 4.10 
##DATA TYPE=MASS SPECTRUM
##SAMPLE DESCRIPTION=Exported from NIST MS Search
##NAMES=HP
##CAS NAME=Cyanic acid, phenyl ester
##MOLFORM=C7H5NO
##CAS REGISTRY NO=1122-85-6
##MP= -300
##BP= -300
##MW= 119
##$RETENTION INDEX=0
##$CONDENSED SPECTRUM=NO
##NPOINTS= 15
##XYDATA=(XY..XY) 1 
    37         17
    38         45
    39         87
    50         95
    51        225
    63         25
    64         32
    65         50
    74         35
    75         20
    76         12
    77        999
    78         65
   119        529
   120         37