##TITLE=Library Entry 2628
##JCAMP-DX=Revision 4.10 
##DATA TYPE=MASS SPECTRUM
##SAMPLE DESCRIPTION=CAR 0002
##NAMES=HP
##CAS NAME=Cyclohexanone, 2-methyl-, oxime
##MOLFORM=C7H13NO
##CAS REGISTRY NO=1122-26-5
##MP= -300
##BP= -300
##MW= 127
##$RETENTION INDEX=0
##$CONDENSED SPECTRUM=NO
##NPOINTS= 85
##XYDATA=(XY..XY) 1 
    12          7
    14         10
    15         46
    16         37
    26         40
    27        323
    29        197
    30        129
    31         16
    36          5
    37         13
    38         34
    39        347
    40         98
    41        999
    42        293
    43        285
    45         20
    46         25
    47          9
    48          4
    49          4
    50         28
    51         57
    52         62
    53        162
    54        640
    55        532
    56        254
    57        200
    58         34
    59        135
    60         23
    61          4
    62          6
    63         15
    64         18
    65         47
    66         67
    67        312
    68        593
    69        366
    70         61
    71         21
    72         42
    73        113
    74          9
    75         10
    76          5
    77         63
    78         26
    79         75
    80         81
    81        162
    82        559
    83        627
    84        124
    85         58
    86         14
    87          9
    89          8
    91         35
    92         13
    93         76
    94        185
    95        605
    96        443
    97         58
    98        131
    99        146
   100         15
   105          5
   106         22
   107         21
   108         77
   109         68
   110        544
   111        393
   112        173
   113         14
   125         12
   126         49
   127        339
   128         33
   129          2