##TITLE=Library Entry 109234
##JCAMP-DX=Revision 4.10 
##DATA TYPE=MASS SPECTRUM
##SAMPLE DESCRIPTION=Japan AIST/NIMC Database- Spectrum MS-IW-5840
##NAMES=HP
##CAS NAME=4-Hydroxy-6-(methylamino)pyrimidine
##MOLFORM=C5H7N3O
##CAS REGISTRY NO=1122-67-4
##MP= -300
##BP= -300
##MW= 125
##$RETENTION INDEX=0
##$CONDENSED SPECTRUM=NO
##NPOINTS= 70
##XYDATA=(XY..XY) 1 
    13          1
    14          3
    15         19
    16          1
    17          5
    18         24
    25          2
    26         15
    27         84
    28        118
    29         14
    30        198
    31          9
    32          1
    38         10
    39         20
    40         45
    41         56
    42         42
    43         17
    44          5
    45         97
    46          2
    47          1
    48          2
    49          1
    50          3
    51         17
    52         24
    53         52
    54         36
    55         65
    56         17
    57        106
    58          9
    61          1
    62          4
    64          1
    65          5
    66         26
    67         23
    68        175
    69        105
    70         15
    71         11
    76          1
    77          4
    78          6
    79          9
    80         28
    81         45
    82        273
    83         16
    84         89
    85          4
    93          2
    95          6
    96        153
    97        132
    98         36
    99          2
   107          1
   108          4
   109          9
   110          1
   123          2
   124         55
   125        999
   126         86
   127          5