##TITLE=Library Entry 95952
##JCAMP-DX=Revision 4.10 
##DATA TYPE=MASS SPECTRUM
##SAMPLE DESCRIPTION=V.V. Samkova, Inst. Chem. Sci., Acad. Sci. Kaz. SSR, Al
ma-Ata, USSR
##NAMES=HP
##CAS NAME=4-Piperidinol, 4-ethynyl-cis-2,trans-3-dimethyl-1-(3-phenyl-2-pro
pynyl)-
##MOLFORM=C18H21NO
##CAS REGISTRY NO=112307-96-7
##MP= -300
##BP= -300
##MW= 267
##$RETENTION INDEX=0
##$CONDENSED SPECTRUM=NO
##NPOINTS= 57
##XYDATA=(XY..XY) 1 
    27         42
    28         97
    29         58
    30         26
    39         61
    41         82
    42         80
    43         33
    51         26
    53         45
    54         41
    55         68
    56        296
    57         44
    63         41
    65         53
    68         34
    69         25
    70         31
    77         34
    89         67
    91         29
   114         35
   115        999
   116        127
   117         22
   128         44
   129         50
   130         23
   134         22
   141         20
   142         27
   143         29
   152         23
   155         26
   156         48
   169         20
   170         38
   182         35
   183         33
   184        216
   185         39
   196         41
   210        116
   211        113
   212         93
   224         43
   234         25
   238         33
   239         25
   250        181
   251         45
   252        550
   253        109
   266         90
   267        325
   268         70