##TITLE=Library Entry 1305
##JCAMP-DX=Revision 4.10 
##DATA TYPE=MASS SPECTRUM
##SAMPLE DESCRIPTION=CENTRE D'ETUDES NUCLEAIRES DE GRENOBLE, FRANCE.
##NAMES=HP
##CAS NAME=2,4(1H,3H)-Pyrimidinedione, dihydro-5-hydroxy-5-methyl-
##MOLFORM=C5H8N2O3
##CAS REGISTRY NO=1123-21-3
##MP= -300
##BP= -300
##MW= 144
##$RETENTION INDEX=0
##$CONDENSED SPECTRUM=NO
##NPOINTS= 37
##XYDATA=(XY..XY) 1 
    27         20
    28         85
    29         35
    30        999
    31         11
    39         22
    40          7
    41          5
    42         40
    43        455
    44        170
    45         16
    46         40
    54         10
    55         10
    56         60
    57         70
    58        425
    59         13
    60         13
    70         48
    71         10
    72        105
    73        280
    74         37
    84         18
    86         20
    99        145
   100          7
   101         52
   115        105
   116        500
   117         20
   126          1
   129          9
   144         50
   145         25