##TITLE=Library Entry 30941
##JCAMP-DX=Revision 4.10 
##DATA TYPE=MASS SPECTRUM
##SAMPLE DESCRIPTION=Japan AIST/NIMC Database- Spectrum MS-NW-3167
##NAMES=HP
##CAS NAME=Cyclopentaneacetic acid
##MOLFORM=C7H12O2
##CAS REGISTRY NO=1123-00-8
##MP= -300
##BP= -300
##MW= 128
##$RETENTION INDEX=0
##$CONDENSED SPECTRUM=NO
##NPOINTS= 77
##XYDATA=(XY..XY) 1 
    14          2
    15          9
    17          1
    18          3
    26         11
    27        114
    28         24
    29         76
    30          3
    31          9
    32          4
    37          4
    38         11
    39        167
    40         39
    41        414
    42         98
    43         92
    44          9
    45         51
    46          2
    47          3
    49          1
    50         10
    51         18
    52          9
    53         59
    54         71
    55        219
    56         54
    57         35
    58         39
    59          4
    60        999
    61        573
    62         17
    63          6
    65         12
    66         32
    67        203
    68        556
    69        312
    70         16
    71         10
    72          9
    73         52
    74          9
    75          1
    77          9
    78          2
    79         12
    80          3
    81         24
    82         29
    83         32
    84          3
    85        187
    86         25
    87         22
    88          6
    89          1
    91          1
    92          1
    95          4
    97          2
    99        137
   100         32
   101          2
   105          1
   108          1
   109          5
   110         10
   111          7
   113          7
   127         12
   128         34
   129          4