##TITLE=Library Entry 33925
##JCAMP-DX=Revision 4.10 
##DATA TYPE=MASS SPECTRUM
##SAMPLE DESCRIPTION=A. Brossi, LAC, NIDDK, NIH, Bethesda, MD 20892
##NAMES=HP
##CAS NAME=Benz[2]azepine, 3,4-dihydro-1-methyl-7,8,9-trimethoxy-
##MOLFORM=C14H19NO3
##CAS REGISTRY NO=112369-96-7
##MP= -300
##BP= -300
##MW= 249
##$RETENTION INDEX=0
##$CONDENSED SPECTRUM=NO
##NPOINTS= 192
##XYDATA=(XY..XY) 1 
    42        247
    43         62
    44         68
    45         23
    47         10
    48          1
    49          5
    50        103
    51        135
    52         62
    53         63
    54         14
    55         97
    56         10
    57         55
    59         43
    60          2
    62         17
    63         61
    65        115
    66         30
    68        999
    69         49
    70          8
    71          7
    72         13
    73          6
    74         11
    75         17
    76         14
    77        161
    78         65
    79         60
    80         24
    81         18
    82         10
    83         10
    84          7
    85          5
    86         10
    87         16
    88          7
    89         46
    90         25
    91        149
    92         31
    93         37
    94         19
    95         33
    97          6
    98          2
    99          3
   101         34
   103         94
   104         25
   105         52
   106         28
   107         30
   108         12
   109         25
   111         47
   112          4
   113          4
   115         49
   116         11
   117        122
   118         34
   119         37
   120         39
   121         32
   122         10
   123          8
   124          8
   125          4
   127         11
   128          5
   129         23
   130         12
   131         46
   132          5
   133         69
   134         24
   135         27
   136         13
   137         11
   138          3
   139          3
   140          0
   141          3
   142          2
   143         14
   144          4
   145         53
   146         37
   147         56
   148         36
   149         32
   150         20
   151         20
   152          3
   153          5
   154          2
   155          1
   156          4
   157          3
   158         11
   159         31
   160         26
   161         37
   162         23
   163         75
   165         53
   167         31
   168          5
   169          2
   170          2
   171          3
   172          7
   173         44
   174         26
   175         25
   176         70
   177        348
   178         47
   179         35
   181         37
   182         14
   183          2
   184          1
   185          2
   186          7
   187         11
   188         40
   189          9
   190        151
   191        126
   193        325
   194         35
   195         15
   196          3
   197          2
   198          0
   199          1
   200          6
   201         11
   202         19
   203         16
   204         52
   205         37
   206        169
   207        300
   208        247
   209         34
   210          5
   211          2
   212          0
   213          0
   214          3
   215          1
   217         12
   218         69
   219         26
   220         41
   221        385
   222         49
   223          1
   224          0
   225          0
   226          1
   227          0
   228          1
   230          0
   232          2
   233          6
   234        264
   235         52
   236         28
   237         15
   238          3
   239          5
   240          1
   241          1
   242          0
   243          1
   244          3
   246          0
   247          9
   248         70
   249        862
   250        149
   251         37
   252         10