##TITLE=Library Entry 83239
##JCAMP-DX=Revision 4.10 
##DATA TYPE=MASS SPECTRUM
##SAMPLE DESCRIPTION=P. Vainiotalo, Dep. Chem., Univ. Joensuu, Joensuu, Finl
and
##NAMES=HP
##CAS NAME=4H-3,1-Benzoxazine, 1,2,4arel,5cis,6,7,8cis,8acis-octahydro-5,8-m
ethano-1-methyl-2-(phenylimino)-
##MOLFORM=C16H20N2O
##CAS REGISTRY NO=112379-00-7
##MP= -300
##BP= -300
##MW= 256
##$RETENTION INDEX=0
##$CONDENSED SPECTRUM=NO
##NPOINTS= 89
##XYDATA=(XY..XY) 1 
    15         21
    27         43
    29         27
    30         57
    38          7
    39         62
    40         17
    41        141
    42        390
    43         35
    44         39
    50          9
    51         34
    52         14
    53         37
    54         51
    55         49
    56         26
    57         26
    58         11
    63         13
    64         29
    65         48
    66        175
    67        163
    68        151
    69         43
    70        112
    71         14
    76          8
    77        127
    78         59
    79        334
    80        148
    81         68
    82         32
    83         30
    84          8
    90          9
    91        175
    92         42
    93         96
    94         54
    95         36
    96         34
    98          8
   103         10
   104         34
   105         58
   106        999
   107        189
   108         65
   109         26
   110          5
   117         10
   118         22
   119        172
   120         78
   121         13
   122         45
   123          8
   128          7
   131         29
   132        116
   133         21
   134          9
   136         27
   137          6
   144         14
   145          6
   146         18
   147         42
   148         16
   149        506
   150         52
   151          6
   152         12
   161         75
   162         10
   165         32
   175          7
   184          8
   187         11
   212         32
   213          8
   255        716
   256        889
   257        162
   258         17