##TITLE=Library Entry 66803
##JCAMP-DX=Revision 4.10 
##DATA TYPE=MASS SPECTRUM
##SAMPLE DESCRIPTION=B. R. D'ARCY, DEPT. CHEM., UNIV. N. ENG., ARMIDALE, NSW
, AUST.
##NAMES=HP
##CAS NAME=1-Anilino-2,7-diphenyl-2,7-diazatetracyclo[4,4,2,0(3,12).0(8,11)]
dodecane-4,10-dione
##MOLFORM=C28H25N3O2
##CAS REGISTRY NO=112370-60-2
##MP= -300
##BP= -300
##MW= 435
##$RETENTION INDEX=0
##$CONDENSED SPECTRUM=NO
##NPOINTS= 23
##XYDATA=(XY..XY) 1 
    93        999
   144        150
   145        210
   172        120
   173        150
   234        540
   235        180
   247         70
   248         30
   250         70
   252         10
   288        180
   289        140
   314         10
   315         50
   316         30
   342         60
   343        120
   344        100
   407        300
   433         20
   434         10
   435         10