##TITLE=Library Entry 51024
##JCAMP-DX=Revision 4.10 
##DATA TYPE=MASS SPECTRUM
##SAMPLE DESCRIPTION=NIST Mass Spectrometry Data Center, 1990.
##NAMES=HP
##CAS NAME=2-Cyclohexen-1-one, 3,5-dimethyl-
##MOLFORM=C8H12O
##CAS REGISTRY NO=1123-09-7
##MP= -300
##BP= -300
##MW= 124
##$RETENTION INDEX=1597
##$CONDENSED SPECTRUM=NO
##NPOINTS= 28
##XYDATA=(XY..XY) 1 
    15         13
    26         14
    27        110
    28         29
    29         29
    38         34
    39        308
    40         37
    41         94
    42         37
    50         26
    51         48
    52         28
    53         98
    54        271
    55         36
    63         13
    65         22
    67         51
    69         12
    77         27
    79         38
    82        999
    83         58
    95          9
   109         36
   124        199
   125         15