##TITLE=Library Entry 48467
##JCAMP-DX=Revision 4.10 
##DATA TYPE=MASS SPECTRUM
##SAMPLE DESCRIPTION=V.Zaikin,Topchiev Inst.Petrochem.Synth.,Moscow
##NAMES=HP
##CAS NAME=1,2-Cyclononadiene
##MOLFORM=C9H14
##CAS REGISTRY NO=1123-11-1
##MP= -300
##BP= -300
##MW= 122
##$RETENTION INDEX=0
##$CONDENSED SPECTRUM=NO
##NPOINTS= 59
##XYDATA=(XY..XY) 1 
    27         53
    28         64
    29         72
    30          3
    37         24
    38         70
    39        607
    40        113
    41        383
    42         68
    43         12
    44          3
    49         70
    50        107
    51        202
    52        145
    53        236
    54         78
    55         96
    56          7
    61         13
    62         39
    63         75
    64         21
    65        155
    66        133
    67        251
    68         42
    69          6
    73          2
    74         14
    75         21
    76          6
    77        298
    78         92
    79        999
    80        359
    81        289
    82         25
    85          3
    86          5
    87          4
    89          8
    90          2
    91        165
    92         33
    93        309
    94        160
    95         14
   103          3
   105         11
   106          4
   107         39
   108          3
   115          3
   117          3
   119          3
   121         13
   122         10