##TITLE=Library Entry 95948
##JCAMP-DX=Revision 4.10 
##DATA TYPE=MASS SPECTRUM
##SAMPLE DESCRIPTION=V.V. Samkova, Inst. Chem. Sci., Acad. Sci. Kaz. SSR, Al
ma-Ata, USSR
##NAMES=HP
##CAS NAME=4-Piperidinol, 4-ethynyl-cis-2,trans-3-dimethyl-1-(3-phenyl-2-pro
pynyl)-, acetate
##MOLFORM=C20H23NO2
##CAS REGISTRY NO=112307-98-9
##MP= -300
##BP= -300
##MW= 309
##$RETENTION INDEX=0
##$CONDENSED SPECTRUM=NO
##NPOINTS= 45
##XYDATA=(XY..XY) 1 
    27         30
    28         92
    29         40
    39         51
    41         59
    42         49
    43        160
    44         20
    51         22
    53         33
    54         28
    55         40
    56        185
    57         27
    63         32
    65         57
    77         52
    89         58
    91         53
   114         30
   115        999
   116        124
   117         29
   122         22
   128         27
   129         48
   134         91
   184         20
   210         90
   211         86
   212         33
   234        202
   235         50
   248         50
   249         79
   250        406
   251         98
   252         32
   266         51
   267         20
   294        135
   295         33
   308         27
   309        353
   310         90