##TITLE=Library Entry 6631
##JCAMP-DX=Revision 4.10 
##DATA TYPE=MASS SPECTRUM
##SAMPLE DESCRIPTION=V.A. KOPTYUG, VOL.4, ATLAS OF MASS SPECTRA OF ORGANIC C
OMPOUNDS
##NAMES=HP
##CAS NAME=Isoxazole, 3,5-dimethyl-4-nitro-
##MOLFORM=C5H6N2O3
##CAS REGISTRY NO=1123-49-5
##MP= -300
##BP= -300
##MW= 142
##$RETENTION INDEX=0
##$CONDENSED SPECTRUM=NO
##NPOINTS= 42
##XYDATA=(XY..XY) 1 
    26         61
    27        144
    29         48
    30        169
    31         15
    37         14
    38         54
    39        136
    40        113
    41        163
    42        348
    43        999
    45         23
    50         17
    51         36
    52         54
    53         48
    54        137
    55         26
    56         26
    57         26
    60         13
    62         18
    63         34
    64         12
    65         32
    66         25
    67         89
    68         14
    69         32
    70         25
    71         49
    80         46
    81         40
    82         17
    83        174
    84         18
    85         12
    95         20
    96         42
   142        194
   143         14