##TITLE=Library Entry 50583
##JCAMP-DX=Revision 4.10 
##DATA TYPE=MASS SPECTRUM
##SAMPLE DESCRIPTION=NIST Mass Spectrometry Data Center, 1990.
##NAMES=HP
##CAS NAME=1-Allyl-1-cyclohexanol
##MOLFORM=C9H16O
##CAS REGISTRY NO=1123-34-8
##MP= -300
##BP= -300
##MW= 140
##$RETENTION INDEX=0
##$CONDENSED SPECTRUM=NO
##NPOINTS= 55
##XYDATA=(XY..XY) 1 
    15          9
    26         12
    27         89
    28         19
    29         60
    31         14
    32          1
    38         16
    39        206
    40         46
    41        243
    42         79
    43        136
    45          9
    50         20
    51         52
    52         26
    53        111
    54          9
    55        393
    56         36
    57         88
    58          8
    63         24
    64          7
    65         66
    66         27
    67         80
    68         29
    69         81
    70         29
    71         16
    77        109
    78         45
    79        375
    80        108
    81        999
    82         65
    83         29
    84         13
    91        106
    92         18
    93         66
    94         25
    95          7
    96          7
    97         30
    98          7
    99        807
   100         53
   105         11
   107         68
   120         11
   122         82
   123          8