##TITLE=Library Entry 52257
##JCAMP-DX=Revision 4.10 
##DATA TYPE=MASS SPECTRUM
##SAMPLE DESCRIPTION=NIST Mass Spectrometry Data Center, 1990.
##NAMES=HP
##CAS NAME=1-Propanone, 1-cyclohexyl-
##MOLFORM=C9H16O
##CAS REGISTRY NO=1123-86-0
##MP= -300
##BP= -300
##MW= 140
##$RETENTION INDEX=0
##$CONDENSED SPECTRUM=NO
##NPOINTS= 32
##XYDATA=(XY..XY) 1 
    15         10
    26         23
    27        191
    28         85
    29        258
    39        156
    41        262
    42         36
    43         42
    51         23
    52         12
    53         53
    54         65
    55        639
    56         63
    57        288
    65         15
    67         95
    68         23
    69         16
    72         11
    77         17
    79         17
    81         19
    83        999
    84         69
    85         52
    98         12
   111        211
   112         16
   140        170
   141         17