##TITLE=Library Entry 21124
##JCAMP-DX=Revision 4.10 
##DATA TYPE=MASS SPECTRUM
##SAMPLE DESCRIPTION=Japan AIST/NIMC Database- Spectrum MS-NW-3600
##NAMES=HP
##CAS NAME=1-Methylcyclohexylcarboxylic acid
##MOLFORM=C8H14O2
##CAS REGISTRY NO=1123-25-7
##MP= -300
##BP= -300
##MW= 142
##$RETENTION INDEX=0
##$CONDENSED SPECTRUM=NO
##NPOINTS= 86
##XYDATA=(XY..XY) 1 
    15          8
    17          1
    18          2
    26          9
    27        107
    28         14
    29         87
    30          3
    31          7
    37          2
    38          8
    39        132
    40         23
    41        235
    42         24
    43         72
    44          3
    45         29
    46          2
    47          2
    49          1
    50          7
    51         16
    52          8
    53         56
    54         30
    55        999
    56        145
    57         16
    58          3
    59         26
    60          4
    61          4
    62          2
    63          4
    64          1
    65         11
    66          6
    67         62
    68         31
    69        169
    70         53
    71          8
    72          4
    73         17
    74         70
    75          4
    77         13
    78          4
    79         16
    80          5
    81         95
    82         28
    83         23
    84          3
    85          7
    86          5
    87        483
    88         24
    89          3
    91          6
    92          1
    93          4
    94          2
    95         26
    96         34
    97        924
    98         73
    99          8
   100         21
   101          6
   102          1
   109          7
   110          1
   111          3
   113         25
   114          4
   122          1
   123          1
   124         13
   125          2
   127         69
   128          6
   141          1
   142         82
   143          8