##TITLE=Library Entry 22352
##JCAMP-DX=Revision 4.10 
##DATA TYPE=MASS SPECTRUM
##SAMPLE DESCRIPTION=Exported from NIST MS Search
##NAMES=HP
##CAS NAME=2,6-Piperidinedione, 4,4-dimethyl-
##MOLFORM=C7H11NO2
##CAS REGISTRY NO=1123-40-6
##MP= -300
##BP= -300
##MW= 141
##$RETENTION INDEX=0
##$CONDENSED SPECTRUM=NO
##NPOINTS= 15
##XYDATA=(XY..XY) 1 
    39        196
    40         88
    41        370
    42        140
    55        748
    56        999
    57        122
    70        625
    82        166
    83        570
    84         55
    98        111
   113        148
   125         85
   141        544