##TITLE=Library Entry 26897
##JCAMP-DX=Revision 4.10 
##DATA TYPE=MASS SPECTRUM
##SAMPLE DESCRIPTION=Z. Moldovan, Inst. Isotop. Mol. Technol., Cluj-Napoca,
 Romania
##NAMES=HP
##CAS NAME=Hexanoic acid, 2-ethyl-, heptyl ester
##MOLFORM=C15H30O2
##CAS REGISTRY NO=112445-68-8
##MP= -300
##BP= -300
##MW= 242
##$RETENTION INDEX=0
##$CONDENSED SPECTRUM=NO
##NPOINTS= 53
##XYDATA=(XY..XY) 1 
    27        122
    29        257
    39         54
    40         14
    41        392
    42        102
    43        378
    44        500
    45         27
    53         14
    54         27
    55        270
    56        243
    57        999
    58         40
    59         14
    67         14
    68         27
    69        122
    70        189
    71         27
    73        135
    83         40
    84         14
    85         14
    87         68
    88        324
    89        149
    90         14
    97         27
    98        243
    99        108
   100         14
   101         68
   103         14
   115         40
   116         40
   117         34
   127        121
   128         14
   129         14
   143         27
   144         27
   145        568
   146         54
   171          5
   186         36
   187          4
   199          3
   213          3
   214          9
   215          1
   242          1