##TITLE=Library Entry 32722
##JCAMP-DX=Revision 4.10 
##DATA TYPE=MASS SPECTRUM
##SAMPLE DESCRIPTION=Chemical Concepts
##NAMES=HP
##CAS NAME=1,5-Cyclodecadiene, (E,Z)-
##MOLFORM=C10H16
##CAS REGISTRY NO=1124-78-3
##MP= -300
##BP= -300
##MW= 136
##$RETENTION INDEX=1100
##$CONDENSED SPECTRUM=NO
##NPOINTS= 72
##XYDATA=(XY..XY) 1 
    26         32
    27        247
    28         64
    29         84
    30          1
    31          0
    37          9
    38         28
    39        416
    40         58
    41        462
    42         37
    43         12
    44          1
    45          0
    49          3
    50         35
    51         78
    52         42
    53        205
    54        601
    55        161
    56          7
    57          5
    58          1
    64          5
    65        104
    66         99
    67        999
    68        160
    69         46
    70          7
    71          1
    73          1
    74          6
    75          4
    76          1
    77        180
    78         74
    79        852
    80        383
    81        245
    82        118
    83         10
    84          3
    85          1
    86          1
    87          1
    89          2
    90          0
    91        162
    92         27
    93        576
    94        467
    95        571
    96         46
    97          4
    98          2
   102          1
   103          5
   104          2
   105         23
   106          7
   107        312
   108        186
   109         18
   121        278
   122         31
   135         19
   136        144
   137         16
   138          0