##TITLE=Library Entry 18807
##JCAMP-DX=Revision 4.10 
##DATA TYPE=MASS SPECTRUM
##SAMPLE DESCRIPTION=Japan AIST/NIMC Database- Spectrum MS-NW-3577
##NAMES=HP
##CAS NAME=Pyrazine, tetramethyl-
##MOLFORM=C8H12N2
##CAS REGISTRY NO=1124-11-4
##MP= -300
##BP= -300
##MW= 136
##$RETENTION INDEX=1089
##$CONDENSED SPECTRUM=NO
##NPOINTS= 56
##XYDATA=(XY..XY) 1 
    14          2
    15         33
    18          3
    26         16
    27        139
    28         37
    29          3
    37          6
    38         11
    39        171
    40         17
    41         29
    42        504
    43         14
    44          1
    49          2
    50         22
    51         48
    52         56
    53        167
    54        999
    55         48
    56          1
    63          2
    64          4
    65          4
    66          7
    67          6
    68         11
    69          1
    75          2
    76          2
    77          1
    78          3
    79          2
    80         22
    81          2
    82          1
    83          3
    92          1
    93          2
    94         28
    95         50
    96          5
   108          2
   109          3
   110          2
   119          1
   121         15
   122          2
   133          1
   134          2
   135         43
   136        773
   137         76
   138          3