##TITLE=Library Entry 41453
##JCAMP-DX=Revision 4.10 
##DATA TYPE=MASS SPECTRUM
##SAMPLE DESCRIPTION=V.G.Zaikin, Petrochem. Synth. Inst., Moscow
##NAMES=HP
##CAS NAME=2-Hydroxymethylcyclopentanol, (Z)-, 2TMS derivative
##MOLFORM=C12H28O2Si2
##CAS REGISTRY NO=112434-92-1
##MP= -300
##BP= -300
##MW= 260
##$RETENTION INDEX=0
##$CONDENSED SPECTRUM=NO
##NPOINTS= 96
##XYDATA=(XY..XY) 1 
    35          9
    36         39
    37          9
    38         33
    39        219
    40        109
    41        396
    42        193
    43        218
    44        268
    45        280
    46         20
    47         95
    49          3
    50         22
    51         51
    53         73
    54        461
    55        291
    56         64
    57        245
    58         42
    59        112
    60         14
    61         58
    62         14
    63         14
    65         22
    66         48
    67        162
    68         79
    69        166
    70        131
    71         23
    72         41
    73        999
    74         78
    75        684
    76         65
    77        105
    78         13
    79         95
    80        311
    81        454
    82         55
    83         97
    84         17
    85         20
    87         11
    89         10
    91         35
    93         21
    94         32
    95         18
    97         28
    98        112
    99         25
   101         35
   103         73
   105         66
   111          8
   113         10
   115         39
   116         19
   117         15
   119         20
   125          6
   127         29
   129        215
   130         31
   131         54
   132          7
   133         79
   134         16
   135          6
   141          9
   142        130
   143         32
   144          6
   147        631
   148        109
   149        112
   150          7
   151         16
   155        137
   156         16
   157         19
   168          8
   169         85
   170        538
   171        102
   172         18
   173         22
   177         16
   217         16
   245         13