##TITLE=Library Entry 57335
##JCAMP-DX=Revision 4.10 
##DATA TYPE=MASS SPECTRUM
##SAMPLE DESCRIPTION=Chemical Concepts
##NAMES=HP
##CAS NAME=Butanoic acid, 3-(5,5-dimethylhex-1-en-4-yl)oxy-
##MOLFORM=C12H22O3
##CAS REGISTRY NO=112463-32-8
##MP= -300
##BP= -300
##MW= 214
##$RETENTION INDEX=0
##$CONDENSED SPECTRUM=NO
##NPOINTS= 117
##XYDATA=(XY..XY) 1 
    26          2
    27         53
    28          5
    29         48
    30          1
    31          8
    36          0
    37          1
    38          2
    39         56
    40         11
    41        316
    42         30
    43        236
    44          7
    45        180
    46          2
    47          0
    50          1
    51          3
    52          1
    53         14
    54          5
    55         44
    56          8
    57        102
    58          4
    59          6
    60          1
    61          0
    63          0
    64          0
    65          2
    66          1
    67          9
    68          4
    69        350
    70         28
    71        111
    72         12
    73         16
    74          0
    75          6
    76          0
    77          3
    78          0
    79          3
    80          0
    81          5
    82          1
    83          3
    84          1
    85          5
    86          3
    87        999
    88         37
    89          2
    90          0
    91          1
    92          0
    93          1
    94          0
    95         11
    96          1
    97          1
    98          0
    99          0
   100          0
   101          2
   102          0
   103          0
   104          0
   105         12
   106          0
   107          0
   108          0
   109          0
   110          1
   111          6
   112          0
   113          7
   114          0
   115          3
   116          0
   117          0
   119          0
   121          0
   123          0
   125          0
   126          0
   127          1
   128          0
   129          0
   131          1
   132          0
   137          0
   139         10
   140          0
   141          1
   142          0
   143          0
   144          0
   146          0
   147          0
   149          0
   152          0
   153          0
   154          0
   155          2
   156          2
   157         58
   158          4
   159          1
   161          0
   173         82
   174          8
   175          0