##TITLE=Library Entry 30915
##JCAMP-DX=Revision 4.10 
##DATA TYPE=MASS SPECTRUM
##SAMPLE DESCRIPTION=Japan AIST/NIMC Database- Spectrum MS-IW-4705
##NAMES=HP
##CAS NAME=Acetamide, N-cyclohexyl-
##MOLFORM=C8H15NO
##CAS REGISTRY NO=1124-53-4
##MP= -300
##BP= -300
##MW= 141
##$RETENTION INDEX=1268
##$CONDENSED SPECTRUM=NO
##NPOINTS= 67
##XYDATA=(XY..XY) 1 
    14          1
    15         26
    17          2
    18          8
    26          3
    27         39
    28         67
    29         35
    30         76
    31          4
    38          2
    39         48
    40          9
    41         98
    42         48
    43        447
    44         31
    45          5
    50          2
    51          6
    52          4
    53         21
    54         67
    55         82
    56        937
    57         82
    58         10
    59          4
    60        999
    61         35
    62          3
    63          1
    65          4
    66          4
    67        131
    68         13
    69         25
    70        122
    71         19
    72         14
    73         13
    74          1
    77          7
    78          2
    79         13
    80          4
    81         37
    82         85
    83         21
    84         18
    85         18
    86          5
    87          3
    94          1
    96         10
    97         13
    98        251
    99         52
   100          7
   104          1
   112         16
   113          3
   126          8
   140          3
   141        350
   142         46
   143          3