##TITLE=Library Entry 66464
##JCAMP-DX=Revision 4.10 
##DATA TYPE=MASS SPECTRUM
##SAMPLE DESCRIPTION=P. Vainiotalo, Dep. Chem., Univ. Joensuu, Joensuu, Finl
and
##NAMES=HP
##CAS NAME=4H-3,1-Benzoxazine, 1,2,4arel,5trans,6,7,8trans,8acis-octahydro-5
,8-methano-2-(phenylimino)-
##MOLFORM=C15H18N2O
##CAS REGISTRY NO=112456-36-7
##MP= -300
##BP= -300
##MW= 242
##$RETENTION INDEX=0
##$CONDENSED SPECTRUM=NO
##NPOINTS= 99
##XYDATA=(XY..XY) 1 
    26         14
    27        102
    29         66
    30         99
    38         17
    39        155
    40         38
    41        249
    42         41
    43         51
    44         35
    50         25
    51        117
    52         36
    53         92
    54        130
    55        103
    56        501
    57         94
    58         10
    63         25
    64         48
    65        153
    66        105
    67        216
    68         78
    69        108
    70         34
    74          6
    75          7
    76         17
    77        402
    78         96
    79        287
    80        127
    81         96
    82        356
    83         24
    84          8
    90          9
    91        212
    92        141
    93        999
    94        242
    95        164
    96         25
   103         11
   104         31
   105         57
   106         72
   107         82
   108        330
   109         31
   110         10
   117         10
   118         38
   119        939
   120        198
   121         45
   122         76
   123        397
   124         40
   130         21
   131         11
   132         38
   133         10
   134          7
   135         35
   136          9
   137         15
   145         13
   146          7
   147        790
   148         81
   149         11
   150         27
   158         10
   160          7
   161         22
   162          6
   170          6
   171          8
   173         48
   174         38
   175         67
   176        213
   177         32
   182          7
   198          7
   199          7
   200         19
   201         11
   212          8
   213         30
   214         11
   241        444
   242        931
   243        167
   244         17