##TITLE=Library Entry 26894
##JCAMP-DX=Revision 4.10 
##DATA TYPE=MASS SPECTRUM
##SAMPLE DESCRIPTION=Z. Moldovan, Inst. Isotop. Mol. Technol., Cluj-Napoca,
 Romania
##NAMES=HP
##CAS NAME=Hexanoic acid, 2-ethyl-, nonyl ester
##MOLFORM=C17H34O2
##CAS REGISTRY NO=112445-69-9
##MP= -300
##BP= -300
##MW= 270
##$RETENTION INDEX=0
##$CONDENSED SPECTRUM=NO
##NPOINTS= 79
##XYDATA=(XY..XY) 1 
    27        152
    29        376
    30          8
    31         16
    39         72
    40         24
    41        592
    42        168
    43        712
    44        424
    45         32
    53         32
    54         40
    55        448
    56        368
    57        999
    58         56
    59         16
    60          8
    67         40
    68         48
    69        208
    70        240
    71        224
    72         16
    73        152
    74         16
    81         16
    82         64
    83        152
    84        144
    85        112
    86          8
    87         96
    88          4
    89        224
    90         16
    95          8
    96         40
    97        176
    98        120
    99        144
   100         16
   101         72
   102          8
   103         16
   111          8
   112         16
   113          8
   115         64
   116         56
   117         48
   126        208
   127        168
   128         16
   129          8
   143          8
   144         40
   145        832
   146         72
   147          8
   157          2
   159          1
   171         46
   172          6
   173          1
   185          2
   199          3
   200          2
   213          2
   214         31
   215          5
   227          3
   228          1
   241          2
   242          6
   243          2
   270          2
   271          1