##TITLE=Library Entry 68181
##JCAMP-DX=Revision 4.10 
##DATA TYPE=MASS SPECTRUM
##SAMPLE DESCRIPTION=CARL DJERASSI DEPT OF CHEM STANFORD UNIV STANFORD CALIF
 94305
##NAMES=HP
##CAS NAME=Cyclohexane, 1-methyl-4-(1-methylethylidene)-
##MOLFORM=C10H18
##CAS REGISTRY NO=1124-27-2
##MP= -300
##BP= -300
##MW= 138
##$RETENTION INDEX=1018
##$CONDENSED SPECTRUM=NO
##NPOINTS= 44
##XYDATA=(XY..XY) 1 
    41        230
    42         90
    43        200
    44         30
    50         30
    51        120
    52         70
    53        310
    54        120
    55        510
    56         70
    57         50
    63         20
    65         90
    66         40
    67        630
    68        220
    69        200
    70         30
    77        120
    78         30
    79        180
    80         40
    81        860
    82        250
    83         70
    84         10
    91         60
    92         10
    93         60
    94         90
    95        999
    96        200
    97         10
   105         10
   107         10
   109         60
   110         10
   121         10
   123        220
   124         20
   137         10
   138        280
   139         20