##TITLE=Library Entry 5359
##JCAMP-DX=Revision 4.10 
##DATA TYPE=MASS SPECTRUM
##SAMPLE DESCRIPTION=Div. of Experiment Therapeutics WRAIR, WRAMC, Washingto
n DC 20307
##NAMES=HP
##CAS NAME=Diethyl thionophosphoraziridine
##MOLFORM=C6H14NO2PS
##CAS REGISTRY NO=1124-93-2
##MP= -300
##BP= -300
##MW= 195
##$RETENTION INDEX=0
##$CONDENSED SPECTRUM=NO
##NPOINTS= 106
##XYDATA=(XY..XY) 1 
    42        999
    43        500
    44        115
    46        149
    47        129
    48         17
    49         14
    51          2
    54          3
    56         24
    58         11
    59         19
    60         17
    61         23
    63        146
    65        327
    67          2
    68          2
    70         99
    71         17
    72         16
    74        103
    75         59
    76         13
    77         33
    79         48
    80         56
    81         21
    82          6
    83          4
    84          2
    85          3
    87         14
    88         12
    90        356
    91         17
    93        140
    94         16
    96         32
    97        442
    99         43
   100          2
   102          3
   104         33
   106        123
   107         29
   108         10
   109          8
   110          8
   111          9
   112          9
   113          5
   114          4
   115          2
   116          2
   118        526
   119         17
   121        422
   122         49
   123        197
   125        252
   126          9
   127          9
   130          0
   133          4
   134        133
   135          4
   136          1
   138         26
   139         37
   140         47
   142         14
   144          1
   147          0
   148          3
   150        158
   151         60
   153         75
   154         28
   155          3
   156          2
   158          1
   159          2
   160          1
   162         30
   163         14
   164          3
   166         18
   167         50
   168         61
   170         19
   172          5
   174          0
   176          0
   177          1
   178          0
   179          4
   180         29
   181         14
   182          0
   193          0
   194         10
   195        886
   196         92
   197         31
   198          2