##TITLE=Library Entry 69387
##JCAMP-DX=Revision 4.10 
##DATA TYPE=MASS SPECTRUM
##SAMPLE DESCRIPTION=A.A.Kutin, Moscow, Russia
##NAMES=HP
##CAS NAME=1H-Pyrazole-1-carbothioamide, 3,5-dimethyl-
##MOLFORM=C6H9N3S
##CAS REGISTRY NO=1124-15-8
##MP= -300
##BP= -300
##MW= 155
##$RETENTION INDEX=0
##$CONDENSED SPECTRUM=NO
##NPOINTS= 78
##XYDATA=(XY..XY) 1 
    33         11
    34         20
    35          1
    38         41
    39        187
    40         42
    41        169
    42        143
    43         77
    44        102
    45         15
    46          3
    47         12
    50         15
    51         32
    52         35
    53         34
    54        198
    55         88
    56         38
    57         31
    58         30
    59        264
    60         41
    61         19
    62         13
    63         23
    64         46
    65         59
    66         31
    67         46
    68         55
    69         35
    70          9
    71         13
    72          3
    73          8
    74          0
    76          2
    77         11
    78         13
    79         10
    81        181
    82         14
    83         10
    84          7
    85          7
    86          2
    87          2
    91          6
    93          7
    95        838
    96        999
    97         55
    98          5
    99          0
   105          7
   106          3
   107          1
   109          3
   110          1
   111          2
   112          4
   113          4
   115          3
   119          2
   120          3
   121          9
   122          3
   123          2
   128         21
   129          5
   130          1
   138          5
   139          1
   155        113
   156          8
   157          5