##TITLE=Library Entry 52330
##JCAMP-DX=Revision 4.10 
##DATA TYPE=MASS SPECTRUM
##SAMPLE DESCRIPTION=NIST Mass Spectrometry Data Center, 2009
##NAMES=HP
##CAS NAME=3-Cyclohexyl-1-chloropropane
##MOLFORM=C9H17Cl
##CAS REGISTRY NO=1124-62-5
##MP= -300
##BP= -300
##MW= 160
##$RETENTION INDEX=1238
##$CONDENSED SPECTRUM=NO
##NPOINTS= 81
##XYDATA=(XY..XY) 1 
    15          1
    26          3
    27         46
    28         12
    29         37
    30          1
    36          1
    37          1
    38          4
    39         99
    40         16
    41        258
    42         41
    43         23
    44          1
    46          1
    49         22
    50          5
    51         22
    52          8
    53         58
    54         55
    55        681
    56         55
    57          6
    58          1
    61          2
    62          4
    63         11
    64          2
    65         17
    66          7
    67        112
    68         32
    69         56
    70         13
    71          1
    75          7
    76          2
    77         18
    78          4
    79         24
    80          4
    81         47
    82        533
    83        999
    84         69
    85          2
    89          3
    90          3
    91         11
    92          2
    93          4
    94          1
    95         10
    96          6
    97          6
    98          1
   103          1
   104         13
   105          2
   106          4
   107          1
   109          1
   111          1
   116          1
   117          2
   118          6
   119          1
   120          2
   123          5
   124          2
   125          1
   131          2
   132          4
   133          1
   134          1
   160         98
   161         10
   162         31
   163          3