##TITLE=Library Entry 71546
##JCAMP-DX=Revision 4.10 
##DATA TYPE=MASS SPECTRUM
##SAMPLE DESCRIPTION=Japan AIST/NIMC Database- Spectrum MS-NW-7096
##NAMES=HP
##CAS NAME=1,2-Cyclobutanedicarboxylic acid, trans-
##MOLFORM=C6H8O4
##CAS REGISTRY NO=1124-13-6
##MP= -300
##BP= -300
##MW= 144
##$RETENTION INDEX=0
##$CONDENSED SPECTRUM=NO
##NPOINTS= 95
##XYDATA=(XY..XY) 1 
    12          2
    13          2
    14          9
    15         23
    16          2
    17         15
    18         61
    19          4
    25         11
    26        181
    27        703
    28        333
    29        253
    30          8
    31         35
    32          1
    36          2
    37         16
    38         32
    39        242
    40         24
    41        160
    42         92
    43        398
    44         90
    45        392
    46         28
    47          6
    48          2
    49         12
    50         53
    51         78
    52         45
    53        388
    54        252
    55        696
    56         98
    57        174
    58         59
    59          3
    60         18
    61          3
    62          1
    63          2
    64          1
    66          3
    67          8
    68         13
    69        120
    70        126
    71        145
    72        159
    73        506
    74         21
    75          3
    76          6
    77          2
    78          1
    79          8
    80         77
    81        266
    82        170
    83         23
    84         13
    85         18
    86         13
    87          4
    88         11
    89          7
    91          1
    92          1
    95          1
    96          2
    97        103
    98        999
    99        380
   100        116
   101          9
   102          1
   108        149
   109         11
   110          1
   113          1
   116          5
   117        136
   118          7
   119          1
   125          3
   126        754
   127         81
   128          9
   129          2
   143          1
   144          3
   145          2