##TITLE=Library Entry 36048
##JCAMP-DX=Revision 4.10 
##DATA TYPE=MASS SPECTRUM
##SAMPLE DESCRIPTION=Chemical Concepts
##NAMES=HP
##CAS NAME=Cyclohexanecarboxylic acid, 1-ethyl-
##MOLFORM=C9H16O2
##CAS REGISTRY NO=1124-98-7
##MP= -300
##BP= -300
##MW= 156
##$RETENTION INDEX=0
##$CONDENSED SPECTRUM=NO
##NPOINTS= 98
##XYDATA=(XY..XY) 1 
    26          8
    27        158
    28         15
    29        151
    30          4
    31         10
    37          0
    38          3
    39        139
    40         20
    41        366
    42         34
    43         67
    44          2
    45         34
    46          2
    47          2
    50          4
    51         17
    52          9
    53         78
    54         34
    55        389
    56         85
    57         61
    58          6
    59          8
    60          4
    61          4
    62          1
    63          4
    64          0
    65         19
    66         11
    67        114
    68         23
    69        999
    70         77
    71         11
    72          4
    73         44
    74         16
    75          4
    77         19
    78          4
    79         33
    80         13
    81        218
    82         29
    83         33
    84         66
    85         11
    86         14
    87         18
    88         79
    89          6
    90          0
    91          5
    92          0
    93          3
    94          3
    95         34
    96         44
    97         20
    98          2
    99         14
   100          8
   101        544
   102         32
   103          1
   105          1
   107          2
   108          2
   109         28
   110         35
   111        816
   112         76
   113          6
   114         14
   115          5
   120          0
   123          7
   125          0
   126          1
   127        187
   128         87
   129          7
   137          0
   138         27
   139          5
   141         34
   142          1
   143          0
   155          0
   156        262
   157         57
   158          5
   159          0