##TITLE=Library Entry 68305
##JCAMP-DX=Revision 4.10 
##DATA TYPE=MASS SPECTRUM
##SAMPLE DESCRIPTION=Chemical Concepts
##NAMES=HP
##CAS NAME=Toluene-D3
##MOLFORM=C7H5D3
##CAS REGISTRY NO=1124-18-1
##MP= -300
##BP= -300
##MW= 95
##$RETENTION INDEX=0
##$CONDENSED SPECTRUM=NO
##NPOINTS= 66
##XYDATA=(XY..XY) 1 
    24          2
    25          0
    26         10
    27         20
    29         24
    30          6
    31         10
    33          0
    34          0
    36          2
    37         17
    38         33
    39         78
    40         95
    41        101
    42         36
    43         17
    44          7
    45          9
    46         42
    47         14
    48          3
    49         10
    50         63
    51        102
    52         47
    53         40
    54         17
    55         10
    56          6
    57          0
    59          5
    60          3
    61         11
    62         23
    63         44
    64         44
    65         40
    66         65
    67         99
    68         40
    69          6
    70          0
    72          0
    73          3
    74         13
    75          7
    76          4
    77          7
    78          6
    79          4
    80          1
    84          1
    85          2
    86          4
    87          4
    88          2
    89          2
    90         10
    91         18
    92         17
    93        388
    94        965
    95        999
    96         66
    97          2