##TITLE=Library Entry 5427
##JCAMP-DX=Revision 4.10 
##DATA TYPE=MASS SPECTRUM
##SAMPLE DESCRIPTION=P. Vainiotalo, Dep. Chem., Univ. Joensuu, Joensuu, Finl
and
##NAMES=HP
##CAS NAME=4H-3,1-Benzoxazine, 1,2,4arel,5trans,6,7,8trans,8acis-octahydro-5
,8-methano-1-methyl-2-(phenylimino)-
##MOLFORM=C16H20N2O
##CAS REGISTRY NO=112456-37-8
##MP= -300
##BP= -300
##MW= 256
##$RETENTION INDEX=0
##$CONDENSED SPECTRUM=NO
##NPOINTS= 112
##XYDATA=(XY..XY) 1 
    15         56
    26         13
    27        110
    29         75
    30        108
    38         21
    39        194
    40         48
    41        401
    42        999
    43         75
    44        119
    50         21
    51         87
    52         35
    53        100
    54         81
    55        133
    56         72
    57         60
    58         22
    61          9
    63         36
    64         77
    65        109
    66        159
    67        329
    68        403
    69        126
    70        481
    71        174
    72         11
    73         12
    76         14
    77        255
    78         70
    79        401
    80        229
    81        135
    82         71
    83         51
    84         17
    86         13
    90         19
    91        414
    92         81
    93        136
    94        134
    95         85
    96         91
    97         15
    98         77
    99         39
   103         15
   104         45
   105         87
   106        801
   107        185
   108        116
   109         46
   110         11
   117         18
   118         47
   119        270
   120         89
   121         20
   122        118
   123         16
   124          8
   128          7
   130         16
   131         38
   132        135
   133         27
   134         11
   136         50
   137         21
   144         28
   145         17
   146         83
   147         51
   148         15
   149        441
   150         48
   151          9
   152          8
   158          8
   159         10
   161         75
   162         11
   164          8
   165         78
   166          9
   170          7
   172         11
   173          6
   175          9
   184         18
   185         10
   187         15
   188          6
   189         70
   190         80
   191         14
   212         34
   213          9
   226          7
   227          8
   255        635
   256        922
   257        196
   258         23