##TITLE=Library Entry 1907
##JCAMP-DX=Revision 4.10 
##DATA TYPE=MASS SPECTRUM
##SAMPLE DESCRIPTION=NIST Mass Spectrometry Data Center, 1998.
##NAMES=HP
##CAS NAME=Pyridine, 4-nitro-, 1-oxide
##MOLFORM=C5H4N2O3
##CAS REGISTRY NO=1124-33-0
##MP= -300
##BP= -300
##MW= 140
##$RETENTION INDEX=0
##$CONDENSED SPECTRUM=NO
##NPOINTS= 69
##XYDATA=(XY..XY) 1 
    14          1
    16          1
    24          2
    25         10
    26         54
    27         49
    28        157
    29         44
    30        462
    31          3
    32          2
    36          9
    37         90
    38        286
    39        999
    40         87
    41         24
    42         13
    43          4
    44          9
    45          2
    46         32
    48         10
    49         78
    50        403
    51        559
    52        110
    53        211
    54         70
    55         18
    56         61
    57          1
    60          9
    61         92
    62        222
    63        723
    64        317
    65         33
    66         16
    67         19
    68         20
    69          3
    74          5
    75         36
    76         40
    77         30
    78        197
    79         15
    80          2
    81          2
    82         74
    83          3
    84         58
    85          1
    92          2
    93          7
    94        171
    95         11
    96          1
   108          6
   110        816
   111         49
   112          3
   124        141
   125          9
   138          1
   140        914
   141         56
   142          5