##TITLE=Library Entry 51584
##JCAMP-DX=Revision 4.10 
##DATA TYPE=MASS SPECTRUM
##SAMPLE DESCRIPTION=Drug Lab
##NAMES=HP
##CAS NAME=2-Carbomethoxytropinone
##MOLFORM=C10H15NO3
##CAS REGISTRY NO=112574-77-3
##MP= -300
##BP= -300
##MW= 197
##$RETENTION INDEX=0
##$CONDENSED SPECTRUM=NO
##NPOINTS= 80
##XYDATA=(XY..XY) 1 
    15         82
    16          6
    18          3
    21          2
    26          9
    27         54
    28         44
    30         16
    31          3
    32         39
    38          9
    39         74
    40         18
    41         91
    42        311
    43         29
    44         16
    45          9
    49          5
    50          8
    51         23
    52         19
    53         61
    54         64
    55        134
    56         43
    57         40
    58          8
    59         21
    61          3
    63          3
    64          3
    65         13
    66         12
    67         51
    68         75
    69         52
    70         34
    71          8
    76          1
    77         13
    78          8
    79         21
    80         54
    81        355
    82        999
    83         74
    84         15
    93          7
    94         87
    95         19
    96        448
    97         98
    98          9
    99          1
   101          1
   106          4
   108         15
   109         20
   110        147
   111         12
   113          4
   120          5
   122         31
   123          8
   124         29
   136         51
   137         88
   138         24
   140         19
   141          2
   154         13
   155         14
   164          7
   166         86
   167          8
   168         95
   169         24
   197        113
   198         14