##TITLE=Library Entry 107802
##JCAMP-DX=Revision 4.10 
##DATA TYPE=MASS SPECTRUM
##SAMPLE DESCRIPTION=ASES Database, Dalian Institute, P.R. China
##NAMES=HP
##CAS NAME=N-(2-Methylpropenyl)-2-piperidinone
##MOLFORM=C9H15NO
##CAS REGISTRY NO=112518-13-5
##MP= -300
##BP= -300
##MW= 153
##$RETENTION INDEX=0
##$CONDENSED SPECTRUM=NO
##NPOINTS= 12
##XYDATA=(XY..XY) 1 
    42        241
    54        140
    55        419
    68        149
    70        141
    82        251
    84        120
    96        108
   110        169
   124        999
   138        198
   153        230