##TITLE=Library Entry 49788
##JCAMP-DX=Revision 4.10 
##DATA TYPE=MASS SPECTRUM
##SAMPLE DESCRIPTION=A.A.Kutin, Moscow, Russia
##NAMES=HP
##CAS NAME=Bicyclo[3.1.0]hexan-3-one, 4-methyl-1-(1-methylethyl)-
##MOLFORM=C10H16O
##CAS REGISTRY NO=1125-12-8
##MP= -300
##BP= -300
##MW= 152
##$RETENTION INDEX=1119
##$CONDENSED SPECTRUM=NO
##NPOINTS= 66
##XYDATA=(XY..XY) 1 
    33          4
    34          0
    36          0
    39        407
    41        872
    42         64
    43        210
    44          5
    46          3
    47          0
    50         29
    51         66
    52         46
    53        224
    54         75
    55        343
    56         58
    57         10
    58          0
    60          0
    61          0
    62          4
    63         16
    64          5
    65         68
    67        620
    68        709
    69        572
    70         94
    71          3
    74          1
    77         81
    78         21
    79        181
    81        999
    82        212
    83         31
    84          4
    89          0
    91         42
    93         42
    95        440
    96         48
    97         16
   103          0
   104          0
   105          5
   107         13
   109        456
   110        643
   111         53
   117          0
   119          2
   121          2
   122          0
   123          9
   124         43
   125          2
   134          5
   135          3
   136          0
   137          8
   138          0
   150          2
   152         94
   153          7