##TITLE=Library Entry 53263
##JCAMP-DX=Revision 4.10 
##DATA TYPE=MASS SPECTRUM
##SAMPLE DESCRIPTION=Exported from NIST MS Search
##NAMES=HP
##CAS NAME=1,3-Cyclohexanedione, 2,5,5-trimethyl-
##MOLFORM=C9H14O2
##CAS REGISTRY NO=1125-11-7
##MP= -300
##BP= -300
##MW= 154
##$RETENTION INDEX=0
##$CONDENSED SPECTRUM=NO
##NPOINTS= 29
##XYDATA=(XY..XY) 1 
    39         63
    40         16
    41        125
    42         31
    43         38
    44         16
    45         63
    46         31
    51          6
    53         31
    54          6
    55        156
    56        203
    57         25
    69         31
    70         94
    71         16
    82          6
    83        999
    84         63
    97          6
    98        172
    99          6
   111         47
   126         31
   139         31
   154        313
   155         31
   156          6