##TITLE=Library Entry 54286
##JCAMP-DX=Revision 4.10 
##DATA TYPE=MASS SPECTRUM
##SAMPLE DESCRIPTION=Dmitri Zagorevskii, Scientific Instruments & Applicatio
ns
##NAMES=HP
##CAS NAME=3-[3-(1-Piperidinylmethyl)phenoxy]-N-(2,2,2-trifluoroethyl)-1-pro
panamine
##MOLFORM=C17H25F3N2O
##CAS REGISTRY NO=112598-67-1
##MP= -300
##BP= -300
##MW= 330
##$RETENTION INDEX=0
##$CONDENSED SPECTRUM=NO
##NPOINTS= 127
##XYDATA=(XY..XY) 1 
    29         36
    30        121
    31          2
    33          2
    36         20
    38          7
    39         26
    41        127
    42        137
    43         19
    44         36
    45          2
    50          2
    51         10
    52          8
    53          9
    54         11
    55         68
    56         84
    57          6
    58        150
    59          6
    60          3
    62          3
    63          4
    64          3
    65         15
    66          2
    67          6
    68          9
    69         13
    70         29
    71          2
    73          3
    74          2
    77         54
    78         39
    79         38
    80          7
    82         27
    84        999
    85         60
    86          6
    88          4
    89         29
    90         19
    91         59
    92         59
    93         10
    94          3
    95          2
    96          7
    98        276
    99         18
   100          1
   101          1
   102          2
   103          3
   104          3
   105         11
   106          4
   107         63
   108         51
   109         11
   110         21
   112        140
   113          6
   115          1
   116          2
   117          4
   118          4
   119          7
   120         15
   121         20
   122          6
   130          6
   131          3
   132          3
   133         39
   134         15
   135          9
   136          2
   138        109
   140        460
   141         25
   145          2
   146          4
   147         17
   148         22
   149          3
   156          5
   160          3
   161          1
   162          8
   163          1
   165         18
   166          2
   173          2
   174          2
   176          1
   188          2
   189          3
   190         22
   191         13
   192          2
   202          2
   204          2
   216          2
   218          3
   219          1
   226          1
   244          1
   245          1
   247         86
   248         27
   249          6
   261          6
   270          7
   271          1
   287          1
   310         24
   311         15
   312          2
   329         68
   330         44
   331         16
   332          2