##TITLE=Library Entry 1273
##JCAMP-DX=Revision 4.10 
##DATA TYPE=MASS SPECTRUM
##SAMPLE DESCRIPTION=Chemical Concepts
##NAMES=HP
##CAS NAME=Glycine, N-(2-hydroxy-3,3-dimethyl-1-oxobutyl)-, ethyl ester, (.+
-.)-
##MOLFORM=C10H19NO4
##CAS REGISTRY NO=112681-29-5
##MP= -300
##BP= -300
##MW= 217
##$RETENTION INDEX=0
##$CONDENSED SPECTRUM=NO
##NPOINTS= 51
##XYDATA=(XY..XY) 1 
    26         15
    27        139
    28         83
    29        383
    30        999
    31         53
    39         82
    41        314
    42         50
    43         89
    45        102
    53         21
    55         41
    56         66
    57        201
    58         48
    59         43
    60         65
    61         44
    69        101
    70         30
    71         36
    72         21
    73         13
    74         92
    76         27
    83         12
    86         55
    87        351
    88        208
    89         26
   102         95
   103        144
   104        903
   105         35
   114         44
   115        108
   116         85
   128         14
   130         29
   132         14
   144         28
   156         12
   160         53
   161        708
   162         39
   172         74
   184          4
   202          5
   217          2
   218          3