##TITLE=Library Entry 24899
##JCAMP-DX=Revision 4.10 
##DATA TYPE=MASS SPECTRUM
##SAMPLE DESCRIPTION=V.A.Korolev, Moscow, Russia
##NAMES=HP
##CAS NAME=4-(1H-1,2,3,4Tetrazol-5-yl)piperidine
##MOLFORM=C6H11N5
##CAS REGISTRY NO=112626-97-8
##MP= -300
##BP= -300
##MW= 153
##$RETENTION INDEX=0
##$CONDENSED SPECTRUM=NO
##NPOINTS= 99
##XYDATA=(XY..XY) 1 
    34          9
    36         11
    37         21
    38         57
    39        328
    40        146
    41        328
    42        319
    43        291
    44        156
    45         22
    46          2
    47          1
    48          4
    50         30
    51         58
    52         41
    53        135
    54        208
    55        345
    56        885
    57        999
    58         47
    59          1
    60         10
    61          1
    62          4
    63          5
    64          5
    65         33
    66         20
    67        119
    68        234
    69        117
    70         72
    71         46
    72          3
    73          6
    74          1
    75          1
    76          1
    77          5
    78          4
    79         12
    80         96
    81         85
    82        309
    83        138
    84         35
    85          5
    87          1
    89          0
    91          3
    92         11
    93         13
    94         37
    95         52
    96        162
    97        218
    98         43
    99          4
   100          1
   101          1
   102          0
   103          1
   105          2
   106          1
   107         27
   108         15
   109        217
   110         83
   111         23
   112         12
   113          4
   114          1
   116          1
   118          2
   120          2
   121          1
   122          2
   123          6
   124        320
   125         67
   126          2
   129          2
   132          0
   133          2
   135          2
   138         11
   141          2
   144          1
   146          1
   149          1
   150          1
   151          3
   152         47
   153        218
   154         20
   155          1