##TITLE=Library Entry 44628
##JCAMP-DX=Revision 4.10 
##DATA TYPE=MASS SPECTRUM
##SAMPLE DESCRIPTION=D.HENNEBERG, MAX-PLANCK INSTITUTE, MULHEIM, WEST GERMAN
Y
##NAMES=HP
##CAS NAME=Propanamide, N-cyclohexyl-
##MOLFORM=C9H17NO
##CAS REGISTRY NO=1126-56-3
##MP= -300
##BP= -300
##MW= 155
##$RETENTION INDEX=1378
##$CONDENSED SPECTRUM=NO
##NPOINTS= 73
##XYDATA=(XY..XY) 1 
    27         32
    28         47
    29        212
    30         51
    32          0
    37          0
    38          0
    39         17
    40          2
    41         76
    42         17
    43        108
    44         22
    45          1
    46          1
    50          1
    51          2
    52          1
    53         12
    54         43
    55        113
    56        725
    57        240
    58         11
    59          1
    60          0
    65          1
    66          2
    67         71
    68          7
    69         14
    70         73
    71         14
    72          8
    73          6
    74        999
    75         37
    76          2
    77          2
    78          1
    79          7
    80          2
    81         21
    82         47
    83         76
    84         10
    85          1
    86          4
    87          6
    88          0
    94          0
    95          0
    96          4
    97          6
    98         44
    99         50
   100          6
   101          1
   102          1
   108          0
   110          0
   112         44
   113          7
   114          3
   124          0
   126         13
   127          1
   140          2
   141          0
   154          1
   155        207
   156         24
   157          1