##TITLE=Library Entry 24926
##JCAMP-DX=Revision 4.10 
##DATA TYPE=MASS SPECTRUM
##SAMPLE DESCRIPTION=Chuck Anderson, Aldrich Chemical Co.
##NAMES=HP
##CAS NAME=Ethyl piperidine-4-carboxylate
##MOLFORM=C8H15NO2
##CAS REGISTRY NO=1126-09-6
##MP= -300
##BP= -300
##MW= 157
##$RETENTION INDEX=0
##$CONDENSED SPECTRUM=NO
##NPOINTS= 80
##XYDATA=(XY..XY) 1 
    14          2
    15         28
    17          0
    18          7
    19          1
    26         16
    27        170
    28        216
    29        349
    30        308
    31         16
    36          1
    37          0
    38          5
    39        123
    40         16
    41         91
    42        309
    43        269
    44        126
    45         20
    46          1
    50          3
    51          8
    52          8
    53         53
    54         55
    55        335
    56        730
    57        999
    58         39
    59          2
    65          5
    66          0
    67         35
    68         65
    69         27
    70         39
    71          3
    72          1
    73        160
    74         24
    75          1
    78          1
    79          0
    80         36
    81          8
    82        539
    83        128
    84        671
    85         56
    86         30
    87          6
    88          1
    93          1
    94         17
    95          1
    96          2
    98          2
    99          5
   100         93
   101        104
   102         14
   110         15
   111          5
   112        407
   113         27
   114         41
   115          8
   116          0
   126          0
   128        402
   129         46
   130          2
   142         23
   143          1
   156         45
   157        275
   158         28
   159          1