##TITLE=Library Entry 54547
##JCAMP-DX=Revision 4.10 
##DATA TYPE=MASS SPECTRUM
##SAMPLE DESCRIPTION=Chemical Concepts
##NAMES=HP
##CAS NAME=5-Oxotetrahydrofuran-2-carboxylic acid, ethyl ester
##MOLFORM=C7H10O4
##CAS REGISTRY NO=1126-51-8
##MP= -300
##BP= -300
##MW= 158
##$RETENTION INDEX=2168
##$CONDENSED SPECTRUM=NO
##NPOINTS= 32
##XYDATA=(XY..XY) 1 
    26         24
    27        116
    28         62
    29        426
    30         13
    31         12
    37          3
    38          6
    39         41
    40          8
    41         25
    42         24
    43         16
    44          9
    45          9
    55         24
    56         23
    57         67
    58         12
    68          4
    69          6
    75          2
    82          2
    83          3
    84          8
    85        999
    86         84
    87          7
   102          1
   115          2
   131          1
   158          8