##TITLE=Library Entry 109910
##JCAMP-DX=Revision 4.10 
##DATA TYPE=MASS SPECTRUM
##SAMPLE DESCRIPTION=MASS SPECTROMETRY CENTER, UNIV. OF UTAH ALDRICH A00820-
1
##NAMES=HP
##CAS NAME=Acetamide, N-(4-mercaptophenyl)-
##MOLFORM=C8H9NOS
##CAS REGISTRY NO=1126-81-4
##MP= -300
##BP= -300
##MW= 167
##$RETENTION INDEX=0
##$CONDENSED SPECTRUM=NO
##NPOINTS= 72
##XYDATA=(XY..XY) 1 
    14         12
    15        112
    26          3
    27         44
    28         35
    32          3
    36          6
    37         12
    38         29
    39         89
    40         12
    41         28
    42         40
    43        764
    44         47
    45        127
    47         12
    50         25
    51         37
    52         50
    53        108
    54         24
    57          4
    58         16
    60         22
    61         16
    62         31
    63         76
    64         36
    65         84
    66         42
    67         10
    69         95
    70         64
    71         32
    72          4
    76          9
    77          2
    78         16
    79         14
    80        254
    81        247
    82         28
    83          5
    84         25
    90         19
    91         42
    92         38
    93        355
    94         28
    95         16
    96         59
    97        200
    98        139
    99         32
   100          2
   108         27
   109         15
   110         10
   122         13
   123         33
   124        527
   125        999
   126        228
   127        110
   128          2
   133          6
   156          8
   166         12
   167        859
   168        136
   169         67