##TITLE=Library Entry 27864
##JCAMP-DX=Revision 4.10 
##DATA TYPE=MASS SPECTRUM
##SAMPLE DESCRIPTION=Drug Lab
##NAMES=HP
##CAS NAME=Benzeneethanamine, N,N-dimethyl-
##MOLFORM=C10H15N
##CAS REGISTRY NO=1126-71-2
##MP= -300
##BP= -300
##MW= 149
##$RETENTION INDEX=1170
##$CONDENSED SPECTRUM=NO
##NPOINTS= 66
##XYDATA=(XY..XY) 1 
    37          1
    38          6
    39         46
    40          7
    41         23
    42        193
    43         39
    44         17
    45          1
    49          1
    50         28
    51         72
    52         19
    53          8
    54          4
    55          4
    56         28
    57         34
    58        999
    59         96
    60          1
    61          2
    62         10
    63         36
    64          9
    65         89
    66          6
    70          3
    71          2
    73          1
    74          9
    75          8
    76          9
    77         93
    78         40
    79         33
    80          2
    86          1
    87          2
    88          1
    89         24
    90         10
    91        102
    92          9
   101          1
   102         11
   103         49
   104         32
   105         66
   106          6
   115          2
   116          6
   117          8
   118          7
   119          1
   130          7
   131          4
   132         13
   133         14
   134          1
   144          4
   146         17
   147          4
   148          9
   149         22
   150          3