##TITLE=Library Entry 59807
##JCAMP-DX=Revision 4.10 
##DATA TYPE=MASS SPECTRUM
##SAMPLE DESCRIPTION=Chemical Concepts
##NAMES=HP
##CAS NAME=2,6-Pyridinedimethanol, bis(4-methylbenzenesulfonate) (ester)
##MOLFORM=C21H21NO6S2
##CAS REGISTRY NO=112633-26-8
##MP= -300
##BP= -300
##MW= 447
##$RETENTION INDEX=0
##$CONDENSED SPECTRUM=NO
##NPOINTS= 237
##XYDATA=(XY..XY) 1 
    24          0
    26          5
    27         30
    28          1
    29         13
    30          1
    31          2
    35          3
    36         31
    37          4
    38         16
    39        170
    40         16
    41         49
    42          4
    43          3
    44         14
    45          7
    46          0
    47          0
    48          3
    49          1
    50         25
    51         64
    52         42
    53         29
    54          4
    55          3
    56          0
    57          1
    58          0
    59          0
    60          0
    61          3
    62         16
    63         84
    64         53
    65        438
    66         40
    67         11
    68          1
    69          2
    70          0
    71          1
    73          0
    74          4
    75          5
    76          6
    77        105
    78         79
    79         71
    80         26
    81          4
    82          0
    83          0
    84          0
    85          1
    86          2
    87          2
    88          1
    89         54
    90         60
    91        999
    92        244
    93         30
    94          3
    95          1
    96          0
    97          0
   101          0
   102          2
   103          3
   104         40
   105        169
   106         97
   107         79
   108         56
   109          5
   110          0
   111          4
   112          0
   113          0
   114          0
   115          5
   116          1
   117          2
   118          3
   119          3
   120        297
   121         58
   122         27
   123          6
   124          4
   125          0
   126          0
   127          2
   128          4
   129          3
   130          5
   131          3
   132          1
   133          1
   134          3
   135          0
   136         18
   137          2
   138          3
   139         32
   140          6
   141          7
   142          4
   143          2
   144          2
   145          0
   146          0
   147          0
   151          1
   152          5
   153          7
   154         14
   155        134
   156         16
   157          7
   158          1
   159          0
   164          0
   165          4
   166          6
   167         25
   168         27
   169         13
   170          9
   171         17
   172         48
   173          5
   174          2
   176          0
   177          0
   178          4
   179         11
   180         26
   181         31
   182         72
   183        127
   184         35
   185          3
   186          0
   191          1
   192          8
   193         10
   194         73
   195         29
   196         46
   197         30
   198         27
   199          4
   200          1
   207          0
   208          1
   209          3
   210        126
   211        128
   212         93
   213         16
   214          1
   215          1
   216          0
   217          2
   218          0
   222          0
   225          0
   226         20
   227          5
   228         44
   229          7
   230          1
   236          3
   237          0
   244          0
   245          0
   246          0
   252          0
   256          0
   258          0
   259          0
   260          9
   261          6
   262          5
   263          6
   264          3
   265          0
   266          0
   267          0
   272          0
   273          0
   274         36
   275         25
   276         81
   277        192
   278         33
   279         12
   280          1
   281          0
   284          0
   285          0
   286          0
   288          1
   289          1
   290          1
   291          0
   292        113
   293         18
   294          7
   295          1
   300          0
   301          0
   302          0
   354          1
   355          0
   364          0
   365          0
   366          3
   367          1
   368          0
   382          9
   383         64
   384         16
   385          5
   386          0
   399          0
   400          0
   446          0
   447         75
   448         20
   449         10
   450          2
   451          0