##TITLE=Library Entry 67464
##JCAMP-DX=Revision 4.10 
##DATA TYPE=MASS SPECTRUM
##SAMPLE DESCRIPTION=Japan AIST/NIMC Database- Spectrum MS-NW-5388
##NAMES=HP
##CAS NAME=Benzene, butoxy-
##MOLFORM=C10H14O
##CAS REGISTRY NO=1126-79-0
##MP= -300
##BP= -300
##MW= 150
##$RETENTION INDEX=1169
##$CONDENSED SPECTRUM=NO
##NPOINTS= 26
##XYDATA=(XY..XY) 1 
    27         40
    28          9
    29        111
    38          9
    39         70
    40         13
    41         82
    50         11
    51         43
    55         14
    56         10
    57         38
    63         10
    64          4
    65         52
    66         54
    77         73
    78          7
    79          9
    91          2
    93          6
    94        999
    95         69
   107         15
   150        183
   151         20