##TITLE=Library Entry 69557
##JCAMP-DX=Revision 4.10 
##DATA TYPE=MASS SPECTRUM
##SAMPLE DESCRIPTION=Institute of Organic Chemistry, USSR, 1990
##NAMES=HP
##CAS NAME=2,4-Bis(dimethylamino)-6-nitro-1,3,5-triazine
##MOLFORM=C7H12N6O2
##CAS REGISTRY NO=112629-59-1
##MP= -300
##BP= -300
##MW= 212
##$RETENTION INDEX=0
##$CONDENSED SPECTRUM=NO
##NPOINTS= 30
##XYDATA=(XY..XY) 1 
    41         14
    42         68
    43         40
    44         55
    45         54
    46         27
    55         28
    56          9
    57         15
    67         19
    69         88
    70         21
    71         26
    80         15
    81         26
    82         18
    83         12
    96        999
    97         53
   107         19
   123         25
   139         14
   149          5
   150         25
   165         42
   166        358
   167         28
   195         45
   212        242
   213         21