##TITLE=Library Entry 67899
##JCAMP-DX=Revision 4.10 
##DATA TYPE=MASS SPECTRUM
##SAMPLE DESCRIPTION=A.F.THOMAS RES. LAB., FIRMENICH & CIE, GENEVA, SWITZERL
AND
##NAMES=HP
##CAS NAME=Cyclohexanol, 2-methyl-5-(1-methylethyl)-, (1.alpha.,2.alpha.,5.b
eta.)-
##MOLFORM=C10H20O
##CAS REGISTRY NO=1126-40-5
##MP= -300
##BP= -300
##MW= 156
##$RETENTION INDEX=1219
##$CONDENSED SPECTRUM=NO
##NPOINTS= 48
##XYDATA=(XY..XY) 1 
    27        150
    29        170
    31         30
    39        110
    40         20
    41        320
    42         60
    43        430
    45         80
    53         60
    54         20
    55        440
    56         90
    57        550
    58         70
    59         10
    67        140
    68         90
    69        260
    70        110
    71        130
    72         10
    77         10
    79         20
    80         20
    81        210
    82        140
    83        200
    84         50
    85         10
    93         20
    94         60
    95        999
    96        150
    97         20
    99         40
   100         20
   109         60
   110         40
   111         10
   112         30
   113        530
   114         40
   123        110
   124         10
   138        270
   139         20
   156         28