##TITLE=Library Entry 33595
##JCAMP-DX=Revision 4.10 
##DATA TYPE=MASS SPECTRUM
##SAMPLE DESCRIPTION=S. E. DENMARK, CHEM. DEPT., UNIV. ILLINOIS, URBANA, ILL
., USA
##NAMES=HP
##CAS NAME=Cyclohexene, 3-(2-propenyl)-1-nitro-
##MOLFORM=C9H13NO2
##CAS REGISTRY NO=112683-38-2
##MP= -300
##BP= -300
##MW= 167
##$RETENTION INDEX=0
##$CONDENSED SPECTRUM=NO
##NPOINTS= 21
##XYDATA=(XY..XY) 1 
    67        390
    68        999
    78        160
    79        600
    80        260
    81        100
    91        150
    92        110
    93        310
    94        160
    95        110
    96        560
   108        190
   110        190
   120        170
   121        530
   125        240
   126        320
   137        110
   150        100
   167         20