##TITLE=Library Entry 87550
##JCAMP-DX=Revision 4.10 
##DATA TYPE=MASS SPECTRUM
##SAMPLE DESCRIPTION=J.E. DOOLEY, U.S. BUREAU OF MINES, BARTLESVILLE, OKLA.,
 USA
##NAMES=HP
##CAS NAME=Butylthiobenzene
##MOLFORM=C10H14S
##CAS REGISTRY NO=1126-80-3
##MP= -300
##BP= -300
##MW= 166
##$RETENTION INDEX=1346
##$CONDENSED SPECTRUM=NO
##NPOINTS= 122
##XYDATA=(XY..XY) 1 
    24          0
    25          1
    26         34
    27        211
    28         33
    29        249
    30          5
    32          2
    33          1
    34          1
    35          1
    36          0
    37          7
    38         21
    39        168
    40         11
    41        139
    42          8
    43          5
    44          1
    45        178
    46         13
    47         17
    48          1
    49          3
    50         46
    51        117
    52         13
    53         12
    54          2
    55         29
    56          7
    57         65
    58         18
    59         21
    60          4
    61          4
    62          7
    63         20
    64          4
    65        113
    66         60
    67          3
    68          1
    69         61
    70          5
    71         11
    72          1
    73          4
    74         11
    75          9
    76          7
    77         96
    78         24
    79         21
    80          1
    81          1
    82         15
    83          9
    84         23
    85          2
    86          1
    87          1
    88          0
    89          3
    90          1
    91         26
    92          2
    93          2
    94          0
    95          1
    96          0
    97          3
    98          0
    99          0
   101          0
   102          0
   103          4
   104          3
   105          5
   106          1
   107          1
   108         21
   109        164
   110        999
   111         82
   112         46
   113          3
   114          0
   115          1
   116          1
   117          2
   118          0
   119          0
   121          7
   122          2
   123        283
   124         32
   125         14
   126          1
   127          0
   128          0
   129          0
   131          0
   132          0
   133          0
   134          3
   135         10
   136          2
   137         27
   138          2
   139          1
   147          0
   149          0
   151          1
   152          0
   164          0
   165          2
   166        479
   167         56
   168         23
   169          2