##TITLE=Library Entry 76255
##JCAMP-DX=Revision 4.10 
##DATA TYPE=MASS SPECTRUM
##SAMPLE DESCRIPTION=B.V. Ioffe, A.A. Zhdanov Leningrad State Univ., Leningr
ad, USSR
##NAMES=HP
##CAS NAME=1-Propoxy-3,3-diethyltriazene 2-oxide
##MOLFORM=C7H17N3O2
##CAS REGISTRY NO=112753-64-7
##MP= -300
##BP= -300
##MW= 175
##$RETENTION INDEX=0
##$CONDENSED SPECTRUM=NO
##NPOINTS= 19
##XYDATA=(XY..XY) 1 
    29        490
    30         50
    31         30
    41        160
    42        110
    43        420
    44        180
    47         80
    56         80
    57         60
    58         30
    71         20
    72         20
    75        290
    87         40
   102        140
   103        999
   104         60
   175          1