##TITLE=Library Entry 75901
##JCAMP-DX=Revision 4.10 
##DATA TYPE=MASS SPECTRUM
##SAMPLE DESCRIPTION=B.V. Ioffe, A.A. Zhdanov Leningrad State Univ., Leningr
ad, USSR
##NAMES=HP
##CAS NAME=1-Methoxy-3,3-diethyltriazene 2-oxide
##MOLFORM=C5H13N3O2
##CAS REGISTRY NO=112753-63-6
##MP= -300
##BP= -300
##MW= 147
##$RETENTION INDEX=0
##$CONDENSED SPECTRUM=NO
##NPOINTS= 25
##XYDATA=(XY..XY) 1 
    27        140
    28        170
    29        660
    30        140
    31         30
    42        270
    43         90
    44        670
    45         60
    56        270
    57        300
    58         40
    70         20
    71         50
    72         30
    73         30
    74         40
    85        130
    87        260
    88         20
   102        999
   103         60
   132        480
   133         30
   147         40