##TITLE=Library Entry 79455
##JCAMP-DX=Revision 4.10 
##DATA TYPE=MASS SPECTRUM
##SAMPLE DESCRIPTION=Chemical Concepts
##NAMES=HP
##CAS NAME=N-[1-Methyl-1-(4-methyl-cyclohex-3-enyl)-ethyl]-benzamide
##MOLFORM=C17H23NO
##CAS REGISTRY NO=112766-73-1
##MP= -300
##BP= -300
##MW= 257
##$RETENTION INDEX=0
##$CONDENSED SPECTRUM=NO
##NPOINTS= 81
##XYDATA=(XY..XY) 1 
    27         13
    28          4
    29         15
    30          3
    39         27
    40          6
    41         65
    42         38
    43         27
    44         10
    45          2
    50         11
    51         57
    52          8
    53         28
    54          5
    55         36
    56          7
    57         14
    58         29
    59          2
    63          3
    64          2
    65         15
    66          5
    67         35
    68         21
    69         14
    70          3
    71          2
    72          2
    74          3
    75          5
    76         15
    77        374
    78         32
    79         69
    80         22
    81         16
    82          4
    83          3
    84          4
    85          2
    89          2
    91         44
    92         32
    93        165
    94         29
    95         21
    96          3
    97          2
   103          4
   104         13
   105        999
   106         80
   107         40
   108         19
   109          3
   117          2
   119          7
   120          4
   121        246
   122        245
   123         19
   134          6
   135          9
   136        305
   137         39
   138          2
   148         29
   149         13
   159          2
   161          4
   162        337
   163        183
   164         21
   165          2
   242          6
   257         94
   258         17
   259          2