##TITLE=Library Entry 77685
##JCAMP-DX=Revision 4.10 
##DATA TYPE=MASS SPECTRUM
##SAMPLE DESCRIPTION=V.Zaikin,Topchiev Inst.Petrochem.Synth.,Moscow
##NAMES=HP
##CAS NAME=Benzenepropanoic acid, dodecyl ester
##MOLFORM=C21H34O2
##CAS REGISTRY NO=112715-88-5
##MP= -300
##BP= -300
##MW= 318
##$RETENTION INDEX=0
##$CONDENSED SPECTRUM=NO
##NPOINTS= 117
##XYDATA=(XY..XY) 1 
    27         54
    28         18
    29         62
    31          3
    36         16
    37          8
    38         19
    39         97
    40         21
    41        318
    42         95
    43        453
    44         53
    45          8
    49          5
    50         32
    51         72
    52         26
    53         36
    54         40
    55        290
    56        106
    57        451
    58         25
    59          3
    60          5
    61          5
    62         11
    63         30
    64         10
    65         63
    66          9
    67         43
    68         29
    69        141
    70         62
    71        238
    72         36
    74         15
    75         10
    76         16
    77        123
    78        106
    79         83
    80         12
    81         26
    82         27
    83         76
    84         41
    85        136
    86         12
    87          3
    89         20
    90         11
    91        730
    92         71
    93          5
    94          4
    95         10
    96         19
    97         51
    98         23
    99         28
   100          3
   101          4
   102         22
   103         91
   104        999
   105        400
   106         43
   107        143
   108         17
   109          7
   110          7
   111         20
   112         12
   113         12
   114          3
   115          4
   117         10
   118          4
   119          6
   120          4
   121          3
   122          3
   123          2
   124          3
   125         11
   126          6
   127          8
   130          2
   131         22
   132         22
   133        117
   134         16
   135          4
   138          6
   139          6
   140          8
   145          4
   146          3
   147          5
   148         15
   149         35
   150        856
   151        105
   152         13
   155          4
   157          3
   163          7
   166          2
   167          2
   168         27
   169          7
   318         91
   319         20
   320          4