##TITLE=Library Entry 107565
##JCAMP-DX=Revision 4.10 
##DATA TYPE=MASS SPECTRUM
##SAMPLE DESCRIPTION=LAC, NIDDK, NIH, Bethesda, MD 20892
##NAMES=HP
##CAS NAME=Dihydrosteviol methyl esteer
##MOLFORM=C21H34O3
##CAS REGISTRY NO=112709-08-7
##MP= -300
##BP= -300
##MW= 334
##$RETENTION INDEX=0
##$CONDENSED SPECTRUM=NO
##NPOINTS= 169
##XYDATA=(XY..XY) 1 
    41        523
    42         33
    43        570
    45         90
    47         36
    48         10
    49         12
    51          4
    53        196
    55        531
    56         52
    57        137
    58         22
    59        381
    61         37
    65         69
    67        378
    69        302
    70         43
    71         92
    73         85
    74         10
    77        170
    79        364
    81        433
    82         40
    83        123
    84         94
    85         33
    86         43
    87          7
    88         43
    91        308
    93        335
    95        425
    96         83
    97        110
    98          2
    99         24
   101        119
   102          5
   103         29
   104          4
   105        214
   106         38
   107        318
   108         67
   109        448
   110        256
   111         61
   113         14
   114         26
   115         42
   116         34
   117         67
   119        150
   120         35
   121        465
   123        999
   124         74
   125         30
   126          2
   127         20
   128         22
   129         34
   130         10
   131         83
   133        123
   134         39
   135        135
   136         54
   137         88
   138         38
   139        107
   140          2
   141         20
   142          6
   143         26
   144          5
   145         78
   146         14
   147         98
   148          8
   149        131
   150         35
   151         41
   152         17
   153         20
   155          5
   157         29
   158          2
   159         56
   160          7
   161        152
   162         28
   163         56
   164         17
   165         37
   166          3
   167         24
   168          8
   169         10
   171         16
   173         55
   174          9
   175         66
   176         16
   177         30
   178         20
   179          2
   180         66
   181         63
   182         11
   183         11
   185         14
   187         36
   188         20
   189         73
   190         24
   191         22
   192          6
   193         12
   194          2
   195          2
   199         13
   201         24
   202          2
   203         27
   204         20
   205         57
   206         15
   207          5
   213         70
   214         19
   215         13
   216         13
   217         20
   219          2
   221         56
   222          8
   231        248
   232         44
   233          8
   234          8
   235         16
   241         18
   242          4
   245         10
   247          2
   256          5
   257         28
   259         46
   260          9
   273         19
   274         36
   275        152
   276         30
   278          7
   288         11
   291        994
   292        175
   293         20
   302         11
   316         24
   317         22
   319          2
   334        158
   335         43
   336          2