##TITLE=Library Entry 4737
##JCAMP-DX=Revision 4.10 
##DATA TYPE=MASS SPECTRUM
##SAMPLE DESCRIPTION=OGDEN BioServices Corp., NCI, Rockville, MD 20852
##NAMES=HP
##CAS NAME=Piperazine, 1-[2-chloroethyl]-4-[3-chloropropyl]-
##MOLFORM=C9H18Cl2N2
##CAS REGISTRY NO=112747-94-1
##MP= -300
##BP= -300
##MW= 224
##$RETENTION INDEX=0
##$CONDENSED SPECTRUM=NO
##NPOINTS= 151
##XYDATA=(XY..XY) 1 
    41        233
    42        999
    43        304
    44         58
    45          5
    46          0
    47          3
    48          3
    49         80
    50          2
    51         26
    52          7
    53         11
    54        142
    55        142
    56        666
    57        151
    58         58
    59          2
    60          1
    61          8
    62         12
    63        105
    65         31
    66          2
    67         11
    68         49
    69        161
    70        511
    71         58
    72         87
    73          5
    75          9
    76          4
    77         15
    78          5
    79          7
    80          9
    81         15
    82         84
    83         65
    84        168
    85         16
    86          4
    87          0
    88          5
    89          3
    90         18
    91         47
    92         81
    93         18
    94         29
    95         15
    96         42
    97        134
    98        217
    99         27
   100          1
   102          1
   103          0
   104         27
   105         22
   106         80
   107         11
   108         25
   109          6
   110          8
   111         26
   112         43
   113          5
   114          0
   115          0
   116          0
   117         17
   118        220
   119         28
   120        157
   121         13
   122         30
   123          7
   124          3
   125        351
   126         31
   127          3
   130          2
   131          4
   132        338
   133         37
   134        115
   135         12
   136          2
   137          2
   138          1
   139         60
   140          5
   141          0
   143          0
   144          2
   145          5
   146         22
   147         16
   148          8
   149          6
   150          0
   151          2
   152          2
   153         97
   154         10
   155          0
   156          1
   157          1
   158          0
   159         10
   160         10
   161        342
   162         28
   163        111
   164          8
   165          0
   167          0
   170          1
   171          0
   173         12
   174          3
   175        154
   176         13
   177         49
   178          4
   179          1
   183          0
   186          0
   187         11
   188        245
   189         82
   190         85
   191         24
   192          2
   197          0
   199          0
   201          0
   203          0
   209          0
   213          0
   222          2
   223          7
   224         26
   225         17
   226         16
   227          8
   228          3
   229          1