##TITLE=Library Entry 81369
##JCAMP-DX=Revision 4.10 
##DATA TYPE=MASS SPECTRUM
##SAMPLE DESCRIPTION=M. BUTCHER
##NAMES=HP
##CAS NAME=1H-Indole-2,3-dione, 7-methyl-
##MOLFORM=C9H7NO2
##CAS REGISTRY NO=1127-59-9
##MP= -300
##BP= -300
##MW= 161
##$RETENTION INDEX=0
##$CONDENSED SPECTRUM=NO
##NPOINTS= 32
##XYDATA=(XY..XY) 1 
    37         60
    38         90
    39        150
    40         20
    43         20
    45         20
    50        160
    51        300
    52        250
    53         60
    61         20
    62         60
    63        110
    64         60
    65         40
    74         50
    75         50
    76         80
    77        270
    78        270
    79         70
    89         60
    90         40
   103         30
   104        680
   105        999
   106        110
   132         20
   133        380
   134         40
   161        700
   162         90