##TITLE=Library Entry 20003
##JCAMP-DX=Revision 4.10 
##DATA TYPE=MASS SPECTRUM
##SAMPLE DESCRIPTION=ASES Database, Dalian Institute, P.R. China
##NAMES=HP
##CAS NAME=5,8-methano-4H-1,3-benzoxazine-2-thione, 1,2,4a-rel,5-cis,8-cis-h
exahydro-
##MOLFORM=C9H11NOS
##CAS REGISTRY NO=112798-00-2
##MP= -300
##BP= -300
##MW= 181
##$RETENTION INDEX=0
##$CONDENSED SPECTRUM=NO
##NPOINTS= 13
##XYDATA=(XY..XY) 1 
    39        130
    54        190
    55        999
    56        200
    65        100
    66        678
    67         60
    77         70
    82        159
    91         80
   115        138
   116        469
   181        419