##TITLE=Library Entry 36952
##JCAMP-DX=Revision 4.10 
##DATA TYPE=MASS SPECTRUM
##SAMPLE DESCRIPTION=Institute of Organic Chemistry, USSR, 1990
##NAMES=HP
##CAS NAME=Perfluoro[8-methylbicyclo[4.3.0]nona-1(6)-ene]
##MOLFORM=C10F16
##CAS REGISTRY NO=112754-13-9
##MP= -300
##BP= -300
##MW= 424
##$RETENTION INDEX=0
##$CONDENSED SPECTRUM=NO
##NPOINTS= 77
##XYDATA=(XY..XY) 1 
    43         11
    69        999
    70          5
    93         50
   100         47
   105         13
   112          7
   113         10
   117         59
   119         93
   124         45
   131        113
   136          8
   141          8
   143         25
   148         18
   155         81
   167         30
   168          8
   174          6
   179         31
   181         37
   186         47
   193         26
   198         22
   199          7
   205        133
   206          6
   210         12
   212         15
   217         97
   218         15
   225         23
   229         48
   236        110
   237         34
   241         22
   243        175
   244          6
   248         16
   255        307
   256         19
   260          7
   267        134
   268          9
   274         13
   275          6
   279         82
   280          6
   286         40
   287         29
   293        189
   294        101
   298         16
   305        413
   306         67
   312         10
   317         57
   324        196
   325         26
   329         60
   336          7
   337          6
   343        153
   344         10
   348        130
   349         10
   355        183
   356         16
   375         60
   387         31
   393        121
   394         28
   405        417
   406         58
   424        265
   425         26