##TITLE=Library Entry 85208
##JCAMP-DX=Revision 4.10 
##DATA TYPE=MASS SPECTRUM
##SAMPLE DESCRIPTION=Exported from NIST MS Search
##NAMES=HP
##CAS NAME=1,4-Naphthalenediol, decahydro-, (1.alpha.,4.alpha.,4a.alpha.,8a.
beta.)-
##MOLFORM=C10H18O2
##CAS REGISTRY NO=1127-52-2
##MP= -300
##BP= -300
##MW= 170
##$RETENTION INDEX=0
##$CONDENSED SPECTRUM=NO
##NPOINTS= 70
##XYDATA=(XY..XY) 1 
    39        290
    40         67
    41        740
    42         92
    43        242
    44        164
    45        111
    47         53
    51         53
    52         36
    53        157
    54        210
    55        479
    56         50
    57        368
    58        845
    59         75
    60         38
    65         79
    66        101
    67        842
    68        193
    69        152
    70        300
    71        157
    77        128
    78        106
    79        539
    80        232
    81        607
    82        162
    83        225
    84        162
    85         31
    87         55
    91        239
    92        210
    93        520
    94        271
    95        767
    96        256
    97        186
    98        159
    99          4
   105        108
   106        104
   107         77
   108        999
   109        179
   110        145
   111        305
   112        886
   113        322
   114         24
   119        140
   120         24
   121        125
   122         38
   123        322
   124        138
   125         16
   133         31
   134        837
   135        111
   137         41
   151         65
   152        307
   153         55
   170        295
   171         55