##TITLE=Library Entry 28921
##JCAMP-DX=Revision 4.10 
##DATA TYPE=MASS SPECTRUM
##SAMPLE DESCRIPTION=Exported from NIST MS Search
##NAMES=HP
##CAS NAME=1,4-Naphthalenediol, decahydro-, (1.alpha.,4.alpha.,4a.alpha.,8a.
alpha.)-
##MOLFORM=C10H18O2
##CAS REGISTRY NO=1127-51-1
##MP= -300
##BP= -300
##MW= 170
##$RETENTION INDEX=0
##$CONDENSED SPECTRUM=NO
##NPOINTS= 70
##XYDATA=(XY..XY) 1 
    39        243
    40         49
    41        584
    42         64
    43        223
    44        243
    45        144
    47         35
    51         49
    52         31
    53        165
    54        216
    55        392
    56         49
    57        281
    58        999
    59         76
    60         20
    65         57
    66         78
    67        708
    68        192
    69        136
    70        231
    71        185
    77        117
    78         88
    79        518
    80        185
    81        543
    82        144
    83        148
    84        175
    85         28
    87         39
    91        210
    92        202
    93        458
    94        157
    95        962
    96        233
    97        190
    98         37
   105         80
   106         84
   107         47
   108        975
   109        185
   110        144
   111        173
   112        429
   113        338
   114         37
   119        117
   120         16
   121         99
   122         12
   123        185
   124         84
   125          4
   133         20
   134        758
   135         97
   137         24
   151         41
   152        283
   153         35
   168          6
   170         86
   171          6