##TITLE=Library Entry 21870
##JCAMP-DX=Revision 4.10 
##DATA TYPE=MASS SPECTRUM
##SAMPLE DESCRIPTION=J.E. Oliver, Agricultural Research Center, USDA, Beltsv
ille, MD 207
##NAMES=HP
##CAS NAME=2-Cyclohexen-3,6-diol-1-one, 2-[10-tetradecenoyl]-
##MOLFORM=C20H32O4
##CAS REGISTRY NO=112727-26-1
##MP= -300
##BP= -300
##MW= 336
##$RETENTION INDEX=0
##$CONDENSED SPECTRUM=NO
##NPOINTS= 232
##XYDATA=(XY..XY) 1 
    41        810
    42        179
    43        486
    44         48
    45         13
    47         40
    48         19
    49          1
    51          0
    52         16
    53        147
    54        124
    55        999
    56        151
    57        271
    58         22
    59          5
    65         37
    66         29
    67        271
    68        102
    69        600
    70        101
    71        123
    72         12
    73          5
    77         40
    78         16
    79        106
    80         45
    81        241
    82        104
    83        205
    84        321
    85        302
    86        140
    87          7
    88         16
    91         50
    92         11
    93         57
    94         33
    95        159
    96         66
    97        183
    98        137
    99         55
   100         42
   101          5
   103          6
   104          5
   105         31
   106         11
   107         50
   108         27
   109        139
   110         48
   111        118
   112         44
   113         79
   114         17
   115         10
   116          3
   117         11
   118          5
   119         33
   120         14
   121         53
   122         23
   123         72
   124         45
   125         99
   126        291
   127         56
   128         58
   129         39
   130          6
   131         14
   132          6
   133         28
   134         15
   135         48
   136         29
   137        240
   138         52
   139        152
   140        209
   141         45
   142        190
   143         21
   144          5
   145         12
   146          6
   147         28
   148         15
   149         49
   150         29
   151         54
   152         65
   153        184
   154        133
   155        176
   156         20
   157         23
   158          5
   159         13
   160          7
   161         25
   162         18
   163         46
   164         79
   165        188
   166         77
   167         71
   168        418
   169         66
   170        234
   171         41
   172          8
   173         12
   174          6
   175         27
   176         18
   177         38
   178         23
   179         53
   180         24
   181        107
   182         43
   183        569
   184         60
   185         15
   186          5
   187         12
   188          6
   189         32
   190         18
   191         29
   192         17
   193         51
   194         60
   195         30
   196         15
   197         14
   198          3
   199          6
   201          9
   202          6
   203         20
   204          9
   205         65
   206         21
   207         38
   208         83
   209         31
   210         10
   211          9
   213         13
   215          9
   216          3
   217         12
   218          6
   219         48
   220         12
   221         26
   222         13
   223         13
   224          7
   225         11
   226          5
   227          5
   229          6
   231         13
   232          7
   233         13
   234          7
   235         18
   236          7
   237         27
   238          8
   239         12
   240          8
   241          4
   243          5
   245          8
   246          5
   247         12
   248          5
   249         39
   250         10
   251         11
   252          6
   253         11
   254          7
   256          3
   257          4
   259          4
   260          4
   261          9
   262          7
   263         15
   264          6
   265          4
   266          4
   267          4
   268          4
   274          6
   275          8
   276          5
   277          5
   278          3
   279          4
   280          5
   281          3
   289          6
   290          7
   291          3
   292         19
   293          7
   294          7
   300          4
   307          3
   308          8
   317          4
   318         14
   319          6
   320          4
   335          5
   336        923
   337        263
   338         43
   339          5