##TITLE=Library Entry 2609
##JCAMP-DX=Revision 4.10 
##DATA TYPE=MASS SPECTRUM
##SAMPLE DESCRIPTION=Chemical Concepts
##NAMES=HP
##CAS NAME=9-Borabicyclo[3.3.1]nonane, 9-propyl-
##MOLFORM=C11H21B
##CAS REGISTRY NO=1127-78-2
##MP= -300
##BP= -300
##MW= 164
##$RETENTION INDEX=0
##$CONDENSED SPECTRUM=NO
##NPOINTS= 79
##XYDATA=(XY..XY) 1 
    27        427
    29         79
    31          0
    36         22
    37         81
    38         80
    39        410
    40        381
    41        999
    42         42
    43         18
    46          5
    47          5
    49          9
    50         72
    51        207
    52        299
    53        967
    54        235
    55        328
    56         28
    57          9
    61         10
    62         14
    63         44
    64        111
    65        320
    66        241
    67        518
    68        253
    69        191
    70         14
    71          5
    72          9
    74          5
    75         16
    76         42
    77        135
    78        154
    79        552
    80        371
    81        552
    82         87
    83         35
    84          5
    88         12
    89         41
    90         54
    91        185
    92        292
    93        657
    94        602
    95        168
    96         26
    97          3
    98          1
   104          6
   105         19
   106         26
   107         93
   108        194
   109         46
   110          9
   113          5
   117          6
   118         10
   119         35
   120        123
   121        467
   122        291
   123        276
   124         27
   134         14
   135         62
   136         68
   137          5
   163        203
   164        936
   165         97