##TITLE=Library Entry 87494
##JCAMP-DX=Revision 4.10 
##DATA TYPE=MASS SPECTRUM
##SAMPLE DESCRIPTION=Japan AIST/NIMC Database- Spectrum MS-IW-6339
##NAMES=HP
##CAS NAME=Dihydrojasmone
##MOLFORM=C11H18O
##CAS REGISTRY NO=1128-08-1
##MP= -300
##BP= -300
##MW= 166
##$RETENTION INDEX=1369
##$CONDENSED SPECTRUM=NO
##NPOINTS= 99
##XYDATA=(XY..XY) 1 
    15          1
    26          3
    27         71
    28         10
    29         67
    30          1
    31          1
    38          3
    39         76
    40         16
    41        175
    42         11
    43         50
    44          1
    45          3
    50          6
    51         23
    52         19
    53         91
    54         17
    55        105
    56          9
    57          9
    58          1
    62          1
    63          7
    64          2
    65         40
    66         22
    67        241
    68         43
    69         33
    70          2
    71          2
    74          1
    75          1
    77         54
    78         10
    79        109
    80         20
    81        198
    82        137
    83         16
    84          2
    89          1
    91         37
    92          6
    93         56
    94         14
    95        191
    96         36
    97         14
    98          2
    99          2
   103          3
   104          1
   105         13
   106          4
   107         22
   108          8
   109        225
   110        999
   111        200
   112         13
   113          1
   115          2
   117          2
   119          9
   120          1
   121          8
   122          5
   123        222
   124        116
   125         12
   126          1
   127          1
   128          1
   129          2
   131          3
   133         12
   134          1
   135          4
   136          2
   137        259
   138         30
   139          2
   144          1
   147          2
   148          3
   149          8
   150          4
   151        652
   152         75
   153          5
   164          1
   165          9
   166        117
   167         33
   168          3