##TITLE=Library Entry 84801
##JCAMP-DX=Revision 4.10 
##DATA TYPE=MASS SPECTRUM
##SAMPLE DESCRIPTION=J.Sanz-Asensio ET AL.J.Chrom.,840,235(1999)
##NAMES=HP
##CAS NAME=2-Methylphenyl-N-methylcarbamate
##MOLFORM=C9H11NO2
##CAS REGISTRY NO=1128-78-5
##MP= -300
##BP= -300
##MW= 165
##$RETENTION INDEX=1584
##$CONDENSED SPECTRUM=NO
##NPOINTS= 14
##XYDATA=(XY..XY) 1 
    50        195
    51        233
    55        279
    57        263
    58        211
    71        132
    76        192
    77        422
    78        151
    79        164
    90        142
   104        238
   107        370
   108        999