##TITLE=Library Entry 49685
##JCAMP-DX=Revision 4.10 
##DATA TYPE=MASS SPECTRUM
##SAMPLE DESCRIPTION=A.A.Kutin, Moscow, Russia
##NAMES=HP
##CAS NAME=2,1,3-Benzoselenadiazole, 5-ethoxy-
##MOLFORM=C8H8N2OSe
##CAS REGISTRY NO=1128-93-4
##MP= -300
##BP= -300
##MW= 228
##$RETENTION INDEX=0
##$CONDENSED SPECTRUM=NO
##NPOINTS= 155
##XYDATA=(XY..XY) 1 
    37         33
    38         46
    39         68
    40         58
    41         25
    42         15
    43         27
    44          2
    45         10
    49         14
    50         63
    51         87
    52        337
    53        129
    54         15
    55          6
    56          1
    57          0
    61          8
    62         20
    63         36
    64         79
    65         83
    66         51
    67         53
    68        107
    69          4
    70          0
    71          0
    74         13
    75         57
    76        188
    77         68
    78         99
    80        999
    81        337
    82         44
    83          9
    84          0
    85          1
    86          1
    87          3
    88          4
    89         15
    90         23
    91        115
    92        328
    93        127
    94         24
    95         13
    96          4
    97          0
    99          0
   100          6
   101         10
   102         14
   103         68
   104         28
   105         24
   106         55
   107         18
   108         15
   109          7
   110          1
   111          1
   112          0
   113          3
   114         10
   115         20
   116         32
   117         37
   118         56
   119         69
   120        349
   121         30
   122          7
   123          1
   124          1
   125          0
   126          1
   127          4
   128          7
   129         13
   130         16
   131         19
   132         19
   133         28
   134         12
   135          3
   136          1
   138          1
   139          1
   140         11
   141         15
   142         35
   143         21
   144         58
   145         38
   146         20
   147         25
   148          4
   149          2
   150          0
   152          5
   153          4
   154          9
   155          5
   156         16
   157         10
   158          8
   159          2
   160          7
   161          0
   162          1
   165          1
   166          4
   167         12
   168         56
   169         72
   170        125
   171         86
   172        241
   173         58
   174         43
   175          8
   176          0
   179          0
   180          1
   181          3
   182          2
   183          4
   184          3
   185          3
   186          0
   194         10
   196        114
   197        101
   198        260
   200        607
   202        137
   203          5
   204          0
   209          0
   210          0
   211          0
   213          1
   222          7
   224         86
   225         77
   226        215
   228        456
   229         44
   230         78
   231          6
   232          0