##TITLE=Library Entry 732
##JCAMP-DX=Revision 4.10 
##DATA TYPE=MASS SPECTRUM
##SAMPLE DESCRIPTION=Chemical Concepts
##NAMES=HP
##CAS NAME=Cyclopentanecarboxylic acid, 1-(2-butenyl)-2-oxo-, ethyl ester, (
E)-
##MOLFORM=C12H18O3
##CAS REGISTRY NO=112825-89-5
##MP= -300
##BP= -300
##MW= 210
##$RETENTION INDEX=0
##$CONDENSED SPECTRUM=NO
##NPOINTS= 130
##XYDATA=(XY..XY) 1 
    25          5
    26         67
    27        672
    28        199
    29        999
    30         28
    31         33
    33          2
    34          3
    36          2
    37          4
    38         19
    39        457
    40        119
    41        550
    42         91
    43        247
    44         21
    45         58
    46          6
    47          7
    48          8
    49          2
    50         22
    51         74
    52         61
    53        282
    54        104
    55        715
    56         51
    57         60
    58          9
    59         13
    60         18
    61         18
    62          7
    63         18
    64          8
    65        107
    66         68
    67        305
    68         77
    69         64
    70         19
    71         25
    72          8
    73         28
    74          6
    75          7
    77        153
    78         41
    79        435
    80        137
    81        354
    82         79
    83         44
    84         14
    85          8
    86         10
    87          6
    88         10
    89          3
    91         96
    92         24
    93        184
    94        251
    95        145
    96         18
    97         42
    98         10
    99         20
   100          8
   101         10
   102          2
   103          5
   104          2
   105         12
   107         89
   108        112
   109        331
   110        220
   111        214
   112         39
   113         18
   114          4
   115          3
   117         14
   118         20
   119         92
   120          9
   121        792
   122         78
   123         31
   124          6
   125         44
   126         28
   127         43
   128         29
   129          3
   133          2
   134          4
   135         55
   136        139
   137        488
   138         46
   139         45
   140         18
   141          8
   147         15
   148          2
   149          7
   153         20
   154         18
   155         10
   156         84
   157          9
   163          8
   164         18
   165        109
   166         17
   167         15
   168          2
   181         19
   182         87
   183         11
   192         43
   193          6
   195          2
   210         17
   211          3