##TITLE=Library Entry 89238
##JCAMP-DX=Revision 4.10 
##DATA TYPE=MASS SPECTRUM
##SAMPLE DESCRIPTION=Chuck Anderson, Aldrich Chemical Co.
##NAMES=HP
##CAS NAME=Methyl (S)-(-)-1-methyl-2-oxocyclohexane-propionate
##MOLFORM=C11H18O3
##CAS REGISTRY NO=112898-44-9
##MP= -300
##BP= -300
##MW= 198
##$RETENTION INDEX=0
##$CONDENSED SPECTRUM=NO
##NPOINTS= 137
##XYDATA=(XY..XY) 1 
    14          2
    15         92
    16          1
    25          0
    26         14
    27        207
    28         80
    29        210
    30          8
    31         22
    32          4
    33          4
    36          0
    37          1
    38          8
    39        320
    40         73
    41        716
    42        198
    43        304
    44         15
    45         31
    46          2
    47          1
    50          5
    51         17
    52         11
    53         90
    54         37
    55        457
    56         40
    57         20
    58          2
    59         86
    60          2
    61          1
    62          0
    63          3
    64          0
    65         25
    66         12
    67        192
    68        155
    69        262
    70         24
    71         21
    72          4
    73         26
    74        231
    75         15
    76          1
    77         28
    78          6
    79         92
    80         17
    81        222
    82        102
    83        237
    84         60
    85         39
    86         10
    87        147
    88         51
    89          5
    91         26
    92          6
    93         51
    94        246
    95        335
    96        539
    97        317
    98         27
    99        146
   100         11
   101          7
   102          2
   103          1
   104          1
   105         25
   106         25
   107         89
   108         11
   109        119
   110        181
   111        228
   112        999
   113         96
   114         15
   115         39
   116          3
   117          0
   119          4
   120         19
   121         25
   122        182
   123         82
   124         62
   125        195
   126         17
   127         63
   128        213
   129         21
   130          5
   131          5
   133          4
   135          0
   136          1
   137         17
   138        119
   139         88
   140          8
   141         32
   142         11
   143          1
   147          1
   148         10
   149         43
   150          4
   151         38
   152          4
   153          0
   154        417
   155         48
   156          4
   165          2
   166        124
   167        210
   168         21
   169          2
   170         11
   171          1
   180          8
   181          0
   183          1
   198         60
   199          7
   200          0