##TITLE=Library Entry 53698
##JCAMP-DX=Revision 4.10 
##DATA TYPE=MASS SPECTRUM
##SAMPLE DESCRIPTION=CARL DJERASSI DEPT OF CHEM STANFORD UNIV STANFORD CALIF
 94305
##NAMES=HP
##CAS NAME=Acetamide, N-cyclohexyl-N-ethyl-
##MOLFORM=C10H19NO
##CAS REGISTRY NO=1128-34-3
##MP= -300
##BP= -300
##MW= 169
##$RETENTION INDEX=0
##$CONDENSED SPECTRUM=NO
##NPOINTS= 58
##XYDATA=(XY..XY) 1 
    30        210
    31        140
    32         17
    39        140
    40        157
    41        280
    42        157
    43        824
    44        333
    45         87
    46         17
    51         17
    53         52
    54         87
    55        175
    56        333
    57         35
    58        105
    60        157
    61         17
    67         70
    68         17
    69         17
    70        105
    71        175
    72        175
    73         17
    77         17
    79         17
    81         70
    82         70
    83         52
    84        999
    85         87
    86         70
    87         70
    88        578
    89         35
    96         17
    97         17
    98        280
    99         35
   100         17
   106         17
   110         17
   112        385
   113         52
   124         17
   125         17
   126        245
   127         52
   140        157
   141         52
   154         35
   167         17
   168         35
   169        350
   170         52