##TITLE=Library Entry 63745
##JCAMP-DX=Revision 4.10 
##DATA TYPE=MASS SPECTRUM
##SAMPLE DESCRIPTION=A.A.Kutin, Moscow, Russia
##NAMES=HP
##CAS NAME=Malonic acid, mononitrile, monothioamide, 2-(4-methylphenylhydraz
ono)-
##MOLFORM=C10H10N4S
##CAS REGISTRY NO=112853-36-8
##MP= -300
##BP= -300
##MW= 218
##$RETENTION INDEX=0
##$CONDENSED SPECTRUM=NO
##NPOINTS= 162
##XYDATA=(XY..XY) 1 
    33          9
    34          7
    35          0
    36          0
    37          3
    38         20
    39         99
    40         95
    41         34
    42          3
    43          5
    44         19
    45         33
    46          4
    47          1
    48          1
    49          4
    50         39
    51         86
    52         70
    53         60
    54         12
    55         12
    56          2
    57          2
    58          3
    59         17
    60        178
    61         11
    62         22
    63         51
    64         24
    65        208
    66         28
    67         19
    68          1
    69          2
    70         12
    71          9
    72         40
    73          4
    74          8
    75          7
    76         13
    77        184
    78         73
    79         84
    80          9
    81          2
    82          4
    83          2
    84          2
    85          1
    86          3
    87          2
    88          1
    89         25
    91        999
    92         81
    93          7
    94          2
    95          1
    96          0
    97          0
    98          3
    99          4
   100          1
   101          1
   102          3
   103         10
   104         30
   105         29
   106         71
   107         14
   108          4
   109          8
   110          1
   111          1
   112          0
   113          0
   114          0
   115          1
   116          1
   117          0
   118          4
   119         71
   120          6
   121          2
   123          4
   124         38
   125          3
   126          2
   127          5
   128          1
   129          1
   130          4
   131          7
   132          4
   133          4
   134          0
   135          1
   136          1
   137         17
   138         18
   139          7
   140          2
   141          0
   142          3
   143          4
   144          0
   145          0
   146          0
   147          0
   148          2
   149          2
   150          0
   151          0
   155          0
   156          1
   157         22
   158          5
   159          0
   160          0
   161          0
   162          0
   163          0
   164          1
   165          5
   166          0
   168          0
   169          0
   170         17
   171          4
   172          2
   173          4
   174          2
   175          1
   176          0
   183          0
   184          5
   185         12
   186          1
   188          0
   189          2
   190          1
   191          0
   192          0
   193          0
   200          0
   201          4
   202          1
   203         17
   204          2
   205          0
   214          0
   215          0
   216          2
   217         19
   218        291
   219         38
   220         15
   221          1