##TITLE=Library Entry 59957
##JCAMP-DX=Revision 4.10 
##DATA TYPE=MASS SPECTRUM
##SAMPLE DESCRIPTION=V.A.Korolev, Moscow, Russia
##NAMES=HP
##CAS NAME=1-(4-Methylphenyl)-3-[(4-methylphenyl)imino]-4,5,6,7-tetrahydroin
dol-2-one
##MOLFORM=C22H22N2O
##CAS REGISTRY NO=112867-06-8
##MP= -300
##BP= -300
##MW= 330
##$RETENTION INDEX=0
##$CONDENSED SPECTRUM=NO
##NPOINTS= 109
##XYDATA=(XY..XY) 1 
    39        207
    40         22
    41        131
    43         26
    51        133
    52         58
    53         47
    54         20
    55         11
    63        117
    65        678
    66         11
    67         28
    75         15
    77        206
    78         70
    79         78
    80         22
    89        167
    91        999
    92        112
    93         18
    94         14
   102         19
   103         23
   104         35
   105         35
   106         58
   107         41
   108         10
   115         77
   116         54
   117         52
   118         67
   119         12
   120         10
   127         23
   128         42
   129         36
   130         36
   131         31
   132         16
   136         16
   140         14
   141         23
   142         50
   143         48
   144         98
   145         12
   150         11
   151         16
   152         13
   153         14
   154         34
   155         28
   156         40
   157         33
   158         20
   165         44
   166         15
   167         37
   168         63
   169         33
   170         51
   178          9
   179         20
   180         48
   181         48
   182         44
   183         24
   184         61
   185         33
   192         15
   193         24
   194         91
   195         61
   196         90
   197         24
   207         11
   208         11
   209         49
   210         25
   211         59
   212         12
   222         17
   223         16
   224         52
   225         19
   237          9
   239         15
   259         11
   271         20
   272         11
   273         19
   283         17
   284         11
   285         59
   286         34
   287         85
   288         18
   299         18
   301         67
   302         17
   315         67
   316         13
   329        161
   330        583
   331        143
   332         18