##TITLE=Library Entry 41164
##JCAMP-DX=Revision 4.10 
##DATA TYPE=MASS SPECTRUM
##SAMPLE DESCRIPTION=Japan AIST/NIMC Database- Spectrum MS-NW-9715
##NAMES=HP
##CAS NAME=l-Gulonic acid, .gamma.-lactone
##MOLFORM=C6H10O6
##CAS REGISTRY NO=1128-23-0
##MP= -300
##BP= -300
##MW= 178
##$RETENTION INDEX=0
##$CONDENSED SPECTRUM=NO
##NPOINTS= 123
##XYDATA=(XY..XY) 1 
    14          7
    15         76
    16          2
    17          3
    18         10
    19          3
    25          1
    26         10
    27         66
    28         38
    29        154
    30         43
    31        199
    32          7
    33          1
    37          1
    38          3
    39         29
    40          7
    41         48
    42         82
    43        337
    44        179
    45        132
    46          4
    47         12
    49          2
    50          1
    51          2
    52          2
    53          6
    54         39
    55         83
    56         71
    57        181
    58         86
    59         29
    60        295
    61        661
    62         23
    63          4
    65          1
    66          1
    67          2
    68          6
    69         54
    70         42
    71        411
    72        346
    73        999
    74        101
    75         14
    76         87
    77          4
    78          1
    79          7
    80          1
    81          6
    82          5
    83         59
    84         25
    85        282
    86         59
    87         26
    88          5
    89         63
    90         19
    91         57
    92          3
    93          1
    94          1
    95          2
    96          4
    97         18
    98          9
    99          5
   100        337
   101         84
   102         47
   103        128
   104          8
   105          2
   107          1
   109          1
   110          1
   111          1
   112          2
   113          6
   114         95
   115         15
   116          4
   117          5
   118         16
   119        137
   120          7
   121          4
   125          3
   126          1
   127          1
   128          1
   129          2
   131          5
   132         14
   133         38
   134          2
   135          2
   141          1
   142         58
   143          6
   144          1
   147         95
   148          6
   149          3
   151          5
   157          1
   160         48
   161         11
   162          1
   163          1
   178          2
   179         44
   180          3
   181          1