##TITLE=Library Entry 51064
##JCAMP-DX=Revision 4.10 
##DATA TYPE=MASS SPECTRUM
##SAMPLE DESCRIPTION=C.Djerassi ET AL.J.Org.Chem.,31,1599(1966)
##NAMES=HP
##CAS NAME=3,9-Diazabicyclo[4.2.1]nonan-4-one, 3,9-dimethyl-
##MOLFORM=C9H16N2O
##CAS REGISTRY NO=1128-77-4
##MP= -300
##BP= -300
##MW= 168
##$RETENTION INDEX=0
##$CONDENSED SPECTRUM=NO
##NPOINTS= 54
##XYDATA=(XY..XY) 1 
    41        343
    42        973
    43        130
    44        268
    45        215
    46         18
    50         14
    51         28
    52         26
    53         91
    54        121
    55        296
    56        176
    57        176
    58         46
    65         20
    66         26
    67        115
    68        158
    69         48
    70        119
    71        199
    72         71
    73         16
    79         20
    80         48
    81         69
    82        999
    83        178
    84         48
    85         28
    87        611
    88         40
    94         69
    95         58
    96        754
    97        628
    98         69
    99         18
   108         18
   109         20
   110         38
   111         40
   112         18
   113         20
   123         30
   124         48
   125         30
   138         12
   139         12
   140         16
   153         14
   168        237
   169         56