##TITLE=Library Entry 85092
##JCAMP-DX=Revision 4.10 
##DATA TYPE=MASS SPECTRUM
##SAMPLE DESCRIPTION=NIST Mass Spectrometry Data Center, 1998.
##NAMES=HP
##CAS NAME=Carbamic acid, methyl-, 3-methylphenyl ester
##MOLFORM=C9H11NO2
##CAS REGISTRY NO=1129-41-5
##MP= -300
##BP= -300
##MW= 165
##$RETENTION INDEX=1465
##$CONDENSED SPECTRUM=NO
##NPOINTS= 64
##XYDATA=(XY..XY) 1 
    15          9
    26          3
    27         22
    28         28
    29          9
    30          1
    37          4
    38         15
    39         64
    40          8
    41          7
    42          3
    43          4
    44          1
    49          2
    50         30
    51         60
    52         34
    53         48
    54          8
    55         13
    56         21
    57         45
    58         68
    59          1
    61          4
    62         14
    63         38
    64         12
    65         41
    66          9
    67          4
    68          3
    69          1
    73          1
    74          7
    75          4
    76          4
    77        182
    78         52
    79        168
    80         72
    81         10
    82          1
    85          1
    86          1
    87          1
    89         22
    90         74
    91         61
    92          7
    93          2
    94          1
   105          4
   107        502
   108        999
   109         82
   110          5
   118          1
   119          1
   120          1
   121          2
   165         16
   166          1