##TITLE=Library Entry 58573
##JCAMP-DX=Revision 4.10 
##DATA TYPE=MASS SPECTRUM
##SAMPLE DESCRIPTION=Chemical Concepts
##NAMES=HP
##CAS NAME=Dimethyl 3-hydroxypentanedioate, TBDMS derivative
##MOLFORM=C13H26O5Si
##CAS REGISTRY NO=112904-68-4
##MP= -300
##BP= -300
##MW= 290
##$RETENTION INDEX=0
##$CONDENSED SPECTRUM=NO
##NPOINTS= 151
##XYDATA=(XY..XY) 1 
    26          2
    27         27
    28          9
    29         75
    30          1
    31          9
    38          1
    39         45
    40          7
    41        127
    42         20
    43         82
    44         12
    45         72
    46          3
    47         49
    48          1
    49          1
    50          0
    51          1
    52          1
    53          3
    54          1
    55         14
    56         17
    57         80
    58         40
    59        348
    60         29
    61         53
    62          2
    63          1
    67          1
    68         18
    69         22
    70          3
    71         23
    72          8
    73        437
    74         42
    75        600
    76         41
    77         26
    80         16
    81          0
    82          0
    83          3
    84          0
    85         47
    86          3
    87          6
    88         15
    89        999
    90         75
    91         65
    92          2
    93          1
    95        133
    96          6
    97          2
    98          3
    99        192
   100         20
   101         95
   102          8
   103          6
   105          7
   106          0
   107          6
   108          1
   109          0
   111          1
   112          1
   113          1
   114          2
   115         68
   116         10
   117         65
   118          5
   119         10
   120          0
   121        103
   122          9
   123          3
   125          0
   126          1
   127        961
   128         63
   129         18
   130          6
   131         37
   132         10
   133          5
   135          0
   141          5
   142          2
   143          6
   144          0
   145          6
   146          7
   147         23
   148          2
   149        123
   150         10
   151          3
   152          1
   155          0
   157          0
   158          0
   159        167
   160         19
   161         33
   162          2
   163          2
   169          2
   171          1
   172          0
   173         29
   174          5
   175         21
   176          1
   177          1
   181          0
   185          0
   187          0
   189          0
   191        123
   192         14
   193          3
   199          0
   201         36
   202          4
   203          5
   204          1
   205          1
   215          6
   216          0
   217        103
   218         15
   219          4
   233        743
   234        103
   235         35
   236          2
   243          3
   257          1
   259         33
   260          5
   261          1
   275         20
   276          3