##TITLE=Library Entry 32626
##JCAMP-DX=Revision 4.10 
##DATA TYPE=MASS SPECTRUM
##SAMPLE DESCRIPTION=D.HENNEBERG, MAX-PLANCK INSTITUTE, MULHEIM, WEST GERMAN
Y
##NAMES=HP
##CAS NAME=Cyclododecene, (Z)-
##MOLFORM=C12H22
##CAS REGISTRY NO=1129-89-1
##MP= -300
##BP= -300
##MW= 166
##$RETENTION INDEX=1315
##$CONDENSED SPECTRUM=NO
##NPOINTS= 66
##XYDATA=(XY..XY) 1 
    26          5
    27        182
    28         41
    29        241
    30          1
    37          1
    38          0
    39        263
    40         45
    41        812
    42        122
    43        177
    47          0
    48          0
    50          1
    51         13
    52         11
    53        126
    54        716
    55        904
    56        142
    57         79
    58          0
    63          1
    65         31
    66         92
    67        999
    68        492
    69        401
    70         58
    71          4
    75          0
    76          0
    77         24
    78          3
    79         70
    80         51
    81        788
    82        850
    83        304
    84         26
    85          1
    91          5
    92          0
    93         11
    94         22
    95        460
    96        615
    97        131
    98          5
   107          1
   108          4
   109        255
   110        112
   111         10
   121          1
   122          1
   123         74
   124         46
   125          1
   137         19
   138         31
   139          1
   164          1
   166        206
   167         19