##TITLE=Library Entry 66355
##JCAMP-DX=Revision 4.10 
##DATA TYPE=MASS SPECTRUM
##SAMPLE DESCRIPTION=D.HENNEBERG, MAX-PLANCK INSTITUTE, MULHEIM, WEST GERMAN
Y
##NAMES=HP
##CAS NAME=Pyridine, 2-hexyl-
##MOLFORM=C11H17N
##CAS REGISTRY NO=1129-69-7
##MP= -300
##BP= -300
##MW= 163
##$RETENTION INDEX=0
##$CONDENSED SPECTRUM=NO
##NPOINTS= 74
##XYDATA=(XY..XY) 1 
    26         12
    27         51
    28         14
    29         31
    30          1
    37          1
    38          4
    39         46
    40          7
    41         40
    42          6
    43         22
    44          2
    50          7
    51         29
    52         22
    53         16
    54          7
    55          7
    56          2
    57          3
    58          7
    59          0
    62          1
    63          5
    64          4
    65         42
    66         26
    67          6
    68          2
    69          2
    75          0
    76          1
    77         11
    78         42
    79         29
    80         10
    81          1
    82          4
    83          3
    85          1
    89          1
    90          2
    91          7
    92         37
    93        999
    94         61
    95          2
   103          1
   104          7
   105          4
   106        203
   107         42
   108          2
   116          1
   117         14
   118         20
   119          7
   120        177
   121         17
   122          1
   130          3
   131          1
   132          7
   133          2
   134         29
   135          4
   146          1
   148         12
   149          1
   160          0
   162         15
   163         24
   164          2