##TITLE=Library Entry 15995
##JCAMP-DX=Revision 4.10 
##DATA TYPE=MASS SPECTRUM
##SAMPLE DESCRIPTION=A.A.Kutin, Moscow, Russia
##NAMES=HP
##CAS NAME=Urea, (hexahydro-6-methyl-2-oxo-4-pyrimidinyl)-
##MOLFORM=C6H12N4O2
##CAS REGISTRY NO=1129-42-6
##MP= -300
##BP= -300
##MW= 172
##$RETENTION INDEX=0
##$CONDENSED SPECTRUM=NO
##NPOINTS= 75
##XYDATA=(XY..XY) 1 
    33         16
    38         12
    39         87
    40        122
    41        239
    42        500
    43        552
    44        999
    45        242
    46         19
    48          7
    51          8
    52         17
    53          7
    54         44
    55         22
    56         29
    57         35
    58         90
    60        243
    61        113
    65          3
    66          9
    67         17
    68        119
    69         66
    70        241
    71         95
    72          2
    77         12
    78          1
    79         29
    81          3
    82          7
    83         26
    84         40
    85         70
    86         21
    87         46
    88         66
    94          5
    95          3
    97        670
    98         30
    99          3
   101        200
   102         25
   103          1
   105         12
   106          2
   107          3
   110          9
   111        106
   112        206
   113        113
   114         28
   115          3
   127        191
   128        505
   129         62
   130          8
   140          8
   143          1
   144         23
   149          3
   154          3
   155         30
   165          1
   167          1
   168          1
   171         44
   172        205
   173          8
   174         13
   175          1