##TITLE=Library Entry 32733
##JCAMP-DX=Revision 4.10 
##DATA TYPE=MASS SPECTRUM
##SAMPLE DESCRIPTION=D.HENNEBERG, MAX-PLANCK INSTITUTE, MULHEIM, WEST GERMAN
Y
##NAMES=HP
##CAS NAME=Cyclododecyne
##MOLFORM=C12H20
##CAS REGISTRY NO=1129-90-4
##MP= -300
##BP= -300
##MW= 164
##$RETENTION INDEX=0
##$CONDENSED SPECTRUM=NO
##NPOINTS= 85
##XYDATA=(XY..XY) 1 
    25          0
    26         10
    27        190
    28         20
    29        170
    30          4
    35          1
    37          6
    38          9
    39        279
    40         61
    41        575
    42         50
    43         65
    47          2
    48          1
    50         19
    51         72
    52        104
    53        173
    54        408
    55        450
    56         35
    57         10
    58          2
    59          2
    62          7
    63         23
    64          9
    65        106
    66        104
    67        999
    68        347
    69        108
    70          7
    71          3
    72          1
    73          0
    74          2
    75         11
    76          4
    77        172
    78         67
    79        691
    80        331
    81        662
    82        295
    83         99
    84          5
    88          0
    89          7
    90          1
    91        137
    92         29
    93        397
    94        243
    95        276
    96        112
    97         57
    98          4
   101          0
   103          4
   104          2
   105         26
   106          7
   107        204
   108         90
   109         77
   110         17
   115          2
   117          2
   119          6
   120          4
   121        345
   122         74
   123         21
   133          0
   134          0
   135        110
   136         77
   137          7
   149         20
   150          1
   164         23
   165          2