##TITLE=Library Entry 17592
##JCAMP-DX=Revision 4.10 
##DATA TYPE=MASS SPECTRUM
##SAMPLE DESCRIPTION=Chemical Concepts
##NAMES=HP
##CAS NAME=Pentanedioic acid, 3-(methoxymethoxy)-, dimethyl ester
##MOLFORM=C9H16O6
##CAS REGISTRY NO=112904-67-3
##MP= -300
##BP= -300
##MW= 220
##$RETENTION INDEX=0
##$CONDENSED SPECTRUM=NO
##NPOINTS= 49
##XYDATA=(XY..XY) 1 
    27         13
    28          2
    29         45
    31         25
    33          7
    39         33
    40          7
    41         74
    42         32
    43         64
    44         15
    45        999
    46         20
    47          7
    55         15
    56          9
    57         10
    58         26
    59        148
    61         11
    68          9
    69         13
    71         17
    72         12
    74         11
    75         60
    85         13
    87         14
    88         12
    95         28
    99         45
   100        186
   101         52
   103          9
   115         20
   117         30
   118         19
   126          6
   127        308
   128        136
   129         10
   143         93
   147         27
   149          6
   159         43
   160         20
   175         10
   189         80
   190          6