##TITLE=Library Entry 19182
##JCAMP-DX=Revision 4.10 
##DATA TYPE=MASS SPECTRUM
##SAMPLE DESCRIPTION=Chemical Concepts
##NAMES=HP
##CAS NAME=1,9-Tetradecadiene
##MOLFORM=C14H26
##CAS REGISTRY NO=112929-06-3
##MP= -300
##BP= -300
##MW= 194
##$RETENTION INDEX=0
##$CONDENSED SPECTRUM=NO
##NPOINTS= 119
##XYDATA=(XY..XY) 1 
    26          8
    27        150
    28         18
    29        233
    30          6
    31          3
    36          2
    37          1
    38          5
    39        193
    40         31
    41        703
    42        112
    43        295
    44         12
    45          2
    50          7
    51         17
    52         10
    53         99
    54        409
    55        999
    56        228
    57        269
    58         12
    59          1
    63          4
    64          1
    65         34
    66         44
    67        564
    68        331
    69        391
    70        157
    71         83
    72          5
    73          2
    74          1
    75          2
    76          8
    77         27
    78          7
    79         57
    80         34
    81        549
    82        415
    83        228
    84         45
    85         35
    86         16
    87          3
    88          1
    89          2
    91         31
    92          6
    93         23
    94         15
    95        353
    96        322
    97        132
    98         49
    99         12
   100          1
   103          1
   104          8
   105         11
   106          3
   107          9
   108          6
   109        156
   110        148
   111         37
   112         13
   113          7
   114          0
   115          2
   116          1
   117          2
   118          1
   119          3
   120          1
   121          7
   122          4
   123         78
   124         61
   125         14
   126          5
   127          3
   128          2
   129          2
   131          2
   132          1
   133          2
   134          1
   135          4
   136          6
   137         60
   138         32
   139          5
   140          2
   141          7
   142          4
   143          1
   145          1
   147          1
   150          6
   151         18
   152         20
   153          4
   165         12
   166         15
   167          3
   168          1
   169          1
   178          3
   179          3
   194         49
   195          8
   196          1