##TITLE=Library Entry 29311
##JCAMP-DX=Revision 4.10 
##DATA TYPE=MASS SPECTRUM
##SAMPLE DESCRIPTION=Patti Price, Georgia Bureau of Investigation, Decatur,
 Georgia
##NAMES=HP
##CAS NAME=Chlorprothixene
##MOLFORM=C18H18ClNS
##CAS REGISTRY NO=113-59-7
##MP= -300
##BP= -300
##MW= 315
##$RETENTION INDEX=2497
##$CONDENSED SPECTRUM=NO
##NPOINTS= 174
##XYDATA=(XY..XY) 1 
    41          4
    42         57
    43         15
    44          5
    45          3
    50          1
    51          3
    56         10
    57         10
    58        999
    59         40
    62          2
    63          8
    69          9
    70          2
    71          2
    73          1
    74          4
    75          8
    76          3
    77          4
    81          1
    82          5
    83          1
    84          4
    85          1
    86          4
    87          7
    88          9
    89          5
    91          1
    93          5
    94          2
    95          2
    98          4
    99          5
   100          2
   101          4
   102          2
   103          2
   104          3
   105          1
   106          1
   108          1
   111         11
   113          5
   114          3
   115          5
   116          5
   117          7
   118          1
   119          1
   120          1
   121          1
   122          1
   123          3
   124          1
   125          4
   126          6
   127          4
   128          2
   129          1
   131          1
   132          2
   133          1
   134          2
   135          1
   137          6
   138          6
   139         12
   140          1
   144          1
   145          4
   146          1
   147          1
   149          7
   150         23
   151         23
   152         14
   153          1
   157          2
   158          3
   160          1
   161          5
   162          8
   163         34
   164         13
   165         11
   166          1
   168          1
   169          7
   170          4
   171          3
   173          2
   174         10
   175         14
   176         49
   177         11
   178          5
   179          1
   181          1
   182          3
   183          2
   184          2
   185          2
   186          6
   187         29
   188         18
   189         62
   190         15
   191          2
   193          4
   194          7
   195         19
   196          6
   197          3
   198          3
   199         17
   200         15
   201         13
   202         35
   203          9
   204          1
   205          1
   206          5
   207          5
   208         15
   209          7
   210          3
   212          4
   214          2
   218          3
   219         42
   220         34
   221        326
   222        139
   223         38
   224          8
   225          3
   229          1
   230          1
   231         20
   232         18
   233         20
   234         55
   235         33
   236         15
   237          4
   238          4
   242          2
   244          8
   245          1
   246          7
   247          2
   248          1
   255         73
   256         19
   257         37
   258         10
   259          5
   260          1
   268          5
   269          9
   270         12
   271         10
   272          5
   273          2
   284          1
   312          1
   313          8
   314          4
   315          8
   316          2
   317          2