##TITLE=Library Entry 109158
##JCAMP-DX=Revision 4.10 
##DATA TYPE=MASS SPECTRUM
##SAMPLE DESCRIPTION=Patti Price, Georgia Bureau of Investigation, Decatur,
 Georgia
##NAMES=HP
##CAS NAME=Ergotamine
##MOLFORM=C33H35N5O5
##CAS REGISTRY NO=113-15-5
##MP= -300
##BP= -300
##MW= 581
##$RETENTION INDEX=2366
##$CONDENSED SPECTRUM=NO
##NPOINTS= 199
##XYDATA=(XY..XY) 1 
    31         26
    36          6
    37          1
    38          8
    39         44
    40         11
    41        119
    42         83
    43        158
    44        466
    45         21
    46          8
    48          7
    49          6
    50         12
    51         42
    52         17
    53         22
    54         17
    55         52
    56         33
    57         11
    58         65
    59         35
    60         33
    61         13
    62         10
    63         40
    64         21
    65        106
    66         18
    67         12
    68        103
    69         98
    70        813
    71        112
    72         18
    73         18
    74         15
    75         19
    76        143
    77        161
    78         50
    79         32
    80          6
    81         21
    82         12
    83         29
    84         21
    86          6
    87         13
    88         26
    89         57
    90         27
    91        640
    92        119
    93         23
    94          6
    95          8
    96         44
    97         35
    98        207
    99         27
   100          8
   101         11
   102         17
   103         84
   104         72
   105         42
   106          7
   107          8
   108          8
   109          8
   110         27
   111         21
   112         10
   115         15
   116         11
   117         22
   118         19
   119         51
   120         67
   121         15
   123         19
   124         39
   125        999
   126        222
   127         51
   128        152
   129         24
   130         11
   131        284
   132         42
   133          9
   135         16
   137         12
   138          9
   139         22
   140         16
   141         23
   142          9
   143          6
   144          4
   145          7
   146         52
   147          9
   148          9
   149         10
   151         36
   152         76
   153        730
   154        187
   155         37
   156          7
   159          3
   160         14
   164         12
   165         17
   166         24
   167         44
   168         20
   169          8
   170          7
   171          4
   172         12
   173         16
   175          6
   176         27
   177         16
   178         50
   179         48
   180         74
   181         62
   182         21
   183         11
   185          3
   186          5
   189          4
   190          5
   191         15
   192         40
   193         20
   194         14
   195         54
   196         49
   197         13
   199          3
   200         65
   201         50
   202         34
   204          5
   205         40
   206         31
   207         88
   208         29
   209         27
   210         10
   211          4
   215         18
   216          5
   219          9
   220         26
   221        111
   222         62
   223         64
   224         38
   225         12
   227          8
   228          5
   229          4
   232          5
   235         11
   240          3
   242          6
   243         65
   244        294
   245         88
   246         13
   247          3
   248          4
   250         16
   266         10
   267        142
   268         71
   269         22
   270          4
   271         36
   272         13
   273          4
   278          2
   286         10
   287          5
   295          9
   296         15
   297          4
   314        130
   315         45
   316          7
   319         17