##TITLE=Library Entry 54079
##JCAMP-DX=Revision 4.10 
##DATA TYPE=MASS SPECTRUM
##SAMPLE DESCRIPTION=NIST Mass Spectrometry Data Center
##NAMES=HP
##CAS NAME=Methylphenidate
##MOLFORM=C14H19NO2
##CAS REGISTRY NO=113-45-1
##MP= -300
##BP= -300
##MW= 233
##$RETENTION INDEX=1744
##$CONDENSED SPECTRUM=NO
##NPOINTS= 101
##XYDATA=(XY..XY) 1 
    15          4
    26          1
    27          7
    28         20
    29          8
    30         14
    31          1
    38          2
    39         18
    40          3
    41         23
    42         19
    43          5
    44          2
    45          1
    50          5
    51         15
    52          5
    53          6
    54         15
    55         55
    56         97
    57          8
    59         10
    60          1
    61          1
    62          3
    63         13
    64          4
    65         25
    67         10
    68          9
    69          2
    70          1
    71          1
    72          1
    74          1
    75          2
    76          3
    77         29
    78          8
    79          8
    80          5
    81          1
    82         21
    83         17
    84        999
    85         61
    86          2
    87          1
    88          1
    89         24
    90         28
    91        128
    92         11
    93          1
    94          1
    96          1
   101          1
   102          7
   103         12
   104          6
   105          8
   106          2
   107          2
   114          1
   115         34
   116         14
   117         29
   118         33
   119          6
   120          1
   121         10
   122          1
   127          3
   128         10
   129         11
   130         20
   131          6
   132          5
   133          1
   135          2
   141          1
   142          1
   143          3
   144          9
   145          2
   146          2
   149          1
   150         24
   151          2
   155          1
   156          1
   157          1
   158          1
   170          1
   172          9
   173          3
   174          4
   231          1
   232          1