##TITLE=Library Entry 29264
##JCAMP-DX=Revision 4.10 
##DATA TYPE=MASS SPECTRUM
##SAMPLE DESCRIPTION=Drug Lab
##NAMES=HP
##CAS NAME=Dothiepin
##MOLFORM=C19H21NS
##CAS REGISTRY NO=113-53-1
##MP= -300
##BP= -300
##MW= 295
##$RETENTION INDEX=2418
##$CONDENSED SPECTRUM=NO
##NPOINTS= 87
##XYDATA=(XY..XY) 1 
    42         89
    43         24
    44          8
    45          5
    51          6
    56         20
    58        999
    59         42
    63         18
    65         10
    69         12
    70          7
    71         11
    74          5
    75         11
    76          8
    77         22
    78          5
    82          7
    84          5
    87          7
    88          7
    89         22
    91         14
   101         14
   102         12
   103          9
   111          6
   113          7
   114          5
   115         44
   116          7
   117          5
   121          7
   126         10
   127         13
   128         21
   134          6
   139         23
   147          8
   150         14
   151         21
   152         31
   153          6
   163         25
   164         17
   165         47
   166          7
   171         10
   175          6
   176         31
   177         10
   178         43
   179         10
   184          9
   187         11
   188         10
   189         56
   190         15
   191         13
   195          6
   197          6
   200         23
   201         28
   202        171
   203        165
   204        107
   205         18
   208         24
   209         12
   210          7
   213          5
   215         20
   216          6
   217          6
   219          6
   220          5
   221        142
   222         44
   223         16
   232         10
   233          8
   234         49
   235         29
   236          9
   237          7
   295          6