##TITLE=Library Entry 93741
##JCAMP-DX=Revision 4.10 
##DATA TYPE=MASS SPECTRUM
##SAMPLE DESCRIPTION=NIST Mass Spectrometry Data Center
##NAMES=HP
##CAS NAME=Ethchlorvynol
##MOLFORM=C7H9ClO
##CAS REGISTRY NO=113-18-8
##MP= -300
##BP= -300
##MW= 144
##$RETENTION INDEX=1013
##$CONDENSED SPECTRUM=NO
##NPOINTS= 92
##XYDATA=(XY..XY) 1 
    15          1
    25          3
    26         18
    27         44
    28          7
    29         43
    30          1
    31          4
    35          1
    36          2
    37          8
    38         13
    39         53
    40          7
    41         14
    42          5
    43         47
    44          2
    45          1
    47          2
    48          3
    49         13
    50         49
    51        160
    52         27
    53        294
    54         19
    55         36
    56          2
    57         20
    58          1
    59          1
    60          7
    61         59
    62         38
    63         66
    64          8
    65         68
    66          9
    67         12
    68          2
    69          2
    72          2
    73         14
    74          8
    75         13
    76          3
    77         22
    78          4
    79         43
    80          5
    81         27
    82          3
    83         15
    84          2
    85          3
    86          8
    87         26
    88          4
    89        154
    90          7
    91         94
    92          6
    93          5
    94         12
    95          2
    96          1
    97          4
    98          2
    99          5
   100          1
   101          3
   102          2
   103          1
   104          1
   107          9
   109        183
   110         14
   111          2
   112          2
   113          2
   115        999
   116         60
   117        332
   118         19
   119          2
   125          2
   127          4
   128          1
   129          8
   130          1
   131          2