##TITLE=Library Entry 58123
##JCAMP-DX=Revision 4.10 
##DATA TYPE=MASS SPECTRUM
##SAMPLE DESCRIPTION=H. Luftmann, Org. Chem. Inst., Westfalisch Wilhelms Uni
v., Munster, Germany
##NAMES=HP
##CAS NAME=Hexanoic acid, 4-bromo-6,6,6-trichloro-, ethyl ester
##MOLFORM=C8H12BrCl3O2
##CAS REGISTRY NO=113002-77-0
##MP= -300
##BP= -300
##MW= 324
##$RETENTION INDEX=0
##$CONDENSED SPECTRUM=NO
##NPOINTS= 91
##XYDATA=(XY..XY) 1 
    36        120
    38         60
    39        120
    40         20
    41        140
    42        100
    43        100
    44         20
    45         80
    49         10
    50         10
    51         30
    53         30
    54         20
    55        100
    56         20
    57         20
    60        140
    61         80
    63         10
    65         60
    66         10
    68         30
    69         20
    70         80
    71         10
    73         30
    75        100
    76         10
    77         30
    80         10
    81         20
    82         20
    83         30
    85         40
    87         20
    88        999
    89         10
    96         20
    99        130
   100         20
   101         70
   102         10
   103         40
   105         10
   108         10
   109         50
   111         20
   117         20
   119         20
   121         20
   122         30
   123         30
   124         20
   127         10
   135        260
   136         20
   137        170
   138         20
   139         50
   141         10
   145         20
   147         10
   157         10
   163         40
   165         30
   167         20
   169         10
   179         20
   181        180
   182         20
   183        110
   185         20
   199         90
   201         90
   203         30
   205         10
   207         70
   209        150
   210         20
   211         60
   213         10
   217         20
   219         20
   245         30
   247         30
   249         10
   279         20
   281         40
   283         20
   285         10