##TITLE=Library Entry 85450
##JCAMP-DX=Revision 4.10 
##DATA TYPE=MASS SPECTRUM
##SAMPLE DESCRIPTION=Chemical Concepts
##NAMES=HP
##CAS NAME=9-Borabicyclo[3.3.1]nonane, 9-(phenylthio)-
##MOLFORM=C14H19BS
##CAS REGISTRY NO=113034-93-8
##MP= -300
##BP= -300
##MW= 230
##$RETENTION INDEX=0
##$CONDENSED SPECTRUM=NO
##NPOINTS= 143
##XYDATA=(XY..XY) 1 
    26         12
    27         85
    28         15
    29         61
    36          8
    37         37
    38         20
    39        161
    40         39
    41        233
    42         20
    43         17
    45         16
    49          5
    50         60
    51        177
    52         39
    53        104
    54         40
    55         71
    56          8
    57          6
    58          8
    59          9
    61         11
    62          9
    63         34
    64         36
    65        148
    66         67
    67        178
    68         41
    69        107
    70         12
    71         16
    74          8
    75         11
    76         40
    77        404
    78        172
    79        230
    80        165
    81         51
    82         22
    83         12
    84         12
    85          6
    86          5
    87         14
    88         12
    89         43
    90         44
    91        174
    92        149
    93        246
    94         28
    95         38
    96          8
    97          7
   101          7
   102         12
   103         16
   104         43
   105         41
   106         10
   107         12
   108        999
   109        105
   110        484
   111         69
   112         27
   113         14
   114          8
   115         37
   116         14
   117         42
   118         67
   119         73
   120        230
   121        233
   122         57
   123         14
   124         15
   125          7
   126         22
   127         18
   128         14
   129         13
   130         17
   131         25
   132         61
   133         62
   134         54
   135         52
   136         12
   137          5
   138          4
   139          9
   140          7
   143          8
   144         24
   145         72
   146         36
   147         58
   148         18
   149          3
   151          8
   152         22
   153          7
   154          9
   155          5
   157          4
   158         11
   159         28
   160         24
   161         24
   162         13
   163          6
   167          6
   168         12
   172          4
   173         16
   174         22
   175          6
   176          2
   185          5
   186          7
   187         26
   188         58
   189         58
   190          7
   195          5
   196         19
   200         10
   201         42
   202         14
   215          6
   217          0
   229        145
   230        645
   231        104
   232         39
   233          6