##TITLE=Library Entry 5725
##JCAMP-DX=Revision 4.10 
##DATA TYPE=MASS SPECTRUM
##SAMPLE DESCRIPTION=Chemical Concepts
##NAMES=HP
##CAS NAME=9-Borabicyclo[3.3.1]nonane, 9-[(1-methylethyl)thio]-
##MOLFORM=C11H21BS
##CAS REGISTRY NO=113055-83-7
##MP= -300
##BP= -300
##MW= 196
##$RETENTION INDEX=0
##$CONDENSED SPECTRUM=NO
##NPOINTS= 145
##XYDATA=(XY..XY) 1 
    24          1
    25          3
    26         48
    27        575
    28         32
    29        114
    30          2
    31          2
    33         17
    34          6
    35         32
    36         11
    37         42
    38         34
    39        476
    40         71
    41        863
    42         91
    43        999
    44         34
    45         52
    46          4
    47         14
    48          1
    49          5
    50         28
    51         61
    52         34
    53        120
    54         78
    55        194
    56         32
    57         20
    58         44
    59         87
    60         16
    61         79
    62          8
    63         22
    64         21
    65         73
    66         41
    67        295
    68         85
    69         83
    70         32
    71         80
    72          8
    73         10
    74          5
    75          8
    76        164
    77        118
    78         52
    79        119
    80         83
    81         95
    82         81
    83         47
    84         40
    85         68
    86         10
    87          7
    88          5
    89         19
    90         31
    91        119
    92        120
    93         66
    94         16
    95        111
    96         48
    97         47
    98         44
    99         25
   100         12
   101          3
   102          1
   103          3
   104          6
   105         32
   106         10
   107         17
   108         57
   109         31
   110         61
   111        175
   112         96
   113         97
   114         11
   115          6
   116          4
   117         10
   118         31
   119        112
   120        239
   121         52
   122          6
   123          5
   124         18
   125         51
   126         51
   127         13
   128          8
   129          1
   132          1
   133          2
   134          1
   135          1
   136          0
   137          2
   138          3
   139         11
   140          5
   141          2
   142          2
   146          1
   147          2
   148          2
   149          2
   150          1
   151          7
   152         97
   153        304
   154        184
   155         37
   156          9
   157          1
   160          1
   161          1
   162          3
   163          1
   166          1
   167          6
   168          6
   169          0
   175          1
   181          2
   189          1
   194          0
   195         39
   196        180
   197         20
   198          6
   199          2