##TITLE=Library Entry 8581
##JCAMP-DX=Revision 4.10 
##DATA TYPE=MASS SPECTRUM
##SAMPLE DESCRIPTION=RH-16
##NAMES=HP
##CAS NAME=Acetamide, N-(4-methylbicyclo[2.2.2]oct-1-yl)-
##MOLFORM=C11H19NO
##CAS REGISTRY NO=1130-36-5
##MP= -300
##BP= -300
##MW= 181
##$RETENTION INDEX=0
##$CONDENSED SPECTRUM=NO
##NPOINTS= 88
##XYDATA=(XY..XY) 1 
    25          3
    26         42
    27        218
    28        178
    29        126
    30         62
    31          4
    32          4
    37          8
    38         20
    39        237
    40         65
    41        359
    42        222
    43        999
    44         70
    45          5
    50         27
    51         59
    52         40
    53        121
    54        130
    55        138
    56         54
    57         27
    58          4
    59         11
    60         53
    61          3
    62          7
    63         18
    64          7
    65         47
    66         24
    67         92
    68         51
    69        598
    70         99
    71         14
    74          3
    75          6
    76          6
    77         88
    78         25
    79        107
    80         47
    81         64
    82         74
    83         42
    84         10
    85          3
    86          2
    87          3
    91         65
    92         16
    93         94
    94        137
    95         37
    96        137
    97         15
    98         25
    99          4
   105         16
   106         14
   107         35
   108         35
   109         31
   110        150
   111        565
   112         68
   113          8
   121          7
   122         79
   123         16
   124         25
   125          4
   138        101
   139         32
   140          7
   151         13
   152        215
   153         25
   154          1
   166         16
   167          7
   181        295
   182         49
   183          3