##TITLE=Library Entry 92957
##JCAMP-DX=Revision 4.10 
##DATA TYPE=MASS SPECTRUM
##SAMPLE DESCRIPTION=Chemical Concepts
##NAMES=HP
##CAS NAME=Cyclohexanecarboxylic acid, 2-hydroxy-1,6-dimethyl-, methyl ester
, [1R-(1.alpha.,2.alpha.,6.beta.)]-
##MOLFORM=C10H18O3
##CAS REGISTRY NO=113139-59-6
##MP= -300
##BP= -300
##MW= 186
##$RETENTION INDEX=0
##$CONDENSED SPECTRUM=NO
##NPOINTS= 107
##XYDATA=(XY..XY) 1 
    25         10
    27        122
    28          2
    29        120
    30          9
    31         52
    33          9
    38          7
    39        146
    40         25
    41        255
    42         37
    43        138
    44         64
    45         45
    50          9
    51         25
    52         13
    53         91
    54         28
    55        333
    56         41
    57         84
    58          9
    59         10
    60        171
    61          8
    62          8
    63          4
    64          9
    65          2
    66         22
    67         12
    68         88
    69         24
    70         63
    71         49
    72         35
    73          6
    74         21
    75         11
    76          3
    77         26
    78          7
    79         28
    80          8
    81         53
    82         65
    83        347
    84         56
    85         58
    86          5
    87         36
    88         75
    89          6
    90          3
    91         20
    92          5
    93         37
    94         10
    95         35
    96         11
    97         35
    98         71
    99         20
   100          5
   101         28
   102          4
   105          6
   107         16
   108         66
   109        243
   110         29
   111         73
   112         17
   113          9
   114         44
   115        999
   116         74
   117         13
   121          7
   123          4
   125         28
   126        163
   127         89
   128         10
   129         15
   130          2
   136         26
   137          5
   139         50
   140         10
   141          5
   143         12
   149          7
   153         11
   154        212
   155         35
   156          5
   158         69
   159          7
   168         59
   169          7
   171         20
   172          3
   186         55
   187          6