##TITLE=Library Entry 68767
##JCAMP-DX=Revision 4.10 
##DATA TYPE=MASS SPECTRUM
##SAMPLE DESCRIPTION=Chemical Concepts
##NAMES=HP
##CAS NAME=4H-1,3-Benzodioxin-4-one, 5-butyl-2-(1,1-dimethylethyl)hexahydro-
4a-methyl-, [2s-(2.alpha.,4a.beta.,5.beta.,8a.beta.)]-
##MOLFORM=C17H30O3
##CAS REGISTRY NO=113122-00-2
##MP= -300
##BP= -300
##MW= 282
##$RETENTION INDEX=0
##$CONDENSED SPECTRUM=NO
##NPOINTS= 50
##XYDATA=(XY..XY) 1 
    27         67
    28         24
    29        151
    39         63
    40          7
    41        280
    42         23
    43        143
    45         14
    53         60
    54         22
    55        250
    56         21
    57        165
    65         10
    66         14
    67        212
    68         92
    69        100
    70         10
    71         69
    77         31
    79         87
    80         29
    81        218
    82         71
    83         49
    85         13
    91         22
    93         52
    94         54
    95        999
    96        612
    97         63
   107         10
   108         14
   109        244
   110        162
   111         38
   123         61
   124          9
   125         21
   137         10
   151        458
   152        662
   153         76
   169          8
   196          6
   197         19
   225         44