##TITLE=Library Entry 69488
##JCAMP-DX=Revision 4.10 
##DATA TYPE=MASS SPECTRUM
##SAMPLE DESCRIPTION=Chemical Concepts
##NAMES=HP
##CAS NAME=4H-1,3-Benzodioxin-4-one, 2-(1,1-dimethylethyl)hexahydro-5-methyl
-, [2s-(2.alpha.,5.alpha.,6.beta.,8a.beta.)]-
##MOLFORM=C13H22O3
##CAS REGISTRY NO=113121-91-8
##MP= -300
##BP= -300
##MW= 226
##$RETENTION INDEX=0
##$CONDENSED SPECTRUM=NO
##NPOINTS= 64
##XYDATA=(XY..XY) 1 
    26          3
    27         96
    28         15
    29        138
    30          2
    31          9
    38          3
    39        109
    40         23
    41        287
    42         36
    43         71
    44          5
    45         20
    51          8
    52          5
    53         61
    54         51
    55        140
    56         17
    57        146
    58          6
    59          2
    65         11
    66         13
    67        131
    68        138
    69         86
    70         15
    71         24
    72          2
    77         16
    78          4
    79         34
    80         17
    81        495
    82         36
    83          8
    84          3
    85          4
    86          7
    87         86
    88          4
    91          5
    93         13
    94         17
    95        329
    96        999
    97         89
    98          6
   111          3
   112          7
   113          9
   122          4
   123        961
   124         90
   125         11
   139          3
   140          8
   141          4
   149          5
   169        198
   170         20
   226          2