##TITLE=Library Entry 58826
##JCAMP-DX=Revision 4.10 
##DATA TYPE=MASS SPECTRUM
##SAMPLE DESCRIPTION=N.A. Rodios, Lab. Org. Chem., Univ. Thessaloniki, Thess
aloniki, Greece
##NAMES=HP
##CAS NAME=1H-1,2,3-Triazol-1-amine, 4-(4-methylphenyl)-N-(phenylmethylene)-
##MOLFORM=C16H14N4
##CAS REGISTRY NO=113261-43-1
##MP= -300
##BP= -300
##MW= 262
##$RETENTION INDEX=0
##$CONDENSED SPECTRUM=NO
##NPOINTS= 19
##XYDATA=(XY..XY) 1 
    76         60
    77        100
    89        300
    90        999
    91        140
   103         80
   104         50
   105         30
   115        340
   116        300
   117         50
   118        230
   130         40
   131         30
   191         20
   206         30
   207        160
   234         46
   262         26