##TITLE=Library Entry 50782
##JCAMP-DX=Revision 4.10 
##DATA TYPE=MASS SPECTRUM
##SAMPLE DESCRIPTION=Chemical Concepts
##NAMES=HP
##CAS NAME=3-Bromo-2,6-dimethyl-8-phenylthiooct-6-en-2-ol
##MOLFORM=C16H23BrOS
##CAS REGISTRY NO=113219-35-5
##MP= -300
##BP= -300
##MW= 342
##$RETENTION INDEX=0
##$CONDENSED SPECTRUM=NO
##NPOINTS= 237
##XYDATA=(XY..XY) 1 
    26          0
    27         33
    28          4
    29         37
    30          0
    31         33
    37          0
    38          2
    39         71
    40         14
    41        162
    42         13
    43        245
    44          8
    45         26
    46          0
    47          2
    50          7
    51         24
    52          5
    53         65
    54          7
    58          8
    59        212
    60          9
    61          2
    62          1
    63          6
    64          2
    65         98
    66         33
    67        116
    68         92
    69         97
    70         11
    71        113
    72         10
    73          5
    74          5
    75          3
    76          3
    77         51
    78          9
    79        101
    80         30
    81        999
    82         92
    83         30
    84         15
    85         17
    86          2
    87          4
    88          0
    89          1
    91         37
    92         10
    93        222
    94         30
    95         72
    96          8
    97         10
    98          3
    99         14
   100          4
   101          2
   102          1
   103          1
   104          4
   105         13
   106          2
   107         76
   108         25
   109        189
   110        285
   111         34
   112         13
   113          3
   115          5
   116          2
   117          3
   118          0
   119         21
   120          4
   121         17
   122          4
   123         36
   124          5
   125          6
   126         10
   127          3
   128          6
   129          9
   130          3
   131          2
   132          1
   133          5
   134          7
   135        600
   136         82
   137         31
   138          4
   139          4
   140          1
   141          3
   142          1
   143          4
   144          4
   145          2
   146          0
   147         11
   148          2
   149        109
   150          9
   151          7
   152         46
   153         51
   154          6
   155          5
   156          1
   157          1
   158          0
   159         36
   160          3
   161         36
   162          6
   163          6
   164          3
   165          2
   166          0
   167          1
   168          1
   169          1
   170          1
   171          1
   172          0
   173          5
   174          5
   175         22
   176          7
   177         21
   178          4
   179          2
   180          1
   181          0
   182          0
   183          0
   184          0
   185          1
   186          0
   187          0
   188          2
   189          2
   190          2
   191          1
   192          0
   193          0
   194          0
   195          0
   196          0
   197          0
   199          8
   200          1
   201          8
   202          0
   203          0
   204          0
   205         18
   206          3
   207          3
   208          0
   209          0
   210          1
   211          0
   212          0
   213          0
   214          6
   215         55
   216         11
   217         68
   218          7
   219         13
   220          4
   221          1
   222          0
   223          5
   224          1
   225          0
   226          0
   227          0
   228          0
   229          0
   230          2
   231          3
   232         52
   233         60
   234         54
   235         54
   236          6
   237          0
   238          0
   239          0
   241          0
   242          0
   243          1
   244          1
   245         19
   246          4
   247          1
   254          2
   260          2
   261          0
   262          4
   263          6
   264          1
   265          0
   266          0
   267          0
   270          0
   278          1
   279          1
   281          0
   282          0
   283          0
   284          1
   285          0
   286          1
   325          0
   326          0
   327          0
   330          0
   340          2
   341          1
   342        103
   343         18
   344        107
   345         16
   346          4