##TITLE=Library Entry 77023
##JCAMP-DX=Revision 4.10 
##DATA TYPE=MASS SPECTRUM
##SAMPLE DESCRIPTION=N.A. Rodios, Lab. Org. Chem., Univ. Thessaloniki, Thess
aloniki, Greece
##NAMES=HP
##CAS NAME=1H-1,2,3-Triazol-1-amine, 4,5-dimethyl-N-[(4-methylphenyl)methyle
ne]-
##MOLFORM=C12H14N4
##CAS REGISTRY NO=113261-26-0
##MP= -300
##BP= -300
##MW= 214
##$RETENTION INDEX=0
##$CONDENSED SPECTRUM=NO
##NPOINTS= 17
##XYDATA=(XY..XY) 1 
    41        170
    54         40
    68        270
    77        180
    91        440
   103        290
   104        999
   105        100
   116         20
   117         20
   118        220
   132        280
   144         20
   145         20
   171          3
   186          2
   214         33