##TITLE=Library Entry 107917
##JCAMP-DX=Revision 4.10 
##DATA TYPE=MASS SPECTRUM
##SAMPLE DESCRIPTION=N.A. Rodios, Lab. Org. Chem., Univ. Thessaloniki, Thess
aloniki, Greece
##NAMES=HP
##CAS NAME=1H-1,2,3-Triazol-1-amine, N-[(4-chlorophenyl)methylene]-4,5-dimet
hyl-
##MOLFORM=C11H11ClN4
##CAS REGISTRY NO=113261-29-3
##MP= -300
##BP= -300
##MW= 234
##$RETENTION INDEX=0
##$CONDENSED SPECTRUM=NO
##NPOINTS= 25
##XYDATA=(XY..XY) 1 
    41         60
    54        270
    68        650
    75        300
    89        560
   111        330
   113        110
   124        999
   126        330
   137         50
   138        320
   140        100
   152        410
   154        130
   164         20
   165         40
   167         13
   191         10
   193          3
   206          9
   208          3
   234        190
   235         26
   236         60
   237         20