##TITLE=Library Entry 58789
##JCAMP-DX=Revision 4.10 
##DATA TYPE=MASS SPECTRUM
##SAMPLE DESCRIPTION=N.A. Rodios, Lab. Org. Chem., Univ. Thessaloniki, Thess
aloniki, Greece
##NAMES=HP
##CAS NAME=1H-1,2,3-Triazol-1-amine, 4,5-dimethyl-N-(phenylmethylene)-
##MOLFORM=C11H12N4
##CAS REGISTRY NO=113261-25-9
##MP= -300
##BP= -300
##MW= 200
##$RETENTION INDEX=0
##$CONDENSED SPECTRUM=NO
##NPOINTS= 15
##XYDATA=(XY..XY) 1 
    41         75
    54         30
    68        180
    77        430
    89        250
    90        999
   103         15
   104        230
   118        350
   130         25
   131         43
   172          4
   185         10
   200         74
   201         10