##TITLE=Library Entry 72831
##JCAMP-DX=Revision 4.10 
##DATA TYPE=MASS SPECTRUM
##SAMPLE DESCRIPTION=Japan AIST/NIMC Database- Spectrum MS-NW-3256
##NAMES=HP
##CAS NAME=MOPS
##MOLFORM=C7H15NO4S
##CAS REGISTRY NO=1132-61-2
##MP= -300
##BP= -300
##MW= 209
##$RETENTION INDEX=0
##$CONDENSED SPECTRUM=NO
##NPOINTS= 96
##XYDATA=(XY..XY) 1 
    14          2
    15         21
    16          1
    17          3
    18         10
    25          1
    26         13
    27         46
    28         79
    29         36
    30         37
    31         13
    32          4
    33          2
    34          4
    36          5
    37          1
    38          3
    39         30
    40          9
    41        107
    42        172
    43         78
    44         20
    45          8
    48         20
    50          2
    51          2
    52          4
    53          4
    54         19
    55         25
    56        147
    57         54
    58         14
    59          4
    60          3
    64         60
    65          5
    66          4
    67          7
    68         24
    69         24
    70         75
    71         14
    72         22
    73          4
    74          1
    77          1
    78          1
    79          3
    80          5
    81          3
    82          7
    83          4
    84         16
    85          7
    86         78
    87         18
    88          1
    93          1
    94          3
    95          2
    96          5
    97          5
    98         49
    99          7
   100        999
   101         61
   102          3
   105          1
   106          2
   107          2
   108          1
   109          1
   111          1
   112          5
   113          6
   114          4
   121          1
   122          2
   123          4
   124          1
   125          2
   126          8
   127         11
   128         14
   129         99
   130          8
   151          2
   152          2
   164          3
   178          1
   208          3
   209          5
   210          1