##TITLE=Library Entry 58833
##JCAMP-DX=Revision 4.10 
##DATA TYPE=MASS SPECTRUM
##SAMPLE DESCRIPTION=N.A. Rodios, Lab. Org. Chem., Univ. Thessaloniki, Thess
aloniki, Greece
##NAMES=HP
##CAS NAME=1H-1,2,3-Triazol-1-amine, 5-methyl-4-phenyl-N-(phenylmethylene)-
##MOLFORM=C16H14N4
##CAS REGISTRY NO=113261-35-1
##MP= -300
##BP= -300
##MW= 262
##$RETENTION INDEX=0
##$CONDENSED SPECTRUM=NO
##NPOINTS= 19
##XYDATA=(XY..XY) 1 
    41         60
    77        150
    90        999
    91        200
   103         60
   104        110
   115        160
   116         70
   118        680
   119         80
   130        530
   131        100
   165         30
   191         40
   192         30
   193        470
   234          9
   262         63
   263         12