##TITLE=Library Entry 58512
##JCAMP-DX=Revision 4.10 
##DATA TYPE=MASS SPECTRUM
##SAMPLE DESCRIPTION=N.A. Rodios, Lab. Org. Chem., Univ. Thessaloniki, Thess
aloniki, Greece
##NAMES=HP
##CAS NAME=1H-1,2,3-Triazol-1-amine, N-[(4-nitrophenyl)methylene]-4-phenyl-
##MOLFORM=C15H11N5O2
##CAS REGISTRY NO=113261-41-9
##MP= -300
##BP= -300
##MW= 293
##$RETENTION INDEX=0
##$CONDENSED SPECTRUM=NO
##NPOINTS= 30
##XYDATA=(XY..XY) 1 
    75        320
    76        340
    77        170
    89        999
    90        170
    91        100
   102        890
   103        120
   104         50
   105        120
   115         40
   116        140
   117         70
   118         40
   120         40
   133         30
   134         40
   135        670
   136         80
   148         40
   149        240
   150         40
   163        660
   164         70
   165        100
   237         10
   238        240
   239         50
   265         60
   293         40