##TITLE=Library Entry 58807
##JCAMP-DX=Revision 4.10 
##DATA TYPE=MASS SPECTRUM
##SAMPLE DESCRIPTION=N.A. Rodios, Lab. Org. Chem., Univ. Thessaloniki, Thess
aloniki, Greece
##NAMES=HP
##CAS NAME=1H-1,2,3-Triazol-1-amine, 4-phenyl-N-(phenylmethylene)-
##MOLFORM=C15H12N4
##CAS REGISTRY NO=113261-37-3
##MP= -300
##BP= -300
##MW= 248
##$RETENTION INDEX=0
##$CONDENSED SPECTRUM=NO
##NPOINTS= 16
##XYDATA=(XY..XY) 1 
    76         80
    77         70
    89        360
    90        999
    91         80
   102        100
   103         16
   115         13
   116         55
   117         15
   118        360
   119         30
   191         20
   193         84
   220          6
   248         20