##TITLE=Library Entry 67503
##JCAMP-DX=Revision 4.10 
##DATA TYPE=MASS SPECTRUM
##SAMPLE DESCRIPTION=Exported from NIST MS Search
##NAMES=HP
##CAS NAME=Benzene, (hexyloxy)-
##MOLFORM=C12H18O
##CAS REGISTRY NO=1132-66-7
##MP= -300
##BP= -300
##MW= 178
##$RETENTION INDEX=0
##$CONDENSED SPECTRUM=NO
##NPOINTS= 79
##XYDATA=(XY..XY) 1 
    16          1
    17          1
    18          1
    26          1
    27         27
    28          7
    29         33
    30          1
    31          1
    32          1
    37          2
    38          3
    39         36
    40          2
    41        149
    42         14
    43        136
    44         16
    45          1
    50          5
    51         23
    52          2
    53          5
    54          2
    55         44
    56         15
    57         15
    58          1
    61          1
    62          1
    63          5
    64          2
    65         33
    66         20
    67          3
    68          1
    69         15
    70          1
    72          1
    73          1
    74          1
    75          1
    76          3
    77         64
    78          6
    79          9
    80          1
    81          1
    82          1
    83          3
    84          6
    85          7
    86          1
    87          1
    89          1
    91          3
    92          1
    93          4
    94        999
    95         74
    96          4
    97          1
   100          1
   101          1
   103          1
   104          1
   106         20
   107          2
   108          1
   113          1
   114          1
   118          1
   119          1
   120          1
   132          1
   134          1
   178        171
   179         23
   180          2