##TITLE=Library Entry 27146
##JCAMP-DX=Revision 4.10 
##DATA TYPE=MASS SPECTRUM
##SAMPLE DESCRIPTION=ASES Database, Dalian Institute, P.R. China
##NAMES=HP
##CAS NAME=(Z)-1-Bromo-2-tert-butoxyethene
##MOLFORM=C6H11BrO
##CAS REGISTRY NO=113279-39-3
##MP= -300
##BP= -300
##MW= 178
##$RETENTION INDEX=0
##$CONDENSED SPECTRUM=NO
##NPOINTS= 13
##XYDATA=(XY..XY) 1 
    41        468
    57        999
    93        343
    95        340
    99        249
   105        119
   107        119
   122        332
   124        331
   163        300
   165        300
   178        644
   180        641