##TITLE=Library Entry 12313
##JCAMP-DX=Revision 4.10 
##DATA TYPE=MASS SPECTRUM
##SAMPLE DESCRIPTION=Chemical Concepts
##NAMES=HP
##CAS NAME=Acetamide, N-[2-(1,1-dimethylethyl)-6-methyl-4-oxo-4H-1,3-dioxin-
5-yl]-, (R)-
##MOLFORM=C11H17NO4
##CAS REGISTRY NO=113304-33-9
##MP= -300
##BP= -300
##MW= 227
##$RETENTION INDEX=0
##$CONDENSED SPECTRUM=NO
##NPOINTS= 74
##XYDATA=(XY..XY) 1 
    27          6
    28         25
    29         27
    30         15
    39          4
    41         58
    42         19
    43        999
    44         30
    45         21
    46         11
    53          2
    54         10
    55         31
    56         26
    57        144
    58          9
    59          6
    60          8
    69         46
    70         26
    71        518
    72        141
    73         17
    74          9
    81          2
    82          3
    83          4
    84         10
    85          9
    86         10
    87         82
    88         13
    95          8
    96          3
    97          6
    98         40
    99        815
   100        103
   101          7
   102         12
   110          7
   111          2
   112          6
   113        172
   114         27
   115          8
   116          5
   117          3
   123        791
   124         72
   125          7
   126         10
   127          5
   128          3
   129          9
   130          8
   140          2
   141        980
   142        150
   143         14
   144          8
   155          7
   156          3
   157          3
   167          2
   169          3
   172          5
   185         25
   186          3
   210          8
   227         63
   228         27
   229          3