##TITLE=Library Entry 62453
##JCAMP-DX=Revision 4.10 
##DATA TYPE=MASS SPECTRUM
##SAMPLE DESCRIPTION=A. Brossi, LC, NIDDK, NIH, Bethesda, MD 20892
##NAMES=HP
##CAS NAME=Benzeneethanamine, 4-hydroxy-3-methoxy-N-[3-benzyloxy-4-methoxybe
nzoyl]
##MOLFORM=C24H25NO5
##CAS REGISTRY NO=113332-61-9
##MP= -300
##BP= -300
##MW= 407
##$RETENTION INDEX=0
##$CONDENSED SPECTRUM=NO
##NPOINTS= 79
##XYDATA=(XY..XY) 1 
    41        103
    43        442
    44        170
    45        188
    46        130
    50         11
    51         23
    55        163
    57         15
    58         13
    59         10
    60         10
    65         76
    70         22
    73         10
    77         21
    78         12
    79         32
    81         51
    84         13
    91        999
    92        106
    95          9
    96         11
    97         78
    98         12
   106         25
   110         35
   111          9
   114         11
   115         14
   119         11
   122         50
   124         79
   136         12
   137         96
   138         75
   145          9
   150        767
   151        129
   152         45
   156          9
   162         12
   164         83
   165         21
   170          9
   178         46
   180         10
   192          9
   194         11
   200         26
   206         47
   207         33
   208        349
   209         20
   214         12
   222         47
   235         10
   239         10
   240         10
   241        107
   249         52
   250        101
   251         35
   252         19
   258        120
   259         14
   266         11
   267         14
   279          9
   281         53
   286        139
   289         11
   360         12
   378          9
   392         10
   406          9
   407         49
   408         11