##TITLE=Library Entry 100614
##JCAMP-DX=Revision 4.10 
##DATA TYPE=MASS SPECTRUM
##SAMPLE DESCRIPTION=H-M. VORBRODT,INST. BIOCHEM.,ACAD. WISS. PFLANZ.,HALLE,
W. GER.
##NAMES=HP
##CAS NAME=2,4:5,6-Di-O-isopropylidene-d-glucose-1-(trimethylenedithioacetal
)
##MOLFORM=C15H26O5S2
##CAS REGISTRY NO=113340-05-9
##MP= -300
##BP= -300
##MW= 350
##$RETENTION INDEX=0
##$CONDENSED SPECTRUM=NO
##NPOINTS= 14
##XYDATA=(XY..XY) 1 
   101        430
   115        220
   119        999
   145        100
   149         90
   161        380
   173        540
   200         80
   220         50
   232        110
   277         50
   332         20
   335         20
   350         20