##TITLE=Library Entry 6298
##JCAMP-DX=Revision 4.10 
##DATA TYPE=MASS SPECTRUM
##SAMPLE DESCRIPTION=G.N. Gordeeva, Ufa Petroleum Inst., Ufa, USSR
##NAMES=HP
##CAS NAME=2-Propanone, 1,1,3,3-tetrapropoxy-
##MOLFORM=C15H30O5
##CAS REGISTRY NO=113358-60-4
##MP= -300
##BP= -300
##MW= 290
##$RETENTION INDEX=0
##$CONDENSED SPECTRUM=NO
##NPOINTS= 21
##XYDATA=(XY..XY) 1 
    41        418
    42         49
    43        999
    44        190
    47         38
    57          6
    58          8
    59          6
    71          2
    73          2
    75          3
    76          3
    89        257
    90          7
   100          3
   117         20
   118          4
   131        124
   132          6
   159          5
   160          2