##TITLE=Library Entry 87816
##JCAMP-DX=Revision 4.10 
##DATA TYPE=MASS SPECTRUM
##SAMPLE DESCRIPTION=Chemical Concepts
##NAMES=HP
##CAS NAME=Methanone, cyclopropyl-3-thienyl-
##MOLFORM=C8H8OS
##CAS REGISTRY NO=113348-25-7
##MP= -300
##BP= -300
##MW= 152
##$RETENTION INDEX=0
##$CONDENSED SPECTRUM=NO
##NPOINTS= 74
##XYDATA=(XY..XY) 1 
    26          4
    27          9
    29          1
    33          0
    34          1
    36          0
    37          7
    38         19
    39        256
    40         17
    41         59
    42          4
    44          3
    45         39
    47          1
    49          3
    50         10
    51          9
    52          2
    53         13
    55          4
    57         27
    58         14
    59          2
    60          2
    61          4
    62          4
    63          7
    65          5
    66          2
    67          3
    68          8
    69         44
    70          5
    71          2
    74          2
    75          2
    77          7
    78          4
    79          7
    81         13
    82         16
    83         80
    84         12
    85          5
    89          2
    91         13
    93          2
    95          4
    96          7
    97         18
    98          2
   107          5
   108          2
   109          4
   110          2
   111        999
   112         60
   113         41
   114          2
   119         10
   121         10
   122         11
   123         26
   124          4
   125          1
   133          7
   134          2
   135          6
   137          3
   151         75
   152        234
   153         23
   154          9