##TITLE=Library Entry 81876
##JCAMP-DX=Revision 4.10 
##DATA TYPE=MASS SPECTRUM
##SAMPLE DESCRIPTION=Chemical Concepts
##NAMES=HP
##CAS NAME=1-Benzoyl-2-t-butyl-5-methoxy-3-methylimidazolidin-4-one
##MOLFORM=C16H22N2O3
##CAS REGISTRY NO=113304-20-4
##MP= -300
##BP= -300
##MW= 290
##$RETENTION INDEX=0
##$CONDENSED SPECTRUM=NO
##NPOINTS= 114
##XYDATA=(XY..XY) 1 
    26          0
    27          8
    28          5
    29         24
    30          3
    31          0
    33          1
    38          0
    39         10
    40          1
    41         38
    42        102
    43          6
    44          3
    45          2
    49          1
    50          8
    51         37
    52          2
    53          2
    54          1
    55          5
    56          3
    57         23
    58          3
    59          0
    60         27
    61          0
    62          0
    63          0
    64          0
    65          0
    66          0
    67          0
    68          1
    69          7
    70          2
    71          2
    72          1
    73          1
    74          1
    75          2
    76         11
    77        281
    78         18
    79          1
    80          0
    81          0
    82          3
    83          0
    84          5
    85          5
    86          1
    87          0
    88          0
    89          0
    90          0
    91          0
    92          0
    96          0
    97         11
    98          4
    99          2
   100         10
   101          1
   102          0
   103          0
   104          6
   105        999
   106         83
   107          4
   108          0
   109          0
   110          0
   111          0
   112          0
   113          0
   118          0
   119          0
   127          0
   128          2
   129          0
   132          0
   135          0
   136          1
   137          0
   138          0
   139          4
   140          0
   149          0
   150          0
   161          0
   162          0
   164          1
   202          0
   203          2
   204          0
   205          0
   207          0
   219          0
   233        771
   234         77
   235          8
   236          0
   243          0
   247          4
   248          0
   249          0
   258          0
   259          2
   260          0
   275          3
   276          0
   277          0