##TITLE=Library Entry 12268
##JCAMP-DX=Revision 4.10 
##DATA TYPE=MASS SPECTRUM
##SAMPLE DESCRIPTION=P.J. Williams, Australian Wine Res. Inst., Glen Osmond,
 S. Australia, Australia
##NAMES=HP
##CAS NAME=(E)-2,6-Dimethyl-2,7-octadiene-1,6-diol, 1-(6-O-.alpha.-arabinofu
ranosyl-.beta.-d-glucopyranosyl hexaacetate)
##MOLFORM=C33H48O17
##CAS REGISTRY NO=113378-79-3
##MP= -300
##BP= -300
##MW= 716
##$RETENTION INDEX=0
##$CONDENSED SPECTRUM=NO
##NPOINTS= 31
##XYDATA=(XY..XY) 1 
    41        280
    43        999
    55        340
    67        320
    68        290
    69        290
    71        340
    81        350
    82        280
    85        220
    93        290
    95        150
    96        290
    97        370
   107        190
   109        370
   110        240
   127        160
   129        130
   134        160
   135        200
   139        570
   152        290
   169        170
   259        450
   260         80
   273         20
   289          6
   317          2
   331         30
   547          2