##TITLE=Library Entry 17512
##JCAMP-DX=Revision 4.10 
##DATA TYPE=MASS SPECTRUM
##SAMPLE DESCRIPTION=V. Nevalainen, Dep. Chem., Univ. Helsinki, Helsinki, Fi
nland
##NAMES=HP
##CAS NAME=Ethanol, 2-[(2-bromoethyl)dithio]-
##MOLFORM=C4H9BrOS2
##CAS REGISTRY NO=113398-38-2
##MP= -300
##BP= -300
##MW= 216
##$RETENTION INDEX=0
##$CONDENSED SPECTRUM=NO
##NPOINTS= 29
##XYDATA=(XY..XY) 1 
    27        410
    31        140
    45        999
    58         90
    59        280
    60        250
    61         70
    64        170
    76        120
    79        270
    91        130
    92        120
   107        380
   109        550
   137        230
   140         80
   142         80
   144        100
   146        100
   157         40
   159         40
   172        160
   174        160
   188        120
   190        130
   216        350
   217         21
   218        400
   219         19