##TITLE=Library Entry 90115
##JCAMP-DX=Revision 4.10 
##DATA TYPE=MASS SPECTRUM
##SAMPLE DESCRIPTION=Chemical Concepts
##NAMES=HP
##CAS NAME=1-Methyl-4-octadecyl-piperazine
##MOLFORM=C23H48N2
##CAS REGISTRY NO=113419-38-8
##MP= -300
##BP= -300
##MW= 352
##$RETENTION INDEX=0
##$CONDENSED SPECTRUM=NO
##NPOINTS= 102
##XYDATA=(XY..XY) 1 
    25          2
    26          8
    27         10
    28         19
    29         11
    31          1
    39          5
    40          1
    41         49
    42         45
    43        106
    44         46
    45          2
    53          2
    54          5
    55         42
    56         35
    57         56
    58         50
    59          5
    67          5
    68          5
    69         19
    70        179
    71         39
    72         17
    73          1
    79          1
    80          2
    81          4
    82          7
    83         12
    84         13
    85         35
    86          4
    94          1
    95          3
    96          5
    97         11
    98         24
    99          9
   100         23
   101          6
   109          1
   110          2
   111         21
   112          8
   113        999
   114         80
   115          3
   124          2
   125          2
   126          3
   127          4
   128          1
   138          1
   139          1
   140          3
   141          3
   142          1
   149          2
   154          2
   155          3
   158          1
   159          2
   160          1
   168          1
   169          4
   182          1
   183          3
   196          1
   197          2
   205          1
   210          1
   211          1
   224          1
   225          1
   238          1
   239          1
   252          1
   253          1
   266          1
   267          1
   280          2
   281          2
   282          3
   294          8
   295          3
   296          6
   297          2
   308          7
   309          3
   310          1
   323          2
   324          2
   337          2
   349          1
   350         11
   351         18
   352         36
   353         10
   354          1