##TITLE=Library Entry 5426
##JCAMP-DX=Revision 4.10 
##DATA TYPE=MASS SPECTRUM
##SAMPLE DESCRIPTION=A.A.Kutin, Moscow, Russia
##NAMES=HP
##CAS NAME=Pteridin-4(3H)-one, 3-methyl-6-phenyl-, 8-oxide
##MOLFORM=C13H10N4O2
##CAS REGISTRY NO=113424-83-2
##MP= -300
##BP= -300
##MW= 254
##$RETENTION INDEX=0
##$CONDENSED SPECTRUM=NO
##NPOINTS= 110
##XYDATA=(XY..XY) 1 
    37          4
    38         11
    39         39
    40         27
    42        999
    43         81
    44         52
    50         40
    51         69
    52         27
    53         19
    54         12
    55         11
    56         14
    57         12
    58         19
    61          8
    62         21
    63         43
    64         12
    65         10
    66          8
    67         15
    68         18
    69          7
    70          5
    71          8
    73         22
    74         20
    75         27
    76         53
    77         96
    78         12
    79          6
    80          8
    82         11
    83         10
    85         10
    86          5
    87         12
    88         21
    89         69
    90         17
    91          8
    93          6
    94          7
    95         11
    96         10
    98          5
   100          8
   101         20
   102         78
   103         47
   104        148
   105         73
   107         14
   111          5
   113          5
   114         28
   115         62
   116         44
   117         11
   119         22
   121          4
   122          7
   123         24
   126          5
   127         36
   128         29
   129         16
   130         15
   135         48
   136          5
   140         13
   141         36
   142         52
   143          9
   144         13
   149          4
   153         16
   154          6
   155         16
   156         22
   157         21
   167          9
   168         36
   169         26
   170         10
   171          8
   182          8
   183          7
   194          5
   196          8
   197         39
   198          8
   209         32
   210          9
   211         64
   212         12
   223         11
   225         18
   226          6
   237         44
   238        255
   239         39
   251          7
   253         61
   254        804
   255        110
   256         12