##TITLE=Library Entry 53262
##JCAMP-DX=Revision 4.10 
##DATA TYPE=MASS SPECTRUM
##SAMPLE DESCRIPTION=ACCUSTANDARD Chemicals / NIST MS Data Center.
##NAMES=HP
##CAS NAME=Cycloate
##MOLFORM=C11H21NOS
##CAS REGISTRY NO=1134-23-2
##MP= -300
##BP= -300
##MW= 215
##$RETENTION INDEX=1624
##$CONDENSED SPECTRUM=NO
##NPOINTS= 119
##XYDATA=(XY..XY) 1 
    15          9
    26         15
    27        154
    28        200
    29        344
    30         24
    32          8
    33          1
    34          1
    35         19
    37          1
    39         64
    40         16
    41        216
    42         48
    43         27
    44         44
    45         12
    46         11
    47          7
    48          1
    50          1
    51          6
    52          5
    53         33
    54         68
    55        490
    56        148
    57         10
    58         17
    59         12
    60          9
    61         24
    62         17
    63         10
    64          2
    65          6
    66          1
    67         61
    68         17
    69         15
    70         18
    71         45
    72        153
    73          9
    74          6
    75          6
    76          4
    77          7
    78          2
    79         21
    80          6
    81         49
    82          2
    83        999
    84        100
    85          5
    86          5
    87          0
    88          0
    89         34
    90          8
    91          2
    92          0
    93          0
    94          2
    96         11
    97          8
    98         13
    99          8
   100          0
   101         31
   102          5
   103          3
   104          8
   105          4
   106          2
   107          0
   108          1
   110         15
   111          4
   112          7
   113          1
   115         11
   116          3
   117          1
   118          6
   119          0
   122          0
   124          9
   125         11
   126         31
   127          6
   128          1
   130          6
   131          1
   132          2
   133          0
   134          4
   142          0
   144         14
   145          1
   154        618
   155         58
   156          4
   157          1
   158          7
   159          1
   172         10
   173          1
   182          0
   186         29
   187          4
   188          2
   200          1
   213          0
   215         72
   216         10
   217          4