##TITLE=Library Entry 86272
##JCAMP-DX=Revision 4.10 
##DATA TYPE=MASS SPECTRUM
##SAMPLE DESCRIPTION=A.V. Sokolovskii, Ufa Petroleum Inst., Ufa, USSR
##NAMES=HP
##CAS NAME=1,3-Benzodioxole, 2-(2-propenyloxy)-
##MOLFORM=C10H10O3
##CAS REGISTRY NO=113439-66-0
##MP= -300
##BP= -300
##MW= 178
##$RETENTION INDEX=0
##$CONDENSED SPECTRUM=NO
##NPOINTS= 22
##XYDATA=(XY..XY) 1 
    41        290
    42         30
    44         70
    53         80
    55         50
    57         40
    63         70
    64         80
    65        100
    69         40
    77         40
    81        190
    82         50
    92         30
    94         30
   109        999
   110        600
   121        750
   132         20
   150        100
   178        250
   179         27