##TITLE=Library Entry 54217
##JCAMP-DX=Revision 4.10 
##DATA TYPE=MASS SPECTRUM
##SAMPLE DESCRIPTION=NIST Mass Spectrometry Data Center, 1998.
##NAMES=HP
##CAS NAME=trans-Carveyl acetate
##MOLFORM=C12H18O2
##CAS REGISTRY NO=1134-95-8
##MP= -300
##BP= -300
##MW= 194
##$RETENTION INDEX=1337
##$CONDENSED SPECTRUM=NO
##NPOINTS= 111
##XYDATA=(XY..XY) 1 
    14          1
    15         16
    26          3
    27         59
    29         50
    30          1
    31          3
    37          2
    38          8
    39        199
    40         38
    41        258
    42         37
    43        742
    44         22
    45         11
    50         17
    51         66
    52         33
    53        166
    54         41
    55        223
    56         50
    57         14
    58          6
    59          7
    60          3
    61         14
    62          6
    63         25
    64          8
    65        102
    66         39
    67        138
    68         65
    69         80
    70          5
    71         13
    72         11
    73          1
    74          3
    75          5
    76          5
    77        243
    78         72
    79        254
    80        142
    81        121
    82         63
    83        103
    84        999
    85         56
    86          6
    87          2
    88          1
    89         12
    90          1
    91        590
    92        327
    93        303
    94         77
    95         77
    96         58
    97         45
    98          4
    99          1
   101          1
   102          6
   103         42
   104         22
   105        302
   106        137
   107        137
   108        161
   109        799
   110         80
   111         15
   112          2
   113          2
   114          2
   115         36
   116         11
   117         97
   118         21
   119        951
   120        102
   121         17
   122         16
   123         61
   124         27
   125          6
   126         43
   127          4
   128          3
   129          2
   131          8
   132          6
   133         54
   134        519
   135         69
   136          7
   137         73
   138          8
   139          1
   150         25
   151        117
   152        561
   153         63
   154          4
   161          1
   194          1