##TITLE=Library Entry 31082
##JCAMP-DX=Revision 4.10 
##DATA TYPE=MASS SPECTRUM
##SAMPLE DESCRIPTION=V.A.Korolev, Moscow, Russia
##NAMES=HP
##CAS NAME=3-(3-Bromophenyl)-[1,2,4]triazolo[3,4-b][1,3,4]thiadiazol-6-amine
##MOLFORM=C9H6BrN5S
##CAS REGISTRY NO=113486-73-0
##MP= -300
##BP= -300
##MW= 295
##$RETENTION INDEX=0
##$CONDENSED SPECTRUM=NO
##NPOINTS= 106
##XYDATA=(XY..XY) 1 
    33         20
    34         67
    36          4
    37         41
    38         73
    39         55
    40         15
    41         71
    42        367
    43         46
    44        389
    45         71
    46         47
    47         14
    48          4
    49         35
    50        265
    51        227
    52         44
    53        145
    54         12
    58        140
    59        591
    60        999
    61         86
    62        116
    63         48
    64         23
    65          1
    69         30
    70         81
    71          3
    72         20
    73         30
    74        114
    75        331
    76        200
    77         15
    79         16
    80          1
    81         15
    82          5
    84          6
    85         38
    86        171
    87         37
    88         32
    89          5
    90          4
    91          2
    93          5
    94          5
    95          8
    96          3
    99         26
   100         31
   101         26
   102        655
   103         82
   104          9
   106          3
   107          3
   109          2
   111          1
   114          2
   115          2
   116          9
   117         11
   118          3
   119         11
   120          2
   128          3
   129          4
   130          3
   134          1
   135          1
   143          1
   145          2
   146          2
   147          4
   149          2
   155         31
   157         31
   181        704
   182        406
   183        700
   184        404
   185         24
   186          1
   207          3
   208          1
   209          2
   210          1
   221          2
   223          2
   225          5
   227          6
   235          5
   237          5
   279          3
   281          3
   295        260
   296         30
   297        262
   298         31
   299          7