##TITLE=Library Entry 12464
##JCAMP-DX=Revision 4.10 
##DATA TYPE=MASS SPECTRUM
##SAMPLE DESCRIPTION=Chemical Concepts
##NAMES=HP
##CAS NAME=2,4-Pentanedione, 3-(phenylmethyl)-
##MOLFORM=C12H14O2
##CAS REGISTRY NO=1134-87-8
##MP= -300
##BP= -300
##MW= 190
##$RETENTION INDEX=0
##$CONDENSED SPECTRUM=NO
##NPOINTS= 130
##XYDATA=(XY..XY) 1 
    25          1
    26          7
    27         28
    29         12
    31          2
    36          1
    37          1
    38          4
    39         48
    40          6
    41         27
    42         10
    43        999
    44         24
    45          8
    49          1
    50         18
    51         57
    52         15
    53         11
    54          3
    55         53
    56          3
    57          9
    58          1
    59          1
    61          1
    62          4
    63         21
    64          7
    65         53
    66          6
    67          4
    68          2
    69         14
    70          5
    71          9
    72          1
    73          1
    74          5
    75          7
    76          9
    77         66
    78         54
    79         19
    80          4
    81          4
    82          2
    83          7
    84          2
    85          2
    86          1
    87          2
    88          1
    89         11
    90          5
    91        214
    92         23
    93          4
    94          3
    95          4
    96          1
    97         57
    98          4
    99         10
   100          1
   101          3
   102         12
   103         36
   104         25
   105        144
   106         16
   107          5
   108          3
   109          2
   110          1
   111          2
   112          1
   113         10
   114          5
   115         23
   116          4
   117          6
   118          2
   119          5
   120          2
   121          2
   122          1
   123          2
   125          2
   126          4
   127         18
   128         32
   129        135
   130         34
   131         21
   132          6
   133         30
   134          3
   135          1
   136          1
   137          1
   141          2
   142          1
   143          1
   144          2
   145          6
   146          2
   147        618
   148         84
   149          7
   150          1
   152          1
   153          1
   154          1
   155          1
   156          4
   157         12
   158          2
   159          1
   170          1
   171          2
   172         29
   173          5
   174          1
   175         11
   176          1
   189          1
   190         35
   191          5