##TITLE=Library Entry 97603
##JCAMP-DX=Revision 4.10 
##DATA TYPE=MASS SPECTRUM
##SAMPLE DESCRIPTION=Div. of Experiment Therapeutics WRAIR, WRAMC, Washingto
n DC 20307
##NAMES=HP
##CAS NAME=1-[2-Deoxy-.beta.-d-erythro-pentofuranosyl]pyrrole-2,4-bisthiocar
boxamide
##MOLFORM=C11H15N3O3S2
##CAS REGISTRY NO=113574-93-9
##MP= -300
##BP= -300
##MW= 301
##$RETENTION INDEX=0
##$CONDENSED SPECTRUM=NO
##NPOINTS= 165
##XYDATA=(XY..XY) 1 
    41        108
    42         84
    43        313
    44        105
    45        311
    46         12
    47         35
    48          2
    49          4
    50         11
    51         27
    52         37
    53         46
    54         24
    55         80
    56         24
    57        127
    58         28
    59         51
    60         93
    61         59
    62         36
    63         52
    64        100
    65         30
    66         55
    67         15
    68         27
    69        145
    70         53
    71        168
    72         55
    73        332
    74         18
    75         22
    76         20
    77         13
    78         12
    79         15
    80          8
    81         69
    82         18
    83         22
    84         17
    85         35
    86         15
    87         12
    88         11
    89         28
    90         45
    91         38
    92         22
    93         23
    94          9
    95         14
    96         21
    97         81
    98         63
    99        182
   100         16
   101         20
   102          8
   103         25
   104          6
   105         16
   106         11
   107         15
   108         19
   109          9
   110          9
   111         11
   112          7
   113          8
   114          7
   115         15
   116         35
   117        999
   118        304
   119         48
   120          8
   121          3
   122          5
   123         28
   124         33
   125         11
   126          6
   127          4
   128          8
   129         12
   130         22
   131         21
   132         13
   133          6
   134         16
   135        104
   136         18
   137         13
   138          4
   139          1
   140          7
   141          4
   142          7
   143         19
   144        141
   145         25
   146          6
   147          4
   148          1
   149          9
   150          6
   151        433
   152         97
   153         33
   154          9
   155          5
   156         15
   157         12
   158          6
   159         20
   160          9
   161         25
   162          6
   163          7
   164          8
   165          3
   167          5
   168         19
   169          8
   170          4
   171          1
   172          3
   173          9
   174          7
   176          4
   177         11
   178         29
   179          7
   180          2
   181          3
   184         24
   185        143
   186         17
   187         14
   188          2
   189          1
   191          4
   192          4
   193          2
   194          3
   197          4
   201          7
   202          8
   203          4
   207          4
   208          1
   218          2
   224          2
   233         19
   234          3
   265          1
   266          3
   267         44
   268          7
   269          1
   301          6