##TITLE=Library Entry 31284
##JCAMP-DX=Revision 4.10 
##DATA TYPE=MASS SPECTRUM
##SAMPLE DESCRIPTION=G. Lange, Inst. Org. Chem., Univ. Wurzburg, Wurzburg, G
ermany
##NAMES=HP
##CAS NAME=Propanedioic acid, 2,2-dimethyl-, (methylthio)methyl ester
##MOLFORM=C7H12O4S
##CAS REGISTRY NO=113568-59-5
##MP= -300
##BP= -300
##MW= 192
##$RETENTION INDEX=0
##$CONDENSED SPECTRUM=NO
##NPOINTS= 66
##XYDATA=(XY..XY) 1 
    35        103
    37         26
    38         37
    39        253
    40         89
    41        456
    42        149
    43        243
    44        219
    45        409
    46        145
    47        160
    48         95
    49         18
    50          9
    51         12
    53         12
    55         33
    56          7
    57         37
    58         21
    59        406
    60        193
    61        999
    62         45
    63         55
    64          5
    65          8
    66         15
    68         12
    69         65
    70        201
    71         45
    72          9
    73         49
    74         44
    75         11
    76          5
    77         26
    78          7
    83          7
    85         15
    86         43
    87        674
    88         96
    89         15
    97          5
    99          6
   108         15
   109          8
   110         33
   111          5
   115        495
   116         29
   123         23
   124          6
   125          5
   145          9
   148          6
   149         12
   162         10
   163          0
   175          6
   192        174
   193         15
   194          9