##TITLE=Library Entry 52601
##JCAMP-DX=Revision 4.10 
##DATA TYPE=MASS SPECTRUM
##SAMPLE DESCRIPTION=Chemical Concepts
##NAMES=HP
##CAS NAME=1,3-Dioxan-4-one, 2-(1,1-dimethylethyl)-6-ethyl-
##MOLFORM=C10H18O3
##CAS REGISTRY NO=113505-80-9
##MP= -300
##BP= -300
##MW= 186
##$RETENTION INDEX=0
##$CONDENSED SPECTRUM=NO
##NPOINTS= 48
##XYDATA=(XY..XY) 1 
    27         16
    28         26
    29         84
    31         22
    39         16
    41        178
    42         14
    43         73
    44         19
    45         29
    53          7
    55         83
    56        385
    57        670
    58         35
    59         78
    69         62
    70         15
    71         83
    72         11
    83        999
    84         74
    85         86
    86         32
    87        364
    88         25
    91          6
   100         12
   101         10
   110          7
   129        251
   130         21
   131          6
   140          0
   141         11
   142          7
   143          1
   154          0
   155          6
   156          5
   157          0
   166          1
   167          6
   168          4
   169          1
   185          7
   186          5
   187          0