##TITLE=Library Entry 61230
##JCAMP-DX=Revision 4.10 
##DATA TYPE=MASS SPECTRUM
##SAMPLE DESCRIPTION=Chemical Concepts
##NAMES=HP
##CAS NAME=Butanoic acid, 3-hydroxy-, phenylmethyl ester
##MOLFORM=C11H14O3
##CAS REGISTRY NO=1135-39-3
##MP= -300
##BP= -300
##MW= 194
##$RETENTION INDEX=0
##$CONDENSED SPECTRUM=NO
##NPOINTS= 104
##XYDATA=(XY..XY) 1 
    26          3
    27         27
    28          0
    29         19
    30          1
    31         23
    37          3
    38          9
    39         75
    40          8
    42        152
    43        191
    44         13
    45        189
    46          5
    50         24
    51         72
    52         22
    53         11
    54          2
    55          7
    56          6
    57          6
    58          6
    59          9
    60          3
    61          4
    62          9
    63         37
    64         14
    65        142
    66          9
    67          1
    68          1
    69         65
    70         54
    71         10
    72          1
    73          2
    74          6
    75          6
    76          6
    77        128
    78         39
    79        199
    80         19
    81          2
    82          1
    83          3
    84          2
    85         14
    86          2
    87         44
    88          4
    89         54
    90        103
    91        999
    92        193
    93         12
    94          1
    95          1
    97          2
    99          1
   103          3
   104          8
   105        200
   106         87
   107        629
   108        400
   109         34
   110          2
   111          1
   117          3
   118          1
   119          2
   120          1
   121          1
   125          3
   129          1
   130          3
   131         11
   132          3
   133          2
   134          1
   135          1
   141          2
   142          3
   148         64
   149          8
   150          5
   158          5
   161          1
   162          1
   165          1
   166         49
   167          6
   168          0
   176         14
   177          2
   179          3
   180          2
   194         55
   195          8
   196          1