##TITLE=Library Entry 109105
##JCAMP-DX=Revision 4.10 
##DATA TYPE=MASS SPECTRUM
##SAMPLE DESCRIPTION=Chemical Concepts
##NAMES=HP
##CAS NAME=1,3-Dioxan-4-one, 6-butyl-2-(1,1-dimethylethyl)-6-methyl-
##MOLFORM=C13H24O3
##CAS REGISTRY NO=113505-76-3
##MP= -300
##BP= -300
##MW= 228
##$RETENTION INDEX=0
##$CONDENSED SPECTRUM=NO
##NPOINTS= 80
##XYDATA=(XY..XY) 1 
    26         22
    27        361
    28         57
    29        546
    30         15
    31         25
    37          9
    38         23
    39        331
    40         60
    41        880
    42        119
    43        842
    44         57
    45        117
    46          3
    50         15
    51         22
    52         11
    53         79
    54         37
    55        440
    56        938
    57        820
    58        159
    59         64
    60          8
    61          3
    63          3
    65          9
    66          5
    67         43
    68         36
    69        223
    70        187
    71        133
    72         36
    73          7
    79         11
    80          2
    81         25
    82         31
    83        400
    84         32
    85        662
    86         80
    87        176
    88         12
    95         13
    96         12
    97        399
    98        343
    99         60
   100         21
   101        154
   102         11
   103         20
   104          3
   107          8
   113         12
   114          4
   115          2
   125        999
   126         92
   127         25
   128          4
   129         14
   141          6
   142         10
   143        221
   144         19
   153          6
   155          2
   170         11
   171        552
   172         59
   173          7
   182          5
   213          1
   227          1