##TITLE=Library Entry 15407
##JCAMP-DX=Revision 4.10 
##DATA TYPE=MASS SPECTRUM
##SAMPLE DESCRIPTION=Div. of Experiment Therapeutics WRAIR, WRAMC, Washingto
n DC 20307
##NAMES=HP
##CAS NAME=1-[2-Deoxy-.beta.-d-erythro-pentofuranosyl]pyrrole-2,4-dicarboxam
ide
##MOLFORM=C11H15N3O5
##CAS REGISTRY NO=113574-92-8
##MP= -300
##BP= -300
##MW= 269
##$RETENTION INDEX=0
##$CONDENSED SPECTRUM=NO
##NPOINTS= 154
##XYDATA=(XY..XY) 1 
    41        350
    42        464
    43        856
    44        999
    45        448
    46         56
    47         88
    49         25
    50         65
    51         91
    52        101
    53        216
    54        104
    55        237
    56         60
    57        304
    58         64
    59         27
    60         59
    61         63
    62         20
    63         43
    64         90
    65         91
    66         98
    67         76
    68        127
    69        306
    70        207
    71        220
    72         50
    73        369
    74         27
    75         18
    76          7
    77         23
    78         17
    79         27
    80         46
    81        413
    82         89
    83         29
    84         30
    85         58
    86         35
    87         17
    88         10
    89         12
    90         14
    91         44
    92         99
    93        107
    94        164
    95         86
    96         67
    97        352
    98        385
    99        145
   100         17
   101          9
   102          3
   103         10
   104         10
   105         25
   106         21
   107         36
   108         13
   109         21
   110        163
   111         27
   112         11
   113         10
   114         15
   115         43
   116         60
   117        333
   118         47
   119         99
   120        742
   121         64
   122         22
   123         17
   124         12
   125          8
   126          6
   127          4
   128          5
   129          6
   130          5
   131          6
   132          7
   133         12
   134         19
   135         65
   136        106
   137        360
   138         34
   139          8
   141          3
   142          1
   143         11
   144         11
   145         12
   146         35
   147         12
   148         11
   149          8
   150          4
   151          4
   152          5
   153        687
   154         91
   155         14
   158          1
   159          3
   160         12
   161         18
   162         25
   163         34
   164          7
   165         11
   166          4
   167          3
   168          1
   171          4
   172          3
   173          8
   174          5
   175          3
   176          3
   177          4
   178         35
   179         49
   180         20
   181          7
   183          4
   186          1
   187          1
   188          1
   189          5
   190         11
   191          6
   192          1
   195         12
   196          3
   197          5
   201          6
   202          5
   203          7
   207          5
   208          3
   251          2
   252          7
   269          1