##TITLE=Library Entry 41611
##JCAMP-DX=Revision 4.10 
##DATA TYPE=MASS SPECTRUM
##SAMPLE DESCRIPTION=NIST Mass Spectrometry Data Center
##NAMES=HP
##CAS NAME=Arachidonic acid, TMS derivative
##MOLFORM=C23H40O2Si
##CAS REGISTRY NO=113516-18-0
##MP= -300
##BP= -300
##MW= 376
##$RETENTION INDEX=2383
##$CONDENSED SPECTRUM=NO
##NPOINTS= 287
##XYDATA=(XY..XY) 1 
    15          1
    26          1
    27         27
    28          5
    29         64
    30          2
    31          1
    38          1
    39         56
    40         11
    41        280
    42         27
    43        117
    44         14
    45         85
    46          6
    47         41
    48          2
    49          1
    50          3
    51         13
    52         11
    53         76
    54         76
    55        377
    56         33
    57         67
    58         18
    59         25
    60         11
    61         52
    62          4
    63          6
    65         87
    66        114
    67        585
    68         66
    69        130
    70         18
    71         36
    72         53
    73        999
    74        107
    75        880
    76         69
    77        308
    78        210
    79        887
    80        638
    81        341
    82         64
    83         56
    84         26
    85         29
    86         16
    87          9
    88          9
    89         27
    91        723
    92        217
    93        597
    94        229
    95        209
    96         95
    97         43
    98         10
    99         12
   100          2
   101         17
   102          6
   103         43
   104         68
   105        419
   106        518
   107        274
   108         66
   109         85
   110         28
   111         15
   112          5
   113          5
   114          2
   115         51
   116         97
   117        711
   118        116
   119        334
   120        278
   121        212
   122         53
   123         46
   124         21
   125          9
   126          2
   127         10
   128         23
   129        377
   130         83
   131        251
   132        129
   133        317
   134        107
   135        117
   136         58
   137         30
   138          6
   139          6
   140          2
   141         32
   142         22
   143         50
   144         26
   145        190
   146        104
   147        173
   148         73
   149         85
   150        317
   151         54
   152          7
   153          7
   154          6
   155         33
   156         13
   157         86
   158         18
   159         89
   160         52
   161         90
   162         48
   163         43
   164         82
   165         18
   166          5
   167          8
   168          5
   169         48
   170         15
   171         77
   172         15
   173         67
   174         32
   175        137
   176         58
   177         98
   178         23
   179          6
   180          2
   181          9
   182          4
   183         48
   184         10
   185         27
   186          6
   187         59
   188         26
   189         48
   190         42
   191         16
   192          3
   193          3
   194          3
   195          7
   196          2
   197         34
   198          8
   199         17
   200          4
   201         41
   202         14
   203         67
   204         18
   205          6
   206         10
   207          5
   208          2
   209          5
   210          2
   211         19
   212          7
   213         11
   214          3
   215         24
   216          7
   217         49
   218         13
   219          4
   220          2
   221          6
   222          2
   223          6
   224          3
   225          9
   226          3
   227          5
   228          1
   229          8
   230          6
   231         12
   232          6
   233          2
   234          1
   235         12
   236          3
   237          6
   238         46
   239         17
   240          4
   241          4
   242          4
   243          7
   244         23
   245          9
   246          1
   247          1
   248          1
   249         10
   250          4
   251         11
   252          6
   253          3
   254          1
   255          1
   257          3
   258          7
   259          3
   260          1
   261          1
   262          1
   263          6
   264          3
   265         18
   266          6
   267          4
   268          3
   269         10
   270          2
   271          1
   275          1
   276          1
   277         10
   278         20
   279         10
   280          3
   281          1
   282          1
   283          1
   285          3
   286         12
   287          3
   289          2
   290          1
   291         10
   292          5
   293          4
   294          2
   295          2
   296          2
   297          1
   303          1
   305         11
   306          5
   307          3
   308          8
   309          2
   310          1
   317          1
   319          7
   320          3
   321          1
   322          5
   323          1
   333          3
   334          1
   335          2
   336          1
   343          2
   344          1
   345          1
   347          2
   348          2
   361         34
   362         10
   363          3
   376         21
   377          7
   378          2