##TITLE=Library Entry 93224
##JCAMP-DX=Revision 4.10 
##DATA TYPE=MASS SPECTRUM
##SAMPLE DESCRIPTION=K. MATOBA, TOYAMA MED. & PHARM. UNIV., SUGITANI, TOYAMA
, JAPAN
##NAMES=HP
##CAS NAME=2-Methoxy-4-methyl-4-phenyl-2-cyclohexen-1-one
##MOLFORM=C14H16O2
##CAS REGISTRY NO=113660-62-1
##MP= -300
##BP= -300
##MW= 216
##$RETENTION INDEX=0
##$CONDENSED SPECTRUM=NO
##NPOINTS= 54
##XYDATA=(XY..XY) 1 
    40         67
    41        232
    43        333
    45        386
    50        132
    51        479
    52        121
    53        200
    55        176
    57         94
    58        157
    63        191
    64        249
    65        266
    67        102
    69         76
    71        115
    73         67
    75        352
    76        114
    77        500
    78        242
    79        196
    81         74
    89        116
    91        838
    92         77
    93         88
    95         82
   102        210
   103        194
   104        118
   105        285
   111        313
   115        999
   116        326
   117        437
   118        205
   127        129
   128        318
   129        353
   130         89
   131        124
   139         81
   141        168
   142        283
   143        101
   145        125
   157         83
   159         69
   173        176
   174         77
   201        141
   216        149