##TITLE=Library Entry 4733
##JCAMP-DX=Revision 4.10 
##DATA TYPE=MASS SPECTRUM
##SAMPLE DESCRIPTION=A.Pleshkova, Nesmeyanov Inst.Org.Elem.Cpds, Moscow
##NAMES=HP
##CAS NAME=1,2,3-Trimethyldiaziridine
##MOLFORM=C4H10N2
##CAS REGISTRY NO=113604-56-1
##MP= -300
##BP= -300
##MW= 86
##$RETENTION INDEX=0
##$CONDENSED SPECTRUM=NO
##NPOINTS= 21
##XYDATA=(XY..XY) 1 
    27         85
    28        425
    29         65
    30        335
    31         72
    32         74
    41         64
    42        999
    43        205
    44        145
    45         31
    55         51
    56        721
    57        493
    58         41
    59         21
    71        489
    72         25
    85        229
    86        115
    87          6