##TITLE=Library Entry 34349
##JCAMP-DX=Revision 4.10 
##DATA TYPE=MASS SPECTRUM
##SAMPLE DESCRIPTION=Chemical Concepts
##NAMES=HP
##CAS NAME=Bicyclo[4.2.0]oct-2-ene, 3,7-dimethyl-7-(4-methyl-3-pentenyl)-8-(
2,6,10-trimethyl-1,5,9-undecatrienyl)-, [1.alpha.,6.alpha.,7.beta.,8.alpha.(
1E,5E)]-
##MOLFORM=C30H48
##CAS REGISTRY NO=113681-03-1
##MP= -300
##BP= -300
##MW= 408
##$RETENTION INDEX=0
##$CONDENSED SPECTRUM=NO
##NPOINTS= 227
##XYDATA=(XY..XY) 1 
    25          3
    27         22
    28          3
    29         34
    30          0
    31          1
    36          0
    37          1
    38          2
    39         31
    40          8
    41        326
    42         20
    43         72
    44          3
    45          1
    50          3
    51          7
    52          3
    53         39
    54          6
    55        105
    56         10
    57         42
    58          2
    61          0
    62          1
    63          3
    64          1
    65         14
    66          6
    67         53
    68         18
    69        999
    70         69
    71         24
    72          1
    73          0
    74          0
    75          1
    76          1
    77         49
    78         13
    79         83
    80         16
    81        270
    82         25
    83         90
    84          8
    85         11
    86          1
    87          0
    88          0
    89          1
    90          1
    91         63
    92         23
    93        158
    94         54
    95        168
    96         17
    97         24
    98          3
    99          2
   101          0
   102          0
   103          5
   104          3
   105         55
   106         12
   107        154
   108         39
   109        177
   110         19
   111         27
   112          3
   113          2
   115          5
   116          3
   117         10
   118          3
   119         90
   120         16
   121        239
   122         34
   123         56
   124          6
   125          3
   126          1
   127          2
   128          3
   129          9
   130          4
   131         11
   132          5
   133         36
   134         24
   135         91
   136         15
   137         66
   138          8
   139          1
   140          2
   141          4
   142          3
   143          4
   144          3
   145         16
   146          5
   147         43
   148          7
   149         52
   150          7
   151         12
   152          2
   153          1
   154          1
   155          2
   156          1
   157          3
   158          2
   159         16
   160          5
   161         45
   162          7
   163         38
   164          6
   165          2
   166          1
   167          1
   168          0
   169          1
   170          2
   171          3
   172          1
   173         10
   174          3
   175         35
   176          8
   177        173
   178         31
   179          3
   180          1
   181          1
   182          1
   183          1
   184          0
   185          2
   186          1
   187          7
   188          2
   189         33
   190         11
   191          5
   192          2
   193          1
   196          0
   197          1
   198          1
   199          2
   200          1
   201          9
   202          3
   203         17
   204          3
   205          3
   206          1
   207          0
   211          1
   212          1
   213          1
   214          1
   215          7
   216          2
   217          2
   218          1
   219          0
   223          1
   224          0
   225          1
   226          0
   227          1
   228          1
   229          4
   230          1
   231          2
   232          2
   233          1
   234          0
   235          0
   241          1
   242          0
   243          3
   244          1
   245         73
   246         16
   247          2
   248          0
   252          0
   253          1
   254          0
   255          1
   256          0
   257          1
   258          2
   259          1
   260          0
   269          1
   270          1
   271         17
   272          4
   273          1
   295          0
   296          0
   297          1
   298          0
   299          1
   300          0
   312          2
   313          1
   314        154
   315         43
   316          6
   317          1
   393          1
   408          7
   409          2