##TITLE=Library Entry 82521
##JCAMP-DX=Revision 4.10 
##DATA TYPE=MASS SPECTRUM
##SAMPLE DESCRIPTION=Asinex Ltd, Moscow, Russia
##NAMES=HP
##CAS NAME=Isonicotinic acid N'-(2-chloro-acetyl)-hydrazide
##MOLFORM=C8H8ClN3O2
##CAS REGISTRY NO=113603-98-8
##MP= -300
##BP= -300
##MW= 213
##$RETENTION INDEX=0
##$CONDENSED SPECTRUM=NO
##NPOINTS= 91
##XYDATA=(XY..XY) 1 
    35         10
    36         52
    38         22
    39          6
    40         13
    41          8
    42         25
    43         17
    44         10
    45          1
    49         48
    50         56
    51        176
    52         20
    53          5
    54          0
    55          3
    57          9
    62          0
    63          3
    64          1
    65          6
    66          0
    67          0
    69          7
    70          2
    71          1
    73          0
    74          0
    75          5
    76         10
    77         65
    78        478
    79         66
    80          4
    81          2
    82          0
    83          7
    84          2
    85          0
    87          8
    88          3
    89          2
    90          0
    91         19
    92          3
    93          5
    94          2
    95          2
    96          0
    97          0
    99          0
   101         11
   104          2
   106        999
   107         78
   108         18
   109         26
   110          3
   112          2
   113          0
   115         11
   119          3
   120          2
   121         16
   122          6
   123          2
   129          7
   130          0
   133          1
   134          1
   135          0
   136          6
   137         35
   138          2
   148          2
   149          1
   150          2
   152          0
   155          1
   164         10
   171          3
   177          5
   178          6
   179          2
   190          2
   191          2
   213        104
   214          9
   215         30
   216          1