##TITLE=Library Entry 5659
##JCAMP-DX=Revision 4.10 
##DATA TYPE=MASS SPECTRUM
##SAMPLE DESCRIPTION=Chemical Concepts
##NAMES=HP
##CAS NAME=4H-1,3-Dioxino[4,5-c]pyridine-5-methanol, 2,2,8-trimethyl-
##MOLFORM=C11H15NO3
##CAS REGISTRY NO=1136-52-3
##MP= -300
##BP= -300
##MW= 209
##$RETENTION INDEX=0
##$CONDENSED SPECTRUM=NO
##NPOINTS= 47
##XYDATA=(XY..XY) 1 
    33        207
    36         19
    39        381
    40        124
    43        999
    51        288
    52        154
    53        169
    54         70
    55         59
    56          7
    57         10
    59        106
    63         36
    65        112
    66         60
    67         76
    68         18
    69          7
    77         52
    78         28
    79         32
    80         59
    81         43
    82         56
    92         21
    94        219
    95         38
    96          8
    97         12
   104         12
   106        104
   107         18
   108         27
   120         31
   122        132
   123         92
   124         17
   134          8
   136         21
   150         80
   151         78
   152        110
   153          8
   194         34
   209         77
   210          8