##TITLE=Library Entry 18282
##JCAMP-DX=Revision 4.10 
##DATA TYPE=MASS SPECTRUM
##SAMPLE DESCRIPTION=Chemical Concepts
##NAMES=HP
##CAS NAME=3-Oxa-bicyclo[3.2.0]hept-6-ene-2,4-dione
##MOLFORM=C6H4O3
##CAS REGISTRY NO=113647-99-7
##MP= -300
##BP= -300
##MW= 124
##$RETENTION INDEX=0
##$CONDENSED SPECTRUM=NO
##NPOINTS= 35
##XYDATA=(XY..XY) 1 
    25         22
    26        154
    27         20
    28         52
    29          9
    36         10
    37         38
    38         28
    39         30
    40          5
    41          5
    42          3
    43          6
    44         32
    45          4
    48          7
    49         51
    50        209
    51        295
    52        999
    53         59
    54         21
    55          3
    57          3
    61          4
    66          4
    67          3
    69          4
    71          3
    77          7
    78          3
    79          4
    80        275
    81         11
   124          2