##TITLE=Library Entry 35527
##JCAMP-DX=Revision 4.10 
##DATA TYPE=MASS SPECTRUM
##SAMPLE DESCRIPTION=NIST Mass Spectrometry Data Center
##NAMES=HP
##CAS NAME=3-Methylpentyl methacrylate
##MOLFORM=C10H18O2
##CAS REGISTRY NO=113615-00-2
##MP= -300
##BP= -300
##MW= 170
##$RETENTION INDEX=1148
##$CONDENSED SPECTRUM=NO
##NPOINTS= 68
##XYDATA=(XY..XY) 1 
    26          3
    27         42
    28          7
    29         70
    31          5
    37          3
    38          7
    39        176
    40         32
    41        465
    42         60
    43        163
    44          5
    45         10
    50          2
    51          5
    52          2
    53         23
    54         19
    55        292
    56        211
    59         14
    60          1
    63          1
    65          3
    66          1
    67         20
    69        999
    70         83
    71         14
    72          1
    73          1
    74          2
    77          2
    78          1
    79          2
    80          1
    81          5
    82          6
    83         38
    84        558
    86         14
    87        149
    88          5
    94          1
    95          4
    96          6
    97         11
    99         14
   101          1
   107          1
   109          4
   110          1
   111          5
   112          1
   113         27
   114          2
   115          5
   123          1
   124          2
   125          2
   126          1
   127          1
   128          1
   129          1
   137          2
   141          7
   155          1