##TITLE=Library Entry 8018
##JCAMP-DX=Revision 4.10 
##DATA TYPE=MASS SPECTRUM
##SAMPLE DESCRIPTION=Chemical Concepts
##NAMES=HP
##CAS NAME=4-Azido-2-nitrobutyric acid, 2,6-di-t-butyl-4-methoxyphenyl ester
##MOLFORM=C19H28N4O5
##CAS REGISTRY NO=113719-06-5
##MP= -300
##BP= -300
##MW= 392
##$RETENTION INDEX=0
##$CONDENSED SPECTRUM=NO
##NPOINTS= 318
##XYDATA=(XY..XY) 1 
    25          3
    26         33
    27        158
    28        102
    29        275
    30         45
    31         37
    36          2
    37          3
    38          8
    39         82
    40         23
    41        368
    42         89
    43        999
    44         41
    45        158
    46          6
    47          1
    48          0
    49          1
    50          8
    51         25
    52         14
    53         46
    54         30
    55        300
    56         47
    57        869
    58         50
    59         59
    60         17
    61        124
    62          5
    63         11
    64          6
    65         39
    66         13
    67         74
    68         18
    69        428
    70        135
    71         62
    72         10
    73        460
    74         29
    75         21
    76          7
    77         66
    78         19
    79         57
    80         12
    81         47
    82         26
    83         64
    84         30
    85         36
    86          6
    87          7
    88         46
    89         36
    90          5
    91        119
    92         20
    93         36
    94         11
    95         42
    96         14
    97         34
    98         35
    99         17
   100          7
   101          5
   102          6
   103         34
   104         14
   105         81
   106         17
   107         52
   108         14
   109         32
   110         14
   111         24
   112         10
   113         18
   114          4
   115         41
   116         23
   117         34
   118         15
   119         84
   120         18
   121         71
   122         26
   123         35
   124         15
   125         16
   126          6
   127         16
   128         27
   129         35
   130         19
   131         34
   132         15
   133         65
   134         25
   135        127
   136         31
   137         55
   138         15
   139         18
   140          5
   141         21
   142         12
   143         16
   144         12
   145         36
   146         22
   147         49
   148         22
   149         96
   150         30
   151         72
   152         14
   153         17
   154          5
   155          9
   156          6
   157         32
   158         10
   159         18
   160         16
   161         64
   162         26
   163         40
   164         75
   165         63
   166         12
   167         11
   168          4
   169          6
   170          4
   171          6
   172          7
   173         13
   174          9
   175        138
   176         25
   177         85
   178         21
   179        443
   180         65
   181         13
   182          4
   183          6
   184          3
   185          5
   186          3
   187          6
   188         11
   189         15
   190          9
   191         18
   192          9
   193         39
   194          7
   195          4
   196          2
   197          3
   198          1
   199          2
   200          2
   201          3
   202          4
   203         48
   204         12
   205         92
   206         19
   207         95
   208         17
   209          4
   210          2
   211          3
   212          4
   213          2
   214          2
   215          3
   216          3
   217          6
   218          6
   219         30
   220         38
   221        389
   222         69
   223         11
   224          4
   225          2
   226          2
   227          2
   228          2
   229          3
   230          3
   231          4
   232          7
   233         11
   234          9
   235        505
   236        690
   237        114
   238         13
   239          3
   240          1
   241          1
   242          1
   243          2
   244          3
   245          2
   246          3
   247          9
   248          8
   249          3
   250          2
   251          0
   252          1
   253          1
   254          1
   255          1
   256          1
   257          2
   258          2
   259          3
   260         18
   261          5
   262          7
   263          3
   264          1
   265          0
   266          0
   267          1
   268          1
   269          0
   270          0
   271          1
   272          1
   273          1
   274          4
   275         27
   276         10
   277          2
   278          1
   279          0
   280          0
   281          1
   282          0
   283          0
   284          0
   285          0
   286          1
   287          1
   288          1
   289         10
   290          5
   292          0
   293          0
   294          0
   295          0
   296          0
   297          0
   298          0
   299          0
   300          0
   301          0
   302          1
   303          2
   304         31
   305          7
   306          1
   307          0
   308          0
   309          0
   310          0
   311          0
   312          0
   313          0
   314          0
   315          0
   316          0
   317          3
   318          1
   319          0
   320          1
   321          1
   322          0
   323          0
   329          0
   330          3
   331          4
   332          2
   333          6
   334          2
   335          7
   336          2
   337          0
   345          1
   346          0
   347          0
   348          2
   349          1
   350          1
   351          0
   376          1
   377          5
   378          1
   391          1
   392        103
   393         25
   394          4
   395          1