##TITLE=Library Entry 96928
##JCAMP-DX=Revision 4.10 
##DATA TYPE=MASS SPECTRUM
##SAMPLE DESCRIPTION=K.J. SHAW, CSIRO DIV. FOOD RES., NORTH RYDE, N.S.W., AU
ST.
##NAMES=HP
##CAS NAME=t-2 Toxin t-butyldimethylsilyl ether
##MOLFORM=C30H48O9Si
##CAS REGISTRY NO=113725-82-9
##MP= -300
##BP= -300
##MW= 580
##$RETENTION INDEX=0
##$CONDENSED SPECTRUM=NO
##NPOINTS= 87
##XYDATA=(XY..XY) 1 
    35         50
    39         50
    40        100
    41        130
    42         40
    43        480
    44        240
    45         20
    55         30
    56         20
    57        500
    58         20
    59         30
    60         30
    68         20
    69         30
    73        350
    74         30
    75        370
    76         30
    77         50
    79         20
    85        420
    86         30
    91         30
    93         50
    95         70
   104         20
   105        180
   106         30
   107         40
   109         30
   116         20
   117        999
   118        100
   119         60
   121        120
   122         90
   123         70
   124         20
   125         20
   129         50
   131         30
   133         20
   139         20
   143         40
   145         60
   147         30
   157         50
   159        120
   161         30
   169         70
   171         40
   173         60
   181         60
   183         20
   185         40
   187         30
   197        130
   198         30
   199         90
   203         30
   205         30
   207        120
   209         30
   215         30
   227         70
   245         90
   257         60
   259         30
   261         20
   271         70
   273         30
   281         50
   289         70
   301         70
   319        110
   320         20
   361         50
   362         10
   379         60
   380         20
   403         10
   421         10
   463         10
   523         40
   524         10