##TITLE=Library Entry 86593
##JCAMP-DX=Revision 4.10 
##DATA TYPE=MASS SPECTRUM
##SAMPLE DESCRIPTION=Chemical Concepts
##NAMES=HP
##CAS NAME=8-(2,6-Dimethyl-hepta-1,5-dienyl)-3,7,7-trimethyl-bicyclo[4.2.0]o
ct-2-ene
##MOLFORM=C20H32
##CAS REGISTRY NO=113725-56-7
##MP= -300
##BP= -300
##MW= 272
##$RETENTION INDEX=0
##$CONDENSED SPECTRUM=NO
##NPOINTS= 94
##XYDATA=(XY..XY) 1 
    27         12
    28          4
    29         16
    39         19
    40          3
    41        147
    42          7
    43         42
    44          2
    50          1
    51          5
    52          3
    53         24
    54          3
    55         46
    56          3
    57          6
    63          2
    64          0
    65         11
    66          3
    67         73
    68          5
    69        125
    70          7
    71          1
    77         38
    78          8
    79         62
    80          7
    81         43
    82          4
    83          5
    84          1
    85          1
    89          0
    91         35
    92          6
    93         30
    94         40
    95         11
    96          4
    97          2
    98          0
   103          2
   104          1
   105         17
   106          3
   107         28
   108          6
   109        999
   110         90
   111          5
   115          3
   116          1
   117          4
   118          1
   119         13
   120          2
   121          9
   122         21
   123          5
   127          1
   128          2
   129          3
   130          1
   131          3
   132          1
   133          5
   134          2
   135          8
   136          1
   141          4
   142          1
   143          1
   144          0
   145          3
   146          1
   147          6
   148          1
   149          6
   155          1
   159          2
   160          1
   161          3
   162          0
   163          2
   178        204
   179         28
   180          1
   187          0
   203          6
   204          1
   272          1