##TITLE=Library Entry 66934
##JCAMP-DX=Revision 4.10 
##DATA TYPE=MASS SPECTRUM
##SAMPLE DESCRIPTION=D.HENNEBERG, MAX-PLANCK INSTITUTE, MULHEIM, WEST GERMAN
Y
##NAMES=HP
##CAS NAME=1,2,4-Methenoazulene, decahydro-1,5,5,8a-tetramethyl-, [1S-(1.alp
ha.,2.alpha.,3a.beta.,4.alpha.,8a.beta.,9R*)]-
##MOLFORM=C15H24
##CAS REGISTRY NO=1137-12-8
##MP= -300
##BP= -300
##MW= 204
##$RETENTION INDEX=1374
##$CONDENSED SPECTRUM=NO
##NPOINTS= 142
##XYDATA=(XY..XY) 1 
    27        182
    28         46
    29        181
    30          3
    31          1
    37          1
    38          3
    39        197
    40         35
    41        577
    42         36
    43        145
    44          5
    49          1
    50         10
    51         56
    52         25
    53        149
    54         19
    55        314
    56         68
    57         52
    58          6
    59          4
    60          0
    62          2
    63         19
    64         12
    65        107
    66         55
    67        156
    68         20
    69        251
    70         38
    71         14
    72          8
    73          7
    74          3
    75          7
    76          6
    77        237
    78         66
    79        293
    80         72
    81        129
    82         76
    83         45
    84          6
    85          7
    86          1
    87          7
    88          2
    89         11
    90          5
    91        474
    92        112
    93        367
    94        999
    95        522
    96        117
    97         24
    98          6
    99          3
   101          2
   102          8
   103         42
   104         25
   105        572
   106        177
   107        409
   108        202
   109        150
   110         39
   111          9
   112          2
   113          1
   114          2
   115         66
   116         26
   117         75
   118         23
   119        524
   120        244
   121        256
   122        140
   123         84
   124         22
   125          3
   127         13
   128         32
   129         38
   130         20
   131         50
   132         18
   133        372
   134        111
   135        126
   136         55
   137         13
   138          3
   139          1
   140          1
   141         20
   142         23
   143         11
   144          6
   145         50
   146         15
   147        149
   148         99
   149         24
   150          6
   151          1
   152          1
   153          1
   155          4
   156          9
   157         15
   158          3
   159         10
   160         11
   161        335
   162         62
   163         50
   164          7
   169          2
   173          2
   174          2
   175         34
   176         18
   177          3
   183          0
   184          1
   187          1
   189        290
   190         44
   191          3
   201          5
   202          1
   204        332
   205         52
   206          4