##TITLE=Library Entry 27600
##JCAMP-DX=Revision 4.10 
##DATA TYPE=MASS SPECTRUM
##SAMPLE DESCRIPTION=Chemical Concepts
##NAMES=HP
##CAS NAME=Cyclopropanecarboxylic acid, 1-nitro-, 2,4,6-tris(1,1-dimethyleth
yl)phenyl ester
##MOLFORM=C22H33NO4
##CAS REGISTRY NO=113719-03-2
##MP= -300
##BP= -300
##MW= 375
##$RETENTION INDEX=0
##$CONDENSED SPECTRUM=NO
##NPOINTS= 79
##XYDATA=(XY..XY) 1 
    29         19
    30         98
    41         23
    42         75
    44         18
    55         19
    57        999
    58         54
    68         21
    69        261
    70         13
    71         24
    83         20
    97         15
   105         11
   107          9
   109         12
   111          7
   113         12
   114        174
   115          8
   119          9
   121         15
   131          8
   133          9
   135         22
   137         23
   145         11
   147         22
   149        102
   150         13
   161         28
   162          5
   163          9
   173          7
   175         10
   177         10
   183         37
   184          8
   187         18
   189         16
   190          6
   191         13
   201          8
   203         28
   204          8
   205        170
   206         26
   215         10
   217         19
   219         10
   229          6
   230          7
   231         75
   232         14
   240         20
   245         19
   246          7
   247         16
   248          9
   260          8
   261         38
   262         28
   272          7
   273         18
   286         64
   287         12
   296         16
   304         23
   318         29
   319          8
   342         49
   343         11
   360        397
   361         97
   362         13
   375        305
   376         81
   377         10