##TITLE=Library Entry 81917
##JCAMP-DX=Revision 4.10 
##DATA TYPE=MASS SPECTRUM
##SAMPLE DESCRIPTION=Humboldt-Universitat zu Berlin, Department of Chemistry
, Analytical Group
##NAMES=HP
##CAS NAME=4,4'-Bis(1,2,4-trimethyl-5-benzoylmethyliden-2,3-dehydropiperidyl
)
##MOLFORM=C32H36N2O2
##CAS REGISTRY NO=113790-92-4
##MP= -300
##BP= -300
##MW= 480
##$RETENTION INDEX=0
##$CONDENSED SPECTRUM=NO
##NPOINTS= 356
##XYDATA=(XY..XY) 1 
    14          5
    15         24
    16          5
    17         14
    18         58
    26          4
    27         16
    28        110
    29         29
    30         18
    31          7
    32         25
    37          2
    38          4
    39         19
    40          7
    41         45
    42         69
    43         24
    44         15
    45          5
    50          8
    51         30
    52          7
    53         25
    54         13
    55         44
    56        485
    57         24
    58         14
    60          2
    63          4
    64          2
    65         20
    66          7
    67         16
    68         14
    69          9
    70          9
    71         19
    72          9
    73          2
    74          2
    75          3
    77        459
    78         50
    79         66
    80         15
    81         10
    82         30
    83          4
    84          6
    85          2
    89          5
    91         99
    92         27
    93         28
    94         24
    95         13
    96         18
    97          6
    98         35
    99         16
   100          2
   101          2
   102         10
   103         23
   105        999
   106        131
   107         43
   108         50
   109         40
   110         17
   111          4
   112          6
   114          2
   115         34
   116         12
   117         16
   118         26
   119         22
   120        123
   121        126
   122         89
   123         17
   124         23
   125          6
   126          3
   127         11
   128         23
   129         16
   130         14
   131         22
   132         19
   133         20
   134        161
   135        591
   136        257
   137         28
   138         11
   139          5
   140          3
   141         16
   142          8
   143          9
   144         21
   145         17
   146         22
   147         15
   148        150
   149         25
   150         53
   151         10
   152          8
   153          8
   154          6
   155          7
   156          7
   157         10
   158         16
   159         11
   160         31
   161         10
   162         95
   163         19
   164          8
   165         11
   166          7
   167         10
   168         10
   169          6
   170          9
   171         15
   172         19
   173         21
   174         16
   175          9
   176          7
   177          2
   178          5
   179          5
   180         11
   181         14
   182         19
   183          8
   184         19
   185         16
   186         20
   187         10
   188          9
   189          4
   190          2
   191          2
   192          2
   193          4
   194         10
   195         11
   196         58
   197         21
   198         16
   199          8
   200         45
   201         10
   202          9
   203          4
   205          6
   206          4
   207         10
   208         34
   209         12
   210         72
   211         60
   212         26
   213         10
   214         13
   215          9
   216          3
   217          2
   218          1
   219          1
   220          3
   221          6
   222         81
   223         20
   224         69
   225         25
   226         68
   227         18
   228          7
   229          2
   230          2
   231          2
   232          2
   233          1
   234          2
   235          4
   236         16
   237         10
   238        142
   239         72
   240        717
   241        151
   242         44
   243          8
   244          2
   245          1
   246          1
   247          1
   248          3
   249          2
   250          7
   251          2
   252          9
   253         22
   254         15
   255         23
   256          8
   257          2
   258          1
   259          1
   260          2
   261          1
   262          4
   263          2
   264         16
   265          6
   266         14
   267         10
   268          6
   269          2
   270          2
   271          1
   272          2
   273          1
   274          3
   275          2
   276          8
   277          3
   278          7
   279          2
   280          3
   281          3
   282          1
   286          1
   287          1
   288          2
   289          2
   290         12
   291          5
   292          6
   293          2
   294          1
   302          1
   303          0
   304         13
   305          6
   306          9
   307          2
   308          1
   314          0
   315          0
   316          0
   317          1
   318          7
   319          2
   320          2
   321          0
   326          0
   327          0
   328          0
   329          2
   330          2
   331          1
   332          1
   333          1
   334          0
   341          1
   342          2
   343          2
   344         11
   345         10
   346          5
   347          2
   348          1
   350          0
   353          0
   354          0
   355          0
   356          0
   357          2
   358          1
   359          4
   360          8
   361         27
   362          6
   363          1
   364          0
   366         29
   367          9
   368         18
   369          8
   370          2
   371          1
   372          2
   373          2
   375        125
   376         36
   377          5
   378          0
   380          1
   381          1
   382         17
   383          7
   384          2
   385          0
   389          1
   390          0
   392          0
   394         38
   395         12
   396          2
   397          0
   403          1
   404          0
   406          0
   408          2
   409          8
   410          4
   411          1
   422          6
   423          2
   424          1
   425          0
   434          4
   435          1
   436          0
   437          0
   445          0
   447          2
   448          1
   449          4
   450          2
   451          2
   452          2
   453          0
   462          1
   463          4
   465        118
   466         42
   467          8
   468          1
   478          0
   480        294
   481        106
   482         20
   483          2