##TITLE=Library Entry 18090
##JCAMP-DX=Revision 4.10 
##DATA TYPE=MASS SPECTRUM
##SAMPLE DESCRIPTION=Chemical Concepts
##NAMES=HP
##CAS NAME=Nickel, [(1,2-.eta.)-1,3-butadiyne][1,3-propanediylbis[bis(1-meth
ylethyl)phosphine]-P,P']-
##MOLFORM=C19H36NiP2
##CAS REGISTRY NO=113726-07-1
##MP= -300
##BP= -300
##MW= 384
##$RETENTION INDEX=0
##$CONDENSED SPECTRUM=NO
##NPOINTS= 286
##XYDATA=(XY..XY) 1 
    23         17
    24          4
    25         60
    26          7
    27         72
    29         20
    30          0
    31          1
    33          0
    34          0
    35          1
    36         28
    37         44
    38          6
    39         27
    41        185
    42         36
    43        254
    44          8
    45         28
    46          4
    47         31
    48         93
    49        398
    50        999
    51         41
    52          3
    53          3
    54         12
    55         26
    56          3
    57         16
    58          8
    59         18
    60          3
    61         36
    62          7
    65          1
    66          2
    67         13
    68          1
    69         14
    70          1
    71         14
    72          6
    73        167
    74         23
    75         46
    76         11
    77         17
    78          4
    79         10
    80          6
    81          4
    82          2
    83          6
    84          1
    85          6
    86          0
    87          9
    88          2
    89         14
    90         11
    91          3
    92          4
    93          2
    94          3
    95          1
    97          1
    98          3
    99         24
   100         10
   101          8
   102          6
   103          6
   104         10
   105         59
   106         99
   107         32
   108          5
   109          1
   110          1
   111          1
   112          1
   113          5
   114          0
   115          7
   116          7
   117         12
   118          8
   119          0
   120         19
   121          4
   122          8
   123          1
   124          2
   125          2
   126          2
   127          0
   128          1
   129          2
   130          4
   131         14
   132         17
   134         13
   135          5
   136          6
   137          4
   138          4
   139          2
   140          3
   141          3
   142          2
   143          3
   144          1
   145          9
   146          6
   147          5
   148        236
   149         58
   150          6
   151          0
   152          1
   153          0
   154          1
   155          2
   156          1
   157          5
   158          0
   159          8
   160          2
   162          3
   163         35
   164         14
   165         23
   166         57
   167         11
   168         17
   169          3
   170          3
   171          3
   172          1
   173          4
   174          2
   176          1
   177          2
   178          2
   179          5
   180          3
   182          1
   183          1
   184          1
   185          2
   186          1
   187          3
   188          1
   189         15
   190         61
   191        127
   192         14
   194          1
   195          1
   196          0
   197          1
   198          1
   199          1
   200          0
   201         11
   202          2
   203         15
   204          0
   205         23
   206          4
   208         71
   209         10
   210         43
   211          5
   212          6
   213          2
   214          3
   215          2
   216          0
   217          2
   218          0
   219          2
   220          0
   225          0
   226          0
   227          1
   228          1
   229          2
   230          1
   231          9
   232          0
   233        879
   234        100
   235         10
   236          1
   237          0
   238          0
   239          0
   240          0
   241          0
   242          0
   243          0
   245          3
   246          0
   247          9
   248          4
   250        155
   251         25
   252         61
   253          9
   254         10
   255          3
   256          2
   257          1
   258          0
   259          0
   260          0
   261          2
   262          0
   263          1
   264          1
   267          7
   268          3
   269          3
   270          1
   271          3
   272          0
   273          0
   274          0
   275          1
   276          0
   277          0
   278          0
   279          0
   280          0
   285          0
   287          0
   289          2
   290          1
   291          3
   292        151
   293         27
   294         64
   295          6
   296          6
   297          2
   298          2
   299          1
   300          0
   301          0
   302          0
   303          0
   305          0
   306          0
   310          0
   311          0
   312          0
   313          0
   314          0
   315          0
   321          0
   324          0
   328          0
   329          0
   330          0
   331          0
   332          2
   333          1
   334        238
   335         38
   336         89
   337         16
   338         13
   339          2
   382          0
   383          2
   384         66
   385         11
   386         25
   387          5
   388          4
   389          0
   390          0