##TITLE=Library Entry 66632
##JCAMP-DX=Revision 4.10 
##DATA TYPE=MASS SPECTRUM
##SAMPLE DESCRIPTION=Chemical Concepts
##NAMES=HP
##CAS NAME=2-Pyridin-2-ylmethyl-cyclohexanone
##MOLFORM=C12H15NO
##CAS REGISTRY NO=113777-22-3
##MP= -300
##BP= -300
##MW= 189
##$RETENTION INDEX=0
##$CONDENSED SPECTRUM=NO
##NPOINTS= 153
##XYDATA=(XY..XY) 1 
    26          4
    27         33
    28         15
    29         11
    30          1
    31          1
    37          1
    38          4
    39         51
    40          8
    41         39
    42         12
    43          7
    44          1
    45          1
    49          1
    50         10
    51         49
    52         32
    53         19
    54          5
    55         21
    56          3
    57          4
    58          1
    59          1
    60          1
    62          3
    63         11
    64          7
    65         49
    66         24
    67         12
    68          3
    69          5
    70          4
    71          2
    72          1
    73          1
    74          2
    75          2
    76          4
    77         18
    78         56
    79         68
    80         83
    81          6
    82          1
    83          3
    84          1
    85          2
    86          1
    87          1
    88          1
    89          6
    90         10
    91         17
    92         33
    93        999
    94         67
    95          7
    96          1
    97          4
    98          1
    99          1
   100          1
   101          1
   102          1
   103          5
   104         27
   105         68
   106         95
   107         20
   108          2
   109          1
   110          3
   111          1
   112          1
   113          1
   114          1
   115          3
   116          4
   117        100
   118        135
   119         31
   120         49
   121          4
   122          1
   123          1
   124          1
   125          1
   127          1
   128          1
   129          1
   130         31
   131         15
   132        263
   133        210
   134         29
   135          2
   136          1
   137          1
   138          7
   139          1
   140          1
   141          2
   142          3
   143          5
   144         11
   145          4
   146        340
   147         43
   148          5
   149          8
   150          2
   151          2
   152          1
   153          1
   154          2
   155          1
   156          1
   157          1
   158          2
   159          2
   160         53
   161         77
   162          9
   163          1
   164          1
   165          1
   166          1
   167          2
   168          3
   169          2
   170          5
   171          2
   172         22
   173          4
   174          3
   175          2
   176          1
   177          1
   178          5
   179          1
   181          2
   185          1
   186          1
   187          2
   188         48
   189         95
   190         15
   191          2
   192          1