##TITLE=Library Entry 27135
##JCAMP-DX=Revision 4.10 
##DATA TYPE=MASS SPECTRUM
##SAMPLE DESCRIPTION=Chemical Concepts
##NAMES=HP
##CAS NAME=Adenine-9-propanamide, .alpha.-t-butoxycarbonylamino-
##MOLFORM=C13H19N7O3
##CAS REGISTRY NO=113807-12-8
##MP= -300
##BP= -300
##MW= 321
##$RETENTION INDEX=0
##$CONDENSED SPECTRUM=NO
##NPOINTS= 118
##XYDATA=(XY..XY) 1 
    26          7
    27         39
    28        105
    29        101
    30         45
    31         20
    37          5
    38         14
    39        103
    40         45
    41        396
    42         86
    43         76
    44        171
    45         19
    50         11
    51         12
    52         16
    53         42
    54         49
    55         67
    56        135
    57        999
    58         41
    59        117
    60          7
    61          2
    63         12
    64          3
    65         16
    66         46
    67         66
    68         38
    69         18
    70         16
    71          3
    72          7
    73         34
    74          4
    77          5
    78         13
    79         38
    80         21
    81         35
    82          9
    83          3
    84          2
    85          3
    86         30
    87         10
    88          4
    89          1
    91          3
    92         22
    93         10
    94         39
    95         35
    96          7
    97          2
    98          4
    99          5
   100          5
   101          2
   104          4
   105          4
   106         15
   107          9
   108        140
   109         17
   110          1
   112         17
   113         20
   114          6
   115          7
   118          2
   119         27
   120          6
   121         33
   122         10
   123          5
   124          1
   127          1
   130         14
   131          6
   132          3
   133         23
   134          9
   135        326
   136        328
   137         17
   141          3
   142          2
   147          7
   148        254
   149        199
   150         20
   151          1
   152          2
   160          8
   161          2
   175         16
   176          6
   177        496
   178         42
   179          1
   203          5
   221         83
   222          8
   247          6
   248         23
   249          2
   265          2
   266          2
   277        108
   278         15
   279          1
   321          9
   322          1