##TITLE=Library Entry 21943
##JCAMP-DX=Revision 4.10 
##DATA TYPE=MASS SPECTRUM
##SAMPLE DESCRIPTION=NIST Mass Spectrometry Data Center, 1994
##NAMES=HP
##CAS NAME=4-(n-Butoxy)benzenesulfonyl chloride
##MOLFORM=C10H13ClO3S
##CAS REGISTRY NO=1138-56-3
##MP= -300
##BP= -300
##MW= 248
##$RETENTION INDEX=0
##$CONDENSED SPECTRUM=NO
##NPOINTS= 109
##XYDATA=(XY..XY) 1 
    15         18
    18         12
    26         31
    27        290
    29        935
    30         24
    35         14
    36         30
    37         14
    38         85
    39        327
    40         36
    41        926
    42         39
    43         14
    44         11
    45         12
    48         39
    50        152
    51         63
    52         24
    53         64
    54         24
    55        125
    56        999
    57        744
    58         47
    61         10
    62         48
    63        195
    64        222
    65        338
    66         46
    67          6
    69         28
    70         23
    71          6
    73         11
    74         21
    75         79
    76        111
    77         47
    78         28
    79         26
    80          8
    81         13
    82         15
    83         26
    84         11
    85         21
    86         14
    89          5
    91         38
    92         53
    93        265
    94        161
    95         22
    96         12
    97         22
    98         15
    99         49
   100          6
   101         16
   105          7
   106         23
   107         15
   108          9
   109         94
   110         11
   111          9
   112          6
   113         10
   115          3
   119         10
   120          8
   124          8
   125         16
   126         53
   127         22
   128         18
   129          5
   130          5
   133          8
   134          5
   141         58
   142          8
   143          4
   148          6
   149         36
   150         15
   157        703
   158         59
   159         44
   175         12
   182         10
   192        120
   193         26
   194         49
   195         10
   197          5
   205         12
   207          5
   213        169
   214         27
   215         10
   248        160
   249         21
   250         60
   251          8