##TITLE=Library Entry 62535
##JCAMP-DX=Revision 4.10 
##DATA TYPE=MASS SPECTRUM
##SAMPLE DESCRIPTION=Chuck Anderson, Aldrich Chemical Co.
##NAMES=HP
##CAS NAME=(2R)-(-)-Glycidyl p-toluenesulfonate
##MOLFORM=C10H12O4S
##CAS REGISTRY NO=113826-06-5
##MP= -300
##BP= -300
##MW= 228
##$RETENTION INDEX=0
##$CONDENSED SPECTRUM=NO
##NPOINTS= 58
##XYDATA=(XY..XY) 1 
    14          8
    15         58
    18          1
    26         13
    27         74
    28         35
    29        122
    30         10
    31         82
    32          1
    36          9
    38         18
    39        154
    40         14
    41         47
    42         18
    43         53
    44         11
    45         50
    48          5
    50         24
    51         43
    52         14
    53         12
    55         14
    56         34
    57         24
    62         17
    63         64
    64         25
    65        246
    66         14
    67          2
    71          3
    73         13
    75          1
    77         43
    78         13
    79         21
    80          2
    89         77
    90         37
    91        999
    92        120
    93         10
   105         20
   107         39
   108         27
   139         72
   140          5
   155        496
   156         45
   157         26
   172         97
   173         65
   174          9
   228         48
   229          1