##TITLE=Library Entry 59779
##JCAMP-DX=Revision 4.10 
##DATA TYPE=MASS SPECTRUM
##SAMPLE DESCRIPTION=NIST Mass Spectrometry Data Center
##NAMES=HP
##CAS NAME=4-Benzyloxy-3-pyrrolin-2-one
##MOLFORM=C11H11NO2
##CAS REGISTRY NO=113896-95-0
##MP= -300
##BP= -300
##MW= 189
##$RETENTION INDEX=0
##$CONDENSED SPECTRUM=NO
##NPOINTS= 50
##XYDATA=(XY..XY) 1 
    27          3
    29          2
    30         20
    38          5
    39         42
    40          3
    41         20
    42         10
    43          2
    50         10
    51         30
    52         11
    53          4
    55          3
    62          9
    63         33
    64          9
    65        137
    66          7
    69         52
    70          3
    74          2
    75          2
    76          2
    77         14
    78          3
    79          2
    82          2
    89         33
    90         15
    91        999
    92         81
    93          2
   103          2
   104          3
   105          4
   115          4
   117          2
   120          3
   131          3
   132         77
   133          8
   158          5
   160          2
   161          3
   171          5
   172         22
   173          3
   189         48
   190          6