##TITLE=Library Entry 84912
##JCAMP-DX=Revision 4.10 
##DATA TYPE=MASS SPECTRUM
##SAMPLE DESCRIPTION=Chemical Concepts
##NAMES=HP
##CAS NAME=Glycine, N-[(phenylmethoxy)carbonyl]-
##MOLFORM=C10H11NO4
##CAS REGISTRY NO=1138-80-3
##MP= -300
##BP= -300
##MW= 209
##$RETENTION INDEX=0
##$CONDENSED SPECTRUM=NO
##NPOINTS= 75
##XYDATA=(XY..XY) 1 
    26          8
    27         44
    28         75
    29        122
    30         82
    31         19
    37          5
    38         16
    39        103
    40         11
    41         28
    42         15
    43         14
    44         83
    45         25
    46          3
    49          4
    50         52
    51        138
    52         40
    53         30
    54          8
    55          8
    56         66
    57         46
    58         10
    59          4
    60         20
    61          6
    62         18
    63         61
    64         19
    65        209
    66         14
    67          3
    69          5
    71          3
    73          5
    74         49
    75         25
    76         13
    77        281
    78         70
    79        605
    80         60
    81          6
    82         31
    83          3
    84          3
    85          3
    86          5
    87          4
    89        113
    90        191
    91        846
    92        101
    93          6
    95          3
   101         48
   102          4
   104         15
   105         41
   106         18
   107        546
   108        999
   109        128
   110          9
   118          4
   120          8
   148          4
   149          3
   164          3
   209        159
   210         19
   211          3