##TITLE=Library Entry 13414
##JCAMP-DX=Revision 4.10 
##DATA TYPE=MASS SPECTRUM
##SAMPLE DESCRIPTION=NIST Mass Spectrometry Data Center
##NAMES=HP
##CAS NAME=(E)-3-(4-Acetoxyphenyl)allyl acetate
##MOLFORM=C13H14O4
##CAS REGISTRY NO=113944-48-2
##MP= -300
##BP= -300
##MW= 234
##$RETENTION INDEX=1847
##$CONDENSED SPECTRUM=NO
##NPOINTS= 70
##XYDATA=(XY..XY) 1 
    15          1
    27          6
    38          7
    39         59
    40          9
    42         24
    43        999
    44         27
    49          2
    50         33
    51         76
    52         35
    53         20
    55         51
    62         20
    63         78
    64         27
    65        113
    66         20
    74         16
    75         20
    76         30
    77        294
    78        123
    79         52
    88          3
    89         54
    90         13
    91        156
    94        291
    95         18
   101         10
   102         57
   103        283
   104        117
   105        197
   106         19
   107        361
   108         58
   114         11
   115        125
   116         19
   117          7
   118         26
   120         62
   121        657
   122         62
   131        679
   132        336
   133        795
   134         78
   147         34
   148         13
   149        858
   150        643
   151         60
   152          5
   159         14
   163          7
   174          3
   175         32
   176          5
   191          5
   192        987
   193        114
   194         12
   202         17
   234        194
   235         28
   236          4