##TITLE=Library Entry 86029
##JCAMP-DX=Revision 4.10 
##DATA TYPE=MASS SPECTRUM
##SAMPLE DESCRIPTION=NIST Mass Spectrometry Data Center
##NAMES=HP
##CAS NAME=Isolongifolol
##MOLFORM=C15H26O
##CAS REGISTRY NO=1139-17-9
##MP= -300
##BP= -300
##MW= 222
##$RETENTION INDEX=1738
##$CONDENSED SPECTRUM=NO
##NPOINTS= 155
##XYDATA=(XY..XY) 1 
    15          2
    19          1
    27         53
    28         12
    29         99
    31        100
    39        123
    40         26
    41        456
    42         39
    43        201
    44         12
    45          6
    50          5
    51         35
    52         20
    53        164
    54         29
    55        454
    56         87
    57        114
    58          8
    59         11
    60          1
    61          1
    62          2
    63         11
    64          6
    65        112
    66         70
    67        469
    68         67
    69        405
    70        118
    71         64
    72          5
    73          2
    74          1
    75          2
    77        275
    78         67
    79        479
    80        119
    81        600
    82        310
    83        195
    84         48
    85         44
    86          4
    87          1
    89          6
    91        442
    92        185
    93        542
    94        268
    95        832
    96        133
    97        108
    98         40
    99         11
   100          1
   101          1
   102          5
   103         33
   104         17
   105        284
   106         97
   107        448
   108        250
   109        999
   110        555
   111        173
   112         61
   113         12
   114          2
   115         36
   116         13
   117         44
   118         12
   119        180
   120        102
   121        305
   122        148
   123        147
   124         57
   125         48
   126         17
   127         38
   128         16
   129         12
   130          5
   131         22
   132          9
   133        170
   134         68
   135        290
   136        107
   137        247
   138        111
   139         44
   140         17
   141          7
   142          2
   143          2
   144          1
   145         11
   146          5
   147         78
   148         94
   149        196
   150         57
   151        276
   152         95
   153         44
   154        241
   155         31
   156          2
   157          1
   159          4
   160          4
   161         96
   162         29
   163        100
   164         33
   165         16
   166         62
   167         13
   168          3
   173          1
   175         39
   176         27
   177         99
   178         54
   179         69
   180         12
   181          8
   182          1
   187          1
   189        134
   190         19
   191         61
   192          9
   193         34
   194         64
   195          8
   196          1
   203          1
   204         38
   205          8
   207         74
   208         12
   209          1
   220          1
   222         27
   223          4