##TITLE=Library Entry 87495
##JCAMP-DX=Revision 4.10 
##DATA TYPE=MASS SPECTRUM
##SAMPLE DESCRIPTION=NIST Mass Spectrometry Data Center, 1990.
##NAMES=HP
##CAS NAME=Propoxur
##MOLFORM=C11H15NO3
##CAS REGISTRY NO=114-26-1
##MP= -300
##BP= -300
##MW= 209
##$RETENTION INDEX=1606
##$CONDENSED SPECTRUM=NO
##NPOINTS= 80
##XYDATA=(XY..XY) 1 
    12          0
    13          0
    14          2
    15         12
    17          0
    26         25
    27        134
    28          7
    29         12
    30          0
    31          4
    32          0
    37          7
    38         23
    39         97
    40         10
    41         85
    42         14
    43         97
    44          3
    45          4
    46          0
    49          3
    50         25
    51         44
    52         50
    53         82
    54         28
    55         18
    56          1
    57          0
    58          0
    59          3
    60          0
    61          2
    62          9
    63         47
    64         79
    65         27
    66          6
    67          1
    68          1
    69          2
    71          0
    74          2
    75          1
    76          0
    77          3
    78          0
    79          7
    80          0
    81        114
    82         50
    83          2
    84          0
    89          0
    91          5
    92         49
    93         10
    94          2
    95          1
   103          0
   105          2
   106          0
   107          1
   110        999
   111         76
   112          6
   113          0
   119          0
   121          4
   122          0
   123          2
   133          0
   135          1
   137          6
   138          0
   152        174
   153         15
   154          1