##TITLE=Library Entry 84803
##JCAMP-DX=Revision 4.10 
##DATA TYPE=MASS SPECTRUM
##SAMPLE DESCRIPTION=NIST Mass Spectrometry Data Center, 1998.
##NAMES=HP
##CAS NAME=2-Acetyl-1-phenylhydrazine
##MOLFORM=C8H10N2O
##CAS REGISTRY NO=114-83-0
##MP= -300
##BP= -300
##MW= 150
##$RETENTION INDEX=1906
##$CONDENSED SPECTRUM=NO
##NPOINTS= 58
##XYDATA=(XY..XY) 1 
    14          2
    15         16
    26          3
    27         11
    29         26
    30          4
    31          1
    37          8
    38         23
    39         83
    40         12
    41         12
    42         18
    43        228
    44          9
    45          1
    49          2
    50         62
    51        190
    52         58
    53         31
    54          5
    55          1
    56          1
    59          1
    61          6
    62         14
    63         47
    64         43
    65        143
    66         17
    67          2
    73          2
    74         17
    75         11
    76         16
    77        414
    78        109
    79         70
    80         67
    81         14
    88          1
    90          8
    91        113
    92        231
    93         53
    94          3
   105         10
   106          7
   107        367
   108        999
   109         74
   110          1
   132          1
   133          1
   150        394
   151         39
   152          1