##TITLE=Library Entry 91015
##JCAMP-DX=Revision 4.10 
##DATA TYPE=MASS SPECTRUM
##SAMPLE DESCRIPTION=Chemical Sci. & Tec. Lab., NIST, Gaithersburg, MD 20899
##NAMES=HP
##CAS NAME=Imidodicarbonimidic diamide, N-(2-phenylethyl)-
##MOLFORM=C10H15N5
##CAS REGISTRY NO=114-86-3
##MP= -300
##BP= -300
##MW= 205
##$RETENTION INDEX=1650
##$CONDENSED SPECTRUM=NO
##NPOINTS= 47
##XYDATA=(XY..XY) 1 
    41         22
    42         43
    43        456
    44        134
    45          8
    50         10
    51         41
    52          9
    53          8
    55         40
    57          4
    58         46
    59         95
    60         58
    63         20
    65         75
    68        104
    69         17
    70          4
    72        214
    77         85
    78         24
    79         42
    84         27
    85        655
    86        105
    89         15
    91        196
    92         35
    93          9
    97         27
   101        253
   102         11
   103         51
   104         68
   105        100
   106          8
   112          9
   114        999
   115         48
   120         17
   126         10
   128         15
   146          8
   167         10
   205         28
   206          4