##TITLE=Library Entry 80468
##JCAMP-DX=Revision 4.10 
##DATA TYPE=MASS SPECTRUM
##SAMPLE DESCRIPTION=Chemical Concepts
##NAMES=HP
##CAS NAME=1,4-Dioxaspiro[4.5]decane-2,3-dimethanol, .alpha.,.alpha.,.alpha.
',.alpha.'-tetraphenyl-, (2R-trans)-
##MOLFORM=C34H34O4
##CAS REGISTRY NO=114026-76-5
##MP= -300
##BP= -300
##MW= 506
##$RETENTION INDEX=0
##$CONDENSED SPECTRUM=NO
##NPOINTS= 83
##XYDATA=(XY..XY) 1 
    27          9
    28         21
    29          9
    39         11
    41         41
    42         18
    43         23
    44          5
    45          5
    49          7
    51         21
    53          8
    55         45
    56          7
    57         21
    64          8
    67         11
    69         24
    70          8
    71         14
    76          8
    77        157
    78         23
    79         19
    81         86
    82         11
    83         14
    84          9
    85          8
    91         43
    95          8
    97         62
    98         11
    99        385
   100         32
   102         10
   103         12
   105        999
   106         79
   107         10
   111         13
   115          7
   118          5
   119          6
   123          9
   131          9
   140         35
   141         73
   142          9
   147          5
   149          9
   152         20
   153          8
   165         26
   166         10
   167         76
   168         12
   177         40
   178         70
   179         18
   180         12
   181         18
   183        308
   184         55
   191         10
   195         12
   196         19
   197         76
   198         12
   207         95
   208         75
   209         22
   225        162
   226         31
   269          3
   277         53
   278         12
   281          3
   323          9
   373         10
   374          3
   463          3
   506          4