##TITLE=Library Entry 14365
##JCAMP-DX=Revision 4.10 
##DATA TYPE=MASS SPECTRUM
##SAMPLE DESCRIPTION=H. Fales, LC, NHLBI, NIH, Bethesda, MD 20892
##NAMES=HP
##CAS NAME=Narcissidine-7-one, 1,3-diacetyl-4,12-dihydro-,(1.alpha.,2.beta.,
3.alpha.)-
##MOLFORM=C22H27NO8
##CAS REGISTRY NO=114033-84-0
##MP= -300
##BP= -300
##MW= 433
##$RETENTION INDEX=0
##$CONDENSED SPECTRUM=NO
##NPOINTS= 232
##XYDATA=(XY..XY) 1 
    41         76
    43        999
    44         70
    45         91
    50          7
    51         14
    53         23
    54          7
    55         47
    56         10
    57         21
    58          5
    59         11
    60         13
    61          5
    63         13
    65         18
    66          5
    67         30
    68         19
    69         34
    70         13
    71         24
    73          6
    74         34
    75         10
    76         12
    77         34
    78         11
    79         14
    80          9
    81         15
    82         15
    83         20
    84          9
    85         13
    87          8
    89         15
    90          9
    91         25
    92         13
    93         10
    94          7
    95         11
    96          7
    97        177
    98         23
    99          8
   101          7
   102         10
   103         14
   104         13
   105         26
   106          7
   107         11
   109          7
   110          6
   111          6
   113         11
   114          6
   115         20
   116         10
   117         15
   118         11
   119         19
   120          7
   121         10
   124         12
   125          6
   126          7
   127         12
   128         13
   129          9
   130          9
   131         13
   132         16
   133         60
   134         12
   135         13
   136          6
   137          5
   139          6
   140         10
   141         11
   142          9
   143          8
   144         10
   145         10
   146         11
   147         15
   148         12
   149         18
   150         11
   151         15
   152          9
   153          5
   154         11
   155          9
   156         15
   157         10
   158          8
   159          8
   160         10
   161         10
   162          8
   163         22
   164          9
   165         43
   166          8
   167          7
   170          8
   171          6
   172         10
   173          7
   174         14
   175         20
   176         10
   177          9
   178         14
   179          7
   180          6
   182          7
   183          7
   184          8
   185          5
   186          7
   187          6
   188         65
   189         14
   190         16
   191         33
   192          8
   193          8
   196          7
   198          8
   199          7
   200         11
   201          6
   202          7
   203         11
   204         26
   205         29
   206         21
   207         38
   208         14
   209          7
   210          7
   212         11
   213          7
   214         10
   215          5
   216          6
   218         42
   219         21
   220         14
   221          8
   222          8
   223          7
   224          8
   225          5
   226          9
   227          5
   228         15
   229          7
   230         18
   231          8
   232          5
   233          8
   234        147
   235         25
   236         15
   237          9
   238         27
   239          8
   240          9
   242         17
   243          8
   244         51
   245         27
   246         17
   247         36
   248          9
   250         10
   251         11
   252         11
   253          6
   254         10
   255          6
   256         16
   257         41
   258         18
   261         47
   262          9
   264          6
   266         52
   267         17
   268         20
   269          6
   270         27
   271         12
   272          9
   273          9
   274         17
   276          7
   280         22
   281        101
   282        465
   283         95
   284         26
   285          7
   286          8
   289          5
   296         15
   297          5
   298         75
   299         26
   300         12
   309         35
   310          8
   311         18
   312         22
   313        173
   314         49
   315         10
   316          7
   330         12
   331          5
   373          6
   374         16
   375          6
   433        112
   434         30