##TITLE=Library Entry 19426
##JCAMP-DX=Revision 4.10 
##DATA TYPE=MASS SPECTRUM
##SAMPLE DESCRIPTION=Chemical Concepts
##NAMES=HP
##CAS NAME=Nitrone, N-cyclohexyl-.alpha.-ethyl-
##MOLFORM=C9H17NO
##CAS REGISTRY NO=114098-03-2
##MP= -300
##BP= -300
##MW= 155
##$RETENTION INDEX=0
##$CONDENSED SPECTRUM=NO
##NPOINTS= 94
##XYDATA=(XY..XY) 1 
    26         48
    27        426
    28        239
    29        322
    30         96
    31         20
    37         39
    38         36
    39        458
    40         69
    41        703
    42        136
    43        108
    44         53
    45         16
    46         23
    49          4
    50         26
    51         48
    52         33
    53        147
    54        266
    55        999
    56        203
    57         35
    58        113
    59         15
    60          8
    61          3
    62          4
    63         11
    64          5
    65         28
    66         24
    67        430
    68         58
    69         23
    70         24
    71         11
    72         42
    73        137
    74        491
    75         26
    76          7
    77         37
    78         13
    79         57
    80         26
    81        177
    82        148
    83        663
    84         60
    85          9
    86          9
    87          5
    91          8
    92          6
    93         12
    94         17
    95         10
    96         33
    97         11
    98         13
    99          8
   100          6
   101          6
   103         17
   105          6
   106          6
   107          7
   108         10
   109         11
   110         51
   111          9
   112         86
   113         17
   114         13
   122          8
   123         10
   124         10
   126        489
   127         47
   128          8
   136          7
   137          6
   138         95
   139         17
   140          7
   145          8
   150          7
   154          9
   155        253
   156         32
   157          5