##TITLE=Library Entry 50887
##JCAMP-DX=Revision 4.10 
##DATA TYPE=MASS SPECTRUM
##SAMPLE DESCRIPTION=G.R.WALLER OKLAHOMA STATE UNIVERSITY, OKLAHOMA, USA.
##NAMES=HP
##CAS NAME=Cyclopentaneacetic acid, 2-carboxy-.alpha.,3-dimethyl-, dimethyl
 ester, stereoisomers
##MOLFORM=C12H20O4
##CAS REGISTRY NO=1140-18-7
##MP= -300
##BP= -300
##MW= 228
##$RETENTION INDEX=0
##$CONDENSED SPECTRUM=NO
##NPOINTS= 162
##XYDATA=(XY..XY) 1 
    30          5
    31         12
    33          4
    37          3
    38          7
    39         76
    40         22
    41        201
    42         24
    43         72
    44          4
    45         29
    46          1
    47          1
    48          1
    49          3
    50          8
    51         10
    52          9
    53         89
    54         26
    55        142
    56         62
    57         55
    58          7
    59        163
    60          7
    61          8
    62          3
    63          4
    64          3
    65         25
    66         16
    67        168
    68         55
    69        172
    70          9
    71         25
    72          8
    73         14
    74          9
    75          4
    76          3
    77         49
    78          7
    79         88
    80         41
    81        999
    82        112
    83         34
    84          3
    85         25
    86          5
    87         20
    88        244
    89         14
    90          3
    91         42
    92          9
    93         83
    94         20
    95          6
    96         49
    97         17
    98          4
    99         24
   100          4
   101        143
   102         13
   103          3
   105         12
   106          4
   107         59
   108        151
   109        636
   110         70
   111         33
   112         16
   113         85
   114         46
   115         41
   116          4
   118          1
   119          5
   120          3
   121         38
   122         10
   123          4
   124          3
   125         87
   126         22
   127         13
   128         12
   130          1
   131          1
   133          3
   134          1
   135         10
   136         83
   137         94
   138         20
   139        101
   140         38
   141        350
   142         34
   143          8
   144          5
   145          4
   146          9
   147          3
   148          1
   149         26
   150          5
   152          3
   153        198
   154         30
   155          3
   157          1
   158          1
   159          3
   160          1
   161          1
   163          3
   164         46
   165          8
   166          3
   167         12
   168        885
   169        152
   170         17
   171        154
   172         17
   173          8
   174          1
   178          1
   179          3
   181          8
   182          1
   183          1
   184          1
   186          3
   187          3
   188          1
   189          1
   191          1
   192          3
   193          1
   194          3
   195          3
   196        146
   197        253
   198         33
   199          4
   212          1
   213          3
   215          1
   224          1
   225          1
   226          1
   227          1
   228         12
   229          3