##TITLE=Library Entry 23063
##JCAMP-DX=Revision 4.10 
##DATA TYPE=MASS SPECTRUM
##SAMPLE DESCRIPTION=W.E. COLEMAN, US ENVIRON. PROT. AGENCY, CINCINNATI, OHI
O, USA
##NAMES=HP
##CAS NAME=Methyl 2-chloro-3-oxopentanoate
##MOLFORM=C6H9ClO3
##CAS REGISTRY NO=114192-09-5
##MP= -300
##BP= -300
##MW= 164
##$RETENTION INDEX=0
##$CONDENSED SPECTRUM=NO
##NPOINTS= 94
##XYDATA=(XY..XY) 1 
    14         23
    15        194
    16          5
    21          1
    25          6
    26         48
    27        251
    28         46
    29        494
    30         21
    31         22
    32          2
    33          2
    35          7
    36          7
    37         12
    38         19
    39         71
    40         11
    41        148
    42         60
    43         32
    44          3
    45         21
    47         15
    48         40
    49         33
    50         25
    51         44
    52          4
    53         30
    54          6
    55         37
    56         24
    57        999
    58         33
    59        102
    60          4
    61          9
    63         14
    64          6
    65         20
    66          4
    67          9
    69        242
    70         13
    71          7
    72          2
    73          5
    74          1
    75          3
    76        179
    77         21
    78         53
    79         52
    81         15
    83          4
    84          1
    86          2
    87          8
    88          4
    89          6
    91          5
    93          2
    94          2
    97          6
    98          5
    99          6
   100         10
   101         10
   103         55
   105         22
   106          1
   107         12
   108         50
   110         16
   111          2
   114          1
   115          2
   120          3
   121          2
   129          2
   130          5
   131         14
   132         82
   133         31
   134         24
   135         37
   137          9
   145          2
   164         59
   165          2
   166         19
   167          2