##TITLE=Library Entry 22179
##JCAMP-DX=Revision 4.10 
##DATA TYPE=MASS SPECTRUM
##SAMPLE DESCRIPTION=Chemical Concepts
##NAMES=HP
##CAS NAME=1,3-Propanediamine, N,N'-bis(dodecanoyl)-
##MOLFORM=C27H54N2O2
##CAS REGISTRY NO=114118-81-9
##MP= -300
##BP= -300
##MW= 438
##$RETENTION INDEX=0
##$CONDENSED SPECTRUM=NO
##NPOINTS= 257
##XYDATA=(XY..XY) 1 
    26         13
    27        105
    28         13
    29        225
    30        183
    31         13
    38          3
    39         45
    40         15
    41        430
    42         81
    43        753
    44        597
    45         32
    46         15
    51          5
    52          5
    53         22
    54         51
    55        312
    56        999
    57        496
    58        166
    59         43
    60         19
    65          4
    66          4
    67         46
    68         28
    69        146
    70         59
    71        170
    72         68
    73        196
    74         12
    75         44
    76          2
    77          5
    78          2
    79         21
    80         10
    81         49
    82         40
    83        104
    84         79
    85         94
    86        163
    87        234
    88         13
    91          5
    92          6
    93         12
    94         11
    95         45
    96         45
    97        120
    98        281
    99        332
   100        137
   101        161
   102         10
   103          1
   104          1
   105          3
   106          5
   107          9
   108          4
   109         23
   110         45
   111         82
   112        135
   113         33
   114         32
   115        107
   116         41
   117         82
   118          6
   119          3
   120          5
   121          6
   122          5
   123         11
   124         31
   125         48
   126         61
   127         13
   128         28
   129         73
   130         10
   131          3
   132          1
   133          2
   134          3
   135          4
   136          4
   137          9
   138         25
   139         32
   140         75
   141         13
   142         31
   143         30
   144          5
   145          2
   146          2
   147          2
   149         18
   150          4
   151          7
   152         17
   153         84
   154         51
   155         17
   156         24
   157         19
   158        449
   159         42
   160          4
   161          1
   162          1
   163          3
   164          1
   165          4
   166          5
   167         14
   168         27
   169          8
   170         24
   171        341
   172         58
   173          6
   179          2
   180          4
   181          8
   182         26
   183         64
   184         21
   185         46
   186         14
   187          2
   193          1
   194          3
   195         10
   196         22
   197          6
   198          8
   199         12
   200        123
   201         16
   203          3
   205          2
   207          1
   208          9
   209          8
   210         14
   211          5
   212          6
   213        115
   214         27
   215          3
   218          3
   219          3
   220          5
   221          4
   222          5
   224         11
   225          6
   226        246
   227         76
   228         17
   229          3
   230          2
   234          2
   236          2
   237         27
   238         90
   239         35
   240        173
   241         48
   242         11
   243          3
   251          3
   252          2
   253          5
   254          2
   255        237
   256         53
   257         58
   258          9
   259          1
   262          2
   263          2
   264          2
   265         79
   266         15
   267          3
   269         27
   270          6
   271          5
   272          1
   273          1
   275          1
   277          1
   279          2
   280         26
   281          6
   283         40
   284          9
   285          2
   291          1
   293         15
   294          3
   297          4
   298        401
   299         77
   300          8
   307          2
   311        169
   312         44
   313          5
   320          2
   322          3
   325         28
   326          7
   327          1
   335          4
   336          3
   339         21
   340          9
   341          1
   349          2
   353         35
   354         11
   363          1
   364          2
   367         23
   368          8
   369          2
   370          2
   377          2
   380          2
   381         16
   382          6
   391          2
   395         23
   396          8
   398          4
   409         18
   410          5
   419          2
   420          7
   421          2
   423          5
   424          1
   437         11
   438        125
   439         43