##TITLE=Library Entry 86629
##JCAMP-DX=Revision 4.10 
##DATA TYPE=MASS SPECTRUM
##SAMPLE DESCRIPTION=Japan AIST/NIMC Database- Spectrum MS-NW-4749
##NAMES=HP
##CAS NAME=1,3-Benzenediol, 4-(2-pyridinylazo)-
##MOLFORM=C11H9N3O2
##CAS REGISTRY NO=1141-59-9
##MP= -300
##BP= -300
##MW= 215
##$RETENTION INDEX=0
##$CONDENSED SPECTRUM=NO
##NPOINTS= 149
##XYDATA=(XY..XY) 1 
    13          1
    14          3
    15          4
    16          1
    17          1
    18          3
    25          2
    26         18
    27         98
    28         40
    29         16
    31          3
    36          3
    37         20
    38         49
    39        171
    40         39
    41         35
    42         17
    43          9
    44         14
    45          3
    47          3
    49          6
    50         41
    51        186
    52        152
    53        140
    54         14
    55         37
    56          2
    57          3
    60          1
    61          3
    62          9
    63         38
    64         21
    65         22
    66         56
    67        106
    68         16
    69        179
    70          7
    71          2
    72          1
    73          1
    74          2
    75          6
    76          9
    77         17
    78        241
    79        131
    80        108
    81        397
    82         24
    83          3
    84          1
    85          1
    86          4
    87          1
    88          1
    89          7
    90          6
    91          9
    92         14
    93         32
    94        146
    95         28
    96          5
    97          2
   101          1
   102          3
   103          8
   104         13
   105          6
   106          3
   107          6
   108         25
   109        999
   110         78
   111          7
   113          1
   114          2
   115          3
   116          6
   117         17
   118          9
   119          9
   120          5
   121          4
   122          5
   123          3
   124          1
   125          9
   126          1
   128          3
   129          3
   130         75
   131         15
   132          5
   133         11
   134          2
   135          3
   136         14
   137        422
   138         31
   139          3
   140          3
   141          5
   142          4
   143          3
   144         20
   145          6
   146         18
   147          3
   149          1
   151          1
   155          2
   156          1
   157          5
   158         64
   159         46
   160          7
   161          1
   162          1
   163          1
   165          1
   168          2
   169          2
   170         22
   171          9
   172          9
   173          4
   174          1
   183          3
   184          2
   185         11
   186        515
   187        758
   188         94
   189          9
   197          1
   198          1
   200          1
   213          2
   214          9
   215        154
   216         23
   217          2