##TITLE=Library Entry 47166
##JCAMP-DX=Revision 4.10 
##DATA TYPE=MASS SPECTRUM
##SAMPLE DESCRIPTION=Exported from NIST MS Search
##NAMES=HP
##CAS NAME=Benzenesulfonothioic acid, 4-chloro-, S-phenyl ester
##MOLFORM=C12H9ClO2S2
##CAS REGISTRY NO=1142-97-8
##MP= -300
##BP= -300
##MW= 284
##$RETENTION INDEX=0
##$CONDENSED SPECTRUM=NO
##NPOINTS= 61
##XYDATA=(XY..XY) 1 
    76         17
    77        999
    78        121
    79         34
    96          5
    97         90
    98         11
    99        170
   100         17
   101         53
   108        804
   109        127
   110         51
   111         79
   112         17
   113         25
   124          5
   125        662
   126         65
   127         42
   128          8
   129         19
   139         39
   140         11
   141        623
   142         87
   143        677
   144         93
   145        243
   146         36
   147         14
   151         17
   152         56
   153         17
   154         11
   158          2
   159        461
   160         42
   161        181
   162         14
   163          8
   175         42
   176         79
   177         17
   182         82
   183         42
   184        294
   185        175
   218         19
   219         48
   220        388
   221         90
   222        150
   223         22
   224         11
   284        402
   285         59
   286        170
   287         24
   288         14
   289          2