##TITLE=Library Entry 10823
##JCAMP-DX=Revision 4.10 
##DATA TYPE=MASS SPECTRUM
##SAMPLE DESCRIPTION=Chemical Concepts
##NAMES=HP
##CAS NAME=dl-Aspartic acid, N-acetyl-, dimethyl ester
##MOLFORM=C8H13NO5
##CAS REGISTRY NO=114249-50-2
##MP= -300
##BP= -300
##MW= 203
##$RETENTION INDEX=0
##$CONDENSED SPECTRUM=NO
##NPOINTS= 59
##XYDATA=(XY..XY) 1 
    31         30
    33         53
    39          5
    40         17
    41         41
    42        155
    43        999
    44         43
    45         25
    46          1
    47          0
    50          0
    53          6
    54          6
    55         52
    56         17
    57         16
    58         12
    59        117
    60        350
    61         10
    68         14
    69          6
    70        339
    71         15
    72          2
    74         27
    75          0
    82          1
    84         10
    85         20
    86         33
    87          5
    88        110
    89          3
    96          0
    98          5
    99          0
   100         19
   101         24
   102        969
   103         62
   104          5
   111          4
   112         10
   113         61
   114          8
   115          3
   128         13
   129          3
   130         11
   143         14
   144        426
   145         37
   146          3
   160         26
   161          6
   171          4
   172          7