##TITLE=Library Entry 42810
##JCAMP-DX=Revision 4.10 
##DATA TYPE=MASS SPECTRUM
##SAMPLE DESCRIPTION=Chemical Concepts
##NAMES=HP
##CAS NAME=3-Pentyn-1-ol, 2-[(trimethylsilyl)ethynyl]-
##MOLFORM=C10H16OSi
##CAS REGISTRY NO=114275-03-5
##MP= -300
##BP= -300
##MW= 180
##$RETENTION INDEX=0
##$CONDENSED SPECTRUM=NO
##NPOINTS= 118
##XYDATA=(XY..XY) 1 
    26          4
    27         26
    28          3
    29         32
    30          5
    31        131
    38          5
    39         44
    40          5
    41         18
    42         11
    43        204
    44         22
    45         86
    46          5
    47         19
    50         15
    51         32
    52          7
    53        117
    54         17
    55         50
    56          5
    57         14
    58         35
    59         49
    60          8
    61         34
    62         10
    63         26
    64         17
    65         19
    66         31
    67        152
    68         22
    69         76
    70         10
    71          9
    72         13
    73        999
    74        133
    75        641
    76         47
    77         67
    78         20
    79         59
    80          9
    81         22
    82         25
    83        113
    84         11
    85         29
    86          5
    87          7
    88          8
    89         76
    90        389
    91         62
    92         10
    93         65
    94          9
    95         17
    96         13
    97         93
    98         15
    99        155
   100         15
   101         21
   102          4
   103         57
   104         14
   105         48
   106         10
   107        120
   108         21
   109         30
   110         10
   111         13
   112          3
   113          4
   114          2
   115          9
   117         14
   119         55
   120         16
   121        347
   122         46
   123         29
   124          3
   125         13
   131         14
   132          5
   133         77
   134        121
   135        422
   136         55
   137         22
   139          3
   141         13
   142          3
   145         10
   147         55
   148         18
   149         55
   150        815
   151        123
   152         33
   153          5
   155         17
   157          6
   159          4
   162          7
   163         18
   164          5
   179          4
   180        119
   181         25
   182         19