##TITLE=Library Entry 37519
##JCAMP-DX=Revision 4.10 
##DATA TYPE=MASS SPECTRUM
##SAMPLE DESCRIPTION=Japan AIST/NIMC Database- Spectrum MS-NW-7569
##NAMES=HP
##CAS NAME=N(1)-(3-Methyl-1,2,4-oxadiazol-5-yl)-1-pyrrolidinecarboxamidine
##MOLFORM=C8H13N5O
##CAS REGISTRY NO=114212-83-8
##MP= -300
##BP= -300
##MW= 195
##$RETENTION INDEX=0
##$CONDENSED SPECTRUM=NO
##NPOINTS= 107
##XYDATA=(XY..XY) 1 
    14          3
    15         48
    16          1
    17          1
    18          1
    26          9
    27         52
    28        107
    29         31
    30        116
    31          4
    37          1
    38          5
    39         46
    40         33
    41        144
    42        156
    43        336
    44         40
    45          5
    48          1
    50          1
    51          3
    52          5
    53         43
    54         15
    55        124
    56         49
    57         99
    58         16
    59          5
    65          1
    66          4
    67         15
    68        138
    69        434
    70        999
    71         76
    72         51
    73          4
    78          5
    79          2
    80          2
    81          3
    82         59
    83        156
    84         72
    85        133
    86         64
    87          2
    92          1
    93          1
    94          5
    95         33
    96         21
    97         76
    98         66
    99         84
   100        102
   101          5
   107          1
   108          1
   109          6
   110         84
   111         68
   112        141
   113         29
   114          3
   121          1
   122          3
   123          5
   124         57
   125        115
   126         97
   127         56
   128          4
   135          1
   136          2
   137         30
   138         37
   139          9
   140         30
   141          3
   149          2
   150          5
   151          3
   152         11
   153        107
   154         51
   155          5
   156          2
   161          1
   163          3
   164          1
   165          2
   166         48
   167         98
   168          9
   169          1
   177          1
   178          2
   179          2
   180          3
   194         12
   195        358
   196         45
   197          4