##TITLE=Library Entry 47756
##JCAMP-DX=Revision 4.10 
##DATA TYPE=MASS SPECTRUM
##SAMPLE DESCRIPTION=J. MADSEN,DEP. ORG. CHEM.,TECH. UNIV. DENMARK,LYNGBY,DE
NMARK
##NAMES=HP
##CAS NAME=3,4-Diphenyl-1,2,3-triazole 1-oxide
##MOLFORM=C14H11N3O
##CAS REGISTRY NO=114263-91-1
##MP= -300
##BP= -300
##MW= 237
##$RETENTION INDEX=0
##$CONDENSED SPECTRUM=NO
##NPOINTS= 67
##XYDATA=(XY..XY) 1 
    50         67
    51        355
    52         36
    61          4
    62         20
    63         72
    64         29
    65         16
    69         16
    74         20
    75         26
    76         50
    77        999
    78         69
    82          7
    83          9
    87          7
    88         11
    89        153
    90        228
    91         98
    92          7
    96          6
   101          4
   102         63
   103         11
   104          9
   105         43
   106          4
   107          4
   110          4
   114          4
   115         15
   116        208
   117         25
   118          4
   119          4
   139          5
   140          3
   151          6
   152         10
   153          4
   163          4
   164          8
   165        154
   166         32
   167         10
   176          5
   177          7
   178         23
   179          5
   180         16
   181          3
   190         13
   191         19
   192         70
   193        462
   194        102
   195         10
   219         12
   220         26
   221        133
   222         23
   236          5
   237        470
   238         78
   239          7