##TITLE=Library Entry 71703
##JCAMP-DX=Revision 4.10 
##DATA TYPE=MASS SPECTRUM
##SAMPLE DESCRIPTION=Japan AIST/NIMC Database- Spectrum MS-IW-6623
##NAMES=HP
##CAS NAME=2H-Quinolizine, 4-(3-furanyl)octahydro-1,7-dimethyl-, [1R-(1.alph
a.,4.beta.,7.beta.,9a.alpha.)]-
##MOLFORM=C15H23NO
##CAS REGISTRY NO=1143-54-0
##MP= -300
##BP= -300
##MW= 233
##$RETENTION INDEX=0
##$CONDENSED SPECTRUM=NO
##NPOINTS= 156
##XYDATA=(XY..XY) 1 
    26          1
    27         16
    28         18
    29         19
    30         13
    31          2
    39         32
    40          9
    41         77
    42         22
    43         12
    44          6
    45          1
    50          1
    51          8
    52          5
    53         30
    54         17
    55        118
    56         24
    57          9
    58          2
    63          2
    64          1
    65         23
    66         17
    67         26
    68         25
    69         27
    70         12
    71          3
    72          2
    73          1
    74          1
    77         35
    78          8
    79         53
    80         24
    81        112
    82        101
    83         12
    84          7
    87          1
    88          2
    89          1
    91         21
    92         14
    93         31
    94        506
    95         63
    96         69
    97        221
    98        999
    99         69
   100          2
   102          1
   103          4
   104          2
   105         10
   106         12
   107         87
   108         53
   109         14
   110         18
   111         15
   112          7
   114          1
   115          4
   116          2
   117          9
   118          9
   119         11
   120         13
   121         74
   122         16
   123          7
   124         40
   125         59
   126         22
   127          2
   128          1
   129          1
   130          2
   131          5
   132          6
   133          7
   134         25
   135         27
   136        378
   137         77
   138         19
   139          8
   140          1
   143          1
   144          4
   145          4
   146          8
   147          6
   148         90
   149         22
   150         11
   151          8
   152          6
   157          1
   158          3
   159          2
   160          8
   161          4
   162         86
   163         28
   164         15
   165          2
   166         15
   167          2
   172          2
   173          1
   174          9
   175          5
   176         72
   177        103
   178         64
   179          8
   184          1
   186          4
   187          1
   188         13
   189          4
   190        180
   191         39
   192          5
   198          1
   200          4
   201          1
   202         20
   203          9
   204        128
   205         32
   206          4
   212          2
   214          7
   215          2
   216         41
   217          7
   218         63
   219         10
   220          1
   225          1
   227          2
   228          3
   229          9
   230         15
   231         56
   232        163
   233        526
   234         89
   235          8