##TITLE=Library Entry 100624
##JCAMP-DX=Revision 4.10 
##DATA TYPE=MASS SPECTRUM
##SAMPLE DESCRIPTION=NIST Mass Spectrometry Data Center
##NAMES=HP
##CAS NAME=(1aR,7R,7aR,7bS)-(+)-1a,2,3,5,6,7,7a,7b-Octahydro-1,1,7,7a-tetram
ethyl-1H-cyclopropa[a]naphthalen-3-one
##MOLFORM=C15H22O
##CAS REGISTRY NO=114339-93-4
##MP= -300
##BP= -300
##MW= 218
##$RETENTION INDEX=1685
##$CONDENSED SPECTRUM=NO
##NPOINTS= 99
##XYDATA=(XY..XY) 1 
    27         55
    28         20
    29         54
    30          2
    39        139
    40         25
    41        296
    42         38
    43        136
    44          7
    51         64
    52         31
    53        113
    54         19
    55        230
    56         70
    57         19
    58          7
    59         11
    62          4
    63         37
    64         21
    65        150
    66         37
    67         84
    69         55
    75          8
    76          8
    77        271
    78         80
    79        168
    80         30
    81         35
    83         19
    85         15
    87          5
    89         24
    90          9
    91        609
    92         74
    93        105
    94         20
   101          6
   102         15
   103         92
   104         45
   105        507
   106         83
   107         85
   108         16
   115        146
   116         42
   117        145
   118         47
   119        999
   120        138
   121         50
   127         22
   128         82
   129         59
   130         15
   131         77
   132         30
   133        208
   134         82
   135         34
   142         41
   143        105
   144         15
   145         69
   146         26
   147        259
   148         54
   149        299
   150         33
   156          5
   157        102
   158         16
   159         63
   160         13
   161        395
   162        103
   163         35
   170          3
   171          6
   172          4
   174        195
   175        614
   176        142
   177         18
   185         30
   186          7
   190          7
   200          7
   203        117
   204         16
   217         10
   218        153
   219         27