##TITLE=Library Entry 12862
##JCAMP-DX=Revision 4.10 
##DATA TYPE=MASS SPECTRUM
##SAMPLE DESCRIPTION=NIST Mass Spectrometry Data Center, 2010
##NAMES=HP
##CAS NAME=1-((1R,2R,3R)-2-(3-Isopropylfuran-2-yl)-3-methylcyclopentyl)ethan
one
##MOLFORM=C15H22O2
##CAS REGISTRY NO=1143-45-9
##MP= -300
##BP= -300
##MW= 234
##$RETENTION INDEX=1588
##$CONDENSED SPECTRUM=NO
##NPOINTS= 118
##XYDATA=(XY..XY) 1 
    27         34
    29         29
    39         84
    40         13
    41        182
    42         17
    43        999
    44         24
    45         14
    50          5
    51         40
    52         16
    53         69
    55        139
    56          9
    57         44
    58          4
    62          5
    63         19
    64          8
    65         77
    66         17
    67         47
    68         18
    69        106
    71         85
    74          5
    75          5
    76          9
    77        188
    78         36
    79        128
    80         24
    81        228
    82         12
    84          7
    85         18
    88          3
    89         12
    90          6
    91        278
    92         34
    93         88
    95        123
    96         22
    97         54
    98          6
   102         10
   103         27
   107        137
   108         37
   109        390
   110        215
   111        108
   112         10
   115         64
   116         31
   117         48
   118         11
   119        146
   120         27
   121        239
   122         62
   123        470
   124         77
   125         21
   127         12
   128         33
   129         35
   130         15
   131        121
   132         21
   133        110
   135        182
   136         64
   137         93
   138          8
   139          7
   144          9
   145         56
   146         11
   147         88
   149        431
   150        116
   151         15
   152          7
   154          5
   155          6
   158         16
   159         49
   163        595
   164        177
   165         20
   166          3
   169          3
   173         42
   174          7
   175         21
   176         71
   177         52
   178         14
   179         61
   180          8
   187          9
   188          4
   191        426
   192         59
   193          6
   201         54
   202          9
   216         13
   217          4
   219         78
   220         15
   233          2
   234        513
   235         78
   236          8