##TITLE=Library Entry 16363
##JCAMP-DX=Revision 4.10 
##DATA TYPE=MASS SPECTRUM
##SAMPLE DESCRIPTION=Japan AIST/NIMC Database- Spectrum MS-NW-7571
##NAMES=HP
##CAS NAME=1,1-Dimethyl-3-(3-methyl-1,2,4-oxadiazol-5-yl)guanidine
##MOLFORM=C6H11N5O
##CAS REGISTRY NO=114431-16-2
##MP= -300
##BP= -300
##MW= 169
##$RETENTION INDEX=0
##$CONDENSED SPECTRUM=NO
##NPOINTS= 104
##XYDATA=(XY..XY) 1 
    12          1
    13          3
    14         10
    15        149
    16          3
    17          4
    18         47
    25          2
    26          9
    27         32
    28        116
    29         15
    30        207
    31         19
    32          2
    38          8
    39         13
    40         44
    41         70
    42        361
    43        478
    44        999
    45        162
    46        163
    47          5
    51          1
    52          6
    53         90
    54         14
    55         59
    56         53
    57        419
    58         63
    59         20
    60          8
    65          1
    66          4
    67         27
    68         45
    69        232
    70         83
    71        225
    72         89
    73         77
    74          9
    76          1
    77          1
    80          2
    81          2
    82         14
    83        105
    84         81
    85         57
    86         47
    87          5
    88         14
    92          3
    93          1
    94          2
    95          2
    96          7
    97         83
    98        181
    99        246
   100        115
   101         11
   102          1
   109          2
   110          8
   111        209
   112         67
   113         47
   114         44
   115          3
   121          1
   122          2
   123          3
   124          4
   125        257
   126         58
   127        135
   128        113
   129          9
   130          1
   136         19
   137         24
   138          7
   139          2
   140         18
   141          3
   147          1
   149          1
   150          2
   151          6
   152         62
   153          8
   154         40
   155          3
   156          2
   167          1
   168         13
   169        547
   170         58
   171          5