##TITLE=Library Entry 7084
##JCAMP-DX=Revision 4.10 
##DATA TYPE=MASS SPECTRUM
##SAMPLE DESCRIPTION=Chemical Concepts
##NAMES=HP
##CAS NAME=1,3-Cyclohexanediol, 2,5-dimethyl-2-nitro-
##MOLFORM=C8H15NO4
##CAS REGISTRY NO=114454-79-4
##MP= -300
##BP= -300
##MW= 189
##$RETENTION INDEX=0
##$CONDENSED SPECTRUM=NO
##NPOINTS= 123
##XYDATA=(XY..XY) 1 
    26         17
    27        265
    28         61
    29        285
    30         61
    31        144
    37          4
    38         13
    39        266
    40         51
    41        611
    42        111
    43        999
    44        103
    45        109
    46         16
    47         51
    48          3
    49          2
    50         12
    51         35
    52         17
    53        177
    54         48
    55        953
    56        114
    57        259
    58        203
    59         31
    60          8
    61          8
    62          4
    63          9
    64          4
    65         29
    66         14
    67         93
    68         22
    69        343
    70         35
    71        580
    72        116
    73        118
    74         10
    75          5
    76         26
    77         40
    78          9
    79        108
    80         23
    81        269
    82         64
    83        360
    84         64
    85        193
    86         29
    87        125
    88         42
    89          6
    90          2
    91         76
    92         14
    93         16
    94          8
    95        203
    96         31
    97        355
    98         83
    99        135
   100        117
   101         52
   102         77
   103          7
   104        131
   105         70
   106          7
   107        289
   108         43
   109         37
   110         18
   111         22
   112         14
   113         68
   114         16
   115         17
   116          2
   119          2
   121          3
   122          2
   123         26
   124         77
   125        510
   126         69
   127         82
   128         69
   129          7
   130          1
   131          1
   135          1
   136          8
   137          4
   138          5
   139          4
   140          3
   141        100
   142        108
   143         44
   144          5
   153          7
   154         79
   155         21
   156         10
   157          2
   165          2
   166          1
   167          3
   168          7
   169          2
   170          8
   171          5
   172        105
   173         10
   174          1