##TITLE=Library Entry 79749
##JCAMP-DX=Revision 4.10 
##DATA TYPE=MASS SPECTRUM
##SAMPLE DESCRIPTION=Japan AIST/NIMC Database- Spectrum MS-NW-8198
##NAMES=HP
##CAS NAME=Methanone, (4-nitrophenyl)phenyl-
##MOLFORM=C13H9NO3
##CAS REGISTRY NO=1144-74-7
##MP= -300
##BP= -300
##MW= 227
##$RETENTION INDEX=0
##$CONDENSED SPECTRUM=NO
##NPOINTS= 76
##XYDATA=(XY..XY) 1 
    18          1
    27          6
    28         15
    30          8
    32          1
    37          1
    38          3
    39          7
    44          1
    49          1
    50         53
    51        101
    52          6
    53          3
    61          1
    62          4
    63         12
    64          9
    65          2
    73          1
    74         16
    75         35
    76        109
    77        418
    78         28
    79          1
    86          1
    87          2
    88          1
    89          1
    90          3
    91          1
    92         31
    93          2
    98          1
    99          1
   100          1
   101          2
   102          2
   103          2
   104         86
   105        999
   106         76
   107          4
   113          1
   114          1
   115          5
   120         27
   121          2
   122          2
   125          1
   126          5
   127          3
   134          1
   139          2
   140          1
   141          6
   149          1
   150        109
   151         23
   152         37
   153         18
   154          2
   163          1
   168          1
   169          3
   180         14
   181         21
   182          3
   197          2
   210          9
   211          3
   226          1
   227        361
   228         52
   229          5