##TITLE=Library Entry 66725
##JCAMP-DX=Revision 4.10 
##DATA TYPE=MASS SPECTRUM
##SAMPLE DESCRIPTION=Chemical Concepts
##NAMES=HP
##CAS NAME=3-Pentenamide, 4-methyl-N-phenyl-
##MOLFORM=C12H15NO
##CAS REGISTRY NO=114475-19-3
##MP= -300
##BP= -300
##MW= 189
##$RETENTION INDEX=0
##$CONDENSED SPECTRUM=NO
##NPOINTS= 150
##XYDATA=(XY..XY) 1 
    26          6
    27         71
    28          7
    29         22
    30          0
    31          1
    36          1
    37          3
    38         16
    39        132
    40         28
    41        350
    42         57
    43         19
    45          1
    46          1
    47          1
    48          0
    49          1
    50         17
    51         72
    52         16
    53         57
    54         17
    55        101
    56          9
    57          4
    58          1
    59          2
    60          0
    61          2
    62          5
    63         20
    64         32
    65        102
    66         61
    67         58
    68         30
    69        271
    70        326
    71         17
    72          1
    73          1
    74          5
    75          2
    76          8
    77        210
    78         21
    79          5
    80          2
    81         72
    82          3
    83          1
    84          1
    85          0
    86          0
    88          1
    89          3
    90          4
    91         38
    92        150
    93        999
    94        101
    95         23
    96        213
    97         23
    98          3
    99          1
   100          0
   102          2
   103          0
   104         13
   105          4
   106          4
   107          1
   108          1
   109          0
   111          1
   112          2
   113          1
   114          1
   115          3
   116          0
   117          6
   118          8
   119        112
   120        212
   121         18
   122          1
   123          2
   125          0
   127          1
   128          2
   129          2
   130          7
   131          8
   132         10
   133          5
   134          2
   135          7
   136          2
   137          1
   138          1
   140          1
   141          1
   142          2
   143          1
   144          3
   145          2
   146         14
   147          4
   148          3
   149          0
   150          1
   151          1
   153          0
   154          1
   155          1
   156          0
   157          1
   158          5
   159          3
   160          1
   161          0
   163          1
   164          2
   165          1
   166          1
   167          1
   168          2
   169          1
   170          2
   171          1
   172          3
   173          5
   174         32
   175          4
   177          2
   179          1
   181          1
   184          0
   185          1
   186          1
   187          2
   188         12
   189        590
   190         80
   191          7
   192          0
   193          1