##TITLE=Library Entry 9684
##JCAMP-DX=Revision 4.10 
##DATA TYPE=MASS SPECTRUM
##SAMPLE DESCRIPTION=Chemical Concepts
##NAMES=HP
##CAS NAME=2-Oxabicyclo[2.2.1]heptane-1-carboxylic acid, 4,7,7-trimethyl-3-o
xo-, 3-(acetyloxy)-1-methyl-2-nitrobutyl ester, [1s-[1.alpha.(1s*,2s*,3R*),4
.beta.]]-
##MOLFORM=C17H25NO8
##CAS REGISTRY NO=114455-02-6
##MP= -300
##BP= -300
##MW= 371
##$RETENTION INDEX=0
##$CONDENSED SPECTRUM=NO
##NPOINTS= 113
##XYDATA=(XY..XY) 1 
    28         79
    29         36
    30         71
    31         41
    39        142
    40         35
    41        481
    42         54
    43        999
    44         27
    45         45
    51         19
    52         11
    53         85
    54         30
    55        396
    56        100
    57         65
    60         10
    61         57
    65         46
    66         14
    67        391
    68         57
    69        272
    70         43
    71         32
    74         19
    77         40
    78         20
    79         54
    81         52
    82        105
    83        722
    84         91
    85        264
    86         45
    87         16
    90         15
    91         32
    93         93
    94         17
    95         62
    96         38
    97        249
    98         30
    99         66
   100        103
   101         22
   103         23
   105         10
   106         11
   107        120
   108         33
   109        697
   110         64
   111         46
   112          8
   114         45
   119         12
   121        175
   122         25
   123         64
   124         55
   125        343
   126         33
   127         77
   128         15
   129         33
   130          8
   133         82
   134        161
   135         72
   136        201
   137         54
   139         74
   141         21
   143         44
   144         18
   149         27
   151         42
   152         66
   153        179
   154         24
   155          9
   169         43
   170         47
   174        511
   176         40
   181         76
   182         11
   199         50
   200          5
   207          3
   219          5
   221          5
   224          6
   237         10
   238          8
   241         12
   252          7
   253          5
   265         58
   266         10
   267         15
   268         16
   279          6
   283         14
   295          4
   314          5
   325         20
   343         42
   344          7