##TITLE=Library Entry 11190
##JCAMP-DX=Revision 4.10 
##DATA TYPE=MASS SPECTRUM
##SAMPLE DESCRIPTION=Chemical Concepts
##NAMES=HP
##CAS NAME=2H-Thiopyran-3,5-diol, tetrahydro-4-methyl-4-nitro-, diacetate (e
ster), (3.alpha.,4.beta.,5.alpha.)-
##MOLFORM=C10H15NO6S
##CAS REGISTRY NO=114454-77-2
##MP= -300
##BP= -300
##MW= 277
##$RETENTION INDEX=0
##$CONDENSED SPECTRUM=NO
##NPOINTS= 87
##XYDATA=(XY..XY) 1 
    27         79
    28         36
    29         51
    30         36
    31         23
    35          8
    39         64
    40          9
    41         69
    42         36
    43        999
    44         78
    45         96
    46         37
    47         32
    49          6
    50          4
    51         16
    52          7
    53         70
    54         27
    55        140
    56         19
    57         10
    58         13
    59        107
    60         59
    61         48
    65         20
    66          5
    67         64
    68          7
    69         10
    71         90
    72         13
    73         14
    74         28
    77         22
    78          8
    79         15
    81         16
    82         59
    83         83
    84         51
    85         99
    86         15
    87         43
    89          8
    91         13
    95         34
    96          8
    97         59
    98         10
    99        199
   100         33
   101        262
   102         21
   103         21
   110         20
   111        938
   112        113
   113         74
   114         10
   115          7
   119         12
   127         16
   128         43
   129        405
   130         33
   131         22
   145         20
   146          5
   149          7
   161          5
   171        519
   172         50
   173         28
   174          4
   189         48
   190          5
   205          4
   217          4
   218         27
   219          2
   231          7
   277          2
   278          0