##TITLE=Library Entry 26448
##JCAMP-DX=Revision 4.10 
##DATA TYPE=MASS SPECTRUM
##SAMPLE DESCRIPTION=Chemical Concepts
##NAMES=HP
##CAS NAME=2-(E)-Heptenoic acid, (4S)-4-[(t-butoxycarbonyl)amino]-6-methyl-,
 methyl ester
##MOLFORM=C14H25NO4
##CAS REGISTRY NO=114423-50-6
##MP= -300
##BP= -300
##MW= 271
##$RETENTION INDEX=0
##$CONDENSED SPECTRUM=NO
##NPOINTS= 150
##XYDATA=(XY..XY) 1 
    26          2
    27         47
    28         10
    29        134
    30         23
    31         12
    33          1
    35          0
    37          0
    38          1
    39         34
    40         14
    41        201
    42         19
    43         56
    44         14
    45          4
    46          0
    47          0
    50          0
    51          2
    52          5
    53         27
    54         25
    55         37
    56         46
    57        999
    58         45
    59         45
    60          1
    61         14
    62          3
    63          0
    65          2
    66          1
    67          8
    68         10
    69          7
    70         22
    71          5
    72          2
    73          5
    74          4
    75          0
    77          4
    78          2
    79          7
    80          4
    81         32
    82         57
    83         20
    84          9
    85          6
    86         32
    87          3
    88          2
    89          0
    90          0
    91          2
    92          0
    93          5
    94          5
    95         37
    96         45
    97         12
    98         14
    99          2
   100          7
   101          4
   102          1
   103          2
   104          0
   105          0
   106          0
   107          1
   108          1
   109          3
   110          6
   111          8
   112         23
   113         14
   114        626
   115         54
   116          5
   117          0
   120          0
   121          1
   122          3
   123         13
   124          7
   125          1
   126          6
   127          9
   128         26
   129         23
   130         22
   131          1
   132          0
   137          0
   138         10
   139         18
   140         58
   141          8
   142          6
   143          5
   144          4
   145          4
   146          0
   148          0
   153          0
   154          8
   155         11
   156         28
   157          3
   158        301
   159         32
   160          4
   161          0
   164          0
   165          0
   166         26
   167          2
   168          0
   170         31
   171         24
   172          9
   173          1
   174          1
   182          0
   183          9
   184          2
   185          0
   186          3
   187          0
   197          0
   198         44
   199          9
   200          5
   201          1
   204          0
   212          0
   213          0
   214        149
   215        111
   216         14
   217          1
   228          1
   229          1
   256          3
   257          0