##TITLE=Library Entry 11965
##JCAMP-DX=Revision 4.10 
##DATA TYPE=MASS SPECTRUM
##SAMPLE DESCRIPTION=Chemical Concepts
##NAMES=HP
##CAS NAME=Acetate, 3-(acetyloxy)-2-nitro-2-benzylpropyl
##MOLFORM=C14H17NO6
##CAS REGISTRY NO=114454-69-2
##MP= -300
##BP= -300
##MW= 295
##$RETENTION INDEX=0
##$CONDENSED SPECTRUM=NO
##NPOINTS= 141
##XYDATA=(XY..XY) 1 
    26          2
    27         12
    28          9
    29         11
    30         11
    31          5
    37          1
    38          2
    39         34
    40          6
    41         27
    42         11
    43        999
    44         25
    45          5
    46          1
    50          8
    51         24
    52          6
    53          5
    54          0
    55         13
    56          3
    57          7
    58          0
    60          2
    61          8
    62          2
    63         15
    64          5
    65         63
    66          4
    67          0
    68          2
    69          2
    70          0
    71          1
    72          1
    73          8
    74          2
    75          4
    76          7
    77         36
    78         28
    79         15
    80          0
    81          0
    82          0
    83          1
    84          0
    85          2
    86          0
    87          1
    88          2
    89         19
    90          9
    91        358
    92         38
    93          5
    94          2
    95          1
    96          2
    97          1
    98          0
    99          2
   100          0
   101          2
   102         10
   103         27
   104         14
   105         24
   106          2
   107          6
   108          1
   109          0
   110          0
   111          0
   112          1
   113          2
   114          4
   115        147
   116        123
   117        230
   118         34
   119          9
   120          3
   121          2
   122          1
   123          0
   124          0
   125          1
   126          1
   127         26
   128        488
   129        964
   130        134
   131         31
   132          5
   133         20
   134         10
   135          1
   136          0
   140          2
   141          1
   142          0
   143          2
   144          3
   145         84
   146         98
   147        107
   148         14
   159          1
   160          7
   161          1
   162          0
   163          2
   164          1
   165          0
   166          0
   173          1
   174          1
   175          1
   176          1
   177          0
   178          0
   179          0
   187          1
   188         24
   189        116
   190         17
   191          1
   192          0
   193          0
   194          0
   207          2
   208          0
   248          8
   249         15
   250          2
   278          0
   296          1