##TITLE=Library Entry 9495
##JCAMP-DX=Revision 4.10 
##DATA TYPE=MASS SPECTRUM
##SAMPLE DESCRIPTION=Chemical Concepts
##NAMES=HP
##CAS NAME=Acetic acid, 5-acetoxy-4-nitrotetrahydropyran-3-yl ester
##MOLFORM=C9H13NO7
##CAS REGISTRY NO=114454-75-0
##MP= -300
##BP= -300
##MW= 247
##$RETENTION INDEX=0
##$CONDENSED SPECTRUM=NO
##NPOINTS= 43
##XYDATA=(XY..XY) 1 
    27         11
    28          5
    29          7
    30          5
    31          4
    39         12
    41         23
    42         10
    43        999
    44         16
    45         17
    51          3
    52          4
    53         19
    55         11
    57         19
    60         15
    61          5
    68          7
    69         73
    70         11
    71         14
    73          6
    80          3
    81         90
    82          7
    83          7
    85          7
    86          4
    95          4
    97          8
    98          5
    99         50
   103          3
   110          4
   111          4
   115          4
   127          7
   141          8
   159         22
   201          0
   233          0
   248          0