##TITLE=Library Entry 52832
##JCAMP-DX=Revision 4.10 
##DATA TYPE=MASS SPECTRUM
##SAMPLE DESCRIPTION=Japan AIST/NIMC Database- Spectrum MS-NW-7568
##NAMES=HP
##CAS NAME=N(1)-(3-Methyl-1,2,4-oxadiazol-5-yl)-1-piperidinecarboxamidine
##MOLFORM=C9H15N5O
##CAS REGISTRY NO=114431-15-1
##MP= -300
##BP= -300
##MW= 209
##$RETENTION INDEX=0
##$CONDENSED SPECTRUM=NO
##NPOINTS= 142
##XYDATA=(XY..XY) 1 
    12          1
    13          1
    14          5
    15         74
    16          1
    17          2
    18          1
    25          1
    26         17
    27        122
    28        176
    29         85
    30        211
    31          5
    37          1
    38          9
    39        100
    40         50
    41        408
    42        312
    43        388
    44        100
    45         37
    46          1
    50          3
    51          7
    52         10
    53         64
    54         80
    55        340
    56        312
    57        227
    58         25
    59         19
    60          4
    61          1
    62          2
    63          1
    64          1
    65          7
    66          7
    67         46
    68         93
    69        180
    70         85
    71         26
    72         53
    73         12
    75          1
    77          1
    78          1
    79          4
    80         17
    81         47
    82        156
    83        999
    84        964
    85        101
    86         62
    87         24
    88          2
    92          5
    93          3
    94          8
    95         12
    96         32
    97         55
    98        127
    99        121
   100        162
   101          9
   102          1
   105          1
   106          1
   107          3
   108         21
   109         55
   110         41
   111         71
   112         90
   113         46
   114          4
   118          1
   119          1
   120          1
   121          3
   122          7
   123         26
   124         60
   125        129
   126         78
   127        107
   128          9
   129          1
   134          2
   135          6
   136         12
   137         25
   138         86
   139         55
   140         75
   141         22
   142          3
   148          3
   149          5
   150         16
   151        301
   152        123
   153         19
   154         46
   155          6
   156          1
   162          4
   163          9
   164          6
   165          5
   166         30
   167         97
   168         39
   169          5
   170          3
   175         14
   176          7
   177         12
   178          3
   179          3
   180         24
   181          5
   182          1
   190         19
   191          9
   192         69
   193         11
   194          7
   195          1
   205          1
   206          1
   207          2
   208         17
   209        359
   210         50
   211          5