##TITLE=Library Entry 61303
##JCAMP-DX=Revision 4.10 
##DATA TYPE=MASS SPECTRUM
##SAMPLE DESCRIPTION=Japan AIST/NIMC Database- Spectrum MS-NW-2521
##NAMES=HP
##CAS NAME=L-Serine, N-[(phenylmethoxy)carbonyl]-
##MOLFORM=C11H13NO5
##CAS REGISTRY NO=1145-80-8
##MP= -300
##BP= -300
##MW= 239
##$RETENTION INDEX=0
##$CONDENSED SPECTRUM=NO
##NPOINTS= 104
##XYDATA=(XY..XY) 1 
    15        107
    16          6
    17         24
    18         79
    19          4
    22          1
    25          2
    26         11
    27         47
    28        195
    29         56
    30         32
    31         63
    32          7
    36          1
    37          9
    38         18
    39         88
    40         21
    41         52
    42        270
    43         29
    44        103
    45         40
    46          7
    47          1
    49          5
    50         49
    51        118
    52         33
    53         21
    54          6
    55         13
    56          6
    57          8
    58         44
    59          5
    60         53
    61          7
    62         14
    63         39
    64         13
    65        122
    66          8
    68          2
    69          9
    70          4
    71          3
    72          8
    73         18
    74         33
    75         15
    76          9
    77        254
    78         60
    79        497
    80         51
    81          3
    83         11
    84          3
    85         16
    86        386
    87         20
    88          4
    89         53
    90         70
    91        999
    92        116
    93          5
    97          1
   101         43
   102          3
   104         10
   105         32
   106         13
   107        340
   108        696
   109         55
   110          4
   113          3
   116          2
   118          4
   120          2
   130          1
   131         11
   132          8
   133          4
   148         25
   149          3
   150         10
   151          2
   164          2
   165          2
   167          5
   168          3
   176          1
   177          3
   178          2
   179          2
   180          2
   194          2
   209          2
   239         15
   240          2