##TITLE=Library Entry 84359
##JCAMP-DX=Revision 4.10 
##DATA TYPE=MASS SPECTRUM
##SAMPLE DESCRIPTION=Japan AIST/NIMC Database- Spectrum MS-NW-2480
##NAMES=HP
##CAS NAME=Chloroacetyl-L-tyrosine
##MOLFORM=C11H12ClNO4
##CAS REGISTRY NO=1145-56-8
##MP= -300
##BP= -300
##MW= 257
##$RETENTION INDEX=0
##$CONDENSED SPECTRUM=NO
##NPOINTS= 113
##XYDATA=(XY..XY) 1 
    14          2
    15          4
    17          2
    18          7
    26          2
    27         13
    28         15
    29          7
    30          2
    31          6
    35          9
    36         94
    37          3
    38         29
    39         20
    40          2
    41          6
    42         11
    43         31
    44         10
    45          4
    46          1
    49         10
    50          7
    51         17
    52         11
    53         12
    54          1
    55          8
    56          1
    57          2
    58          2
    59          1
    60          2
    61          2
    62          3
    63          8
    64          3
    65          9
    66          3
    67          2
    68          2
    69          2
    70          1
    71          1
    73          1
    74          9
    75          2
    76          2
    77         67
    78         22
    79         12
    80          2
    81          4
    83          1
    86          1
    87          1
    88          1
    89          4
    90          5
    91         15
    92          2
    93          1
    94          8
    95          2
    96          1
    97          1
   103          1
   104          2
   105          6
   106         11
   107        999
   108         91
   109          6
   115          2
   116          2
   117          2
   118          9
   119          8
   120          7
   121          2
   123          3
   131          1
   132          5
   133         39
   134         10
   135         13
   136         13
   137          1
   144          1
   145          1
   146          3
   147         12
   148          3
   159          1
   162          1
   163         13
   164        255
   165         25
   166          3
   175          2
   176          1
   177          3
   178          1
   203         10
   204          1
   211          1
   212          2
   219          1
   221          9
   222          1
   257          2
   259          1