##TITLE=Library Entry 79331
##JCAMP-DX=Revision 4.10 
##DATA TYPE=MASS SPECTRUM
##SAMPLE DESCRIPTION=Japan AIST/NIMC Database- Spectrum MS-NW-2487
##NAMES=HP
##CAS NAME=Benzoylglycylglycine
##MOLFORM=C11H12N2O4
##CAS REGISTRY NO=1145-32-0
##MP= -300
##BP= -300
##MW= 236
##$RETENTION INDEX=0
##$CONDENSED SPECTRUM=NO
##NPOINTS= 120
##XYDATA=(XY..XY) 1 
    12          1
    14          3
    15          5
    16          3
    17          4
    18         12
    26          4
    27         20
    28         65
    29         10
    30         96
    31          7
    37          3
    38          6
    39         13
    40          3
    41          6
    42         16
    43          8
    44         45
    45          5
    49          2
    50         38
    51        117
    52         11
    53          2
    54          1
    55          2
    56         20
    57          4
    58          4
    59          4
    60          1
    61          1
    62          3
    63          7
    64          3
    65          3
    66          1
    67          2
    68          1
    69          2
    70          1
    71         26
    72          2
    73          2
    74         14
    75         12
    76         36
    77        389
    78         34
    79          3
    81          1
    82          1
    83          1
    84          1
    85          6
    86          1
    87          2
    88          1
    89         11
    90          9
    91          8
    92          1
    94          1
    95          1
    97          1
   102          3
   103         34
   104         28
   105        999
   106         81
   107          5
   111          1
   113          2
   114          7
   115          1
   116         10
   117        125
   118         37
   119          5
   120          2
   121          9
   122          9
   131          1
   132          2
   133          6
   134        220
   135        305
   136         26
   137          2
   139          4
   141          1
   143          1
   144          4
   145          9
   146          3
   147          1
   149          2
   157          1
   160          5
   161         51
   162         34
   163          5
   169          1
   172         19
   173         10
   174         10
   175          4
   189          2
   190         15
   191          2
   192          6
   193          1
   200          9
   201          2
   217          4
   218         39
   219          5
   236          1