##TITLE=Library Entry 59739
##JCAMP-DX=Revision 4.10 
##DATA TYPE=MASS SPECTRUM
##SAMPLE DESCRIPTION=A.A.Kutin, Moscow, Russia
##NAMES=HP
##CAS NAME=Benzene, 1-nitro-4-(phenylmethoxy)-
##MOLFORM=C13H11NO3
##CAS REGISTRY NO=1145-76-2
##MP= -300
##BP= -300
##MW= 229
##$RETENTION INDEX=0
##$CONDENSED SPECTRUM=NO
##NPOINTS= 84
##XYDATA=(XY..XY) 1 
    33          0
    34          1
    36          1
    37          2
    38         12
    39         39
    40         22
    41         12
    42          1
    43          2
    44         15
    45          1
    46          0
    48          0
    50         15
    51         21
    52          7
    53          2
    54          1
    55          1
    56          0
    57          0
    58          0
    60          0
    61          1
    62          9
    63         37
    64         20
    65         99
    66          4
    67          0
    68          0
    69          0
    70          0
    71          0
    73          0
    74          3
    75          4
    76          6
    77          8
    78          2
    79          1
    80          1
    81          0
    82          0
    83          0
    84          0
    85          0
    86          0
    87          0
    89         18
    91        999
    92         73
    93          2
    94          0
    96          0
   102          0
   103          0
   104          0
   105          2
   106          1
   107          0
   108          3
   109          0
   111          0
   115          1
   120          0
   122          0
   127          0
   128          0
   139          0
   141          0
   150          0
   151          0
   152          1
   153          1
   154          0
   171          0
   181          1
   182          0
   199          0
   229         20
   230          2
   231          0