##TITLE=Library Entry 54675
##JCAMP-DX=Revision 4.10 
##DATA TYPE=MASS SPECTRUM
##SAMPLE DESCRIPTION=Chemical Concepts
##NAMES=HP
##CAS NAME=Furan, tetrahydro-2-methyl-2-[(phenylseleno)methyl]-
##MOLFORM=C12H16OSe
##CAS REGISTRY NO=114524-28-6
##MP= -300
##BP= -300
##MW= 256
##$RETENTION INDEX=0
##$CONDENSED SPECTRUM=NO
##NPOINTS= 117
##XYDATA=(XY..XY) 1 
    26         14
    27        129
    28          2
    29        123
    30          4
    31         12
    37          3
    38         11
    39        150
    40         28
    41        199
    42         47
    43        994
    44         24
    45          4
    49          2
    50         47
    51        118
    52         12
    53         24
    54          7
    55         32
    56         11
    57         36
    58          3
    59          1
    61          1
    62          2
    63         10
    64          1
    65         37
    66          3
    67         11
    68          1
    69         27
    70          2
    73          1
    74         11
    75         10
    76         13
    77        118
    78         42
    79          6
    80          1
    81          3
    82          1
    83         10
    84         22
    85        999
    86         54
    87          3
    89          5
    90          4
    91         79
    92          7
    93         23
    94          4
    95          5
    97          4
    98          1
    99          4
   103          3
   104          1
   105          4
   106          2
   107          4
   109          1
   113          3
   114          2
   115          6
   116          1
   117         14
   118          1
   119          3
   121          1
   127          2
   128          2
   129          4
   130          3
   131          4
   132          1
   133          2
   142          1
   149          1
   151          1
   152          1
   153         10
   154         11
   155         26
   156          8
   157         53
   158         10
   159         10
   160          1
   163          1
   166          1
   167          3
   168         12
   169         17
   170         22
   171         19
   172         55
   173          7
   174          8
   183          1
   195          1
   211          1
   212          1
   214          3
   241          1
   252          8
   253          7
   254         22
   255          3
   256         42
   257          5
   258          8