##TITLE=Library Entry 83816
##JCAMP-DX=Revision 4.10 
##DATA TYPE=MASS SPECTRUM
##SAMPLE DESCRIPTION=Japan AIST/NIMC Database- Spectrum MS-IW-4412
##NAMES=HP
##CAS NAME=Carbanilide, 4-methylthio-
##MOLFORM=C14H14N2S
##CAS REGISTRY NO=1145-66-0
##MP= -300
##BP= -300
##MW= 242
##$RETENTION INDEX=0
##$CONDENSED SPECTRUM=NO
##NPOINTS= 162
##XYDATA=(XY..XY) 1 
    15          1
    26          4
    27         20
    28         22
    29          1
    30          1
    32         10
    33          9
    34         28
    36          2
    37         11
    38         23
    39         98
    40         20
    41         27
    42          7
    43          3
    44          9
    45         19
    46         23
    47          2
    49          4
    50         60
    51        167
    52         49
    53         34
    54         22
    55          2
    56          1
    57          2
    58          3
    59          2
    60          4
    61         11
    62         22
    63         70
    64         42
    65        206
    66        198
    67         32
    68          4
    69          7
    70          8
    71          2
    72          2
    73          4
    74         26
    75         23
    76         34
    77        546
    78         82
    79         87
    80         18
    81          3
    82          3
    83          5
    84          6
    85          2
    86          3
    87          4
    88          4
    89         62
    90         47
    91        461
    92        131
    93        928
    94         72
    95          4
    96          5
    97          2
    98          1
    99          1
   100          1
   102          5
   103         18
   104         75
   105         25
   106        888
   107        999
   108         98
   109         36
   110         12
   111          3
   112          1
   113          5
   114          2
   115          2
   116         25
   117         39
   118         18
   119         91
   120         80
   121         53
   122         10
   123         28
   124        153
   125         13
   126          7
   127          1
   128          1
   129          1
   130          1
   131         19
   132         45
   133         47
   134          9
   135        701
   136        107
   137         37
   138         10
   139          2
   140          1
   142          1
   146          2
   147          1
   148        211
   149        664
   150        118
   151         38
   152          6
   153          1
   154          1
   163          3
   164          1
   165          3
   166          2
   167          4
   168          2
   178          1
   179          1
   180          4
   181          2
   182          2
   183          3
   184          1
   192          3
   193          2
   194          6
   195          1
   205          3
   206          6
   207         92
   208        381
   209        140
   210         41
   211          5
   212          1
   221          1
   222          4
   223          1
   224          1
   225         10
   226          5
   227          2
   228          1
   239          3
   240          2
   241         79
   242        614
   243        110
   244         35
   245          5