##TITLE=Library Entry 54673
##JCAMP-DX=Revision 4.10 
##DATA TYPE=MASS SPECTRUM
##SAMPLE DESCRIPTION=Chemical Concepts
##NAMES=HP
##CAS NAME=Furan, tetrahydro-2-methyl-5-[(phenylseleno)methyl]-
##MOLFORM=C12H16OSe
##CAS REGISTRY NO=114524-25-3
##MP= -300
##BP= -300
##MW= 256
##$RETENTION INDEX=0
##$CONDENSED SPECTRUM=NO
##NPOINTS= 126
##XYDATA=(XY..XY) 1 
    26         27
    27        227
    28         23
    29        235
    30          4
    31         11
    37          4
    38          9
    39        154
    40         24
    41        242
    42         18
    43        375
    44         15
    45         34
    49          2
    50         66
    51        146
    52         19
    53         39
    54         17
    55        163
    56         25
    57        155
    58          9
    62          5
    63          9
    65         43
    66          3
    67        158
    68          9
    69         10
    70          3
    71          4
    74         17
    75         18
    76         24
    77        167
    78         73
    79         13
    80          3
    81         26
    82          2
    83         26
    84          6
    85        999
    86         53
    87          3
    89          9
    90          6
    91        145
    92         13
    93         37
    94          5
    95         10
    97          9
    98         41
    99        156
   100         10
   102          2
   103          5
   104          5
   105          8
   106          4
   107          6
   113          5
   114          4
   115         15
   116         11
   117         27
   118          4
   119          8
   121          2
   126          3
   127          5
   128          3
   129          9
   130          8
   131         10
   132          3
   133          5
   135          2
   151          2
   152          5
   153         31
   154         38
   155         84
   156         42
   157        149
   158         69
   159         26
   160         10
   167         10
   168         26
   169         40
   170         48
   171         48
   172        103
   173         16
   174         21
   175          3
   176          4
   178          9
   179          3
   180          4
   181          3
   182          4
   183          9
   184          4
   195          3
   196          2
   197          3
   198          3
   200          7
   210          4
   211          2
   212          6
   250          4
   252         39
   253         41
   254        109
   255         15
   256        220
   257         26
   258         39
   259          6