##TITLE=Library Entry 71860
##JCAMP-DX=Revision 4.10 
##DATA TYPE=MASS SPECTRUM
##SAMPLE DESCRIPTION=Chemical Concepts
##NAMES=HP
##CAS NAME=2H-Pyran, tetrahydro-2-methyl-3-(phenylseleno)-
##MOLFORM=C12H16OSe
##CAS REGISTRY NO=114524-26-4
##MP= -300
##BP= -300
##MW= 256
##$RETENTION INDEX=0
##$CONDENSED SPECTRUM=NO
##NPOINTS= 131
##XYDATA=(XY..XY) 1 
    27        293
    29        321
    30          4
    31         26
    37          5
    38         13
    39        216
    41        236
    42         22
    43        693
    44         26
    45        103
    46          2
    49          5
    50         76
    51        127
    52         33
    53         90
    54         25
    55        150
    56         12
    57        441
    58         14
    59          1
    61          2
    62          0
    63         17
    64          4
    65         49
    66          0
    67         22
    68          2
    69         72
    70          8
    71        158
    72         12
    73          1
    74         18
    75         19
    76         38
    77        236
    78        125
    79         21
    81         38
    82          4
    83         35
    84          1
    85          3
    89          6
    90          4
    91         43
    92          3
    93         29
    94          2
    95         13
    97         42
    98         96
    99        999
   100         72
   101          4
   102         11
   103         30
   104         85
   105         49
   106         16
   107         40
   108          5
   109          7
   113         11
   114          9
   115         24
   116         24
   117         43
   118          7
   119         11
   120          1
   126          7
   127         10
   128          6
   129         18
   130         39
   131         24
   132          4
   133         25
   134          4
   135         21
   143          2
   151          4
   152          1
   153         48
   154         45
   155        142
   156         57
   157        216
   158         72
   159         49
   160         15
   161          1
   166          2
   167          3
   168          2
   169          6
   170          2
   171          5
   172          1
   174          3
   178          2
   179         16
   180         25
   181         38
   182         30
   183         72
   184         43
   185         26
   186         23
   187          5
   188          2
   191          1
   195          6
   197          2
   209          3
   211          1
   250          5
   252         28
   253         42
   254         94
   255         17
   256        174
   257         21
   258         43
   259          2