##TITLE=Library Entry 27495
##JCAMP-DX=Revision 4.10 
##DATA TYPE=MASS SPECTRUM
##SAMPLE DESCRIPTION=Chemical Concepts
##NAMES=HP
##CAS NAME=1-[1-(Hydroxy-phenyl-methyl)-6,7-dimethoxy-3,4-dihydro-1H-isoquin
olin-2-yl]-2,2-dimethyl-propan-1-one
##MOLFORM=C23H29NO4
##CAS REGISTRY NO=114609-12-0
##MP= -300
##BP= -300
##MW= 383
##$RETENTION INDEX=0
##$CONDENSED SPECTRUM=NO
##NPOINTS= 129
##XYDATA=(XY..XY) 1 
    27         11
    28         11
    29         75
    30          4
    39         17
    40          2
    41        102
    42         10
    43         18
    49          2
    50          3
    51         15
    52          6
    53          8
    54          4
    55         21
    56          7
    57        999
    58         48
    59          7
    63          4
    64          2
    65          8
    66          2
    67          5
    68          2
    69         18
    70          4
    71          8
    72          3
    75          2
    76          4
    77         68
    78         20
    79         64
    80          6
    81          4
    82          2
    83          7
    84          3
    85         60
    86          4
    89          7
    90          6
    91         26
    92          4
    93          4
    94          2
    95          4
    97          5
   102          5
   103         11
   104         13
   105         36
   106         11
   107         32
   108          4
   109          2
   111          3
   115          4
   116          5
   117         14
   118         17
   119          7
   120          4
   121         11
   122          2
   124          2
   128          2
   129          3
   130          9
   131         20
   132          8
   133         21
   134         12
   135          4
   144          3
   145          6
   146         19
   147         24
   148         33
   149         10
   150          5
   151          7
   152          3
   159          5
   160         10
   161          7
   162          9
   163          6
   164         19
   165         13
   166          2
   174         11
   175          8
   176        102
   177         58
   178         13
   179          3
   180          3
   189          3
   190         37
   191         70
   192        461
   193         64
   194          7
   205          2
   207          2
   220         13
   221          3
   234          2
   248          3
   249          2
   259          4
   261          2
   262          9
   263          2
   264          3
   265          2
   266          2
   274          8
   275          3
   276        867
   277        207
   278         30
   279          3
   298          2
   326          2
   382          1