##TITLE=Library Entry 88237
##JCAMP-DX=Revision 4.10 
##DATA TYPE=MASS SPECTRUM
##SAMPLE DESCRIPTION=T. Jones, LC, NHLBI, NIH, Bethesda, MD 20892
##NAMES=HP
##CAS NAME=2-Ethyl-5-undecyl-5-pyrroline
##MOLFORM=C17H33N
##CAS REGISTRY NO=114640-30-1
##MP= -300
##BP= -300
##MW= 251
##$RETENTION INDEX=0
##$CONDENSED SPECTRUM=NO
##NPOINTS= 167
##XYDATA=(XY..XY) 1 
    41         48
    42         23
    43         42
    44          8
    45          0
    46          1
    47          0
    48          1
    50          0
    51          1
    52          2
    53         12
    54         19
    55         78
    56         18
    57         14
    58          9
    59          1
    60          0
    61          0
    62          0
    63          1
    65          5
    66          5
    67         27
    68         21
    69         27
    70         22
    71          4
    72          3
    73          0
    74          1
    75          0
    76          2
    77          4
    78          1
    79         11
    80         25
    81         25
    82        534
    83         50
    84          6
    85          2
    87          0
    91          5
    92          0
    93          7
    94         18
    95         16
    96         42
    97          8
    98          6
   100          1
   101          1
   102          1
   103          0
   105          0
   106          3
   107          4
   108         15
   109          6
   110         29
   111        999
   112         90
   113          3
   114          1
   115          0
   117          1
   118          1
   120          2
   121          2
   122         10
   123          6
   124        284
   125         37
   126          3
   127          0
   128          0
   130          1
   131          0
   133          0
   135          0
   136          4
   137          3
   138         55
   139          8
   140          1
   141          0
   143          0
   145          1
   146          0
   147          0
   148          1
   149          0
   150          4
   151          0
   152         19
   153          7
   154          1
   156          1
   158          1
   160          1
   161          1
   162          0
   163          1
   164          2
   165          1
   166         30
   167          6
   168          0
   169          0
   172          0
   174          0
   177          0
   178          0
   179          0
   180         25
   181          5
   182          7
   183          1
   184          0
   187          0
   189          1
   190          0
   191          0
   192          2
   194         19
   195          5
   196          1
   197          0
   201          0
   202          1
   203          0
   205          0
   206          1
   208         23
   209          5
   210          1
   211          0
   212          0
   214          0
   216          0
   217          0
   219          1
   220          1
   221          0
   222         57
   223         12
   224          1
   227          0
   228          0
   231          0
   233          0
   234          0
   236          6
   237          0
   238          2
   239          1
   241          0
   242          0
   243          0
   248          1
   249          2
   250         20
   251         13
   252          3
   254          1