##TITLE=Library Entry 70246
##JCAMP-DX=Revision 4.10 
##DATA TYPE=MASS SPECTRUM
##SAMPLE DESCRIPTION=T. Jones, LC, NHLBI, NIH, Bethesda, MD 20892
##NAMES=HP
##CAS NAME=2-Ethyl-5-undecyl-.delta.1--pyrroline
##MOLFORM=C17H33N
##CAS REGISTRY NO=114640-31-2
##MP= -300
##BP= -300
##MW= 251
##$RETENTION INDEX=0
##$CONDENSED SPECTRUM=NO
##NPOINTS= 170
##XYDATA=(XY..XY) 1 
    41        148
    42         41
    43        114
    44         24
    46          1
    48          2
    52          4
    53         30
    54         53
    55        176
    56        162
    57         57
    58         11
    59          1
    60          1
    61          4
    62          1
    63          2
    64          1
    65         11
    66          8
    67         85
    68         61
    69        148
    70         55
    71         27
    72         12
    74          1
    77          8
    78          4
    79         26
    80         38
    81         46
    82        260
    83         71
    84         26
    85         12
    87          2
    88          1
    89          1
    91         11
    92          1
    93         17
    94         26
    95         45
    96        765
    97        999
    98        105
    99          8
   100          2
   101          1
   102          3
   103          1
   104          3
   105          2
   106          2
   107          4
   108         36
   109         21
   110        571
   111        318
   112         28
   113          1
   117          1
   118          2
   120          1
   121          1
   122         15
   123          7
   124        138
   125         58
   126          9
   127          1
   128          4
   129          1
   131          1
   134          3
   135          1
   136          9
   137          5
   138        181
   139         35
   140          5
   142          1
   143          2
   144          1
   145          1
   146          3
   147          1
   148          4
   149          1
   150          7
   151          9
   152        290
   153         51
   154          5
   155          2
   156          2
   157          3
   160          1
   161          2
   162          1
   163          1
   164          6
   166        119
   167         28
   168          7
   169          1
   172          1
   175          1
   176          1
   179          1
   180         79
   181         18
   182          6
   183          1
   185          1
   186          1
   187          1
   188          1
   189          1
   190          2
   191          1
   192          3
   193          1
   194         84
   195         19
   196          5
   198          1
   200          1
   201          1
   202          3
   204          1
   205          1
   206          4
   208         82
   209         20
   210          6
   212          1
   213          2
   214          1
   215          1
   217          1
   220          1
   221          3
   222         77
   223         26
   224          5
   225          2
   227          1
   228          2
   231          3
   235          1
   236         98
   237         13
   238          8
   239          4
   240          1
   241          1
   243          1
   244          3
   246          1
   247          1
   248          3
   249          4
   250         51
   251        252
   252         42
   253          4
   254          2