##TITLE=Library Entry 81799
##JCAMP-DX=Revision 4.10 
##DATA TYPE=MASS SPECTRUM
##SAMPLE DESCRIPTION=K. Jacobson, LBC, NIDDK, NIH, Bethesda, MD 20892
##NAMES=HP
##CAS NAME=Eseroline, (1'-phenethyl)carbamate(ester) (1'S)-
##MOLFORM=C22H27N3O2
##CAS REGISTRY NO=114611-71-1
##MP= -300
##BP= -300
##MW= 365
##$RETENTION INDEX=0
##$CONDENSED SPECTRUM=NO
##NPOINTS= 232
##XYDATA=(XY..XY) 1 
    42        651
    43        114
    44        507
    45         45
    46          8
    49         10
    50        149
    51        382
    52        112
    53         65
    54         24
    55         55
    56         73
    57        146
    58        321
    59         40
    60        159
    61         13
    62         26
    63         83
    64         30
    65        115
    66         61
    67         40
    68         43
    69         20
    70         52
    71         25
    72         22
    73         66
    74         40
    75         39
    76         73
    77        732
    78        256
    79        307
    80         54
    81         43
    82         42
    83         17
    84         13
    85         10
    86         15
    87         14
    88          7
    89         58
    90         36
    91        114
    92         31
    93         26
    94         42
    95         17
    96        119
    97         40
    98          9
    99          7
   100          7
   101         31
   102         38
   103        212
   104        260
   105        999
   106        159
   107         34
   108         17
   109         10
   110          7
   111          6
   112          4
   113          3
   114          4
   115         48
   116         38
   117         94
   118         81
   119         51
   120        108
   121         21
   122         21
   123          8
   124         16
   125          5
   126          2
   127         10
   128         21
   129         17
   130         77
   131        124
   132        819
   133        116
   134         32
   135          9
   136         10
   137          4
   138          3
   139          6
   140          3
   141          6
   142         19
   143         34
   144         77
   145        100
   146        235
   147        374
   148         86
   149         21
   150          7
   151          3
   152          3
   153          9
   154          6
   155          6
   156         16
   157         33
   158         68
   159         99
   160        770
   161        622
   162        251
   163         70
   164         19
   165          5
   166          4
   167          4
   168          6
   169          5
   170         16
   171         14
   172         36
   173         77
   174        801
   175        548
   176        192
   177        146
   178         21
   179          5
   180          3
   181          2
   183          6
   184          6
   185         11
   186         59
   187         59
   188        148
   189         69
   190         62
   191         28
   192          7
   193          6
   194          2
   195          2
   197          2
   198          2
   199          6
   200          7
   201         29
   202         58
   203         90
   204        175
   205         55
   206          9
   207          3
   213          3
   214          2
   215          9
   216         17
   217        118
   218        902
   219        169
   220         29
   221          5
   222          2
   225          1
   227          1
   228          2
   229          5
   230         10
   231         16
   232         37
   233         33
   234        101
   235         18
   236          3
   242          1
   243          2
   244          3
   245         13
   246         13
   247         10
   248         11
   249          3
   250          4
   256          2
   257          1
   258          1
   259          5
   260          8
   261          7
   262         10
   263          4
   264          2
   273          1
   275          3
   276          3
   277          3
   278          1
   289          1
   307          1
   309          1
   317          1
   319          2
   320          1
   321          2
   322          1
   333          4
   334          3
   335          2
   336          2
   337          2
   347          2
   348          2
   349          2
   350         24
   351          6
   352          5
   353          3
   363          2
   364          4
   365         91
   366         23
   367         24
   368          6