##TITLE=Library Entry 3165
##JCAMP-DX=Revision 4.10 
##DATA TYPE=MASS SPECTRUM
##SAMPLE DESCRIPTION=Chemical Concepts
##NAMES=HP
##CAS NAME=6-Heptenamide, 2-methylene-N-phenyl-
##MOLFORM=C14H17NO
##CAS REGISTRY NO=114662-88-3
##MP= -300
##BP= -300
##MW= 215
##$RETENTION INDEX=0
##$CONDENSED SPECTRUM=NO
##NPOINTS= 122
##XYDATA=(XY..XY) 1 
    27        446
    28         44
    29        330
    30         12
    37         13
    38         74
    39        782
    40        274
    41        999
    42         51
    43         31
    44          5
    45          8
    50         54
    51        208
    52         68
    53        379
    54        100
    55        487
    56         26
    57          5
    61          5
    62         16
    63         80
    64         70
    65        372
    66        143
    67        845
    68         80
    69        267
    70         13
    73          4
    74         10
    75         10
    76         13
    77        416
    78         46
    79        116
    80         51
    81        129
    82         12
    83          8
    89          9
    90         14
    91        144
    92        180
    93        770
    94        119
    95        740
    96        147
    97         15
    98          4
   102          6
   103         13
   104         25
   105         38
   106        169
   107         29
   108         10
   109         17
   110          9
   111          6
   115         19
   116         44
   117         65
   118         47
   119         40
   120        100
   121         19
   122         63
   123        217
   124         55
   125          4
   127          3
   128         29
   129         17
   130         56
   131         22
   132         51
   133         28
   134         13
   135         77
   136         11
   138          2
   142          9
   143         21
   144         41
   145         12
   146        169
   147         20
   148         16
   149          5
   154          4
   155          3
   156          8
   157         11
   158         25
   159         19
   160        267
   161        195
   162         20
   163          2
   167          3
   170          8
   171         10
   172         74
   173         53
   174         80
   175          8
   184          4
   185         21
   186        136
   187        134
   188         20
   197          2
   198          5
   200         29
   201          6
   214        329
   215        340
   216         61
   217          4