##TITLE=Library Entry 47249
##JCAMP-DX=Revision 4.10 
##DATA TYPE=MASS SPECTRUM
##SAMPLE DESCRIPTION=NIST Mass Spectrometry Data Center, 1994
##NAMES=HP
##CAS NAME=4-Nitrodiphenylsulfone
##MOLFORM=C12H9NO4S
##CAS REGISTRY NO=1146-39-0
##MP= -300
##BP= -300
##MW= 263
##$RETENTION INDEX=0
##$CONDENSED SPECTRUM=NO
##NPOINTS= 104
##XYDATA=(XY..XY) 1 
    12          2
    16          2
    27         23
    28         14
    30        234
    32          1
    37         11
    38         37
    39        104
    40          7
    45         11
    46         21
    47          2
    48          5
    49          1
    50        412
    51        560
    52         37
    53         41
    54          4
    55          5
    57          3
    58         10
    61          6
    62         27
    63        102
    64         61
    65        302
    66         22
    68          3
    69         34
    70         30
    71          7
    72          2
    73         11
    74         99
    75        150
    76        204
    77        999
    78         85
    79         10
    80          7
    81         23
    82         15
    83          4
    84         24
    85          5
    86          9
    87          6
    89          7
    93        478
    94         36
    95         20
    96         25
    97        194
    98         19
    99         11
   100          3
   101          5
   102          8
   105          2
   106          6
   107          4
   108         26
   109         44
   110          6
   111          5
   112         35
   113          7
   114          5
   115         39
   116          3
   121          3
   122         17
   125        909
   126         96
   127         61
   128         17
   139         22
   140         57
   141        123
   142         17
   143          4
   150         18
   151         36
   152         89
   153         15
   156          3
   168         17
   170        441
   171         42
   172         31
   173          3
   181          2
   184          6
   215          2
   216         14
   217         10
   233         12
   247          5
   263        542
   264         79
   265         37
   266          4