##TITLE=Library Entry 27325
##JCAMP-DX=Revision 4.10 
##DATA TYPE=MASS SPECTRUM
##SAMPLE DESCRIPTION=Chemical Concepts
##NAMES=HP
##CAS NAME=1-Isoquinolinemethanol, .alpha.-(3,4-dimethoxyphenyl)-2-(2,2-dime
thyl-1-oxopropyl)-1,2,3,4-tetrahydro-, (R*,S*)-(.+-.)-
##MOLFORM=C23H29NO4
##CAS REGISTRY NO=114621-92-0
##MP= -300
##BP= -300
##MW= 383
##$RETENTION INDEX=0
##$CONDENSED SPECTRUM=NO
##NPOINTS= 75
##XYDATA=(XY..XY) 1 
    26          9
    27         71
    39         24
    41        113
    42         13
    43          5
    51         12
    52          9
    53         20
    55         11
    57        999
    58         43
    63          5
    65         19
    66         11
    67          4
    69         13
    70          4
    76          4
    77         44
    78         21
    79         15
    81         13
    85        131
    86          9
    90          4
    91          9
    92          4
    93          5
    94         10
    95         24
    96         10
   101          6
   102         13
   103         24
   104         20
   105         40
   106          7
   107          5
   108         24
   109         12
   115         18
   116         23
   117         91
   118         11
   121          6
   122         14
   123         30
   124         25
   130         54
   131         33
   132        397
   133         42
   139         68
   140          6
   151         10
   152          5
   160         87
   161         14
   165         17
   166         22
   167         47
   168          4
   174         27
   175         13
   202         28
   203          4
   216        436
   217        801
   218        114
   219          9
   266          2
   280          6
   282          6
   366          5