##TITLE=Library Entry 48598
##JCAMP-DX=Revision 4.10 
##DATA TYPE=MASS SPECTRUM
##SAMPLE DESCRIPTION=LAC, NIDDK, NIH, Bethesda, MD 20892
##NAMES=HP
##CAS NAME=Androstan-4,16-dien-3-one, 17-formyl-
##MOLFORM=C20H26O2
##CAS REGISTRY NO=114724-34-4
##MP= -300
##BP= -300
##MW= 298
##$RETENTION INDEX=0
##$CONDENSED SPECTRUM=NO
##NPOINTS= 180
##XYDATA=(XY..XY) 1 
    41        683
    43        482
    44         18
    45         18
    47        123
    49        624
    51        398
    53        946
    55        769
    56          8
    57         49
    58          2
    59          5
    60          4
    61          2
    62          2
    63         61
    65        302
    67        620
    68        241
    69        137
    71         43
    72          6
    73          9
    74          4
    77        646
    79        999
    81        627
    82         72
    83        157
    84        206
    86        234
    88         58
    89         34
    91        910
    93        396
    95        287
    97        190
    98          6
    99         23
   100          3
   101          6
   102          4
   103        114
   105        500
   107        510
   108        191
   110        605
   111         48
   113         17
   115        180
   117        308
   119        281
   120        145
   121        246
   122        167
   123        144
   124        121
   125         10
   127         52
   128         54
   129        123
   131        209
   133        284
   134         38
   135        359
   136         39
   137         78
   138         12
   139          6
   141         65
   143        128
   145        194
   147        277
   148         90
   149        105
   150         27
   151         17
   152         18
   153         21
   155         60
   157         95
   158         38
   159        171
   160        259
   161        161
   162        293
   163         60
   165         29
   167         25
   169         55
   170         60
   171         89
   172         54
   173        113
   174         94
   175        135
   176         37
   177         42
   178         28
   179         17
   181         22
   183         41
   184         23
   185         48
   186         52
   187        100
   188         97
   189        144
   190         18
   191         21
   192          1
   193          7
   195         34
   197         69
   199         80
   200         27
   201         56
   202         40
   203         21
   204          4
   205          6
   207          8
   208          3
   209         19
   210         16
   211         26
   212         44
   213        132
   215        325
   216         47
   217         44
   218         18
   219          9
   221          8
   223         35
   224         18
   225         19
   226         31
   227         15
   228         93
   229         16
   230         22
   231        433
   232         60
   233         11
   237         22
   238         19
   239         12
   241         62
   242         24
   243         17
   244          1
   247          8
   251         18
   252         22
   253          6
   254          3
   255         23
   256         28
   257         10
   263          3
   265         23
   266          5
   267          1
   269         41
   270         64
   271          8
   272         10
   279          6
   280         21
   281          7
   283         42
   284          9
   285          6
   297          5
   298        441
   299         97
   300         10
   301          0