##TITLE=Library Entry 4986
##JCAMP-DX=Revision 4.10 
##DATA TYPE=MASS SPECTRUM
##SAMPLE DESCRIPTION=NIST Mass Spectrometry Data Center
##NAMES=HP
##CAS NAME=(3R)-(-)-1-Benzyl-3-aminopyrrolidine
##MOLFORM=C11H16N2
##CAS REGISTRY NO=114715-39-8
##MP= -300
##BP= -300
##MW= 176
##$RETENTION INDEX=0
##$CONDENSED SPECTRUM=NO
##NPOINTS= 91
##XYDATA=(XY..XY) 1 
    14          1
    15         24
    17          3
    18          9
    26          5
    27         29
    28        117
    29         33
    30         77
    31          2
    32          2
    37          2
    38          9
    39         80
    40         13
    42        999
    43         82
    44         31
    45          1
    50         17
    51         42
    52         12
    53          6
    54         13
    56        134
    57         23
    58          4
    59          1
    62          7
    63         33
    65        155
    66         10
    67          3
    68         20
    69          7
    70         11
    71          6
    72          1
    73          1
    74          3
    75          3
    76          4
    77         18
    78          8
    79          3
    80          2
    81          1
    82          7
    83          6
    85         51
    86          4
    87          1
    89         28
    91        554
    92         48
    93          2
    96          1
    97          1
    99         10
   102          1
   103          6
   104         23
   105         13
   106         17
   107          1
   115          1
   116          2
   117          5
   118         10
   119          4
   120         32
   121          4
   123          1
   129          1
   130          6
   132        174
   133        194
   134         29
   135          2
   144          4
   146          8
   147         33
   148          5
   156          1
   157          4
   159        107
   160         17
   161          1
   175          7
   176         12
   177          1