##TITLE=Library Entry 51931
##JCAMP-DX=Revision 4.10 
##DATA TYPE=MASS SPECTRUM
##SAMPLE DESCRIPTION=Chemical Concepts
##NAMES=HP
##CAS NAME=Crotonic acid, menthyl ester
##MOLFORM=C14H24O2
##CAS REGISTRY NO=114761-14-7
##MP= -300
##BP= -300
##MW= 224
##$RETENTION INDEX=0
##$CONDENSED SPECTRUM=NO
##NPOINTS= 100
##XYDATA=(XY..XY) 1 
    26          4
    27        118
    28          5
    29        112
    30          2
    31          5
    36          0
    37          2
    38          6
    39        164
    40         35
    41        768
    42         51
    43        222
    44          9
    45          4
    50          2
    51          8
    52          4
    53         55
    54         39
    55        513
    56         38
    57        311
    58         16
    59          3
    60          0
    62          0
    63          1
    65         12
    66          6
    67        132
    68         60
    69        499
    70         30
    71         57
    72          7
    73          1
    77         17
    78          2
    79         33
    80         23
    81        317
    82         87
    83        999
    84         61
    85          7
    86         14
    87          6
    88          1
    91          9
    92          1
    93         11
    94         33
    95        319
    96         80
    97        127
    98         11
    99          4
   100          0
   103          0
   105          1
   107          2
   108          1
   109         27
   110         15
   111          7
   112          4
   113          3
   114          0
   117          0
   119          2
   121          3
   122          0
   123         88
   124          8
   125          1
   126          2
   128          0
   129          0
   134          0
   136          5
   137         33
   138        198
   139        210
   140         23
   141          9
   142          1
   154          0
   155          2
   156          0
   181          1
   183          0
   189          0
   191          0
   209          2
   223          0
   224         23
   225          4
   226          1