##TITLE=Library Entry 100187
##JCAMP-DX=Revision 4.10 
##DATA TYPE=MASS SPECTRUM
##SAMPLE DESCRIPTION=Chemical Concepts
##NAMES=HP
##CAS NAME=Acrylic acid, [5-methyl-2-(1-methyl-1-phenylethyl)-1-cyclohexyl]
 ester
##MOLFORM=C19H26O2
##CAS REGISTRY NO=114718-59-1
##MP= -300
##BP= -300
##MW= 286
##$RETENTION INDEX=0
##$CONDENSED SPECTRUM=NO
##NPOINTS= 138
##XYDATA=(XY..XY) 1 
    25          0
    26          7
    27        111
    28          1
    29         21
    30          0
    31          0
    39         16
    40          7
    41         58
    42          3
    43          4
    44          0
    50          1
    51          4
    52          1
    53          4
    54          3
    55         95
    56          3
    57          1
    58          0
    63          1
    64          0
    65          6
    66          1
    67          8
    68          1
    69          2
    70          0
    71          0
    73          5
    75          0
    76          1
    77         18
    78          9
    79         24
    80          3
    81         11
    82          0
    83          1
    84          0
    89          2
    90          0
    91        182
    92         15
    93          3
    94          6
    95         27
    96          7
    97          1
    98          0
   101          0
   102          3
   103         20
   104          6
   105         38
   106          4
   107          1
   108          0
   109          1
   110          0
   111          0
   112          0
   113          0
   114          0
   115         23
   116          8
   117         32
   118        274
   119        999
   120        105
   121          6
   122          0
   123          1
   126          0
   127          4
   128         15
   129         18
   130          4
   131         16
   132         26
   133          2
   134          0
   135          7
   136          1
   137          0
   139          0
   141          8
   142          5
   143         18
   144          4
   145          4
   146          1
   147          0
   150          0
   151          0
   152          1
   153          1
   154          1
   155          2
   156          1
   157          5
   158          1
   159          1
   161          0
   165          1
   166          1
   167         37
   168          5
   169          1
   170          0
   171          2
   172          1
   173          0
   174          0
   175          1
   183          0
   185          2
   186          0
   188          0
   189          0
   190          7
   191          1
   192          0
   198          0
   199         17
   200          3
   201          0
   213          0
   214         94
   215         16
   216          1
   226          0
   231          0
   286         31
   287          7
   288          1