##TITLE=Library Entry 4987
##JCAMP-DX=Revision 4.10 
##DATA TYPE=MASS SPECTRUM
##SAMPLE DESCRIPTION=NIST Mass Spectrometry Data Center
##NAMES=HP
##CAS NAME=(3S)-(+)-1-Benzyl-3-aminopyrrolidine
##MOLFORM=C11H16N2
##CAS REGISTRY NO=114715-38-7
##MP= -300
##BP= -300
##MW= 176
##$RETENTION INDEX=0
##$CONDENSED SPECTRUM=NO
##NPOINTS= 86
##XYDATA=(XY..XY) 1 
    14          1
    15         24
    17          3
    18          9
    26          5
    27         28
    28        105
    29         25
    30         65
    31          1
    37          1
    38          8
    39         68
    40         12
    42        999
    43         71
    44         28
    45          1
    50         13
    51         36
    52          9
    53          5
    54         10
    56        112
    57         19
    58          3
    61          1
    62          8
    63         29
    65        133
    66          8
    67          2
    68         16
    69          6
    70          9
    71          5
    72          1
    74          3
    75          2
    76          3
    77         15
    78          7
    79          4
    80          1
    81          1
    82          6
    83          5
    85         39
    86          2
    87          1
    89         24
    91        450
    92         37
    93          1
    99          7
   102          1
   103          4
   104         20
   105         11
   106         16
   107          1
   115          1
   116          1
   117          5
   118          9
   119          4
   120         25
   121          2
   129          1
   130          4
   132        139
   133        154
   134         25
   135          1
   144          3
   146          6
   147         26
   148          3
   157          2
   158         15
   159         92
   160         13
   161          1
   175          5
   176         10
   177          1