##TITLE=Library Entry 21370
##JCAMP-DX=Revision 4.10 
##DATA TYPE=MASS SPECTRUM
##SAMPLE DESCRIPTION=NIST Mass Spectrometry Data Center, 1994
##NAMES=HP
##CAS NAME=Methyl 2-isothiocyanato-3-methylbutyrate
##MOLFORM=C7H11NO2S
##CAS REGISTRY NO=114877-91-7
##MP= -300
##BP= -300
##MW= 173
##$RETENTION INDEX=0
##$CONDENSED SPECTRUM=NO
##NPOINTS= 80
##XYDATA=(XY..XY) 1 
    13          4
    15        371
    16          7
    26         31
    27        311
    28        123
    29        243
    30         20
    31         13
    32         16
    33          5
    34          2
    37         15
    38         45
    39        396
    40         61
    41        424
    42         66
    43        325
    44         79
    45         83
    46         11
    47         22
    49          2
    50         12
    51         24
    52         18
    53         73
    54          2
    55        999
    56         75
    57         11
    58         35
    59        264
    60         47
    61         32
    64          5
    66          4
    67          8
    68         11
    69         75
    70         64
    71        188
    72        254
    73         63
    74         59
    75         58
    76         20
    78          6
    80          8
    81         32
    82         14
    83         33
    84         16
    85         12
    86         59
    87         14
    88         36
    97          6
    99        597
   100         35
   101         32
   102         37
   103        123
   104          6
   105          7
   112          8
   114        695
   115         96
   116         48
   117          3
   126          3
   131        232
   132         14
   133         12
   145          3
   158          4
   173        375
   174         35
   175         21