##TITLE=Library Entry 16536
##JCAMP-DX=Revision 4.10 
##DATA TYPE=MASS SPECTRUM
##SAMPLE DESCRIPTION=H. Fales, LC, NHLBI, NIH, Bethesda, MD 20892
##NAMES=HP
##CAS NAME=.beta.-Desmethoxynatalensine, 3,5-dinitrobenzoate
##MOLFORM=C23H19N3O8
##CAS REGISTRY NO=114888-50-5
##MP= -300
##BP= -300
##MW= 465
##$RETENTION INDEX=0
##$CONDENSED SPECTRUM=NO
##NPOINTS= 190
##XYDATA=(XY..XY) 1 
    42        334
    43        203
    44        999
    45         39
    46          3
    50         26
    51         59
    52         19
    53         58
    54         26
    55         72
    56         32
    57         26
    58          6
    60         11
    62         21
    63         96
    64          8
    65         78
    66         22
    67         66
    68         51
    69         25
    70         32
    71         17
    73          9
    74         84
    75        555
    76         17
    77        224
    78         74
    79         57
    80         44
    81         22
    82         30
    83         55
    84         12
    85          6
    87         18
    88         15
    89         62
    90         30
    91        109
    92         26
    93         22
    94         29
    95         13
    96          3
    97         32
    98          3
    99          6
   101         31
   102         76
   103        213
   104         41
   105         39
   106         39
   107         14
   111          8
   112         20
   113         14
   114         37
   115        216
   116         57
   117         34
   118         33
   119         20
   121        103
   124         14
   126         23
   127        103
   128        138
   129         91
   130         66
   131         54
   132         15
   133          6
   134          6
   135         70
   136         10
   138          3
   139         81
   140         28
   141        133
   142         48
   143         51
   144         19
   145         15
   146         12
   147         45
   149        376
   150         40
   151         28
   152        165
   153        204
   154        101
   155         85
   156         29
   157         34
   158         10
   159         87
   160         84
   161         41
   162         17
   163         27
   164          9
   165        101
   166         74
   167        105
   168         78
   169         59
   170         31
   171         39
   172         85
   173        104
   174        102
   175         59
   176         61
   177         13
   178         10
   179         24
   180         38
   181        237
   182         69
   183         43
   184         24
   185         57
   186         64
   187         77
   188         56
   189         17
   191          3
   193         37
   194         66
   195        393
   196         62
   197         41
   198         49
   199         76
   200        109
   201         64
   202         46
   203          3
   204          7
   209        109
   210        182
   211        204
   212        342
   213         78
   214         43
   215         11
   216         33
   222         33
   223         87
   224        230
   225        120
   226        760
   227        290
   228         56
   229         15
   236          9
   237          3
   238        131
   239         34
   240        409
   241         54
   242        289
   243         43
   250         12
   252        258
   253        141
   254        236
   255         44
   256         13
   266          3
   268         35
   269          3
   270        167
   271         31
   286          3
   397          9
   411         13
   412         11
   424         18
   436          3
   450          6
   464        148
   465        688
   466        181
   467         34