##TITLE=Library Entry 17134
##JCAMP-DX=Revision 4.10 
##DATA TYPE=MASS SPECTRUM
##SAMPLE DESCRIPTION=Dennis Rohrbaugh, CBDCOM/ERDEC, Edgewood, MD
##NAMES=HP
##CAS NAME=1-(2-Hydroxyethylthio)-2-(2-vinylthioethoxy)ethane
##MOLFORM=C8H16O2S2
##CAS REGISTRY NO=114811-41-5
##MP= -300
##BP= -300
##MW= 208
##$RETENTION INDEX=1717
##$CONDENSED SPECTRUM=NO
##NPOINTS= 34
##XYDATA=(XY..XY) 1 
    43        107
    45        999
    46        205
    47        208
    53         98
    57         38
    58        194
    59        383
    60        219
    61        462
    63         23
    71         13
    73         86
    74         28
    75         69
    76         11
    77         16
    85        170
    86        455
    87        457
    88         20
    89         83
    91         43
   102         25
   103         49
   104        110
   105        298
   106         26
   107         11
   117         13
   131         10
   149          5
   163          2
   208          4