##TITLE=Library Entry 17135
##JCAMP-DX=Revision 4.10 
##DATA TYPE=MASS SPECTRUM
##SAMPLE DESCRIPTION=Dennis Rohrbaugh, CBDCOM/ERDEC, Edgewood, MD
##NAMES=HP
##CAS NAME=1-(2-Hydroxyethylthio)-2-(vinylthio)ethane
##MOLFORM=C6H12OS2
##CAS REGISTRY NO=114811-37-9
##MP= -300
##BP= -300
##MW= 164
##$RETENTION INDEX=1419
##$CONDENSED SPECTRUM=NO
##NPOINTS= 31
##XYDATA=(XY..XY) 1 
    44         65
    45        999
    46        167
    47        205
    53         61
    57         79
    58        302
    59        460
    61        660
    63         25
    64         31
    71         28
    73        118
    75         34
    77         21
    85        109
    87        255
    89         17
    91         94
    92         23
    94         14
   104        134
   105        475
   106         34
   107         23
   118         14
   119         29
   120         30
   164        133
   165          9
   166          9