##TITLE=Library Entry 820
##JCAMP-DX=Revision 4.10 
##DATA TYPE=MASS SPECTRUM
##SAMPLE DESCRIPTION=A.A.Kutin, Moscow, Russia
##NAMES=HP
##CAS NAME=3,5-Diethoxycarbonyl-2,6-dimethylpyridine
##MOLFORM=C13H17NO4
##CAS REGISTRY NO=1149-24-2
##MP= -300
##BP= -300
##MW= 251
##$RETENTION INDEX=0
##$CONDENSED SPECTRUM=NO
##NPOINTS= 125
##XYDATA=(XY..XY) 1 
    14         19
    15         56
    16          6
    17         12
    18         52
    19          1
    27        343
    28        348
    29        999
    31         11
    32         42
    37          7
    38         48
    39        146
    40         17
    41         42
    42         98
    43        104
    44         18
    45         64
    46          2
    51        112
    52         89
    53        123
    54         25
    55         17
    56          5
    57          2
    58          2
    61          9
    62         55
    63        221
    64        150
    65         67
    66         48
    67         63
    68          9
    69         10
    73         48
    74          4
    77        215
    78         73
    79        176
    80        103
    82          4
    83          1
    88          1
    89          2
    90         12
    91         59
    92         33
    93         23
    94         24
    95         22
    96          1
    97          2
   102          4
   103          9
   104         98
   105         83
   106        206
   107         27
   108         27
   109          5
   110          5
   111          6
   112         10
   113          4
   114         11
   116          2
   117          1
   118          3
   119         12
   120         21
   121         15
   122         18
   123          3
   130          6
   131          9
   132         59
   133         44
   134         26
   135         10
   136          5
   137          4
   138          1
   148         34
   149         48
   150        227
   151        228
   152         18
   153          1
   159          5
   160         47
   161         24
   162         28
   163          8
   164          8
   166         24
   177        194
   178        446
   179        197
   180         21
   181          0
   190          1
   192          5
   194         59
   195        190
   196         19
   202          1
   205        312
   206        860
   207        122
   208         50
   209          2
   210          0
   222         54
   223         62
   224          7
   236         42
   237          4
   248          1
   251        481
   252         57
   253          7