##TITLE=Library Entry 54526
##JCAMP-DX=Revision 4.10 
##DATA TYPE=MASS SPECTRUM
##SAMPLE DESCRIPTION=M.E. Kuehne, Chem. Dep., Univ. Vermont, Burlington, Ver
mont, USA
##NAMES=HP
##CAS NAME=.+/-.-8-Oxocephalotaxine
##MOLFORM=C18H19NO5
##CAS REGISTRY NO=114942-84-6
##MP= -300
##BP= -300
##MW= 329
##$RETENTION INDEX=0
##$CONDENSED SPECTRUM=NO
##NPOINTS= 33
##XYDATA=(XY..XY) 1 
    51        480
    55        310
    77         90
    84        999
    86        730
    88        110
   103         80
   115        120
   124         80
   131         60
   135         50
   148         70
   149        100
   161         70
   164        180
   173         70
   178         60
   199         60
   200        100
   214         50
   228        140
   230        180
   241         50
   242        330
   243        100
   268         60
   280        160
   298         80
   312        100
   314        840
   315        150
   329        900
   330        200