##TITLE=Library Entry 10243
##JCAMP-DX=Revision 4.10 
##DATA TYPE=MASS SPECTRUM
##SAMPLE DESCRIPTION=Dr. Jiri Zamecnik, DCIEM, North York, Canada, GP Librar
y
##NAMES=HP
##CAS NAME=Amphetamine oxime acetate
##MOLFORM=C11H13NO2
##CAS REGISTRY NO=114971-31-2
##MP= -300
##BP= -300
##MW= 191
##$RETENTION INDEX=0
##$CONDENSED SPECTRUM=NO
##NPOINTS= 24
##XYDATA=(XY..XY) 1 
    41        148
    43        999
    51         83
    63         69
    65        257
    77         43
    89         87
    90        122
    91        602
    92        113
   100        249
   105         20
   115         41
   116        195
   117         95
   130        358
   131        314
   132        165
   148         59
   149        247
   150         24
   174          1
   191         25
   192          3