##TITLE=Library Entry 81704
##JCAMP-DX=Revision 4.10 
##DATA TYPE=MASS SPECTRUM
##SAMPLE DESCRIPTION=Chemical Concepts
##NAMES=HP
##CAS NAME=2-Ethyl-1-(1-phenylethyl)aziridine-2-carbothioic acid, S-phenyl e
ster
##MOLFORM=C19H21NOS
##CAS REGISTRY NO=114950-91-3
##MP= -300
##BP= -300
##MW= 311
##$RETENTION INDEX=0
##$CONDENSED SPECTRUM=NO
##NPOINTS= 44
##XYDATA=(XY..XY) 1 
    42          8
    45         16
    54          7
    55         30
    58          3
    68          4
    69         21
    70        277
    71         10
    76          3
    77         15
    79         24
    83        135
    84          6
    91          7
    97          3
    98         13
   100          3
   101          3
   103         12
   104         11
   105        999
   106         68
   109         12
   110          8
   116          2
   120          3
   121          6
   122          3
   123        164
   124         13
   125          4
   132          5
   135          4
   143          3
   149          3
   158          3
   174         77
   175          7
   178          4
   202        487
   203         47
   204          3
   312          5