##TITLE=Library Entry 31695
##JCAMP-DX=Revision 4.10 
##DATA TYPE=MASS SPECTRUM
##SAMPLE DESCRIPTION=NIST Mass Spectrometry Data Center, 1998.
##NAMES=HP
##CAS NAME=Tri(2-chloroethyl) phosphate
##MOLFORM=C6H12Cl3O4P
##CAS REGISTRY NO=115-96-8
##MP= -300
##BP= -300
##MW= 284
##$RETENTION INDEX=1777
##$CONDENSED SPECTRUM=NO
##NPOINTS= 152
##XYDATA=(XY..XY) 1 
    14          1
    15          7
    25          1
    26         30
    27        279
    28         15
    29         27
    30          5
    31         19
    35          2
    36          1
    37          1
    38          1
    39          2
    41          3
    42         19
    43         39
    44         20
    45         67
    46          1
    47         48
    48         10
    49        120
    50         12
    51         39
    52          3
    53          3
    55          1
    57         12
    58          1
    59          1
    60          3
    61         25
    62        198
    63        999
    64         86
    65        337
    66          7
    67          1
    69          1
    70          1
    71          3
    76          1
    77         28
    78          7
    79         14
    80          2
    81        138
    82          8
    83          9
    85          1
    88          1
    89         12
    90          1
    91          9
    92          1
    93         58
    94          1
    95         10
    96          1
    97          1
    98          1
    99        360
   100          1
   101          6
   105          2
   106          1
   107         20
   108          1
   109          9
   111         11
   112          1
   113          6
   115          1
   117        265
   119         87
   121          4
   122          1
   123         13
   124         15
   125        258
   126         16
   127          5
   128          3
   129          2
   131          2
   133          1
   135         22
   137         21
   138          1
   139          7
   141          1
   143        531
   144         13
   145        175
   146          3
   147          1
   151         28
   152          1
   157          2
   159          6
   161        150
   162          3
   163         55
   164          1
   165          2
   169          1
   171          1
   173          3
   175          1
   179          1
   181          1
   185          1
   187        142
   188          6
   189         47
   190          2
   191          1
   199          1
   205        440
   206         21
   207        284
   208         13
   209         46
   210          2
   213         16
   214          1
   215          4
   221          1
   223        272
   224         13
   225        176
   226          8
   227         29
   228          1
   235        106
   236          5
   237         68
   238          3
   239         11
   240          1
   247          1
   249        735
   250         52
   251        476
   252         33
   253         80
   254          5
   255          1
   283          1
   285          2
   287          2