##TITLE=Library Entry 54055
##JCAMP-DX=Revision 4.10 
##DATA TYPE=MASS SPECTRUM
##SAMPLE DESCRIPTION=Tox21 Consortium/NIST Mass Spectrometry Data Center, 20
12
##NAMES=HP
##CAS NAME=Azacyclonol
##MOLFORM=C18H21NO
##CAS REGISTRY NO=115-46-8
##MP= -300
##BP= -300
##MW= 267
##$RETENTION INDEX=2243
##$CONDENSED SPECTRUM=NO
##NPOINTS= 191
##XYDATA=(XY..XY) 1 
    15          2
    18          5
    26          2
    27         24
    28         45
    29         52
    30        100
    31          3
    32          2
    34          1
    36          1
    38          3
    39         37
    40          4
    41         25
    42        126
    43         95
    44         49
    45          4
    48          1
    49          1
    50         21
    51         92
    52         14
    53         30
    54         34
    55        269
    56        256
    57         53
    58          3
    59          1
    60          1
    61          1
    62          2
    63         13
    64          3
    65         17
    66          2
    67         20
    68         46
    69         10
    70          8
    71          1
    73          1
    74          6
    75         11
    76         23
    77        477
    78         58
    79         11
    80         35
    81          9
    82        131
    83        102
    84        999
    85        866
    86         53
    87          4
    88          3
    89         13
    90          4
    91         87
    92          8
    93          1
    94          2
    95          2
    96          1
    97          5
    98          4
    99          1
   100          2
   101          4
   102         10
   103         14
   105        800
   106         74
   107          7
   108          1
   109          1
   110          1
   111          1
   112          1
   113          4
   114          4
   115         55
   116         12
   117          8
   118          4
   119          1
   120          1
   125          1
   126          7
   127         17
   128         37
   129         39
   130          7
   131          5
   132          4
   133          3
   134          3
   137          1
   138          1
   139         13
   140          2
   141          9
   142          3
   143          6
   144          6
   145          3
   146          2
   147          2
   150          4
   151         12
   152         45
   153         21
   154         12
   155          5
   156          4
   157          2
   158          2
   159          1
   160          2
   161          1
   162          1
   163          9
   164         11
   165         54
   166         12
   167         15
   168          4
   169          1
   170          4
   171          1
   172          6
   173          2
   174          1
   176          4
   177          2
   178         16
   179          7
   180          3
   181         35
   182         39
   183        601
   184         77
   185          7
   186          1
   187          2
   188         10
   189         22
   190         32
   191         18
   192          8
   193          7
   194          9
   195          2
   196          1
   200          1
   201          1
   202          7
   203          8
   204          7
   205          7
   206          6
   207          6
   208          2
   213          1
   215          3
   216          2
   217          1
   218          1
   219          3
   220          4
   221          1
   226          4
   229          1
   231          1
   232          1
   234          1
   246          1
   247          1
   248         31
   249         15
   250          4
   251          3
   252          1
   265          1
   266          2
   267         26
   268          6
   269          1