##TITLE=Library Entry 46733
##JCAMP-DX=Revision 4.10 
##DATA TYPE=MASS SPECTRUM
##SAMPLE DESCRIPTION=R.E.Ardrey ET AL.Pharmaceutical Mass Spectra,L.,1985
##NAMES=HP
##CAS NAME=2,2-Bis(ethylsulfonyl)propane
##MOLFORM=C7H16O4S2
##CAS REGISTRY NO=115-24-2
##MP= -300
##BP= -300
##MW= 228
##$RETENTION INDEX=1478
##$CONDENSED SPECTRUM=NO
##NPOINTS= 27
##XYDATA=(XY..XY) 1 
    26         10
    27        160
    29        510
    30         10
    31         20
    39         90
    40         20
    41        180
    42         60
    43        250
    45         10
    48         10
    49         10
    50         10
    59        580
    60         20
    61         10
    63         20
    66         30
    67         10
    77        999
    78        200
    79         50
    91         30
    95         90
   135        100
   136         50