##TITLE=Library Entry 65823
##JCAMP-DX=Revision 4.10 
##DATA TYPE=MASS SPECTRUM
##SAMPLE DESCRIPTION=NIST Mass Spectrometry Data Center, 2010
##NAMES=HP
##CAS NAME=Linalyl acetate
##MOLFORM=C12H20O2
##CAS REGISTRY NO=115-95-7
##MP= -300
##BP= -300
##MW= 196
##$RETENTION INDEX=1257
##$CONDENSED SPECTRUM=NO
##NPOINTS= 92
##XYDATA=(XY..XY) 1 
    14          1
    15          7
    26          2
    27         46
    28          9
    29         35
    30          1
    37          1
    38          3
    39         91
    40         25
    41        311
    42         32
    43        566
    44         16
    45          7
    50          5
    51         18
    52         12
    53         92
    54         15
    55        182
    56         16
    57         10
    58          5
    61          3
    62          1
    63          5
    64          1
    65         25
    66         11
    67        147
    68        100
    69        263
    70         22
    71        187
    72         26
    74          1
    75          1
    77         69
    78         12
    79        141
    80        386
    81        111
    82         32
    83         43
    84         12
    85         14
    86          6
    89          1
    91        132
    92        171
    93        999
    94        116
    95         35
    96          5
    97          6
    98          3
   103          6
   104          2
   105         76
   106         18
   107         84
   108         19
   109         26
   110          4
   111         11
   112          1
   113         12
   114          3
   115          2
   117          2
   119         17
   120          5
   121        284
   122         28
   123          5
   124          1
   125          2
   126          1
   127          3
   135          4
   136         67
   137         13
   138          1
   139         10
   140          1
   151          1
   153          1
   154         10
   155          1
   196          1