##TITLE=Library Entry 34976
##JCAMP-DX=Revision 4.10 
##DATA TYPE=MASS SPECTRUM
##SAMPLE DESCRIPTION=D.HENNEBERG, MAX-PLANCK INSTITUTE, MULHEIM, WEST GERMAN
Y
##NAMES=HP
##CAS NAME=1,3-Propanediol, 2-butyl-2-ethyl-
##MOLFORM=C9H20O2
##CAS REGISTRY NO=115-84-4
##MP= -300
##BP= -300
##MW= 160
##$RETENTION INDEX=0
##$CONDENSED SPECTRUM=NO
##NPOINTS= 85
##XYDATA=(XY..XY) 1 
    26         16
    27        148
    28         33
    29        453
    30         10
    31        190
    32          4
    33          4
    36          2
    37          2
    39         50
    40          9
    41        555
    42         76
    43        422
    44         23
    45         77
    46          2
    47          2
    50          1
    51          3
    52          1
    53         37
    54         17
    55        818
    56         81
    57        384
    58         26
    59        329
    60         11
    61          7
    63          3
    65          5
    66          3
    67         57
    68         29
    69        999
    70        773
    71        178
    72         56
    73         75
    74          4
    77          5
    79          9
    80          2
    81         23
    82         22
    83         72
    84         55
    85        136
    86         30
    87         56
    88          6
    89          4
    91          2
    93          3
    95         36
    96          5
    97          8
    98          4
    99         23
   100          6
   101         16
   102          1
   105          2
   109          4
   110          8
   111        134
   112        329
   113         40
   114         11
   115          7
   117          1
   118          1
   123          1
   124          2
   126          1
   127          2
   128         23
   129        135
   130         12
   131          1
   142          4
   144          4
   145          1