##TITLE=Library Entry 57790
##JCAMP-DX=Revision 4.10 
##DATA TYPE=MASS SPECTRUM
##SAMPLE DESCRIPTION=Chuck Anderson, Aldrich Chemical Co.
##NAMES=HP
##CAS NAME=2-Amino-2-ethyl-1,3-propanediol
##MOLFORM=C5H13NO2
##CAS REGISTRY NO=115-70-8
##MP= -300
##BP= -300
##MW= 119
##$RETENTION INDEX=0
##$CONDENSED SPECTRUM=NO
##NPOINTS= 41
##XYDATA=(XY..XY) 1 
    15         21
    17          5
    18        268
    19          7
    26         13
    27        127
    28        290
    29        128
    30        220
    31        115
    32          3
    39         35
    40          9
    41        153
    42        153
    43        226
    44         70
    45          9
    46         55
    52          4
    53         72
    54         19
    55         18
    56         65
    57         12
    58         25
    59         22
    60         62
    68          9
    69          7
    70        195
    71        410
    72         66
    73         14
    83          4
    84          6
    86          7
    88        999
    89         47
    90         42
   100          2