##TITLE=Library Entry 2150
##JCAMP-DX=Revision 4.10 
##DATA TYPE=MASS SPECTRUM
##SAMPLE DESCRIPTION=Exported from NIST MS Search
##NAMES=HP
##CAS NAME=1-Propene, 2-methyl-
##MOLFORM=C4H8
##CAS REGISTRY NO=115-11-7
##MP= -300
##BP= -300
##MW= 56
##$RETENTION INDEX=387
##$CONDENSED SPECTRUM=NO
##NPOINTS= 32
##XYDATA=(XY..XY) 1 
     2          2
    12          3
    13          4
    14         15
    15         46
    16          1
    24          1
    25          4
    26         51
    27        217
    28        218
    29        109
    30          6
    36          2
    37         34
    38         63
    39        449
    40        102
    41        999
    42         36
    43          1
    48          2
    49         12
    50         49
    51         45
    52         13
    53         51
    54         23
    55        160
    56        445
    57         20
    58          1