##TITLE=Library Entry 16946
##JCAMP-DX=Revision 4.10 
##DATA TYPE=MASS SPECTRUM
##SAMPLE DESCRIPTION=Exported from NIST MS Search
##NAMES=HP
##CAS NAME=Dimethyl ether
##MOLFORM=C2H6O
##CAS REGISTRY NO=115-10-6
##MP= -300
##BP= -300
##MW= 46
##$RETENTION INDEX=324
##$CONDENSED SPECTRUM=NO
##NPOINTS= 21
##XYDATA=(XY..XY) 1 
    12          2
    13          7
    14         22
    15        241
    16         11
    17          5
    18          3
    19          1
    27          2
    28         10
    29        387
    30         11
    31         34
    32          1
    41          1
    42          3
    43         14
    44          6
    45        999
    46        607
    47         13