##TITLE=Library Entry 626
##JCAMP-DX=Revision 4.10 
##DATA TYPE=MASS SPECTRUM
##SAMPLE DESCRIPTION=Japan AIST/NIMC Database- Spectrum MS-NW-4056
##NAMES=HP
##CAS NAME=Propane, 1,1,1-triethoxy-
##MOLFORM=C9H20O3
##CAS REGISTRY NO=115-80-0
##MP= -300
##BP= -300
##MW= 176
##$RETENTION INDEX=0
##$CONDENSED SPECTRUM=NO
##NPOINTS= 88
##XYDATA=(XY..XY) 1 
    12          2
    13          5
    14         19
    15         56
    16          3
    17          4
    18         14
    19         37
    24          2
    25          9
    26         92
    27        472
    28        363
    29        999
    30        121
    31        536
    32          9
    33          1
    37          1
    38          2
    39         11
    40          2
    41         45
    42         22
    43         78
    44         13
    45        384
    46         79
    47         26
    48          1
    50          1
    51          1
    53          6
    54          4
    55        132
    56        371
    57        631
    58         22
    59         10
    60          3
    61          1
    63        151
    64          2
    65          2
    67          1
    69          4
    71          2
    72          4
    73        395
    74        866
    75        835
    76         32
    77          6
    79          1
    81          1
    82          1
    83          2
    84          6
    85          8
    86          9
    87          4
    89          1
    91         85
    92          6
    93          1
    99          1
   100          1
   101         14
   102         44
   103        233
   104         14
   105          5
   106          1
   114          2
   115          1
   117          1
   119         50
   120          3
   121          1
   129          1
   130        277
   131        396
   132         34
   133          4
   134          2
   147        131
   148         11
   149          1