##TITLE=Library Entry 23916
##JCAMP-DX=Revision 4.10 
##DATA TYPE=MASS SPECTRUM
##SAMPLE DESCRIPTION=Japan AIST/NIMC Database- Spectrum MS-NW-2140
##NAMES=HP
##CAS NAME=Pentaerythritol
##MOLFORM=C5H12O4
##CAS REGISTRY NO=115-77-5
##MP= -300
##BP= -300
##MW= 136
##$RETENTION INDEX=0
##$CONDENSED SPECTRUM=NO
##NPOINTS= 74
##XYDATA=(XY..XY) 1 
    12          1
    13          2
    14          9
    15         28
    16          2
    17         33
    18        172
    19         40
    25          3
    26         26
    27        147
    28         71
    29        368
    30         85
    31        601
    32         13
    33          3
    36          2
    37         38
    38         24
    39        264
    40        129
    41        583
    42        844
    43         88
    44         64
    45         44
    46          2
    47        140
    48          2
    49         60
    50          5
    51          6
    52          5
    53         30
    54        220
    55         64
    56         29
    57        999
    58        120
    59         11
    60         82
    61         10
    65          4
    66          1
    67          2
    68         12
    69        238
    70        675
    71        308
    72         80
    73         45
    74          6
    75         10
    76          1
    77          3
    79          2
    81         16
    82         22
    83          6
    84          3
    85         16
    86          4
    87         62
    88         88
    89          5
    90          1
    91          1
    95          1
    97          2
    98          2
    99          3
   100         29
   101          2