##TITLE=Library Entry 30235
##JCAMP-DX=Revision 4.10 
##DATA TYPE=MASS SPECTRUM
##SAMPLE DESCRIPTION=Japan AIST/NIMC Database- Spectrum MS-NW-4733
##NAMES=HP
##CAS NAME=1,3-Propanediol, 2,2-diethyl-
##MOLFORM=C7H16O2
##CAS REGISTRY NO=115-76-4
##MP= -300
##BP= -300
##MW= 132
##$RETENTION INDEX=0
##$CONDENSED SPECTRUM=NO
##NPOINTS= 80
##XYDATA=(XY..XY) 1 
    14          1
    15         12
    17          8
    18         33
    19          2
    26         12
    27        191
    28         16
    29        303
    30          9
    31        360
    32          4
    33          7
    36          1
    37          3
    38          8
    39        137
    40         21
    41        541
    42         83
    43        391
    44         15
    45        255
    46          6
    47          3
    49          1
    50          7
    51         15
    52          6
    53         68
    54         37
    55        770
    56        133
    57        227
    58         19
    59        999
    60         33
    61         10
    62          2
    63          3
    65         10
    66          4
    67         66
    68         24
    69        339
    70         31
    71        113
    72         82
    73         16
    74          1
    77          5
    78          1
    79          9
    80          2
    81         36
    82         17
    83        313
    84        963
    85        180
    86         14
    87          1
    91          1
    93          1
    94          1
    95          3
    96         13
    97          9
    98          2
    99          7
   100         38
   101        227
   102         17
   103          3
   107          1
   108          1
   110          1
   112          2
   113          1
   114         10
   115          2