##TITLE=Library Entry 34279
##JCAMP-DX=Revision 4.10 
##DATA TYPE=MASS SPECTRUM
##SAMPLE DESCRIPTION=H. Fales, LC, NHLBI, NIH, Bethesda, MD 20892
##NAMES=HP
##CAS NAME=1,6-Octadien-3-ol, 3,7-dimethyl-, formate
##MOLFORM=C11H18O2
##CAS REGISTRY NO=115-99-1
##MP= -300
##BP= -300
##MW= 182
##$RETENTION INDEX=1215
##$CONDENSED SPECTRUM=NO
##NPOINTS= 137
##XYDATA=(XY..XY) 1 
    41        459
    42         32
    43         89
    44         19
    45          8
    47          3
    49          1
    50          6
    51         18
    52         10
    53         74
    54         11
    55         56
    56         12
    57         31
    58          7
    59         18
    60          3
    61          2
    62          1
    63          4
    64          1
    65         21
    66          8
    67        114
    68        236
    69        999
    70         71
    71         21
    72          4
    73          5
    74          2
    75          2
    76          1
    77         27
    78          7
    79         36
    80         47
    81         50
    82         16
    83         21
    84         12
    85         17
    86          3
    87          4
    88          1
    89          2
    90          1
    91         30
    92         26
    93        106
    94         26
    95         20
    96         15
    97         14
    98          5
    99          6
   100          2
   101          2
   102          1
   103          3
   104          1
   105         13
   106          3
   107         23
   108          9
   109         11
   110          5
   111         11
   112          5
   113          7
   114          2
   115          4
   116          2
   117          3
   118          2
   119          8
   120          1
   121         62
   122          9
   123         21
   124          5
   125          5
   126          3
   127          3
   128          2
   129          4
   130          1
   131          2
   132          1
   133          3
   134          2
   135          3
   136        144
   137         24
   138          4
   139         15
   140          3
   141          2
   142          2
   143          3
   144          0
   145          3
   146          1
   147          6
   148          2
   149          2
   150          1
   151          2
   152          1
   153          2
   154          1
   155          1
   157          1
   158          0
   159          1
   161          1
   163          1
   164          1
   165          1
   166          1
   167          1
   168          1
   169          1
   171          0
   173          0
   174          0
   175          1
   176          0
   177          1
   178          0
   179          1
   180          0
   181          1
   182          2
   183          1
   184          0