##TITLE=Library Entry 68261
##JCAMP-DX=Revision 4.10 
##DATA TYPE=MASS SPECTRUM
##SAMPLE DESCRIPTION=J. SHAW, BORRISTON RESEARCH, ROCKVILLE, MD, USA
##NAMES=HP
##CAS NAME=Isobornyl thiocyanoacetate
##MOLFORM=C13H19NO2S
##CAS REGISTRY NO=115-31-1
##MP= -300
##BP= -300
##MW= 253
##$RETENTION INDEX=1797
##$CONDENSED SPECTRUM=NO
##NPOINTS= 149
##XYDATA=(XY..XY) 1 
    33          8
    34         23
    36          2
    37          2
    38          9
    39        265
    40        308
    41        817
    42        134
    43        463
    44         77
    45        136
    46        138
    47         30
    48          8
    49          2
    50         12
    51         46
    52         25
    53        173
    54         35
    55        406
    56         51
    57        120
    58         29
    59         35
    60         11
    61          4
    62          3
    63         13
    64          4
    65         71
    66         45
    67        323
    68        130
    69        266
    70         68
    71        258
    72        257
    73         23
    74         16
    75          5
    76          3
    77        149
    78         33
    79        242
    80        152
    81        270
    82        141
    83        112
    84         57
    85         29
    86          5
    87         15
    88          3
    89          5
    90         10
    91        157
    92        201
    93        845
    94        148
    95        999
    96         96
    97         33
    98         11
    99         15
   100         32
   101          2
   102          3
   103          8
   104          6
   105         45
   106         12
   107        174
   108        125
   109         88
   110        214
   111         69
   112         10
   113         17
   114          2
   115          4
   117         40
   118         54
   119         16
   121        641
   122         64
   123         31
   124          5
   125          8
   126          5
   127          7
   128          1
   129          1
   130          1
   131          2
   132          1
   133          2
   134          9
   135         28
   136        527
   137         91
   138          8
   139         16
   140          2
   141          1
   143          2
   144          1
   145          1
   146          2
   147          2
   149         13
   150          3
   151          3
   152          3
   153          6
   154          6
   155          1
   157          1
   158          6
   159          1
   160          1
   161          1
   162          1
   163          1
   164          1
   165          1
   166          7
   167          4
   168          2
   169          4
   170          4
   171          1
   176          1
   177          1
   179          7
   180         10
   181          1
   183          3
   185          5
   194          1
   195          3
   196          1
   202          1
   204          1
   210          5
   211          2
   212          1
   238          5