##TITLE=Library Entry 1496
##JCAMP-DX=Revision 4.10 
##DATA TYPE=MASS SPECTRUM
##SAMPLE DESCRIPTION=NIST Mass Spectrometry Data Center, 1990.
##NAMES=HP
##CAS NAME=Ethanol, 2,2,2-trichloro-
##MOLFORM=C2H3Cl3O
##CAS REGISTRY NO=115-20-8
##MP= -300
##BP= -300
##MW= 148
##$RETENTION INDEX=877
##$CONDENSED SPECTRUM=NO
##NPOINTS= 76
##XYDATA=(XY..XY) 1 
    12          7
    13         11
    14         25
    15          9
    16          2
    17          3
    18          2
    24          5
    25         22
    26         43
    27          3
    28         13
    29        125
    30          2
    31        999
    32         12
    33          2
    34          2
    35         57
    36         16
    37         20
    38          5
    40          3
    41         16
    42         44
    43         13
    44          0
    47         98
    48         78
    49        262
    50         29
    51         78
    52          1
    56          0
    57          1
    59          5
    60         33
    61         32
    62         11
    63         13
    65          3
    70          2
    72          1
    76         28
    77        214
    78         18
    79         68
    80          4
    81          1
    82         83
    83         38
    84         53
    85         26
    86         11
    87          3
    95         17
    96         13
    97         11
    98          7
    99          2
   100          1
   110          1
   111          3
   112         15
   113         88
   114         12
   115         59
   116          1
   117         51
   118          1
   119         39
   121         11
   123          1
   148          2
   150          1
   152          0