##TITLE=Library Entry 24973
##JCAMP-DX=Revision 4.10 
##DATA TYPE=MASS SPECTRUM
##SAMPLE DESCRIPTION=Darrick Lee, Cayman Chemical, Ann Arbor, MI
##NAMES=HP
##CAS NAME=CB-86
##MOLFORM=C26H43NO3
##CAS REGISTRY NO=1150586-64-3
##MP= -300
##BP= -300
##MW= 417
##$RETENTION INDEX=0
##$CONDENSED SPECTRUM=NO
##NPOINTS= 218
##XYDATA=(XY..XY) 1 
    41        398
    42         68
    43        361
    44         33
    45          3
    50          4
    51         11
    52          5
    53         37
    55        744
    56        593
    57        999
    58        883
    59         40
    60          3
    63          5
    65         23
    66         10
    67         85
    68         27
    69        202
    70         27
    71        118
    72         10
    73          7
    75          6
    77         46
    78         15
    79         92
    80         20
    81         78
    82         20
    83         78
    84        101
    85         76
    86          6
    87          2
    89         11
    90          3
    91         70
    92         15
    93         40
    94         19
    95         60
    96         22
    97         79
    98         44
    99         70
   100          6
   101          8
   102          3
   103         23
   104          3
   105         33
   106         14
   107        101
   108         22
   109         33
   110         29
   111         91
   112         50
   113          7
   115         14
   116          6
   117          9
   118          6
   119         19
   120          7
   121         41
   122         46
   123        232
   124        105
   125        136
   126         22
   127          8
   128          3
   129          3
   131         15
   132          9
   133         36
   134         28
   135         42
   136         21
   137        147
   138         27
   139          6
   140          6
   142         29
   143          5
   145          5
   146          3
   147         16
   148         12
   149         60
   150         93
   151        227
   152        241
   153         52
   154         12
   158          3
   159          7
   160          4
   161         14
   162          9
   163         59
   164         38
   165         33
   166         37
   167          5
   168          6
   170          3
   173         16
   174         19
   175         15
   176          7
   177         38
   178         17
   179         13
   180         17
   181          7
   182        165
   183         23
   184         11
   187          7
   188          4
   189         13
   190          8
   191         37
   192         46
   193         11
   194          8
   195          3
   198          2
   201          5
   202          2
   203          5
   205         47
   206         33
   207         14
   208          7
   215          4
   217          5
   218          3
   219         12
   220         13
   221          5
   232          3
   233         17
   234         14
   235          7
   236         10
   237         23
   239          3
   246          6
   248         58
   249         19
   250         16
   257          3
   258          5
   259          8
   260          9
   261          9
   262          8
   263          4
   264          6
   265          3
   269          3
   273         32
   274         11
   275         17
   276         47
   277         16
   278          6
   287         14
   288          8
   289          8
   290         47
   291         13
   292          4
   293          3
   300          4
   301          4
   302          3
   304         22
   305         41
   306          7
   314          6
   315         11
   316          6
   318         31
   319         22
   320          5
   328          3
   329          3
   330          6
   331          5
   333        326
   334         65
   335         12
   344          7
   346         28
   347         37
   348          8
   360         18
   361         36
   362          8
   363          4
   374         10
   375         17
   376          6
   388         84
   389         38
   390         11
   400          5
   402         13
   417        153
   418         41
   419          8