##TITLE=Library Entry 114621
##JCAMP-DX=Revision 4.10 
##DATA TYPE=MASS SPECTRUM
##SAMPLE DESCRIPTION=Asinex Ltd, Moscow, Russia
##NAMES=HP
##CAS NAME=1H-1,2,3-Triazole-4-carboxylic acid azide, 5-chloro-
##MOLFORM=C3HClN6O
##CAS REGISTRY NO=115057-46-0
##MP= -300
##BP= -300
##MW= 172
##$RETENTION INDEX=0
##$CONDENSED SPECTRUM=NO
##NPOINTS= 76
##XYDATA=(XY..XY) 1 
    35         96
    36         41
    37         30
    38        328
    39         94
    40         41
    41         59
    42        162
    43         27
    44         65
    45          0
    46          0
    47        524
    48        109
    49        167
    50         31
    51          4
    52        133
    53        398
    54        281
    55         30
    59         17
    60          0
    61         90
    62         96
    63         49
    64         33
    65          5
    66          9
    67         24
    68          3
    69         51
    70         45
    71          0
    72          0
    73         89
    74        215
    75         42
    76        121
    77          5
    78         15
    80          4
    81          6
    83         43
    84          0
    87         13
    88          3
    89         29
    90          2
    91          6
   101          0
   102          7
   103          0
   104          1
   109          3
   111          0
   115         80
   116          4
   117         31
   118          0
   128          0
   129          6
   130        999
   131         62
   132        483
   133         19
   137          4
   143          0
   144        397
   145         19
   146        168
   147          9
   148          8
   172         70
   173          4
   174         21