##TITLE=Library Entry 13134
##JCAMP-DX=Revision 4.10 
##DATA TYPE=MASS SPECTRUM
##SAMPLE DESCRIPTION=LAC, NIDDK, NIH, Bethesda, MD 20892
##NAMES=HP
##CAS NAME=Pregna-5,16-dien-3.beta.,11.alpha.-diol-20-one, diacetate
##MOLFORM=C25H34O5
##CAS REGISTRY NO=115097-17-1
##MP= -300
##BP= -300
##MW= 414
##$RETENTION INDEX=0
##$CONDENSED SPECTRUM=NO
##NPOINTS= 196
##XYDATA=(XY..XY) 1 
    41         46
    43        999
    44          8
    45         14
    47         19
    49         33
    51          8
    53         20
    55         48
    57         11
    59          1
    60          0
    61          6
    63          0
    65         10
    66          1
    67         33
    69         12
    70          1
    71          6
    73          1
    77         32
    78          8
    79         49
    80          3
    81         36
    84          5
    86          1
    88          8
    89          2
    90          0
    91         85
    92          5
    93         43
    94          3
    95         17
    96          1
    97          6
    99          2
   102          0
   103          8
   104         15
   105         93
   106         28
   107         37
   108         11
   109         11
   110          0
   111          7
   113          1
   115         17
   116          9
   117         32
   118         14
   119         33
   120         22
   121         23
   122         17
   123         13
   124          6
   125          6
   127          2
   128         16
   129         27
   130         13
   131         43
   132         16
   133         20
   134         34
   135         77
   136         15
   137         12
   138          1
   139          2
   140          4
   141         23
   142          6
   143         68
   144         19
   145         87
   146          9
   147         43
   149         14
   150          5
   151          3
   152          2
   153          5
   154          1
   155         14
   156          6
   157         31
   158         21
   159         31
   160          7
   161          9
   162          2
   163          3
   165          7
   166          1
   167          8
   168          4
   169         15
   170          4
   171         22
   172         12
   173          9
   174          4
   175        152
   178          4
   179          5
   180          3
   181          8
   182          3
   183          9
   184         12
   185          9
   186         16
   187          5
   188          2
   189         56
   190         43
   191          3
   192          0
   193          4
   195         13
   196          4
   197         10
   198          3
   199          3
   200          2
   201          3
   202          1
   203          2
   204          0
   205          4
   206          1
   207          4
   208          0
   209         11
   210          1
   211          6
   212          1
   213          2
   214          1
   217          0
   219          2
   220          1
   221          5
   222          1
   223          4
   224          1
   225          3
   226          1
   227          1
   228          0
   233          1
   234          0
   235          5
   236          3
   237          6
   238          0
   239          3
   240          0
   241          0
   246          1
   247          0
   249          1
   250          1
   251         15
   252          4
   253          3
   254          1
   261          7
   262          1
   263          1
   265          3
   266          2
   267          1
   276          0
   277          3
   279        125
   280         25
   281          1
   293          2
   294         45
   295         18
   296          3
   297          1
   311          1
   312          1
   352          0
   353          0
   354        142
   355         38
   356          5
   357          0