##TITLE=Library Entry 9256
##JCAMP-DX=Revision 4.10 
##DATA TYPE=MASS SPECTRUM
##SAMPLE DESCRIPTION=James Little,Eastman Chem.Co.,Kingsport,TN
##NAMES=HP
##CAS NAME=S-(3-Hydroxypropyl) thioacetate
##MOLFORM=C5H10O2S
##CAS REGISTRY NO=115051-66-6
##MP= -300
##BP= -300
##MW= 134
##$RETENTION INDEX=0
##$CONDENSED SPECTRUM=NO
##NPOINTS= 33
##XYDATA=(XY..XY) 1 
    27         86
    29         84
    30         20
    31        245
    41        172
    43        999
    44         77
    45        164
    46         98
    47        110
    57        115
    58        147
    59         62
    60         28
    61        119
    63         21
    72         13
    73         59
    74        974
    75         59
    76         93
    77         25
    87          8
    89          7
    90         26
    91         67
    92         25
   103         17
   116        171
   117         15
   118         11
   134         14
   135          2