##TITLE=Library Entry 56125
##JCAMP-DX=Revision 4.10 
##DATA TYPE=MASS SPECTRUM
##SAMPLE DESCRIPTION=Div. of Experiment Therapeutics WRAIR, WRAMC, Washingto
n DC 20307
##NAMES=HP
##CAS NAME=2-[p-Chlorostyryl]-4-[4-[diethylamino]-1-methylbutyl]amino-6-meth
oxyquinoline
##MOLFORM=C27H34ClN3O
##CAS REGISTRY NO=115000-31-2
##MP= -300
##BP= -300
##MW= 451
##$RETENTION INDEX=0
##$CONDENSED SPECTRUM=NO
##NPOINTS= 214
##XYDATA=(XY..XY) 1 
    41         27
    42         27
    43         13
    44         17
    45          5
    49          1
    51          3
    53          1
    54          1
    55          6
    56         31
    57         10
    58         98
    59          5
    63          4
    67          3
    68          2
    69         29
    70         14
    71         18
    72         36
    73         44
    74          5
    75          4
    76          1
    77          8
    82          4
    84         26
    86        999
    87         58
    88          7
    89          9
    90          1
    91          1
    94          1
    96          3
    98         13
    99         48
   100         10
   101          9
   102          7
   103          4
   107          3
   108          2
   109          1
   110          2
   111          4
   112         45
   113         48
   114         12
   115         11
   116         12
   117          4
   119          4
   121          3
   122         12
   125          5
   126         33
   127         10
   128         11
   129          7
   130          5
   131         14
   132          3
   133          3
   134          5
   135          6
   136          4
   137          4
   138          3
   139          6
   140         32
   141          7
   142         22
   143         11
   144          1
   145          2
   146          3
   147          4
   149          6
   150          4
   151          6
   152          4
   153          3
   154          3
   155          4
   156          5
   157          5
   158          5
   159          3
   160          3
   161          3
   162          4
   163          8
   164          4
   165          3
   167          4
   168          5
   169          5
   170          3
   171          1
   174          2
   181          3
   183          2
   188          4
   189          7
   190          4
   195          3
   199          3
   201          2
   202          1
   203          4
   204          6
   211          1
   214          6
   215          8
   216         12
   217         19
   218         11
   219         22
   224          1
   225          4
   226          6
   227          4
   228          3
   229          4
   230          5
   231          4
   232          1
   238          2
   242          3
   243          5
   244          6
   245          3
   250          3
   251         15
   252          5
   253          7
   254          1
   255          2
   257          3
   259          3
   264          5
   265          4
   266         10
   267          4
   268          6
   269          3
   270          1
   273          3
   277          2
   278          3
   279          7
   280          5
   281          6
   282          3
   291          5
   292          5
   293         16
   294         22
   295         13
   296         36
   297          8
   298         10
   299          3
   305         13
   306          9
   307         17
   308          8
   309         33
   310         16
   311         49
   312         12
   313         14
   314          3
   319          5
   320          3
   321         10
   322          6
   323         13
   324          5
   325          4
   335         14
   337         56
   338         20
   339         19
   340          6
   349          6
   350          3
   351         31
   352         11
   353         11
   354          3
   361          5
   363          7
   365         25
   366          5
   367          7
   376          5
   377         14
   378          9
   379         18
   380         12
   381          6
   382          4
   422         56
   423         17
   424         20
   425          5
   436          4
   451         42
   452         13
   453         14
   454          4