##TITLE=Library Entry 33944
##JCAMP-DX=Revision 4.10 
##DATA TYPE=MASS SPECTRUM
##SAMPLE DESCRIPTION=Humboldt-Universitat zu Berlin, Department of Chemistry
, Analytical Group
##NAMES=HP
##CAS NAME=N-Crotonyl-N-(4-methoxyphenyl)-aminomalonic acid, diethyl ester
##MOLFORM=C18H23NO6
##CAS REGISTRY NO=115026-73-8
##MP= -300
##BP= -300
##MW= 349
##$RETENTION INDEX=0
##$CONDENSED SPECTRUM=NO
##NPOINTS= 150
##XYDATA=(XY..XY) 1 
    12          5
    13          5
    14         17
    15        104
    16          7
    17          6
    18         12
    19         17
    26         49
    27        323
    29        817
    30         33
    31         18
    35          2
    37          7
    39        367
    41        765
    42         47
    43         37
    44          8
    45         20
    46          2
    47          5
    49          3
    50         19
    51         30
    52         18
    53         23
    54          5
    55         13
    56          3
    57          6
    61          2
    62          7
    63         53
    64         94
    65         31
    66          8
    67         12
    69        999
    70         52
    71          8
    73          3
    74          5
    75          9
    76         29
    77        228
    78         32
    79         26
    80         13
    81          6
    82          2
    83          6
    84          2
    85          4
    86          2
    87          2
    89          3
    90         11
    91         21
    92        117
    93         15
    94          2
    95         15
    96          3
    97          2
    99          6
   102          5
   103         15
   104         10
   105          7
   107        140
   108         27
   109          8
   115          4
   116          2
   117          3
   118          5
   119         15
   120         13
   121          5
   122         11
   123         17
   124          3
   126          2
   127          2
   130          5
   131          5
   132          7
   134        648
   135         64
   136         13
   137          1
   145          1
   146          2
   147          3
   148          2
   149          5
   150          2
   154          2
   158          1
   159          2
   160          4
   162         44
   163          7
   164          2
   170          1
   172          1
   173          1
   174          4
   175          3
   176          1
   177          1
   178          2
   180          2
   188          1
   190          1
   191          2
   192          1
   193          1
   194          1
   195          1
   198          4
   200          0
   202          2
   203          2
   204          1
   206          2
   208        259
   209         36
   210          4
   226          5
   227          1
   231          1
   235          2
   236          0
   248          0
   258          1
   267          0
   276          3
   277          1
   281         87
   282         14
   283          2
   303          1
   304          7
   305          1
   349         11
   350          6
   351          1