##TITLE=Library Entry 109347
##JCAMP-DX=Revision 4.10 
##DATA TYPE=MASS SPECTRUM
##SAMPLE DESCRIPTION=A.A.Kutin, Moscow, Russia
##NAMES=HP
##CAS NAME=Propanoic acid, 2-(2-chlorophenylhydrazono)-, ethyl ester
##MOLFORM=C11H13ClN2O2
##CAS REGISTRY NO=115050-49-2
##MP= -300
##BP= -300
##MW= 240
##$RETENTION INDEX=0
##$CONDENSED SPECTRUM=NO
##NPOINTS= 90
##XYDATA=(XY..XY) 1 
    33         16
    34         13
    35          9
    36         29
    37         32
    38         84
    39        166
    40        244
    41         74
    42        338
    43         74
    44        132
    45         34
    46          2
    47          6
    49         28
    50         57
    51         56
    52         54
    53         11
    54          8
    55         19
    56          4
    57          1
    61         21
    62         70
    63        257
    64        136
    65         80
    66          6
    71         10
    73        156
    74         37
    75        102
    76         25
    77         40
    78         11
    79          2
    83         17
    85         15
    86          3
    87          6
    88         13
    89         36
    90        228
    91        112
    92         32
    93          5
    97          9
    99        590
   100         50
   101        185
   102         25
   103         12
   104          5
   105          4
   106          2
   111         48
   112          7
   113         14
   114          1
   118          1
   119          2
   125        999
   126        491
   127        386
   128        163
   129         29
   130          1
   131         20
   132         10
   137         10
   138          1
   139         11
   140         16
   141          6
   142          4
   154          5
   159          3
   166        493
   167         67
   168        140
   169         16
   194          2
   195         17
   197          5
   240        244
   241         35
   242         79
   243          8