##TITLE=Library Entry 17821
##JCAMP-DX=Revision 4.10 
##DATA TYPE=MASS SPECTRUM
##SAMPLE DESCRIPTION=ASES Database, Dalian Institute, P.R. China
##NAMES=HP
##CAS NAME=(E)-2-Methoxymethoxy-4'-nitro-stilbene
##MOLFORM=C16H15NO4
##CAS REGISTRY NO=115032-44-5
##MP= -300
##BP= -300
##MW= 285
##$RETENTION INDEX=0
##$CONDENSED SPECTRUM=NO
##NPOINTS= 11
##XYDATA=(XY..XY) 1 
    45        999
   131         10
   136         20
   165        179
   166         59
   179         19
   194         69
   212         19
   240        198
   253          9
   285        248