##TITLE=Library Entry 10814
##JCAMP-DX=Revision 4.10 
##DATA TYPE=MASS SPECTRUM
##SAMPLE DESCRIPTION=A.A.Kutin, Moscow, Russia
##NAMES=HP
##CAS NAME=Propanoic acid, 2-acetylamino-3-(4-hydroxy-3,5-dinitrophenyl)-, e
thyl ester
##MOLFORM=C13H15N3O8
##CAS REGISTRY NO=115026-27-2
##MP= -300
##BP= -300
##MW= 341
##$RETENTION INDEX=0
##$CONDENSED SPECTRUM=NO
##NPOINTS= 226
##XYDATA=(XY..XY) 1 
    33          1
    34          1
    35          1
    36          6
    37          2
    38          8
    39         35
    40         15
    41         23
    43        999
    44         59
    45         25
    46         41
    47          9
    48          2
    50         39
    51         75
    52         25
    53         41
    54          9
    55         16
    56         10
    57         17
    58          4
    60        458
    61         15
    62          9
    63         21
    64         16
    65         24
    66         13
    67         16
    68          6
    69          9
    70          7
    71          5
    72          2
    74        218
    75         15
    76         41
    77         36
    78         19
    79         17
    80         10
    81          5
    82          3
    83          4
    84          4
    85          3
    86          2
    87          4
    88          4
    89          9
    90          9
    91         11
    92         11
    93          8
    94          5
    95          3
    96          2
    97          2
    98          2
    99         10
   100          5
   102        931
   103         50
   104         31
   105         32
   106         11
   107          5
   108          2
   109          2
   110          1
   111          6
   112          1
   113          1
   114          0
   115          3
   116         19
   117          9
   118          5
   119          5
   120          6
   121         12
   122          3
   123          2
   124          0
   125          0
   126          0
   127          1
   128          1
   129          1
   130          3
   131          3
   132          7
   133         13
   134         26
   135          7
   136          2
   137          3
   138          1
   139          1
   140          1
   141          0
   142          0
   144         69
   145          9
   146          5
   147          4
   148          5
   149          6
   150          8
   151         16
   152          3
   153          1
   154          0
   155          0
   156          0
   157          0
   158          0
   159          1
   160          3
   161          7
   162          4
   163          4
   164          2
   165          1
   167          8
   168          1
   169          0
   170          0
   171          1
   173          1
   174          1
   175          1
   176          2
   177          3
   178          5
   179          3
   180         20
   181          4
   182          1
   185          0
   187          1
   188          1
   189          2
   190          2
   191          5
   192          2
   193          2
   194          3
   195          1
   196          5
   197         10
   198          1
   202          1
   203          0
   204          0
   205          1
   206          5
   207          6
   208          5
   209          4
   210          8
   211          1
   213          0
   216          0
   217          2
   218          3
   219          2
   220          6
   221          2
   222          1
   223          2
   224          4
   226        133
   227         12
   228          2
   233          0
   234          1
   235          2
   236          5
   237         25
   238          5
   239          0
   246          1
   247          0
   248          0
   249          1
   250          0
   252         45
   253          7
   254         32
   255          4
   256          0
   263          2
   264          1
   265          1
   266          2
   267          4
   268         15
   269          2
   270          0
   277          2
   278          2
   279          0
   281          8
   282         22
   283          3
   284          0
   293          2
   294          1
   296          9
   297          1
   298          1
   299          0
   309          0
   310          0
   311          6
   312          1
   323        127
   324         28
   325          4
   326          0
   341          3
   342          1