##TITLE=Library Entry 17796
##JCAMP-DX=Revision 4.10 
##DATA TYPE=MASS SPECTRUM
##SAMPLE DESCRIPTION=I.M. TAKAKIS, ORG. CHEM. LAB., UNIV. THESSALONIKI, GREE
CE
##NAMES=HP
##CAS NAME=(E)-4'-Chloro-2-methoxymethoxy-stilbene
##MOLFORM=C16H15ClO2
##CAS REGISTRY NO=115032-52-5
##MP= -300
##BP= -300
##MW= 274
##$RETENTION INDEX=0
##$CONDENSED SPECTRUM=NO
##NPOINTS= 23
##XYDATA=(XY..XY) 1 
    45        999
   125        140
   127         47
   131         30
   155         30
   157         10
   165        370
   166        200
   168        140
   170         47
   176         60
   177         40
   178         60
   194         80
   201        150
   203         50
   207         30
   229        460
   231        153
   242         50
   244         17
   274        420
   276        140