##TITLE=Library Entry 81574
##JCAMP-DX=Revision 4.10 
##DATA TYPE=MASS SPECTRUM
##SAMPLE DESCRIPTION=G. Lange, Inst. Org. Chem., Univ. Wurzburg, Wurzburg, G
ermany
##NAMES=HP
##CAS NAME=1,5-Dioxaspiro[3.4]octan-6-one, 2,2-diphenyl-
##MOLFORM=C18H16O3
##CAS REGISTRY NO=115077-63-9
##MP= -300
##BP= -300
##MW= 280
##$RETENTION INDEX=0
##$CONDENSED SPECTRUM=NO
##NPOINTS= 82
##XYDATA=(XY..XY) 1 
    39         20
    40          5
    41         13
    42         58
    43         40
    44         11
    45          7
    50         17
    51         90
    52         14
    53          7
    55         71
    56        239
    57         21
    63         17
    65         10
    69         18
    70        100
    71         10
    74          6
    75         12
    76         64
    77        405
    78         42
    82         22
    83          9
    88         16
    89         90
    90         13
    91         34
    94          6
    97          6
    98        413
    99         25
   101          8
   102         40
   103         38
   104          8
   105        999
   106         75
   107          5
   115         32
   116          5
   117          6
   126          8
   127          9
   128          9
   131          5
   139         14
   145          6
   150          9
   151         31
   152         68
   153         26
   154         28
   163          9
   164         11
   165        256
   166         40
   167         10
   176         37
   177         49
   178        266
   179        261
   180        306
   181        133
   182        347
   183        885
   184        122
   185         10
   191          5
   192          7
   193         15
   207        160
   208         30
   220          6
   233          6
   236          6
   262          6
   279         19
   280         45
   281          8