##TITLE=Library Entry 17795
##JCAMP-DX=Revision 4.10 
##DATA TYPE=MASS SPECTRUM
##SAMPLE DESCRIPTION=ASES Database, Dalian Institute, P.R. China
##NAMES=HP
##CAS NAME=(Z)-2-Methoxymethoxy-4'-chloro-stilbene
##MOLFORM=C16H15ClO2
##CAS REGISTRY NO=115032-51-4
##MP= -300
##BP= -300
##MW= 274
##$RETENTION INDEX=0
##$CONDENSED SPECTRUM=NO
##NPOINTS= 21
##XYDATA=(XY..XY) 1 
    45        999
   125        109
   127         40
   131         20
   155         10
   165        342
   166        170
   168         90
   170         30
   176         60
   177         30
   178         40
   194         60
   201         19
   207         19
   229        391
   231        130
   242         40
   244         19
   274        391
   276        131