##TITLE=Library Entry 14573
##JCAMP-DX=Revision 4.10 
##DATA TYPE=MASS SPECTRUM
##SAMPLE DESCRIPTION=LAC, NIDDK, NIH, Bethesda, MD 20892
##NAMES=HP
##CAS NAME=1,2,3,4-Tetrahydro-acetylflazin, 2-dehydroxycarbonyl-
##MOLFORM=C18H18N2O3
##CAS REGISTRY NO=115107-77-2
##MP= -300
##BP= -300
##MW= 310
##$RETENTION INDEX=0
##$CONDENSED SPECTRUM=NO
##NPOINTS= 232
##XYDATA=(XY..XY) 1 
    41         66
    42         80
    43        999
    44         72
    45         84
    46          6
    47          4
    49         14
    50         46
    51        165
    52        167
    53         81
    54         45
    55         58
    56         10
    57         15
    58          6
    60         43
    61         25
    62         15
    63         58
    64         21
    65         47
    66         17
    67         13
    68         15
    69         21
    70         13
    71         17
    72          0
    73          8
    74         16
    75         48
    76         55
    77        109
    78         32
    79         64
    80         28
    81         95
    82         20
    84         69
    85         21
    86         12
    87         14
    88         24
    89         70
    90         38
    91         34
    92          8
    93          7
    94         16
    95         42
    97         44
    98         10
    99          9
   100          6
   101         48
   102         57
   103         59
   104         28
   105          5
   106         16
   107          7
   108         11
   109         17
   110         44
   111         83
   113         26
   114         37
   115        172
   116         60
   117         64
   118         40
   119          7
   120         10
   121          9
   122          8
   123          7
   124         27
   125         81
   126         13
   127         57
   128         80
   129         45
   130         92
   131         14
   132          6
   133          3
   134          1
   137          5
   138         11
   139         33
   140         73
   141         35
   142         59
   143        116
   144        103
   145         13
   146          7
   147          2
   149          5
   150         14
   151         32
   152         77
   153         35
   154         94
   155         59
   156         39
   157         13
   158         10
   159          4
   162          1
   163          6
   164         12
   165         32
   166         42
   167        162
   168         88
   169        152
   170         48
   171        135
   172         17
   173          1
   174          1
   175          2
   176          7
   177         24
   178         80
   179         66
   180        271
   181         65
   182         30
   183         28
   184         13
   185          5
   186          5
   187          3
   188          1
   190         15
   191         63
   192        107
   193        365
   194        181
   195         58
   196         25
   197          7
   198          2
   199          3
   202          2
   203         10
   204         34
   205         57
   206         94
   207        134
   208        159
   209        118
   210         32
   211          7
   212          3
   213          1
   215          1
   216          4
   217         11
   218         15
   219         78
   220        113
   221        456
   222        616
   223        141
   224         25
   225          6
   230          2
   231          4
   232          6
   233         23
   234         18
   235         42
   236         25
   237        166
   238         62
   239         36
   240         11
   241          1
   245          3
   246         37
   247         84
   248         74
   249        142
   250        405
   251        206
   252         38
   253          6
   256          2
   258          1
   260          7
   261          6
   262          8
   263         18
   264         44
   265         31
   266         27
   267         30
   268         25
   269          4
   271          1
   273          3
   275          2
   277          4
   278         93
   279         33
   280         34
   281        268
   282         74
   283         12
   284          2
   287          1
   289          1
   292         20
   293          6
   294          3
   295          1
   296          2
   298          3
   304          1
   306          1
   307          6
   308         47
   309        275
   310        935
   311        179
   312         23
   313          4