##TITLE=Library Entry 61349
##JCAMP-DX=Revision 4.10 
##DATA TYPE=MASS SPECTRUM
##SAMPLE DESCRIPTION=Chemical Concepts
##NAMES=HP
##CAS NAME=L-Methionine, N-[(phenylmethoxy)carbonyl]-
##MOLFORM=C13H17NO4S
##CAS REGISTRY NO=1152-62-1
##MP= -300
##BP= -300
##MW= 283
##$RETENTION INDEX=0
##$CONDENSED SPECTRUM=NO
##NPOINTS= 129
##XYDATA=(XY..XY) 1 
    26         17
    27         87
    28         79
    29         29
    30         15
    31         14
    34          4
    35         25
    36          3
    37          8
    38         26
    39        171
    40         17
    41        107
    42         25
    43         30
    44        345
    45        140
    46         43
    47        103
    48         46
    49         25
    50         67
    51        161
    52         47
    53         34
    54         47
    55         41
    56        103
    57         36
    58         11
    59         27
    60         17
    61        175
    62         97
    63        111
    64         29
    65        277
    66         18
    67          6
    68          9
    69         22
    70          8
    71         12
    72          6
    73         22
    74         53
    75        181
    76         21
    77        275
    78         67
    79        442
    80         44
    81         11
    82         16
    83         32
    84         39
    85         20
    86         55
    87         31
    88         20
    89        103
    90         76
    91        999
    92        202
    93         12
    94          3
    95          7
    96         14
    97          9
    98          4
    99         12
   100         43
   101         49
   102         20
   103          9
   104         13
   105         30
   106         12
   107        314
   108        597
   109         53
   110          6
   111          7
   112          8
   113          3
   114         33
   115          4
   116         13
   117          5
   118          5
   119          4
   121         38
   122          9
   123         17
   124          3
   125          3
   127         20
   128          7
   129        175
   130         14
   131         68
   132         11
   133          5
   134          4
   135          3
   137          9
   138        475
   139         48
   140         23
   141          4
   142          3
   144          3
   146          8
   148         27
   149          9
   150          3
   151          3
   157         22
   167          3
   168          3
   175        142
   176         12
   177          9
   192          9
   209          7
   235         42
   236          7
   283          8