##TITLE=Library Entry 80258
##JCAMP-DX=Revision 4.10 
##DATA TYPE=MASS SPECTRUM
##SAMPLE DESCRIPTION=Chemical Concepts
##NAMES=HP
##CAS NAME=Propanedioic acid, dicyclohexyl ester
##MOLFORM=C15H24O4
##CAS REGISTRY NO=1152-57-4
##MP= -300
##BP= -300
##MW= 268
##$RETENTION INDEX=1932
##$CONDENSED SPECTRUM=NO
##NPOINTS= 97
##XYDATA=(XY..XY) 1 
    26          7
    27         93
    28         14
    29        113
    30          4
    31         15
    38          4
    39        117
    40         21
    41        310
    42         69
    43        100
    44         63
    50          4
    51         13
    52          7
    54        175
    55        432
    56         64
    57        198
    58         24
    59          3
    60         19
    61         17
    63          3
    65         16
    66         14
    67        458
    68         39
    69         57
    70         13
    71         43
    72         21
    77         20
    78          6
    79         46
    80         27
    81        173
    82        460
    83        966
    84         76
    85          9
    87        301
    88         12
    89          3
    91         27
    92          4
    93          4
    94          4
    95          4
    96          4
    97          8
    98         27
    99        376
   100         69
   101         14
   102         27
   103         12
   104          4
   105        999
   106         56
   107         15
   108          5
   109         74
   110          7
   115          7
   116          3
   117          4
   118          4
   119         41
   120          4
   121          3
   122          3
   123          3
   124          3
   125          4
   127         19
   128          3
   133         16
   134          3
   135          4
   140          3
   141          4
   142         11
   143         16
   144          3
   151         40
   152          4
   158         34
   159          6
   164          4
   168          3
   169         21
   170          3
   186         19
   187         26
   188          3