##TITLE=Library Entry 2968
##JCAMP-DX=Revision 4.10 
##DATA TYPE=MASS SPECTRUM
##SAMPLE DESCRIPTION=Scientific Instruments & Applications
##NAMES=HP
##CAS NAME=10-Azido-1-decanethiol
##MOLFORM=C10H21N3S
##CAS REGISTRY NO=1152113-44-4
##MP= -300
##BP= -300
##MW= 215
##$RETENTION INDEX=0
##$CONDENSED SPECTRUM=NO
##NPOINTS= 103
##XYDATA=(XY..XY) 1 
    40         71
    41        999
    42        374
    43        925
    44        310
    45        134
    46         33
    47        322
    48         11
    49         19
    50          4
    51         16
    52          6
    53         96
    54        146
    55        587
    56        945
    57        145
    58         19
    59         33
    60         30
    61         88
    62         10
    63          5
    64          1
    65         15
    66          4
    67        130
    68         64
    69        140
    70        319
    71         27
    72          8
    73         14
    74          5
    75          6
    77          8
    78          1
    79         30
    80         13
    81         67
    82         40
    83         34
    84         92
    85         14
    86         16
    87         73
    88          9
    89         10
    90          1
    91          4
    93         11
    94          6
    95         31
    96         18
    97         11
    98         27
    99          6
   100          8
   101         29
   102          3
   103          2
   104          1
   105          1
   107          3
   108          4
   109          3
   110          7
   111          1
   112         18
   113         10
   114          8
   115          7
   116          1
   120          1
   121          2
   122          2
   123          2
   124          1
   126         11
   127          9
   128          3
   129          3
   130          1
   135          1
   136          1
   137          1
   140         10
   141          2
   142          2
   143          1
   144          3
   152          2
   153          1
   154         28
   155          4
   157          1
   158          1
   169          1
   170          2
   172          1
   186          2
   215          3