##TITLE=Library Entry 27877
##JCAMP-DX=Revision 4.10 
##DATA TYPE=MASS SPECTRUM
##SAMPLE DESCRIPTION=Chemical Concepts
##NAMES=HP
##CAS NAME=5,7-Dioxa-4,8-diazaundeca-3,8-diene-2,10-dione, 3,9-dimethyl-, di
oxime, (all-E)-
##MOLFORM=C9H16N4O4
##CAS REGISTRY NO=115216-82-5
##MP= -300
##BP= -300
##MW= 244
##$RETENTION INDEX=0
##$CONDENSED SPECTRUM=NO
##NPOINTS= 95
##XYDATA=(XY..XY) 1 
    25          2
    26         10
    27         67
    29         33
    30         38
    31         94
    37          1
    38         10
    39         25
    41        105
    42        261
    43         15
    44          6
    45          1
    46          0
    49          0
    50          1
    51          3
    52          6
    53          7
    54          7
    55          3
    56          3
    57         47
    58        999
    59         26
    60          2
    61          0
    63          2
    64          0
    65          0
    66          4
    67          6
    68         30
    69          4
    70          0
    72          0
    73          0
    74          0
    77          0
    78          1
    79          1
    80          0
    81          2
    82          1
    83          1
    84          9
    85          2
    86          0
    88          0
    91          0
    93          0
    94          0
    95          0
    96          0
    97          0
    98         11
    99         63
   100          7
   101          4
   102          0
   105          0
   106          0
   107          0
   108          0
   109          0
   110          0
   111          0
   112          1
   113          0
   114          0
   115          5
   116        215
   117         35
   118          2
   119          0
   120          0
   121          0
   122          0
   123          0
   128          0
   129         28
   130          1
   133          0
   134          0
   135          0
   142          0
   145          2
   146          0
   170          0
   184          1
   227          1
   244         23
   245          5
   246          0