##TITLE=Library Entry 47204
##JCAMP-DX=Revision 4.10 
##DATA TYPE=MASS SPECTRUM
##SAMPLE DESCRIPTION=Exported from NIST MS Search
##NAMES=HP
##CAS NAME=3-Pyridinecarboxylic acid, 1,6-dihydro-4-hydroxy-2-methyl-6-oxo-1
-phenyl-, ethyl ester
##MOLFORM=C15H15NO4
##CAS REGISTRY NO=1153-83-9
##MP= -300
##BP= -300
##MW= 273
##$RETENTION INDEX=0
##$CONDENSED SPECTRUM=NO
##NPOINTS= 122
##XYDATA=(XY..XY) 1 
    40        187
    41        437
    42        375
    43        375
    44        187
    45        350
    50        350
    51        499
    52        312
    53        250
    54        187
    55        125
    56         62
    57        100
    59        100
    61        100
    62        125
    63        225
    64        187
    65        275
    66        150
    67        649
    68        187
    69        599
    70         62
    71         62
    73         62
    74         62
    75        150
    76        187
    77        999
    78        312
    79        100
    80         37
    81        100
    82        100
    83        100
    84         62
    85         62
    86        100
    87         62
    88        100
    89        150
    90        125
    91        125
    92        100
    93        187
    94        100
    95         62
   101         62
   102        125
   103        150
   104        499
   105        150
   106         37
   107         37
   108         62
   109         37
   110         37
   111         37
   112         62
   113         62
   114         62
   115        150
   116        125
   117        150
   118        974
   119        125
   120         62
   127         62
   128        125
   129        125
   130        375
   131        275
   132        125
   133         62
   134         62
   140         62
   141         62
   142        125
   143        400
   144        375
   145        100
   146         37
   154        100
   156         62
   157        100
   158        250
   159        100
   160        125
   161        100
   170        125
   171        150
   172        100
   173        100
   174        100
   175        100
   184        100
   185        150
   186        125
   187        150
   188         62
   198        100
   199        812
   200        275
   201         62
   202         37
   216        100
   217        100
   226        125
   227        275
   228        150
   229         62
   230         62
   231         62
   244        100
   245        125
   246         62
   272        100
   273        499
   274        187
   275         62