##TITLE=Library Entry 99807
##JCAMP-DX=Revision 4.10 
##DATA TYPE=MASS SPECTRUM
##SAMPLE DESCRIPTION=A.A.Kutin, Moscow, Russia
##NAMES=HP
##CAS NAME=Thiazolidine-4,5-dione, 2-[2-(4-methylphenyl)-2-oxoethylidene]-3-
phenyl-
##MOLFORM=C18H13NO3S
##CAS REGISTRY NO=115351-65-0
##MP= -300
##BP= -300
##MW= 323
##$RETENTION INDEX=0
##$CONDENSED SPECTRUM=NO
##NPOINTS= 107
##XYDATA=(XY..XY) 1 
    36          2
    37          9
    38         29
    39        190
    40         22
    41         55
    42          6
    43          6
    45         40
    50         84
    51        281
    52         39
    53         16
    54          8
    55          4
    56          0
    57         23
    58          8
    59          3
    60         21
    61         13
    62         32
    63        120
    64         66
    65        441
    66         28
    67         11
    69         11
    70         11
    71         13
    73          4
    74         17
    75         22
    76         40
    77        330
    78         35
    79          6
    81          0
    82          9
    83          1
    84          8
    85         89
    86         16
    87         14
    88         14
    89        123
    90         66
    91        851
    92         70
    93          9
    96          6
    97          1
   102         17
   103         49
   104         23
   105         12
   109         32
   115         92
   116         61
   117         12
   119        999
   120         92
   121         20
   130         33
   131          8
   133          1
   135         27
   136         64
   137          9
   142          8
   144         53
   145          9
   147         24
   148         48
   149         11
   163         10
   165          8
   175         45
   176        123
   177         14
   178         11
   191          3
   204          8
   207          8
   208          2
   209          1
   218         13
   223         15
   224          8
   234         11
   235          9
   238         27
   239         12
   249          8
   250         14
   251          8
   252         15
   266        789
   267        591
   268        136
   269         38
   281          5
   282          2
   283          0
   294         43
   295         18
   323         20