##TITLE=Library Entry 90820
##JCAMP-DX=Revision 4.10 
##DATA TYPE=MASS SPECTRUM
##SAMPLE DESCRIPTION=NIST Mass Spectrometry Data Center
##NAMES=HP
##CAS NAME=1,3-Di((E)-prop-1-en-1-yl)trisulfane
##MOLFORM=C6H10S3
##CAS REGISTRY NO=115321-81-8
##MP= -300
##BP= -300
##MW= 178
##$RETENTION INDEX=1348
##$CONDENSED SPECTRUM=NO
##NPOINTS= 53
##XYDATA=(XY..XY) 1 
    27         48
    29         58
    31         36
    38         35
    39        411
    40         31
    41        480
    42         36
    44         31
    45        807
    46         49
    47        144
    58         80
    59        452
    60         40
    61        313
    62         22
    64        101
    66         30
    70         46
    71        380
    72        223
    73        412
    74        172
    76         21
    78         39
    83         92
    84         37
    85         51
    97        143
    98         25
    99        198
   100         58
   101         21
   103         86
   104         42
   105        365
   106        173
   107        206
   108         72
   111         85
   112        201
   113        117
   114        999
   115         66
   116         92
   117         27
   118         75
   178        509
   179         53
   180        152
   181         15
   182         19