##TITLE=Library Entry 107891
##JCAMP-DX=Revision 4.10 
##DATA TYPE=MASS SPECTRUM
##SAMPLE DESCRIPTION=Chemical Concepts
##NAMES=HP
##CAS NAME=N,N'-Bis-(2,2,6,6-tetramethylpiperid-4-yl)succinamide
##MOLFORM=C22H42N4O2
##CAS REGISTRY NO=115397-58-5
##MP= -300
##BP= -300
##MW= 394
##$RETENTION INDEX=0
##$CONDENSED SPECTRUM=NO
##NPOINTS= 83
##XYDATA=(XY..XY) 1 
    38          2
    39          9
    40          8
    41         50
    42         72
    43         29
    44         30
    45          2
    51          2
    52          2
    53          6
    54          9
    55         56
    56         23
    57         54
    58        203
    59          8
    65          4
    66          3
    67         14
    68          9
    69         10
    70         14
    71         16
    72          5
    73          2
    77          2
    78          2
    79          9
    80          5
    81         15
    82         34
    83         23
    84         43
    85          9
    91          7
    92          2
    93          5
    94          5
    95          7
    96         12
    97         12
    98         47
    99         43
   100          9
   105          4
   107         37
   108         17
   109          8
   110         10
   111          7
   112         21
   113          9
   117          8
   121          4
   122         12
   124        999
   125         80
   126          6
   138         28
   139         19
   140         16
   141          5
   149         10
   166          2
   167          8
   181          2
   182          6
   183          5
   211          2
   223          2
   239          8
   256        195
   257         24
   258          2
   266          3
   281          4
   282          2
   294          2
   296          4
   379         27
   380          6
   394          4