##TITLE=Library Entry 79176
##JCAMP-DX=Revision 4.10 
##DATA TYPE=MASS SPECTRUM
##SAMPLE DESCRIPTION=G. Lange, Inst. Org. Chem., Univ. Wurzburg, Germany
##NAMES=HP
##CAS NAME=5,7-Methanocyclopenta[c]pyran-3-one, 3,4,4a,5,6,7-hexahydro-1,4-d
iphenyl-, (4.alpha.,4a.beta.,5.alpha.,7.alpha.)-
##MOLFORM=C21H18O2
##CAS REGISTRY NO=115410-90-7
##MP= -300
##BP= -300
##MW= 302
##$RETENTION INDEX=0
##$CONDENSED SPECTRUM=NO
##NPOINTS= 124
##XYDATA=(XY..XY) 1 
    39         43
    41         47
    43          7
    44          7
    50         10
    51         84
    52         14
    53         17
    55         13
    63         25
    64          9
    65         51
    75          8
    76         20
    77        596
    78         79
    79         26
    82          5
    83         16
    84          9
    89         67
    90        209
    91        188
    92         50
    93          9
    98         13
   101         10
   102         24
   103         23
   104         97
   105        999
   106         80
   107         27
   114          7
   115        105
   116         22
   117         23
   118        506
   119         51
   120          7
   126          9
   127         35
   128        110
   129         70
   130         30
   131         17
   133         16
   139         12
   141         79
   142         47
   143         10
   144         15
   145         17
   146         18
   151          8
   152         43
   153         52
   154         48
   155         41
   156          9
   157         11
   158          7
   159          9
   161         41
   165         50
   166         16
   167         52
   168         32
   169        105
   170         46
   171          7
   172         11
   178         10
   179         17
   181         21
   182         45
   183        153
   184        113
   185         17
   195         10
   196         12
   197         84
   198         16
   202         14
   203          9
   204          6
   205         11
   211         12
   215         16
   216          8
   217         14
   218          5
   220          6
   225         27
   226          7
   228          5
   229          6
   231         16
   232         12
   233         15
   241         11
   243          5
   244          5
   245         17
   246         15
   255         10
   256         13
   257         16
   258         19
   259         56
   260         57
   261         13
   272          5
   273         49
   274        235
   275         52
   276          5
   284          7
   285          7
   287         15
   301         50
   302        195
   303         42
   304          7