##TITLE=Library Entry 98813
##JCAMP-DX=Revision 4.10 
##DATA TYPE=MASS SPECTRUM
##SAMPLE DESCRIPTION=Chemical Concepts
##NAMES=HP
##CAS NAME=1,3-Dithiane-2-butanoic acid, .gamma.-oxo-
##MOLFORM=C8H12O3S2
##CAS REGISTRY NO=115400-26-5
##MP= -300
##BP= -300
##MW= 220
##$RETENTION INDEX=0
##$CONDENSED SPECTRUM=NO
##NPOINTS= 142
##XYDATA=(XY..XY) 1 
    25          0
    26          9
    27         74
    28         64
    29         24
    30          2
    31          7
    33          1
    34          1
    35          1
    36          0
    37          1
    38          4
    39         52
    40          6
    41        107
    42         13
    43         17
    44          6
    45        221
    46         45
    47         50
    48          3
    49          2
    50          0
    51          1
    52          0
    53          3
    54          1
    55         66
    56          6
    57          3
    58         13
    59         38
    60          5
    61          7
    62          0
    63          0
    64          5
    65          1
    66          0
    67          0
    68          0
    69          4
    70          1
    71         15
    72          7
    73         78
    74         12
    75         78
    76          4
    77         31
    78         25
    79          5
    80          0
    81          0
    82          0
    83          2
    84          2
    85         52
    86          8
    87         11
    88          1
    89          1
    90          0
    91         51
    92          2
    93          4
    94          0
    95          0
    96          0
    97          1
    98          0
    99          1
   100          1
   101         43
   102          3
   103          3
   104          0
   105          7
   106          8
   107          1
   108          1
   109          0
   110          0
   111          0
   112          0
   113          1
   114          1
   115          0
   116          0
   117          1
   118          9
   119        999
   120         73
   121        100
   122          5
   123          2
   124          0
   125          0
   126          0
   127          0
   128          0
   129          1
   130          1
   131          0
   132          0
   133          1
   134          0
   135          0
   137          0
   141          0
   143          0
   145          0
   146          1
   147          1
   148          0
   155          0
   157          0
   159          0
   160          0
   161          1
   162          0
   163          0
   171          0
   173          0
   174          0
   175          0
   176          0
   177          0
   185          0
   192          0
   202          5
   203         10
   204          1
   205          0
   215          0
   219          0
   220         71
   221          9
   222          7
   223          0