##TITLE=Library Entry 27489
##JCAMP-DX=Revision 4.10 
##DATA TYPE=MASS SPECTRUM
##SAMPLE DESCRIPTION=Chemical Concepts
##NAMES=HP
##CAS NAME=d-Glucose, diheptyl mercaptal
##MOLFORM=C20H42O5S2
##CAS REGISTRY NO=115460-01-0
##MP= -300
##BP= -300
##MW= 426
##$RETENTION INDEX=0
##$CONDENSED SPECTRUM=NO
##NPOINTS= 239
##XYDATA=(XY..XY) 1 
    26         12
    27        102
    29        205
    30         16
    31         54
    33          4
    34         12
    35          9
    36          1
    37          2
    38          3
    39         70
    41        399
    42        125
    43        395
    44          1
    45         53
    46         13
    47         71
    48         11
    49          4
    50          4
    51          6
    52          3
    53         26
    54         17
    55        386
    56        159
    57        999
    58         44
    59         31
    60         48
    61        259
    62         10
    63          9
    64          0
    65          6
    66          4
    67         28
    68         27
    69        103
    70        125
    71         37
    72         11
    73         87
    74         17
    75         26
    76         75
    77         64
    78         18
    79         45
    80          3
    81         24
    82          4
    83         16
    84          5
    85        163
    86         17
    87        102
    88         13
    89         55
    90          4
    91         12
    92          6
    93         11
    94          2
    95         16
    96         16
    97        151
    98         52
    99         20
   100          4
   101         47
   102          8
   103         50
   104          5
   105          9
   106          2
   107          2
   108          2
   109         15
   110          5
   111          9
   112          2
   113         13
   114          3
   115         30
   116          4
   117         10
   118          1
   119          3
   120          1
   121          3
   122          1
   123          2
   124          0
   125          2
   126          3
   127         72
   128          6
   129         30
   130         17
   131         71
   132         30
   133         21
   134          4
   135          1
   136          0
   137          0
   138          0
   139          1
   140          0
   141          2
   142          3
   143         64
   144         10
   145        165
   146         15
   147          7
   148          0
   149          0
   150          0
   151          0
   152          0
   153          1
   154          0
   155          3
   156          1
   157          3
   158          1
   159          3
   160          1
   161          4
   162          1
   163         44
   164          3
   165          1
   169          0
   170          0
   171          3
   172          1
   173         16
   174         43
   175        214
   176         35
   177        158
   178         24
   179         15
   180          2
   181          1
   183          0
   184          1
   185         15
   186          2
   187         18
   188          3
   189          1
   190          1
   191          1
   197          0
   198          0
   199          6
   200          1
   201          3
   202          3
   203          9
   204          1
   205          1
   206          1
   207          3
   209          1
   210          0
   211          1
   212          0
   213          2
   214          0
   215          6
   216          1
   217          6
   218          1
   219          1
   221          1
   225          1
   226          0
   227          2
   228          1
   229          4
   230          1
   231          2
   232          0
   233          3
   234          1
   239          0
   241          4
   242          1
   243          3
   245          4
   246          0
   247          1
   250          0
   257          1
   258          1
   259         10
   260          1
   261          1
   262          0
   263          4
   265          1
   273          1
   274          0
   275        682
   276        169
   277        106
   278         18
   279          4
   280          1
   281          1
   288          1
   289          1
   294          0
   295          2
   296          1
   301          3
   302          1
   304          0
   305          1
   309          0
   315          0
   317         18
   318          4
   319          1
   327          0
   341          0
   343          0
   377          0
   426         14
   427          3
   428          2
   429          0