##TITLE=Library Entry 79284
##JCAMP-DX=Revision 4.10 
##DATA TYPE=MASS SPECTRUM
##SAMPLE DESCRIPTION=Organic Synthesis Lab, MSU, Moscow.TRC 1430
##NAMES=HP
##CAS NAME=2-Oxo-3-(phenylthio)propyl benzoate
##MOLFORM=C16H14O3S
##CAS REGISTRY NO=115413-22-4
##MP= -300
##BP= -300
##MW= 286
##$RETENTION INDEX=0
##$CONDENSED SPECTRUM=NO
##NPOINTS= 113
##XYDATA=(XY..XY) 1 
    37          3
    38         10
    39         61
    40          2
    41          2
    42         11
    43          8
    44          4
    45        187
    46         10
    47          9
    48          0
    49          2
    50         65
    51        193
    52         17
    53          2
    54          0
    55          3
    57          3
    58          6
    59          4
    60          0
    61          1
    62          4
    63         14
    64          2
    65         78
    66         18
    67          0
    69         33
    70          2
    71          4
    72          0
    73          2
    74         16
    75         17
    76         32
    77        422
    78         63
    79         39
    80          2
    81          3
    82          8
    83          4
    84          6
    85          0
    89          5
    90          2
    91         41
    92          4
    93          1
    94          1
    95          0
    96          0
    97          4
   104          8
   105        999
   106        147
   107         11
   108         19
   109        123
   110         50
   111          8
   112          1
   115          1
   118          0
   119          1
   121         27
   122         49
   123        349
   124         48
   125         24
   126          2
   127          0
   131          0
   132          1
   134          2
   135         47
   136        113
   137         12
   138          5
   139          0
   143          0
   147          1
   148          1
   149          3
   150          1
   151          1
   152          1
   153          0
   154          0
   161          0
   163        185
   164         30
   165          5
   166          7
   167          1
   177          6
   178          0
   181          0
   184          3
   185          1
   186          1
   213          1
   214          1
   228          0
   243          0
   286        287
   287         71
   288         25
   289          3
   290          0