##TITLE=Library Entry 109755
##JCAMP-DX=Revision 4.10 
##DATA TYPE=MASS SPECTRUM
##SAMPLE DESCRIPTION=NIST Mass Spectrometry Data Center
##NAMES=HP
##CAS NAME=Artedouglasia oxide C
##MOLFORM=C15H22O3
##CAS REGISTRY NO=115403-98-0
##MP= -300
##BP= -300
##MW= 250
##$RETENTION INDEX=1530
##$CONDENSED SPECTRUM=NO
##NPOINTS= 120
##XYDATA=(XY..XY) 1 
    26          2
    27         23
    28          4
    29         16
    31          3
    38          2
    39         61
    40         25
    41        154
    42         25
    43        648
    44         16
    45          9
    50          4
    51         16
    52         13
    53        134
    54         22
    55        326
    56         15
    57         12
    58          2
    59          2
    61          1
    64          1
    65         41
    66         17
    67        242
    68         65
    69        131
    70          8
    71         11
    72          1
    77         59
    78          9
    79         55
    80         13
    81        216
    82         30
    83         75
    84          7
    91         71
    92          9
    93        310
    94         39
    95         78
    96        138
    97        115
    98          8
    99          5
   104          2
   105         23
   106          4
   107         23
   108          4
   109         27
   110         15
   111        242
   112         20
   113          5
   116          2
   117          6
   118          2
   119         27
   120          4
   121          8
   122         35
   123         49
   124          8
   125        999
   126         77
   127         13
   128          7
   129          6
   130          2
   132          1
   133          7
   134         19
   135          5
   136          1
   137         15
   138          2
   139         58
   140        832
   141         76
   142          7
   144          2
   145          3
   146          1
   147          4
   148          1
   149          2
   150          1
   151          2
   152          1
   153          2
   154          3
   155          1
   158          1
   160          4
   161         24
   162          5
   163          2
   165         14
   166          2
   176          1
   179          1
   181          1
   189          4
   190          1
   193          1
   202          2
   203          1
   204         10
   205          2
   207          1
   223          3
   233          1
   235          7
   236          1