##TITLE=Library Entry 3747
##JCAMP-DX=Revision 4.10 
##DATA TYPE=MASS SPECTRUM
##SAMPLE DESCRIPTION=Div. of Experiment Therapeutics WRAIR, WRAMC, Washingto
n DC 20307
##NAMES=HP
##CAS NAME=5-Hexyl-1,3-oxathiolan-2-one
##MOLFORM=C9H16O2S
##CAS REGISTRY NO=115411-32-0
##MP= -300
##BP= -300
##MW= 188
##$RETENTION INDEX=0
##$CONDENSED SPECTRUM=NO
##NPOINTS= 73
##XYDATA=(XY..XY) 1 
    41        999
    42        167
    43        451
    45        334
    46        205
    47        188
    49         55
    50         12
    51         33
    52          6
    53        105
    54        201
    55        693
    56        101
    57         92
    58         50
    59        166
    60        467
    61         69
    62         16
    63          6
    65         25
    66         31
    67        338
    68        271
    69        551
    70         69
    71         38
    73        153
    74        426
    75        108
    76         22
    77         16
    79         30
    81        364
    82        135
    83         32
    85         76
    87        842
    88         58
    89         40
    90          3
    91          4
    93          5
    95        130
    97         86
    98          7
    99          4
   101        263
   103        133
   104          2
   105          9
   109         41
   110        135
   111         89
   112          8
   113          6
   115        168
   116         12
   117          9
   119          2
   129          9
   131          1
   142          1
   143         17
   145         67
   146          5
   147          2
   186          4
   187         33
   188        304
   189         35
   190          3