##TITLE=Library Entry 109754
##JCAMP-DX=Revision 4.10 
##DATA TYPE=MASS SPECTRUM
##SAMPLE DESCRIPTION=NIST Mass Spectrometry Data Center
##NAMES=HP
##CAS NAME=(S)-2,6,6-Trimethyl-2-((2S,5R)-5-methyl-5-vinyltetrahydrofuran-2-
yl)-2H-pyran-3(6H)-one
##MOLFORM=C15H22O3
##CAS REGISTRY NO=115403-97-9
##MP= -300
##BP= -300
##MW= 250
##$RETENTION INDEX=1588
##$CONDENSED SPECTRUM=NO
##NPOINTS= 98
##XYDATA=(XY..XY) 1 
    26          2
    27         30
    28          8
    29         18
    31          4
    37          1
    38          3
    39         77
    40         35
    41        182
    42         33
    43        796
    44         20
    45         11
    46          1
    49          1
    50          6
    51         19
    52         15
    53        171
    54         29
    55        483
    56         20
    57          8
    59          3
    60          1
    61          2
    62          1
    63          4
    65         47
    66         17
    67        299
    68         98
    69        156
    70         11
    71          7
    72          2
    73          1
    74          1
    75          2
    76          1
    77         54
    78          4
    79         37
    80          8
    81        270
    82         26
    83         91
    84          8
    87          1
    91         47
    93        395
    94         40
    95        104
    96        198
    97        158
    98         12
    99          6
   100          1
   101          1
   107          5
   109         39
   110         13
   111        357
   112         32
   113          9
   122         34
   123         64
   124          5
   125        999
   126         76
   127         10
   137         31
   138          1
   139         72
   140        952
   141         84
   142          8
   151          2
   152          3
   153         15
   154          4
   155          1
   157          1
   158          1
   165         27
   166          3
   167          1
   176          1
   179          1
   181          1
   191          1
   193          2
   207          1
   217          1
   223          1
   235         27
   236          3