##TITLE=Library Entry 82722
##JCAMP-DX=Revision 4.10 
##DATA TYPE=MASS SPECTRUM
##SAMPLE DESCRIPTION=ASES Database, Dalian Institute, P.R. China
##NAMES=HP
##CAS NAME=3,3-Dimethyl-4-phenylamino-butan-2-one
##MOLFORM=C12H17NO
##CAS REGISTRY NO=115437-14-4
##MP= -300
##BP= -300
##MW= 191
##$RETENTION INDEX=0
##$CONDENSED SPECTRUM=NO
##NPOINTS= 10
##XYDATA=(XY..XY) 1 
    41         83
    43        165
    44         71
    77        152
    91        204
   104         72
   105         91
   106        999
   107         82
   191         72