##TITLE=Library Entry 15946
##JCAMP-DX=Revision 4.10 
##DATA TYPE=MASS SPECTRUM
##SAMPLE DESCRIPTION=K. Kirk, LC, NIDDK, NIH, Bethesda, MD 20892
##NAMES=HP
##CAS NAME=Benzeneethanamine, 3,4-dibenzyloxy-2-fluoro-.beta.-hydroxy-N-meth
yl-
##MOLFORM=C23H24FNO3
##CAS REGISTRY NO=115562-23-7
##MP= -300
##BP= -300
##MW= 381
##$RETENTION INDEX=0
##$CONDENSED SPECTRUM=NO
##NPOINTS= 96
##XYDATA=(XY..XY) 1 
    41          9
    42         18
    44        999
    45         87
    46         41
    47          2
    49          4
    50          4
    51         12
    52          3
    53          2
    55          3
    56          3
    57         12
    58         15
    59          0
    62          2
    63         10
    64          6
    65         61
    66          4
    69          2
    70          1
    71          2
    72          2
    73          2
    74          1
    75          1
    76          1
    77          6
    78          3
    79          2
    81          2
    83          5
    84          3
    86          2
    89         12
    90          6
    91        542
    92         41
    93          2
    95          0
    97          1
    99          2
   105          4
   106          2
   107          2
   111          3
   115          1
   119          1
   124          1
   127          0
   133          0
   134          2
   139          2
   140          3
   141          2
   145          0
   146          2
   149          0
   152          1
   156          5
   157          5
   165          2
   166          1
   169          2
   170          0
   179          0
   180          2
   181         33
   182          6
   197          0
   227          2
   229          2
   230          0
   236          1
   237          2
   245         17
   246          4
   247         17
   248          3
   266          0
   269          1
   270         29
   271          5
   272          2
   290          4
   318          2
   319          0
   320          1
   336          7
   337          7
   338          4
   344          3
   381          3
   382          2