##TITLE=Library Entry 53554
##JCAMP-DX=Revision 4.10 
##DATA TYPE=MASS SPECTRUM
##SAMPLE DESCRIPTION=Chemical Concepts
##NAMES=HP
##CAS NAME=2-Pyrrolidinemethanol, 2-methyl-, (S)-
##MOLFORM=C6H13NO
##CAS REGISTRY NO=115512-58-8
##MP= -300
##BP= -300
##MW= 115
##$RETENTION INDEX=0
##$CONDENSED SPECTRUM=NO
##NPOINTS= 52
##XYDATA=(XY..XY) 1 
    26         15
    27         77
    28         93
    29         44
    30        106
    31         72
    37          3
    38          8
    39         74
    40         16
    41        114
    42        308
    43         31
    44         55
    45          5
    50          4
    51          9
    52          8
    53         20
    54         24
    55         61
    56         36
    57         90
    58         11
    59          2
    65          7
    66          2
    67         39
    68         23
    69         42
    70         14
    71          5
    72         24
    73          2
    77          2
    79          2
    80         12
    81          6
    82         88
    83         16
    84        999
    85         69
    86          9
    87         16
    94          1
    96          6
    97          5
    98          4
    99          1
   100         24
   101          1
   114          3