##TITLE=Library Entry 21700
##JCAMP-DX=Revision 4.10 
##DATA TYPE=MASS SPECTRUM
##SAMPLE DESCRIPTION=Japan AIST/NIMC Database- Spectrum MS-IW-4886
##NAMES=HP
##CAS NAME=p-(3-Butenyloxy)benzoic acid
##MOLFORM=C11H12O3
##CAS REGISTRY NO=115595-27-2
##MP= -300
##BP= -300
##MW= 192
##$RETENTION INDEX=0
##$CONDENSED SPECTRUM=NO
##NPOINTS= 102
##XYDATA=(XY..XY) 1 
    15          1
    26          4
    27         84
    28         17
    29        195
    30          4
    37          3
    38         13
    39        152
    40          8
    41         12
    42          1
    43          4
    44          2
    45          7
    50         29
    51         33
    52          8
    53         92
    54        101
    55        999
    56         64
    57          2
    61          2
    62          9
    63         30
    64         16
    65        174
    66         15
    67          6
    69          2
    73          1
    74          9
    75         23
    76         23
    77         26
    78          4
    79         43
    80          7
    81         20
    82          6
    83          1
    87          2
    89          1
    91         14
    92         11
    93         78
    94          7
    95         11
   103         10
   104          9
   105         11
   106          3
   107          8
   108          1
   109          6
   110         15
   111          1
   115          4
   116          1
   117          3
   118          1
   119         55
   120          9
   121        660
   122         52
   123         26
   124          2
   127          1
   128          1
   129          4
   130          1
   131          2
   132          2
   133          5
   135          4
   136          1
   137          4
   138        567
   139         44
   140          5
   145          2
   146          4
   147         20
   148          4
   149          2
   150          8
   151        196
   152         17
   153          2
   163          2
   164        671
   165         65
   166          7
   174          2
   175         23
   176          3
   177          7
   192        704
   193        101
   194         10
   195          1