##TITLE=Library Entry 7215
##JCAMP-DX=Revision 4.10 
##DATA TYPE=MASS SPECTRUM
##SAMPLE DESCRIPTION=Chemical Concepts
##NAMES=HP
##CAS NAME=17-(1,5-Dimethylhexyl)-10,13-dimethylhexadecahydrocyclopenta[a]ph
enanthrene-3,5,6-triol
##MOLFORM=C27H48O3
##CAS REGISTRY NO=115510-05-9
##MP= -300
##BP= -300
##MW= 420
##$RETENTION INDEX=0
##$CONDENSED SPECTRUM=NO
##NPOINTS= 342
##XYDATA=(XY..XY) 1 
    34          2
    35          1
    36          4
    37          2
    38          2
    39         40
    40         11
    41        444
    42         62
    43        999
    44         46
    45         34
    46          2
    47          5
    48          2
    49          1
    50          2
    51          4
    52          4
    53         55
    54         18
    55        534
    56         67
    57        466
    58         24
    59         12
    60          7
    61          2
    62          1
    63          2
    64          2
    65         21
    66         15
    67        272
    68         72
    69        307
    70         42
    71        209
    72         18
    73         22
    74          6
    75          4
    76          2
    77         67
    78         19
    79        231
    80         46
    81        422
    82         91
    83        205
    84         45
    85         55
    86          9
    87          7
    88          2
    89          6
    90          3
    91        172
    92         41
    93        302
    94        110
    95        401
    96         69
    97        107
    98         16
    99         20
   100          6
   101         17
   102          8
   103         11
   104          9
   105        180
   106         50
   107        244
   108        180
   109        209
   110        125
   111         91
   112         14
   113         13
   114          5
   115         15
   116          9
   117         47
   118         28
   119        128
   120         61
   121        169
   122        170
   123        174
   124         42
   125         34
   126         15
   127         13
   128         48
   129         31
   130         13
   131         77
   132         29
   133        130
   134         57
   135        129
   136         78
   137         55
   138         25
   139         43
   140         28
   141         78
   142         23
   143         44
   144         19
   145         84
   146         29
   147        105
   148         41
   149        110
   150         33
   151         34
   152         43
   153         14
   154         11
   155         18
   156         15
   157         50
   158         25
   159         84
   160         34
   161         86
   162         29
   163         67
   164         19
   165         16
   166          7
   167          6
   168          5
   169         22
   170         12
   171         38
   172         18
   173         50
   174         27
   175         58
   176         25
   177         40
   178         17
   179         14
   180          9
   181          7
   182          4
   183         20
   184         12
   185         44
   186         22
   187         56
   188         20
   189         33
   190         16
   191         20
   192          8
   193         17
   194         10
   195          7
   196          4
   197         31
   198         12
   199         27
   200         15
   201         47
   202         19
   203         27
   204         10
   205         12
   206         15
   207         10
   208          9
   209          6
   210          4
   211         77
   212         28
   213         48
   214         14
   215         47
   216         19
   217         24
   218         10
   219         13
   220         10
   221          7
   222          3
   223          2
   224          2
   225         16
   226         24
   227         19
   228          8
   229        130
   230         82
   231         57
   232         17
   233         19
   234         10
   235          4
   236          2
   237          3
   238          2
   239          6
   240          3
   241          4
   242          3
   243         23
   244        110
   245         53
   246         14
   247        148
   248         83
   249         26
   250          5
   251          3
   252          2
   253         16
   254          4
   255          4
   256          3
   257          7
   258          6
   259          5
   260          4
   261         22
   262         96
   263         23
   264          5
   265          6
   266          3
   268          1
   269          3
   270          4
   271         36
   272          9
   273          7
   274          4
   275         10
   276          3
   277          2
   279          1
   280          1
   281          4
   282          1
   283          1
   285          3
   286          2
   287          6
   288          6
   289         16
   290          6
   291          4
   292          1
   293          1
   297          1
   298          1
   299          9
   300          6
   301          9
   302          5
   303         29
   304          8
   305          2
   306          1
   311          2
   312          3
   313          6
   314          8
   315          7
   316          4
   317          6
   318          6
   319          1
   321          1
   324          2
   325          3
   326          6
   327          7
   328          4
   329          5
   330          6
   331         33
   332         10
   333          2
   334          2
   338          2
   339          2
   340          3
   341          8
   342          6
   343          2
   344          6
   345          6
   346          2
   347          3
   348         25
   349          8
   351         24
   352         10
   353          3
   354          2
   355         13
   356          9
   357          3
   358         11
   359          8
   360          2
   362          1
   364          2
   365          4
   366         25
   367         17
   369         84
   370         24
   371          5
   373         13
   374          4
   375          3
   377          1
   380          1
   382          2
   383          8
   384        246
   385         76
   386         15
   387         31
   388         10
   389          3
   390          1
   396          1
   400          8
   402        289
   403         89
   404         13
   405          2
   416          1
   418          3
   420          9
   421          3