##TITLE=Library Entry 15446
##JCAMP-DX=Revision 4.10 
##DATA TYPE=MASS SPECTRUM
##SAMPLE DESCRIPTION=K. Kirk, LC, NIDDK, NIH, Bethesda, MD 20892
##NAMES=HP
##CAS NAME=Benzenethanamine, 2-fluoro-2',4,5-trihydroxy-N-methyl-
##MOLFORM=C9H12FNO3
##CAS REGISTRY NO=115562-28-2
##MP= -300
##BP= -300
##MW= 201
##$RETENTION INDEX=0
##$CONDENSED SPECTRUM=NO
##NPOINTS= 100
##XYDATA=(XY..XY) 1 
    41          7
    42         75
    44        999
    45        149
    46         58
    48          1
    49          1
    50         14
    51         29
    52          9
    53         14
    54          1
    55         14
    56         14
    57         22
    58         10
    59          7
    60          5
    61          1
    62          7
    63         14
    64          4
    65         11
    66          2
    67          7
    68          2
    69         13
    70          9
    71          9
    72          2
    73          9
    74          2
    75          9
    77         18
    78         10
    79          9
    80          4
    81         12
    82          9
    83         34
    84          6
    85          1
    86          4
    89          2
    90          2
    91         20
    92          2
    93          4
    94          2
    95          8
    96          8
    97          7
    99          9
   100          3
   105          7
   106          6
   107         11
   109          5
   110          1
   111         38
   112          3
   113          1
   115          1
   118          7
   121          4
   123          2
   124          5
   125          5
   126          1
   127          3
   128          5
   129          1
   134          1
   136          2
   137          3
   139          1
   141         18
   142         12
   144          1
   150          1
   153          6
   154         10
   155         25
   156          8
   157         19
   158          2
   163          7
   164          7
   166          3
   169          2
   170          1
   171          8
   172          1
   181          2
   183         14
   184          4
   188          6
   190          5
   201         32
   202          3