##TITLE=Library Entry 15948
##JCAMP-DX=Revision 4.10 
##DATA TYPE=MASS SPECTRUM
##SAMPLE DESCRIPTION=K. Kirk, LC, NIDDK, NIH, Bethesda, MD 20892
##NAMES=HP
##CAS NAME=Benzenethanamine, 4,5-dibenzyloxy-2-fluoro-2'-hydroxy-N-methyl-
##MOLFORM=C23H24FNO3
##CAS REGISTRY NO=115562-27-1
##MP= -300
##BP= -300
##MW= 381
##$RETENTION INDEX=0
##$CONDENSED SPECTRUM=NO
##NPOINTS= 91
##XYDATA=(XY..XY) 1 
    41         19
    42         30
    44        999
    45         47
    46          2
    50          6
    51         17
    52          3
    53          2
    55          7
    56          3
    57         40
    58         27
    59          2
    60          2
    62          1
    63         13
    64          4
    65         77
    66          4
    67          1
    69          6
    70          3
    71          7
    72          1
    73          5
    77         10
    78          1
    79          2
    81          1
    82          1
    83          9
    84          4
    85          1
    86          2
    89         16
    91        714
    92         53
    93          1
    94          2
    95          2
    96          2
    97          5
    98          6
    99          4
   100         14
   105          7
   107          2
   111          4
   113          1
   115          1
   127          1
   139          2
   140          5
   141          4
   147          1
   149          1
   152          1
   155          2
   156         14
   157          8
   164          1
   165          2
   169          1
   170          1
   181         50
   182          9
   183          1
   198          1
   200          1
   216          1
   227          1
   229          1
   245         41
   246          9
   247         72
   248         14
   249          1
   270          6
   272          6
   290         30
   291          7
   336         41
   337         25
   338         30
   339          7
   344          6
   361         11
   362          4
   381          8
   382          1