##TITLE=Library Entry 27133
##JCAMP-DX=Revision 4.10 
##DATA TYPE=MASS SPECTRUM
##SAMPLE DESCRIPTION=Chemical Concepts
##NAMES=HP
##CAS NAME=Phosphine sulfide, (chloro)(t-butyl)(phenyl)
##MOLFORM=C10H14ClPS
##CAS REGISTRY NO=115591-17-8
##MP= -300
##BP= -300
##MW= 232
##$RETENTION INDEX=0
##$CONDENSED SPECTRUM=NO
##NPOINTS= 133
##XYDATA=(XY..XY) 1 
    26          2
    27         63
    28          6
    29        330
    30          5
    36          1
    37          0
    38          4
    39         93
    40          7
    41        379
    42         11
    43          3
    44          0
    45          7
    46          0
    47          1
    49          0
    50         29
    51        139
    52         12
    53          7
    54          1
    55         18
    56         11
    57        999
    58         47
    59          4
    61          0
    62          1
    63        167
    64          3
    65          8
    66          1
    67          0
    68          2
    69          9
    70          1
    71          3
    72          0
    73          0
    74          6
    75          7
    76          6
    77        138
    78        131
    79         11
    80          6
    81         15
    82          3
    83          4
    84          0
    85          0
    87          0
    88          0
    89          0
    90          0
    91          5
    92          0
    93          2
    94          0
    95          2
    96          1
    97          0
    98          0
    99          1
   100          0
   101          0
   102          0
   103          1
   104          1
   105          1
   106          0
   107         79
   108         16
   109          7
   110          2
   111          0
   112          0
   113          0
   114          0
   115          1
   116          0
   117          1
   118          0
   119          3
   120          0
   121          2
   123          1
   125          1
   128          0
   129          0
   132          0
   133          1
   139         44
   140         39
   141         56
   142          5
   143        206
   144         13
   145         68
   146          5
   147          0
   149          0
   151          0
   152          0
   160          5
   161          0
   162          1
   164          0
   175         18
   176        508
   177         44
   178        179
   179         14
   180          6
   181          0
   197         11
   198          1
   199          0
   200          1
   202          0
   205          0
   216          1
   217          2
   218          1
   219          0
   232        405
   233         52
   234        140
   235         15
   236          5
   237          0