##TITLE=Library Entry 64708
##JCAMP-DX=Revision 4.10 
##DATA TYPE=MASS SPECTRUM
##SAMPLE DESCRIPTION=K. Kirk, LC, NIDDK, NIH, Bethesda, MD 20892
##NAMES=HP
##CAS NAME=Benzenethanamine, 3,4-dibenzyloxy-2-fluoro-N-formyl-.beta.-hydrox
y-
##MOLFORM=C23H22FNO4
##CAS REGISTRY NO=115562-22-6
##MP= -300
##BP= -300
##MW= 395
##$RETENTION INDEX=0
##$CONDENSED SPECTRUM=NO
##NPOINTS= 89
##XYDATA=(XY..XY) 1 
    41         10
    42          2
    43          4
    44          7
    45          2
    46          1
    49          2
    50          3
    51         13
    52          3
    53          2
    55          2
    57          4
    58         16
    59         14
    60          2
    62          2
    63         11
    64          5
    65         77
    66          4
    69          2
    70          2
    71          1
    73          2
    77          4
    78          1
    79          2
    80          0
    83          6
    84          3
    86          2
    89         13
    90          9
    91        999
    92         79
    93          3
    99          2
   104          3
   105          3
   107          4
   111          4
   139          2
   140          5
   141          2
   152          0
   153          1
   156          2
   157         16
   158          1
   165          2
   166          2
   167          1
   169          5
   170          2
   179          2
   180          2
   181         80
   182         12
   183          1
   196          1
   197          2
   241          2
   242          3
   243          2
   244          3
   245         15
   246          3
   247          4
   258          2
   259          5
   260          0
   261          4
   268          1
   286          2
   287          2
   304          7
   305          1
   319          1
   332          1
   337        106
   338         24
   339          3
   349          1
   350         35
   351          8
   352          0
   395          6
   396          1