##TITLE=Library Entry 31548
##JCAMP-DX=Revision 4.10 
##DATA TYPE=MASS SPECTRUM
##SAMPLE DESCRIPTION=F. TURECEK,HEYROVSKY INST PHYS CHEM & ELECTROCHEM,PRAGU
E,CZECH
##NAMES=HP
##CAS NAME=(Z)-1-Chloro-2-(methylsulfonyl)ethylene
##MOLFORM=C3H5ClO2S
##CAS REGISTRY NO=115584-12-8
##MP= -300
##BP= -300
##MW= 140
##$RETENTION INDEX=0
##$CONDENSED SPECTRUM=NO
##NPOINTS= 78
##XYDATA=(XY..XY) 1 
    15        366
    16         10
    25         27
    26        238
    27         58
    29         67
    30          5
    31         35
    33         15
    34         16
    35         14
    36         52
    38         16
    39         99
    40         15
    41         73
    42         23
    43         51
    44         46
    45         88
    46         37
    47        147
    48        101
    49        120
    50         21
    51         42
    52          8
    53         14
    54         10
    55         52
    56          6
    57         25
    58         19
    59          7
    60         45
    61        684
    62         39
    63        999
    64         69
    65         95
    66         12
    67          5
    68          9
    69         39
    70         13
    71         28
    73          9
    77         42
    78        240
    79        126
    80        110
    81         33
    82         13
    83         50
    85         18
    91         26
    92         13
    93         14
    94         11
    95         24
    97         32
    99         13
   105         17
   107          9
   109         15
   111        101
   112          4
   113         41
   115         30
   116         13
   117         19
   118          8
   125        183
   126          7
   127         69
   128          5
   140         17
   142          5