##TITLE=Library Entry 56865
##JCAMP-DX=Revision 4.10 
##DATA TYPE=MASS SPECTRUM
##SAMPLE DESCRIPTION=Finnigan MAT: Toxicological Library (LIBR-TX)
##NAMES=HP
##CAS NAME=Phenglutarimide
##MOLFORM=C17H24N2O2
##CAS REGISTRY NO=1156-05-4
##MP= -300
##BP= -300
##MW= 288
##$RETENTION INDEX=2321
##$CONDENSED SPECTRUM=NO
##NPOINTS= 19
##XYDATA=(XY..XY) 1 
    42         28
    44         10
    55          8
    56         30
    58         50
    71          9
    72          8
    84          9
    86        999
    87         51
    91         10
    99         29
   100         29
   115         10
   117         10
   161         10
   216         60
   273         10
   288         20