##TITLE=Library Entry 82108
##JCAMP-DX=Revision 4.10 
##DATA TYPE=MASS SPECTRUM
##SAMPLE DESCRIPTION=A.A.Kutin, Moscow, Russia
##NAMES=HP
##CAS NAME=Oxazol-5(4H)-one, 4-(2-methoxyphenylamino)methylene-2-phenyl-
##MOLFORM=C17H14N2O3
##CAS REGISTRY NO=115621-04-0
##MP= -300
##BP= -300
##MW= 294
##$RETENTION INDEX=0
##$CONDENSED SPECTRUM=NO
##NPOINTS= 112
##XYDATA=(XY..XY) 1 
    37          0
    38          8
    39         20
    40         33
    41          3
    42          3
    43          6
    44          5
    50         29
    51        165
    52         28
    53         11
    54          2
    55          1
    57          0
    58          0
    61          0
    63         43
    64         28
    65         30
    66          4
    68          0
    69          1
    73          0
    74         18
    77        564
    78         39
    79         20
    80          5
    81          0
    87          1
    89         13
    91         58
    92         27
    93         11
    94          0
   102          6
   103         33
   105        999
   106         54
   107         20
   108         11
   109          0
   114          1
   115          3
   117         12
   119         43
   120         44
   121         23
   122          1
   123          1
   128          6
   129          3
   130          2
   131          1
   132         25
   134        107
   135          4
   142          0
   143          1
   144          1
   145          8
   147         42
   158          1
   161         98
   162          8
   165          0
   172          0
   173          3
   174          2
   180          0
   187          0
   190          0
   195          0
   206          1
   207          2
   208          3
   209          0
   210          9
   211          1
   216          0
   218          0
   219         10
   220          5
   221          2
   222          2
   223          6
   224          0
   233          0
   234          9
   235         18
   236          1
   245          9
   246          1
   247          1
   249         91
   250         34
   251          5
   262          0
   263         10
   264          7
   265          1
   266          0
   275          4
   276          0
   289          0
   290          3
   291          3
   294        792
   295        135
   296         18
   297          1