##TITLE=Library Entry 6879
##JCAMP-DX=Revision 4.10 
##DATA TYPE=MASS SPECTRUM
##SAMPLE DESCRIPTION=A.Pleshkova, Nesmeyanov Inst.Org.Elem.Cpds, Moscow
##NAMES=HP
##CAS NAME=N-Acetylisoxazolidine
##MOLFORM=C5H9NO2
##CAS REGISTRY NO=115615-36-6
##MP= -300
##BP= -300
##MW= 115
##$RETENTION INDEX=0
##$CONDENSED SPECTRUM=NO
##NPOINTS= 26
##XYDATA=(XY..XY) 1 
    27         57
    28        467
    29         81
    30         48
    31         54
    32          4
    39         57
    40         18
    41        143
    42        170
    43        999
    44         54
    45        807
    46         35
    56         57
    57         26
    58         13
    59         18
    60        525
    61         31
    71         18
    72        221
    73        772
    74         22
   115         61
   116          3