##TITLE=Library Entry 61400
##JCAMP-DX=Revision 4.10 
##DATA TYPE=MASS SPECTRUM
##SAMPLE DESCRIPTION=Patti Price, Georgia Bureau of Investigation, Decatur,
 Georgia
##NAMES=HP
##CAS NAME=Tolazamide
##MOLFORM=C14H21N3O3S
##CAS REGISTRY NO=1156-19-0
##MP= -300
##BP= -300
##MW= 311
##$RETENTION INDEX=0
##$CONDENSED SPECTRUM=NO
##NPOINTS= 102
##XYDATA=(XY..XY) 1 
    41        221
    42        162
    43         67
    44         58
    45         45
    46         18
    47          2
    48         58
    49          6
    50         45
    51         58
    52         23
    53         32
    54         17
    55        107
    56        100
    57         29
    58         23
    59        149
    60          5
    61          9
    62         31
    63        102
    64         41
    65        249
    66         16
    67         21
    68         70
    69        100
    70         37
    71         26
    72         49
    73          3
    74         11
    75          9
    76          7
    77         64
    78         23
    79         33
    80         25
    81         12
    82         51
    83         17
    84         29
    85        120
    86         25
    87          9
    88          3
    89        104
    90         53
    91        999
    92         89
    93          6
    94          5
    95          5
    96         68
    97        201
    98        242
    99         52
   100          9
   102          2
   104          8
   105          3
   106         49
   107        108
   108         56
   109          5
   110          1
   111         14
   112         30
   113        524
   114        403
   115         33
   121          4
   122          2
   123          1
   126          1
   132          4
   139        166
   140        106
   141         22
   142          1
   155        441
   156        180
   157         33
   158          4
   171         95
   172         12
   173          5
   184          2
   187          1
   188          3
   195          2
   197        120
   198         14
   199          6
   215         19
   216          1
   254          9
   255          2
   311          7
   312          3