##TITLE=Library Entry 62876
##JCAMP-DX=Revision 4.10 
##DATA TYPE=MASS SPECTRUM
##SAMPLE DESCRIPTION=V.G.Zaikin,TIPS,Russian Acad.Sci.Moscow
##NAMES=HP
##CAS NAME=Allyl(dimethyl)benzyloxysilane
##MOLFORM=C12H18OSi
##CAS REGISTRY NO=115692-86-9
##MP= -300
##BP= -300
##MW= 206
##$RETENTION INDEX=0
##$CONDENSED SPECTRUM=NO
##NPOINTS= 115
##XYDATA=(XY..XY) 1 
    26         13
    27         63
    28         12
    29        127
    30         13
    31         30
    33          5
    35          5
    36         32
    37         11
    38         32
    39        199
    40         18
    41        119
    42         29
    43         84
    44         89
    45        105
    46         11
    47         25
    48          5
    49          6
    50         91
    51        171
    52         38
    53         49
    54          6
    55         31
    56         11
    57          3
    58         17
    59        115
    60         17
    61         29
    62         26
    63         78
    64         23
    65        215
    66         59
    67         32
    68          8
    69         17
    71          7
    73         39
    74         32
    75         78
    76         11
    77        188
    78         45
    79         89
    80          8
    81         10
    82         35
    83         14
    84          1
    85          2
    86         10
    87          5
    88         10
    89         32
    90         15
    91        999
    92        108
    93         14
    94         28
    95         17
    97          7
    99         19
   101          2
   103          9
   105         31
   106         11
   107         65
   108         15
   109         86
   110         11
   113         17
   115          2
   116          7
   117          7
   118          1
   119          9
   120          5
   121        141
   122         19
   123         11
   125         11
   127          4
   129          4
   131         13
   133         17
   135        432
   136         59
   137         89
   138        119
   139         18
   140          3
   141         15
   142         15
   147          4
   148          2
   149         89
   150         19
   151          3
   163         11
   164         13
   165        469
   166         65
   167         18
   168          1
   191         10
   192          1
   205          2
   206          8
   207          2