##TITLE=Library Entry 68191
##JCAMP-DX=Revision 4.10 
##DATA TYPE=MASS SPECTRUM
##SAMPLE DESCRIPTION=ASES Database, Dalian Institute, P.R. China
##NAMES=HP
##CAS NAME=2-(2-Hydroxycyclooctyl)-furan
##MOLFORM=C12H18O2
##CAS REGISTRY NO=115754-90-0
##MP= -300
##BP= -300
##MW= 194
##$RETENTION INDEX=0
##$CONDENSED SPECTRUM=NO
##NPOINTS= 21
##XYDATA=(XY..XY) 1 
    39         79
    40         98
    41        128
    43         49
    53         50
    55         98
    57         58
    67        231
    79        130
    81        848
    82        219
    94        340
    95        999
    96         81
   107        120
   109         60
   110        130
   123        100
   166        139
   177         29
   194        129