##TITLE=Library Entry 13422
##JCAMP-DX=Revision 4.10 
##DATA TYPE=MASS SPECTRUM
##SAMPLE DESCRIPTION=Japan AIST/NIMC Database- Spectrum MS-IW-5107
##NAMES=HP
##CAS NAME=3,3-Bis(p-nitrobenzyl)-2,4-pentanedione
##MOLFORM=C19H18N2O6
##CAS REGISTRY NO=115780-19-3
##MP= -300
##BP= -300
##MW= 370
##$RETENTION INDEX=0
##$CONDENSED SPECTRUM=NO
##NPOINTS= 211
##XYDATA=(XY..XY) 1 
    14          4
    15          9
    26          2
    27          9
    28         26
    29          2
    30         41
    36          4
    38          2
    39         17
    40          4
    41          8
    42         21
    43        999
    44         42
    45          7
    50          9
    51         18
    52         10
    53          4
    54          1
    55          5
    56          1
    57          5
    58          1
    62          4
    63         24
    64         11
    65         14
    66          3
    67          1
    69          3
    70          1
    71          4
    74          3
    75          7
    76         11
    77         27
    78         52
    79          7
    80          1
    81          2
    82          2
    83          3
    84          1
    85          2
    87          2
    88          3
    89         72
    90         78
    91         37
    92          6
    93          8
    94          3
    95          3
    96          1
    97          3
    98          1
    99          1
   100          1
   101          4
   102         17
   103         15
   104          8
   105         14
   106         81
   107         27
   108          4
   109          2
   111          2
   113          2
   114          5
   115         42
   116         20
   117         11
   118          6
   119          4
   120         14
   121          9
   122          1
   123          1
   124          3
   125          1
   126          3
   127          8
   128         16
   129          6
   130         10
   131         17
   132          5
   133          4
   134          2
   135          1
   136         24
   137        105
   138          9
   139          5
   140          2
   141          4
   142          3
   143          5
   144         11
   145         42
   146         28
   147          8
   148          2
   149          2
   150          4
   151          4
   152          6
   153          3
   154          1
   155          2
   156          1
   157          4
   158         14
   159          7
   160          3
   161          3
   162         17
   163          5
   164          3
   165         12
   166          3
   167          1
   168          1
   170          3
   171          1
   172          1
   173          1
   174         13
   175         18
   176         14
   177          4
   178          7
   179          8
   180          4
   181          1
   186          1
   187          4
   188         11
   189         18
   190         12
   191         20
   192        300
   193         38
   194          5
   195          1
   200          1
   201          1
   202          5
   203          4
   204          6
   205          5
   206          5
   207          4
   208          3
   209          1
   215          3
   216          4
   217          3
   218          6
   219          3
   220          3
   221          4
   222          3
   223          1
   232          1
   233          1
   234        111
   235         16
   236          3
   237          8
   238          5
   239          2
   247          1
   249          1
   250          1
   251          8
   252          3
   253          1
   263          4
   264          4
   265          2
   266          4
   267          2
   268         35
   269         21
   270          4
   279          1
   280          5
   281          4
   282          1
   285          4
   286          2
   293          2
   295          1
   296          1
   297          1
   298          1
   309          2
   310         14
   311         30
   312          7
   313          1
   327        193
   328        193
   329         36
   330          5
   340          1
   370          2