##TITLE=Library Entry 61
##JCAMP-DX=Revision 4.10 
##DATA TYPE=MASS SPECTRUM
##SAMPLE DESCRIPTION=Chemical Concepts
##NAMES=HP
##CAS NAME=1,2,4,3,5-Triselenadiborolane, 3,5-diethyl-
##MOLFORM=C4H10B2Se3
##CAS REGISTRY NO=115706-03-1
##MP= -300
##BP= -300
##MW= 320
##$RETENTION INDEX=0
##$CONDENSED SPECTRUM=NO
##NPOINTS= 223
##XYDATA=(XY..XY) 1 
    26        343
    27        999
    28        555
    29        579
    30         19
    35         17
    36        112
    37        352
    38        246
    39        578
    40        196
    41        562
    42        114
    43         36
    44         24
    45         16
    49         14
    50         57
    51         91
    52        107
    53        160
    54        150
    55        336
    56        138
    57        112
    58         13
    60         28
    61         22
    62         42
    63         42
    64         61
    65        149
    66        219
    67         97
    68         90
    69        120
    70         52
    71         14
    73          9
    74         10
    75         17
    76         28
    77         42
    78         53
    79         39
    80        152
    81         98
    82        120
    83         75
    84         25
    85          8
    87          8
    88         14
    89         35
    90         60
    91         76
    92         67
    93        191
    94        412
    95         46
    96         22
    97         12
   101         12
   102         21
   103         30
   104         43
   105         50
   106         37
   107         24
   108         34
   109         52
   110         85
   111        112
   112         60
   113         24
   114         45
   115         66
   116         83
   117         83
   118        132
   119         70
   120         74
   121         75
   122         18
   123         21
   124         12
   125          9
   127         10
   128         15
   129         23
   130         15
   131         16
   132         12
   133          8
   135         13
   136         40
   137        142
   138        248
   139        226
   140         21
   141         19
   142         13
   143         21
   144         25
   145         24
   146         33
   147         18
   148         12
   149         12
   150         20
   151         23
   152         21
   154          8
   156         13
   157          8
   158         28
   159         11
   160         22
   162          7
   164         17
   165         38
   166         79
   167         96
   168        180
   169        163
   170        234
   171        114
   172        265
   173         54
   174         62
   175         26
   176         10
   177          8
   178         21
   179         12
   180         20
   181         18
   182         18
   183         22
   184         14
   185         20
   187         10
   188          9
   189          7
   190         10
   191         13
   192         34
   193         52
   194        102
   195        107
   196        214
   197        194
   198        311
   199        122
   200        368
   201         37
   202        134
   203         11
   204          9
   205          8
   207          9
   208         11
   209         10
   211          7
   212          9
   213          8
   215         10
   221          8
   222         12
   224         24
   225         12
   226         20
   227          8
   228         10
   229         14
   230         14
   231         10
   232         10
   237          9
   238         13
   248         13
   249          7
   250         15
   251         15
   252         28
   253         30
   254         15
   255         34
   256         19
   257         11
   259          9
   260         13
   261         15
   262         11
   263          9
   276          8
   279         10
   280         10
   281         27
   282          7
   283         17
   284         11
   285         10
   286         28
   287         30
   288         45
   289         34
   290         42
   291         21
   292         25
   296          8
   311          9
   312         20
   313         19
   314         34
   315         24
   316         46
   317         35
   318         54
   319         23
   320         43
   321          8
   322         28