##TITLE=Library Entry 63672
##JCAMP-DX=Revision 4.10 
##DATA TYPE=MASS SPECTRUM
##SAMPLE DESCRIPTION=D. HEBEL, LC, NIDDK, NIH, Bethesda, MD 20892
##NAMES=HP
##CAS NAME=Benzenethanamine, N-acetyl-3-benzyloxy-.beta.-oxo-
##MOLFORM=C17H17NO3
##CAS REGISTRY NO=115852-00-1
##MP= -300
##BP= -300
##MW= 283
##$RETENTION INDEX=0
##$CONDENSED SPECTRUM=NO
##NPOINTS= 83
##XYDATA=(XY..XY) 1 
    41         11
    42          8
    43         83
    44          5
    45          1
    47          8
    48          4
    49         43
    50         11
    51         30
    52          5
    53          5
    55         15
    62          5
    63         28
    64         20
    65        110
    66          7
    67          1
    72         19
    73          1
    74          1
    75          2
    76         12
    77         13
    78          4
    79          1
    81          5
    84         33
    86         21
    88          4
    89         17
    90         10
    91        999
    92         88
    93         10
   100          1
   104          1
   105          6
   106          1
   107          1
   115          2
   120         12
   121          9
   122          7
   129          2
   137          1
   141          2
   148          8
   149          1
   150          8
   151          4
   152          4
   153          7
   154          2
   155         17
   156          1
   162          3
   164         11
   165         16
   166          1
   181          3
   182          1
   183          3
   184          2
   192          7
   193          1
   196          1
   211        335
   212         51
   213          5
   224         12
   225          2
   227          4
   228         21
   229          4
   240          5
   241          1
   255          5
   265          1
   283        141
   284         28
   285          4