##TITLE=Library Entry 59740
##JCAMP-DX=Revision 4.10 
##DATA TYPE=MASS SPECTRUM
##SAMPLE DESCRIPTION=A.A.Kutin, Moscow, Russia
##NAMES=HP
##CAS NAME=Imidazole, 1-benzyl-5-(3-chloro-2-hydroxypropylthio)-2-methyl-4-n
itro-
##MOLFORM=C14H16ClN3O3S
##CAS REGISTRY NO=115906-47-3
##MP= -300
##BP= -300
##MW= 341
##$RETENTION INDEX=0
##$CONDENSED SPECTRUM=NO
##NPOINTS= 228
##XYDATA=(XY..XY) 1 
    33          1
    34          0
    35          1
    36          4
    37          1
    38          5
    39         28
    40          9
    41         17
    42         28
    43         43
    44         12
    45         12
    46          6
    47          5
    49         22
    50          6
    51         20
    52          8
    53          3
    54          2
    55          4
    57         19
    58          5
    59          5
    60          3
    61          2
    62          4
    63         20
    65        126
    67         22
    68          2
    69          4
    70         10
    71          5
    72          3
    73          5
    74          3
    75          7
    76          4
    77         12
    78          5
    79         19
    81          7
    83         12
    84          6
    85          4
    86          6
    87          2
    89         38
    91        999
    92         62
    93          4
    95          1
    96          1
    97          1
    98          2
    99          1
   100          1
   101          2
   102          4
   103          4
   104          6
   105          8
   106          2
   107          2
   108          2
   109          2
   110          5
   111          4
   112          1
   113          1
   114          1
   115          3
   116          6
   117          5
   118          2
   119          0
   120          0
   121          6
   122          2
   123          4
   124          1
   125          3
   126         15
   127         28
   128          7
   129          5
   130          5
   131          4
   132          3
   133          2
   134          1
   135          1
   136          0
   137          0
   138          0
   139          0
   140          1
   141          1
   142          6
   143          6
   144          2
   145          0
   146          1
   147          1
   148         10
   149          4
   150          1
   151          0
   152          0
   153          0
   154          0
   155          1
   156          1
   157          2
   158          1
   159          1
   160          3
   161          1
   162          2
   163          0
   164          0
   165          0
   166          0
   167          0
   168          0
   169          1
   170          0
   171          1
   172          0
   173          1
   174          4
   175         13
   176          2
   177          1
   178          0
   179          0
   182          0
   183          0
   184          3
   185          2
   186          0
   187          0
   188          0
   189          0
   190          1
   191          0
   192          0
   193          0
   197          0
   198          0
   199          0
   200          1
   201          2
   202          2
   203          8
   204          3
   205          1
   206          0
   212          0
   213          0
   214          1
   216         53
   217         11
   218         12
   219          3
   220          1
   221          0
   228          1
   229          0
   230          1
   231          1
   232         22
   233          7
   234         24
   235          3
   236          1
   237          0
   240          0
   241          0
   242          0
   243          0
   244          0
   245          0
   246          1
   247          0
   248          1
   249          1
   250          0
   251          0
   258          0
   259          0
   260          0
   261          0
   262          0
   263          0
   273          0
   274          0
   275          0
   276          0
   278          0
   283          0
   288          0
   291          0
   292          3
   293          0
   294          1
   295          0
   296          0
   297          0
   305          1
   306          0
   308          0
   309          0
   310          0
   311          0
   313          0
   323          0
   324          0
   325          0
   327          0
   339          0
   341         34
   342          6
   343         11
   344          2
   345          0