##TITLE=Library Entry 16787
##JCAMP-DX=Revision 4.10 
##DATA TYPE=MASS SPECTRUM
##SAMPLE DESCRIPTION=A.A.Kutin, Moscow, Russia
##NAMES=HP
##CAS NAME=2-Propanol, 1-methoxy-3-((1-methyl-4-nitro-1H-imidazol-5-yl)thio)
-
##MOLFORM=C8H13N3O4S
##CAS REGISTRY NO=115906-38-2
##MP= -300
##BP= -300
##MW= 247
##$RETENTION INDEX=0
##$CONDENSED SPECTRUM=NO
##NPOINTS= 121
##XYDATA=(XY..XY) 1 
    33         41
    34          1
    36          5
    37          0
    38          5
    39         35
    42        618
    43         73
    45        999
    47         10
    48          2
    49          1
    51         10
    53         29
    54         24
    55         14
    57         78
    58         27
    59         40
    60          7
    61          7
    63          1
    64          2
    65          7
    67         86
    68         35
    69         37
    70         27
    71         44
    72         25
    73         44
    74         89
    75         20
    76          4
    77          4
    79          4
    80          4
    81         10
    83         33
    84         12
    85         19
    86         11
    87         31
    89        134
    90          8
    91          6
    94          4
    95         11
    97         14
    98         17
    99          5
   100          7
   101          7
   102         24
   103          3
   104          0
   105          2
   107          0
   108          3
   109          1
   110          3
   111          6
   113         35
   114         27
   116        137
   117         15
   121          2
   122          3
   123          1
   124          2
   125          3
   126          6
   127         16
   128         49
   129         41
   130          3
   131          1
   136          0
   137          1
   138          5
   140         28
   141         10
   142         34
   143         82
   144         47
   145          8
   151          1
   152          0
   153          1
   154          3
   155          1
   156          9
   157          0
   159         26
   160          3
   162          0
   166          0
   168          3
   169          2
   170          2
   171          1
   173          3
   183          1
   185          2
   186         14
   188          0
   189          0
   196          0
   199          2
   200          5
   202         62
   203          5
   204          1
   215          0
   229          2
   230          3
   245          0
   247         56
   248          6
   249          2
   250          0