##TITLE=Library Entry 60937
##JCAMP-DX=Revision 4.10 
##DATA TYPE=MASS SPECTRUM
##SAMPLE DESCRIPTION=CARL DJERASSI DEPT OF CHEM STANFORD UNIV STANFORD CALIF
 94305
##NAMES=HP
##CAS NAME=Pregna-5,17(20)-dien-3-ol, (3.beta.,17E)-
##MOLFORM=C21H32O
##CAS REGISTRY NO=1159-25-7
##MP= -300
##BP= -300
##MW= 300
##$RETENTION INDEX=0
##$CONDENSED SPECTRUM=NO
##NPOINTS= 168
##XYDATA=(XY..XY) 1 
    41        720
    42         40
    43        190
    44         20
    50         50
    51         70
    52         50
    53        280
    54         40
    55        570
    56         30
    57        160
    63         30
    64         20
    65        190
    66         60
    67        470
    68         50
    69        200
    70         20
    71         20
    77        500
    78        140
    79        790
    80        110
    81        560
    82         60
    83         70
    91        999
    92        200
    93        700
    94        140
    95        480
    96         50
    97         30
   103         90
   104         90
   105        850
   106        210
   107        770
   108        170
   109        240
   110         30
   111         30
   112         10
   113         10
   114         50
   115        150
   116         80
   117        310
   118        140
   119        580
   120        310
   121        570
   122        400
   123        200
   124         60
   125         20
   126         50
   127         30
   128          1
   129        200
   130        100
   131        380
   132        150
   133        420
   134        120
   135        190
   136         40
   137         20
   141         90
   142         50
   143        410
   144        150
   145        580
   146        150
   147        460
   148        100
   149        120
   150         20
   151         40
   152         10
   153         20
   154         20
   155         70
   156         30
   157        310
   158        340
   159        480
   160        130
   161        330
   162        180
   163         70
   164         30
   165         30
   167         20
   168         10
   169         80
   170         30
   171        230
   172        120
   173        180
   174         80
   175        230
   176        140
   177         80
   178         20
   179         10
   181         10
   183        100
   184         30
   185        130
   186         60
   187        120
   188         60
   189        170
   190         30
   197        190
   198         40
   199        100
   200         40
   201         50
   202         20
   203         10
   211         70
   212        120
   213        100
   214         30
   215         90
   216         30
   217         10
   218         20
   225        130
   226         30
   227         80
   228         30
   229         20
   230        110
   231         30
   232         10
   239         30
   240         40
   241        180
   242         50
   243         80
   244         10
   253        110
   254         30
   255         10
   256         10
   257         20
   258         70
   259         10
   267        730
   268        170
   269         30
   271        110
   272         30
   282        280
   283         80
   284         10
   285        360
   286        100
   287         10
   298         10
   300        710
   301        180
   302         20