##TITLE=Library Entry 16790
##JCAMP-DX=Revision 4.10 
##DATA TYPE=MASS SPECTRUM
##SAMPLE DESCRIPTION=A.A.Kutin, Moscow, Russia
##NAMES=HP
##CAS NAME=Propan-2-ol, 1-methoxy-3-(2-methyl-4-nitro-5-imidazolylthio)-
##MOLFORM=C8H13N3O4S
##CAS REGISTRY NO=115906-37-1
##MP= -300
##BP= -300
##MW= 247
##$RETENTION INDEX=0
##$CONDENSED SPECTRUM=NO
##NPOINTS= 139
##XYDATA=(XY..XY) 1 
    33         37
    35          1
    36          0
    37          3
    39         37
    42        955
    43        174
    45        999
    47         17
    48          5
    50          2
    51          4
    52         14
    53         49
    54         22
    55         15
    56         15
    57         65
    58         56
    59         72
    60         32
    61          8
    62          2
    63          1
    64          0
    65          3
    67        191
    68         16
    69         25
    70         52
    71        169
    72         38
    73         29
    74         38
    75         32
    76          6
    77          4
    78          0
    79          4
    80          5
    81          5
    83        102
    84         20
    85         25
    86         35
    87         36
    88         18
    89         21
    90          5
    91          2
    92          1
    93          2
    94         21
    95         32
    97          4
    98          4
    99         19
   100          7
   101         13
   102         36
   103          3
   104          2
   105          0
   107          2
   108          2
   110         19
   111         12
   112          7
   113         11
   114         39
   115          6
   116          3
   117          0
   118          2
   120          0
   121          0
   122          5
   123          7
   124          1
   125          7
   126         78
   127         35
   128         34
   129         30
   130          4
   131          1
   132          0
   135          0
   136          0
   137          0
   138          5
   139         16
   140         13
   142         30
   143         78
   144         37
   145          5
   146          1
   149          0
   150          2
   152          1
   154          5
   155          2
   156         15
   157          3
   158          9
   159          9
   160          2
   161          0
   162          0
   168          5
   169          3
   170          2
   171          0
   172          2
   173          3
   174          0
   182          0
   184          6
   185          9
   186         16
   187          1
   188          1
   198          1
   199          2
   200          4
   202        516
   203         42
   204         26
   205          0
   212          0
   214          0
   216          1
   230          0
   245          1
   246          5
   247         62
   248          9
   249          3