##TITLE=Library Entry 28715
##JCAMP-DX=Revision 4.10 
##DATA TYPE=MASS SPECTRUM
##SAMPLE DESCRIPTION=A.A.Kutin, Moscow, Russia
##NAMES=HP
##CAS NAME=5H-Dibenzo[a,d]cyclohepten-5-ol, 5-[3-(dimethylamino)propyl]-10,1
1-dihydro-
##MOLFORM=C20H25NO
##CAS REGISTRY NO=1159-03-1
##MP= -300
##BP= -300
##MW= 295
##$RETENTION INDEX=0
##$CONDENSED SPECTRUM=NO
##NPOINTS= 143
##XYDATA=(XY..XY) 1 
    34          0
    36          0
    37          0
    38          1
    39         12
    40          7
    41         18
    42         58
    43         20
    44         81
    45         20
    46          5
    50          2
    51          7
    52          1
    53          2
    54          0
    55          4
    56         10
    58        999
    59         35
    60          1
    62          1
    63          5
    64          2
    65          6
    66          0
    67          0
    68          1
    69          2
    70          8
    71         29
    72          4
    73          7
    74          2
    75          2
    76          4
    77         14
    78          2
    79          1
    81          0
    82          2
    83          1
    84         22
    85          5
    86         15
    87         93
    88          8
    89         10
    90          9
    91         24
    92          1
    93          0
    95          1
    96          0
    97          0
    98          0
    99          0
   100          0
   101          1
   102          3
   103         33
   104          4
   105          3
   106          0
   107          0
   112          0
   113          1
   114          1
   115          8
   116          1
   117          1
   118          2
   119          0
   125          0
   126          1
   127          2
   128          2
   129          1
   131         17
   132          1
   133          0
   139          2
   140          0
   141          1
   149          0
   150          1
   151          4
   152          8
   153          2
   154          0
   155          0
   163          2
   164          2
   165         23
   166          7
   167          0
   174          0
   175          0
   176          6
   177          4
   178         25
   179         16
   180          8
   181          2
   182          0
   187          0
   188          0
   189          5
   190          2
   191          7
   192          2
   193          3
   194          4
   195          0
   200          0
   201          0
   202          3
   203          2
   204          1
   205          1
   206          1
   207          4
   208          6
   209         18
   210          2
   213          0
   215          1
   216          0
   217          0
   218          0
   219          0
   220          0
   221          0
   231          0
   232          0
   249          0
   277          5
   278          1
   279          0
   294          0
   295          2
   296          0