##TITLE=Library Entry 16564
##JCAMP-DX=Revision 4.10 
##DATA TYPE=MASS SPECTRUM
##SAMPLE DESCRIPTION=Chemical Concepts
##NAMES=HP
##CAS NAME=Tetraethyl 4,4'-(1,3-phenylene)bis(1,4-dihydro-2,6-dimethyl-3,5-p
yridinedicarboxylate)
##MOLFORM=C32H40N2O8
##CAS REGISTRY NO=115952-00-6
##MP= -300
##BP= -300
##MW= 580
##$RETENTION INDEX=0
##$CONDENSED SPECTRUM=NO
##NPOINTS= 206
##XYDATA=(XY..XY) 1 
    34         62
    35         22
    36         56
    38         53
    40        521
    41        156
    42        355
    44        999
    45        105
    47          6
    48          6
    49          1
    50         14
    51         19
    53         29
    55         42
    56         79
    57         80
    58         46
    60         15
    61          5
    62          2
    63          8
    64          8
    65         12
    66          8
    67         49
    68         13
    69         32
    70         35
    71         37
    73        431
    75         18
    76          8
    77         24
    78         11
    79         17
    81         17
    83         52
    84         26
    85         17
    86          2
    87          6
    88          1
    89          2
    90          2
    91         10
    92          5
    93          7
    94         10
    95          7
    96          6
    97         11
    98          6
    99          5
   100          2
   101          4
   102          4
   103          5
   104          9
   105         20
   106         28
   107          8
   108          8
   109          5
   110          5
   111          6
   112         16
   113          9
   115          9
   116          6
   117          3
   119          3
   120          3
   121          4
   122         16
   123          5
   124          1
   125          4
   126          3
   127          5
   128          7
   129          9
   130          4
   131          3
   132          5
   133          9
   134         11
   135          5
   136          5
   137          3
   138          2
   139          8
   140          5
   141          6
   142          5
   144          4
   146          3
   147          1
   148          2
   149         10
   150         44
   151         29
   152         23
   153          9
   154          5
   155          2
   157          4
   159          1
   160          3
   163          3
   164          2
   165          6
   166         10
   167         11
   168         16
   169          5
   171         26
   172          3
   176          1
   177          5
   178         31
   179         42
   180         22
   181         13
   182         11
   183          9
   184          3
   185          2
   188          3
   189          6
   191          3
   192          1
   193          8
   194         13
   196        251
   197         24
   198          7
   201          1
   202          2
   203          1
   204          1
   205          3
   206          8
   207         18
   208          9
   209          7
   210         16
   211          6
   212          4
   217          2
   221          1
   222          9
   223          7
   224         90
   225         17
   226         13
   227          8
   228          2
   229          1
   230          1
   231          2
   236          2
   238          7
   239          4
   241          2
   245          1
   246          1
   247          1
   248          9
   249         28
   251        168
   252        899
   253        133
   254         22
   255          9
   256          8
   257          1
   258          1
   265          1
   266          7
   267          5
   269          1
   270          1
   278          1
   281          2
   282          2
   283         13
   284          4
   299          2
   300          4
   301          3
   311          1
   313          1
   317          1
   327          1
   328         16
   329          6
   461          2
   489          3
   490          1
   507          8
   508          2
   535          1
   565          2
   580          3