##TITLE=Library Entry 7893
##JCAMP-DX=Revision 4.10 
##DATA TYPE=MASS SPECTRUM
##SAMPLE DESCRIPTION=A.A.Kutin, Moscow, Russia
##NAMES=HP
##CAS NAME=2H-Imidazo(5,1-b)(1,3)thiazin-3-ol, 3,4-dihydro-6-methyl-8-nitro-
##MOLFORM=C7H9N3O3S
##CAS REGISTRY NO=115906-56-4
##MP= -300
##BP= -300
##MW= 215
##$RETENTION INDEX=0
##$CONDENSED SPECTRUM=NO
##NPOINTS= 118
##XYDATA=(XY..XY) 1 
    33         11
    34          6
    35          4
    36          5
    37         12
    39        258
    40        176
    41        215
    42        424
    43        999
    44        256
    45        290
    46        317
    47        106
    48         21
    49         11
    50         15
    51         89
    52        227
    53        124
    54        278
    55        405
    56        435
    57        753
    58        166
    59        127
    60        133
    61         43
    62         16
    63         18
    64         25
    65         31
    66         90
    67        115
    70        531
    72        580
    73        138
    74         37
    75         16
    76         12
    77         29
    78         18
    79         35
    81        158
    82         72
    83        108
    84        202
    86        176
    87         28
    88         69
    89         14
    91         18
    93         33
    94         24
    95         29
    96         52
    97         31
    98        107
    99         65
   100         18
   101          9
   102          4
   103          1
   104          3
   105          8
   106          3
   107          5
   108          5
   110         19
   111         30
   112         45
   113         24
   114         23
   116        356
   118         28
   119          2
   121          1
   122          1
   123          9
   125         78
   126         26
   127         27
   128         10
   129          4
   131          2
   134          1
   136          0
   138          1
   139          6
   140         11
   141          4
   142          7
   143         18
   144         13
   145          1
   149          2
   150          3
   151          6
   152          0
   154          0
   155          3
   157         13
   162          0
   164          1
   166          0
   167          8
   168          8
   169         59
   170          4
   171          4
   184          0
   185          8
   186          1
   199         21
   201          0
   215        546
   217         46
   218          0