##TITLE=Library Entry 35360
##JCAMP-DX=Revision 4.10 
##DATA TYPE=MASS SPECTRUM
##SAMPLE DESCRIPTION=J.M. Shreeve, Dep. Chem., Univ. Idaho, Moscow, USA
##NAMES=HP
##CAS NAME=2-(Difluoroamino)-2,2-difluoro-O-(trifluoroacetyl)acetamidoxime
##MOLFORM=C4H2F7N3O2
##CAS REGISTRY NO=115983-88-5
##MP= -300
##BP= -300
##MW= 257
##$RETENTION INDEX=0
##$CONDENSED SPECTRUM=NO
##NPOINTS= 15
##XYDATA=(XY..XY) 1 
    42        169
    52         13
    69        999
    78        288
    91        117
    92        128
   121         67
   159         15
   187         16
   188         39
   205        264
   219         15
   238          7
   257        108
   258          2