##TITLE=Library Entry 65572
##JCAMP-DX=Revision 4.10 
##DATA TYPE=MASS SPECTRUM
##SAMPLE DESCRIPTION=Patti Price, Georgia Bureau of Investigation, Decatur,
 Georgia
##NAMES=HP
##CAS NAME=Succinylsulfathiazole
##MOLFORM=C13H13N3O5S2
##CAS REGISTRY NO=116-43-8
##MP= -300
##BP= -300
##MW= 355
##$RETENTION INDEX=0
##$CONDENSED SPECTRUM=NO
##NPOINTS= 100
##XYDATA=(XY..XY) 1 
    37          5
    38         21
    39        113
    40         22
    41         41
    42         24
    43          4
    44         34
    45        178
    46         13
    47         11
    48          9
    51         20
    52         48
    53         38
    54         23
    55        235
    56        116
    57         28
    58         43
    59         14
    60          6
    61          6
    62         23
    63         98
    64         86
    65        625
    66         85
    67         10
    68          4
    69         10
    70         17
    71         30
    72         18
    73          9
    74         10
    75         10
    76         12
    77          9
    78         13
    79          8
    80         51
    83          2
    84          3
    85          5
    89          5
    90         21
    91         59
    92        999
    93        180
    94         11
    96         12
    97          6
    99         91
   100         22
   101          7
   104         12
   105          6
   106          5
   107          3
   108        672
   109         57
   118         11
   119         23
   120         24
   121         12
   122          4
   123         18
   124         12
   125          5
   131         10
   132         31
   133          5
   136         17
   140        179
   141         16
   142         10
   147         15
   149          6
   156        795
   157         72
   158         46
   163          7
   164         17
   174         39
   175         13
   190        168
   191        997
   192        115
   193         47
   194          5
   222          1
   238         10
   255        161
   256         21
   257         16
   272         37
   273         33
   274          6
   337          9