##TITLE=Library Entry 83759
##JCAMP-DX=Revision 4.10 
##DATA TYPE=MASS SPECTRUM
##SAMPLE DESCRIPTION=Exported from NIST MS Search
##NAMES=HP
##CAS NAME=1,3-Cyclohexadiene-1-carboxaldehyde, 2,6,6-trimethyl-
##MOLFORM=C10H14O
##CAS REGISTRY NO=116-26-7
##MP= -300
##BP= -300
##MW= 150
##$RETENTION INDEX=1201
##$CONDENSED SPECTRUM=NO
##NPOINTS= 71
##XYDATA=(XY..XY) 1 
    15          8
    26          8
    27        102
    28         11
    29         69
    38         15
    39        213
    40         30
    41        137
    42          8
    43         32
    50         32
    51        102
    52         37
    53         89
    54         10
    55         37
    58          5
    59          5
    60         70
    62         16
    63         50
    64         15
    65        140
    66         34
    67         40
    68          6
    69          8
    74         10
    75         15
    76          9
    77        224
    78         54
    79        234
    80         27
    81         26
    82          5
    89         19
    90         12
    91        742
    92        101
    93         75
    94         14
    95         12
   101          5
   102         10
   103         60
   104         21
   105        383
   106         82
   107        999
   108        100
   109         22
   115         16
   116          8
   117         27
   118          5
   119         55
   120         16
   121        638
   122         86
   123         10
   131          5
   132         20
   133         19
   134         11
   135        113
   136         11
   149          9
   150        468
   151         55