##TITLE=Library Entry 97491
##JCAMP-DX=Revision 4.10 
##DATA TYPE=MASS SPECTRUM
##SAMPLE DESCRIPTION=Japan AIST/NIMC Database- Spectrum MS-NW- 786
##NAMES=HP
##CAS NAME=Hexachloroacetone
##MOLFORM=C3Cl6O
##CAS REGISTRY NO=116-16-5
##MP= -300
##BP= -300
##MW= 262
##$RETENTION INDEX=1157
##$CONDENSED SPECTRUM=NO
##NPOINTS= 88
##XYDATA=(XY..XY) 1 
    12          5
    24          6
    28         10
    35         27
    37          9
    47        139
    48          7
    49         45
    50          2
    52          2
    53          1
    56          1
    57          1
    59         20
    60          3
    61          7
    63         53
    65         17
    70          2
    71         11
    72          1
    73          4
    76          6
    77          2
    78          2
    82        198
    83         52
    84        129
    85         28
    86         19
    87         12
    89          3
    94         35
    95          2
    96         26
    97          6
    98          6
   106          6
   108          4
   110         67
   111         16
   112         43
   113         10
   114          7
   115          2
   117        999
   118         10
   119        965
   120          9
   121        304
   122          4
   123         32
   129         16
   130          2
   131         17
   132          2
   133          6
   141          2
   143          2
   145         90
   146          2
   147         85
   148          2
   149         26
   151          3
   157          6
   159          5
   161          2
   164         25
   165          4
   166         35
   167          5
   168         17
   169          2
   170          3
   199         31
   201         50
   203         32
   205         10
   207          1
   227         10
   229         16
   231         10
   233          3
   236          1
   262          1
   264          2
   266          2