##TITLE=Library Entry 85919
##JCAMP-DX=Revision 4.10 
##DATA TYPE=MASS SPECTRUM
##SAMPLE DESCRIPTION=Japan AIST/NIMC Database- Spectrum MS-NW-3986
##NAMES=HP
##CAS NAME=Cyclohexanol, 3,3,5-trimethyl-
##MOLFORM=C9H18O
##CAS REGISTRY NO=116-02-9
##MP= -300
##BP= -300
##MW= 142
##$RETENTION INDEX=1073
##$CONDENSED SPECTRUM=NO
##NPOINTS= 86
##XYDATA=(XY..XY) 1 
    15         11
    18          2
    26          4
    27         86
    28          7
    29        106
    30          2
    31         18
    32          2
    37          1
    38          5
    39        106
    40         19
    41        289
    42         31
    43        140
    44        101
    45         40
    46          1
    50          5
    51         11
    52          5
    53         45
    54          9
    55        238
    56        215
    57        193
    58         24
    59         35
    60          1
    62          1
    63          3
    64          1
    65         11
    66          6
    67        173
    68        166
    69        161
    70         21
    71        233
    72         13
    73          5
    74          1
    77         11
    78          2
    79         13
    80         13
    81        112
    82        110
    83        475
    84         40
    85        234
    86         20
    87          9
    91          8
    92          1
    93          9
    94          5
    95         69
    96         95
    97         19
    98          7
    99          5
   100          3
   101          1
   105          1
   106          1
   107          9
   108          5
   109        999
   110         90
   111         11
   112          1
   121          1
   122          1
   123         10
   124        106
   125         18
   126          2
   127         21
   128          2
   135          1
   137          1
   140          8
   141          8
   142          3