##TITLE=Library Entry 44635
##JCAMP-DX=Revision 4.10 
##DATA TYPE=MASS SPECTRUM
##SAMPLE DESCRIPTION=KONINKLIJKE/SHELL LAB., AMSTERDAM, THE NETHERLANDS
##NAMES=HP
##CAS NAME=Butanoic acid, 2-methyl-
##MOLFORM=C5H10O2
##CAS REGISTRY NO=116-53-0
##MP= -300
##BP= -300
##MW= 102
##$RETENTION INDEX=861
##$CONDENSED SPECTRUM=NO
##NPOINTS= 55
##XYDATA=(XY..XY) 1 
    12          0
    13          1
    14          6
    15         32
    16          2
    17          5
    18         18
    19          4
    25          3
    26         57
    27        323
    28        161
    29        621
    30         42
    31         20
    32          1
    37          9
    38         19
    39        163
    40         18
    41        528
    42         41
    43         54
    44          6
    45        167
    46          9
    50         13
    51         14
    52          4
    53         24
    54          7
    55        107
    56        133
    57        638
    58         28
    59         18
    60         14
    61          2
    62          0
    69         41
    73        148
    74        999
    75         35
    76          4
    83          2
    84          2
    85          9
    86          1
    87        238
    88         10
    99          0
   100          0
   101          2
   102          6
   103          0