##TITLE=Library Entry 55734
##JCAMP-DX=Revision 4.10 
##DATA TYPE=MASS SPECTRUM
##SAMPLE DESCRIPTION=Organic Synthesis Lab, MSU, Moscow.TRC 740
##NAMES=HP
##CAS NAME=Aldicarb
##MOLFORM=C7H14N2O2S
##CAS REGISTRY NO=116-06-3
##MP= -300
##BP= -300
##MW= 190
##$RETENTION INDEX=0
##$CONDENSED SPECTRUM=NO
##NPOINTS= 74
##XYDATA=(XY..XY) 1 
    26          9
    27         92
    28        262
    29         77
    30         91
    31         31
    32         10
    33          0
    35          2
    37          4
    38         11
    39        166
    40         35
    41        597
    42        120
    43         43
    44         58
    45        111
    46         40
    47         93
    48         79
    49         82
    50          3
    51          6
    52         13
    53         30
    54         23
    55        218
    56         35
    57         29
    58        454
    59         72
    60          9
    61         23
    62          0
    63          0
    64          0
    66          4
    67          4
    68        118
    69        184
    70         68
    71         22
    72          4
    73         37
    74         29
    75         53
    76        269
    77          6
    78          0
    82          6
    84         25
    85        513
    86        999
    87        364
    88         97
    89        179
    90         10
    91          7
   100        200
   101         34
   102         20
   103          0
   104          0
   106         11
   115         54
   116         12
   117         13
   118         14
   133          9
   143          3
   144        475
   145         33
   146          1