##TITLE=Library Entry 83819
##JCAMP-DX=Revision 4.10 
##DATA TYPE=MASS SPECTRUM
##SAMPLE DESCRIPTION=Chemical Concepts
##NAMES=HP
##CAS NAME=.beta.-Humulene
##MOLFORM=C15H24
##CAS REGISTRY NO=116-04-1
##MP= -300
##BP= -300
##MW= 204
##$RETENTION INDEX=1440
##$CONDENSED SPECTRUM=NO
##NPOINTS= 112
##XYDATA=(XY..XY) 1 
    26          3
    27        206
    28         12
    29        208
    30          4
    38          3
    39        191
    40          5
    41        527
    42         36
    43        115
    50          6
    51         34
    52         24
    53        192
    54         34
    55        227
    56         18
    57         29
    58          2
    63         10
    64          5
    65        101
    66         41
    67        451
    68         53
    69        312
    70         19
    71          6
    74          3
    76          2
    77        278
    78         71
    79        558
    80        183
    81        607
    82        342
    83         61
    84          6
    85          3
    88          3
    89          5
    91        543
    92        180
    93        968
    94        305
    95        596
    96         86
    97         26
    98          3
   102          5
   103         31
   104         20
   105        579
   106        196
   107        999
   108        343
   109        297
   110         98
   111         21
   115         37
   116         14
   117         58
   118         21
   119        607
   120        183
   121        380
   122        309
   123        135
   124         18
   125          3
   127          6
   128         12
   129         15
   130          7
   131         37
   132         14
   133        454
   134        258
   135        405
   136         95
   137         13
   141          5
   142          2
   143          3
   144          3
   145         25
   146         10
   147        264
   148        397
   149        102
   150         16
   159          9
   160          9
   161        379
   162        100
   163         33
   164          5
   173          2
   174          2
   175        116
   176        115
   177         15
   187          2
   189        342
   190         48
   191          8
   202          3
   203          2
   204        448
   205         78
   206          9