##TITLE=Library Entry 5637
##JCAMP-DX=Revision 4.10 
##DATA TYPE=MASS SPECTRUM
##SAMPLE DESCRIPTION=Exported from NIST MS Search
##NAMES=HP
##CAS NAME=2-Propanone, 1-hydroxy-
##MOLFORM=C3H6O2
##CAS REGISTRY NO=116-09-6
##MP= -300
##BP= -300
##MW= 74
##$RETENTION INDEX=665
##$CONDENSED SPECTRUM=NO
##NPOINTS= 27
##XYDATA=(XY..XY) 1 
    15         86
    25          3
    26         10
    27         24
    28         21
    29         55
    30          9
    31        169
    32          3
    36          1
    37          3
    38          3
    39          4
    40          2
    41          8
    42         44
    43        999
    44         26
    45         37
    53          3
    55          4
    56          2
    57          4
    58          8
    73          1
    74         98
    75          6