##TITLE=Library Entry 51105
##JCAMP-DX=Revision 4.10 
##DATA TYPE=MASS SPECTRUM
##SAMPLE DESCRIPTION=RADIAN CORP
##NAMES=HP
##CAS NAME=Triisopropyl phosphite
##MOLFORM=C9H21O3P
##CAS REGISTRY NO=116-17-6
##MP= -300
##BP= -300
##MW= 208
##$RETENTION INDEX=1015
##$CONDENSED SPECTRUM=NO
##NPOINTS= 59
##XYDATA=(XY..XY) 1 
    15         26
    26         13
    27        174
    29         24
    31         16
    37          3
    38         10
    39        135
    40         17
    41        351
    42         62
    43        735
    44         32
    45        131
    46          5
    47         78
    48          4
    49          1
    57          4
    58          7
    59         58
    62          1
    63          5
    64          1
    65        326
    66          2
    69          3
    79          3
    81         23
    82        999
    83        354
    84          8
    85          3
    90          2
    91         41
    92         18
    96         16
   105         26
   106          3
   107        490
   108         38
   109        477
   110         13
   111          3
   121          2
   123         72
   124        545
   125        147
   126          8
   134          2
   135          2
   149        129
   150          9
   151          2
   166         55
   167         93
   168          6
   208         23
   209         13