##TITLE=Library Entry 60749
##JCAMP-DX=Revision 4.10 
##DATA TYPE=MASS SPECTRUM
##SAMPLE DESCRIPTION=S.KUSHWAHA DEPT. BIOCHEM., UNIV. OF OTTAWA, OTTAWA, CAN
ADA
##NAMES=HP
##CAS NAME=Retinal
##MOLFORM=C20H28O
##CAS REGISTRY NO=116-31-4
##MP= -300
##BP= -300
##MW= 284
##$RETENTION INDEX=2466
##$CONDENSED SPECTRUM=NO
##NPOINTS= 111
##XYDATA=(XY..XY) 1 
    50         60
    51        150
    52         70
    54         80
    55        670
    56        220
    57        450
    58         80
    59         60
    63        110
    64         60
    65        270
    66         80
    67        490
    68        120
    69        730
    70        210
    71        350
    75         90
    77        530
    78        130
    79        530
    80        120
    81        550
    82        190
    83        390
    84        150
    85        140
    86         70
    91        999
    92        330
    93        430
    94        100
    95        860
    96        200
    97        290
    98         70
    99        100
   103        130
   105        730
   106        160
   107        510
   108        190
   109        570
   110        180
   111        350
   112         90
   115        290
   116        110
   117        240
   118         90
   119        690
   120        170
   121        330
   122        170
   123        310
   124         90
   125        110
   127        100
   128        220
   129        200
   130        100
   131        210
   132        110
   133        370
   134        100
   135        240
   136         90
   137        160
   141        110
   142         90
   143        170
   144        100
   145        290
   146         90
   147        200
   148        100
   149        180
   157        110
   159        270
   161        160
   165        100
   166         70
   169         60
   171         80
   173        120
   175         80
   177        330
   178         80
   181        100
   183         70
   185         80
   187         50
   189         60
   195         80
   199         50
   201         40
   203         40
   209         30
   213         30
   218         30
   223         40
   251         60
   252         20
   266         90
   267         30
   268         20
   269         20
   284         90
   285         20
   286         10