##TITLE=Library Entry 57320
##JCAMP-DX=Revision 4.10 
##DATA TYPE=MASS SPECTRUM
##SAMPLE DESCRIPTION=Institute of Organic Chemistry, Novosibirsk, USSR 1988
##NAMES=HP
##CAS NAME=Divinylmethyl(acetoxymethyl)silane
##MOLFORM=C8H14O2Si
##CAS REGISTRY NO=116065-60-2
##MP= -300
##BP= -300
##MW= 170
##$RETENTION INDEX=0
##$CONDENSED SPECTRUM=NO
##NPOINTS= 28
##XYDATA=(XY..XY) 1 
    43        256
    44          8
    45        251
    46          9
    47         58
    55         62
    61        443
    62         38
    63         20
    71        207
    72         31
    73         90
    87        999
    88         92
    89         40
    97        195
    98         21
    99         59
   101         93
   103         29
   113         50
   129        373
   130         50
   131         19
   141         32
   143         75
   144          6
   155         41