##TITLE=Library Entry 5549
##JCAMP-DX=Revision 4.10 
##DATA TYPE=MASS SPECTRUM
##SAMPLE DESCRIPTION=Chemical Concepts
##NAMES=HP
##CAS NAME=2-Trifluoromethyl-3-oxobutanoic acid, ethyl ester
##MOLFORM=C7H9F3O3
##CAS REGISTRY NO=116046-53-8
##MP= -300
##BP= -300
##MW= 198
##$RETENTION INDEX=0
##$CONDENSED SPECTRUM=NO
##NPOINTS= 71
##XYDATA=(XY..XY) 1 
    27         71
    28         26
    29        157
    31         26
    32          2
    33          2
    37          2
    38          3
    39          6
    41         16
    43        999
    45         48
    46          4
    47          3
    50          1
    51          6
    52          1
    53          2
    54          1
    55          2
    56          1
    57          3
    59          1
    60          1
    61          3
    63          8
    64          1
    67          1
    69         29
    71          8
    73         17
    75          4
    76          2
    77          2
    82         10
    83          1
    85          1
    86          1
    87          6
    88          7
    89          3
    90          6
    91         57
    92          3
    95          1
   104          1
   106          5
   107          3
   108         10
   109          7
   110          9
   111          3
   126          2
   128          7
   129          1
   132          1
   133          2
   134          1
   135          4
   137         10
   150          1
   151          1
   152         10
   153          5
   155          1
   156          1
   170          3
   171          1
   178          1
   183          1
   198          6