##TITLE=Library Entry 36228
##JCAMP-DX=Revision 4.10 
##DATA TYPE=MASS SPECTRUM
##SAMPLE DESCRIPTION=Chemical Concepts
##NAMES=HP
##CAS NAME=3-Heptene, 2,2,3,5,6-pentamethyl-
##MOLFORM=C12H24
##CAS REGISTRY NO=116164-06-8
##MP= -300
##BP= -300
##MW= 168
##$RETENTION INDEX=0
##$CONDENSED SPECTRUM=NO
##NPOINTS= 81
##XYDATA=(XY..XY) 1 
    26          3
    27        132
    28          5
    29        201
    30          4
    31          2
    37          1
    39        115
    40         13
    41        499
    42         28
    43        166
    44          9
    45          2
    50          1
    51         12
    52          6
    53         68
    54         10
    55        329
    56         33
    57        370
    58         12
    59          8
    63          2
    65         20
    66          5
    67         97
    68         13
    69        999
    70         70
    71         26
    72          1
    77         28
    78          6
    79         30
    80          7
    81         47
    82          6
    83        514
    84         57
    85          7
    91         18
    92          3
    93         11
    94          4
    95         62
    96          9
    97        124
    98         10
    99          3
   101          1
   103          8
   104          2
   105          4
   107          5
   108          4
   109         36
   110         48
   111        177
   112         99
   113         11
   114          1
   115          2
   117          2
   119          1
   121          1
   123          5
   124         13
   125        535
   126         53
   127          2
   137          3
   141          1
   150          1
   151          3
   152          1
   153          1
   168        102
   169         14
   170          1