##TITLE=Library Entry 2817
##JCAMP-DX=Revision 4.10 
##DATA TYPE=MASS SPECTRUM
##SAMPLE DESCRIPTION=Scientific Instruments & Applications
##NAMES=HP
##CAS NAME=11-Bromoundecane-1-thiol
##MOLFORM=C11H23BrS
##CAS REGISTRY NO=116129-34-1
##MP= -300
##BP= -300
##MW= 266
##$RETENTION INDEX=0
##$CONDENSED SPECTRUM=NO
##NPOINTS= 127
##XYDATA=(XY..XY) 1 
    40         65
    41        999
    42        195
    43        363
    44         21
    45         62
    46         29
    47        262
    48          9
    49         20
    50          3
    51         15
    52          8
    53         89
    54        138
    55        964
    56        205
    57        141
    58         13
    59         22
    60         39
    61         97
    62          6
    63          5
    64          1
    65         12
    67        132
    68        138
    69        442
    70         89
    71         37
    72          2
    73         13
    74          4
    75          4
    77         10
    78          1
    79         17
    80          7
    81         61
    82         76
    83        263
    84         33
    85         11
    86          3
    87         43
    88         13
    89         45
    90          2
    91          5
    93          8
    94          2
    95         41
    96          6
    97        179
    98         16
   100          1
   101         41
   102          4
   103          5
   104          1
   106          2
   107         14
   108          2
   109         22
   110          6
   111         37
   112          4
   115          9
   116          3
   117          2
   119          1
   120          1
   121          4
   122          2
   123         16
   124          3
   125          7
   127          1
   129          7
   130          1
   131          2
   133          2
   134          7
   135         28
   136          9
   137         25
   138          1
   143          7
   147          2
   148         81
   149         13
   150         75
   151          9
   152          1
   157          1
   159          1
   161          4
   162         48
   163          9
   164         44
   165          5
   166          1
   175          1
   176          6
   177          1
   178          3
   184          1
   185          7
   187        348
   188         41
   189         16
   190          6
   191          2
   192          3
   202          1
   204          5
   205          2
   206          3
   232          1
   234          1
   265          1
   266          8
   267          1
   268          5
   269          1
   270          1