##TITLE=Library Entry 64134
##JCAMP-DX=Revision 4.10 
##DATA TYPE=MASS SPECTRUM
##SAMPLE DESCRIPTION=Chemical Concepts
##NAMES=HP
##CAS NAME=Carbamic acid, [4-[4-[1-(benzoyloxy)ethyl]-2-(1,1-dimethylethyl)-
1-methyl-5-oxo-4-imidazolidinyl]butyl]-, phenylmethyl ester
##MOLFORM=C29H39N3O5
##CAS REGISTRY NO=116139-82-3
##MP= -300
##BP= -300
##MW= 509
##$RETENTION INDEX=0
##$CONDENSED SPECTRUM=NO
##NPOINTS= 111
##XYDATA=(XY..XY) 1 
    26         19
    38         28
    40         49
    42        153
    44         14
    46         11
    52         17
    53         49
    57         36
    58         37
    59         53
    61         11
    67         35
    69         15
    70         14
    71         27
    72         26
    77        264
    78         38
    79        200
    80         24
    82         49
    83         17
    84         34
    85         16
    86         31
    89         16
    90         29
    91        999
    92         91
    97         16
    99         19
   100         17
   101         34
   105        615
   106         53
   107        149
   108        237
   109         33
   110         37
   111        149
   112         29
   122         46
   123         59
   124         62
   125         84
   126         16
   127         31
   137         29
   138         53
   139         43
   140         19
   141         17
   149         25
   151         38
   152         17
   153         70
   154         11
   157         14
   165         15
   166         17
   167         78
   168         54
   169         15
   179        107
   180         17
   181         27
   193         11
   194         17
   195         31
   196        259
   197         32
   209         25
   222        401
   223         63
   224         12
   231         32
   240         10
   252        736
   253        121
   254         13
   260         16
   264         13
   286         36
   300         40
   301         11
   303         15
   304         12
   316         58
   317         14
   318          9
   329         11
   330         60
   331         45
   344        627
   345        154
   346         22
   360        432
   361        109
   362         13
   386          9
   408         30
   409          7
   434          4
   452        427
   453        126
   454         21
   478          2
   494          2
   509          3
   510          1