##TITLE=Library Entry 14999
##JCAMP-DX=Revision 4.10 
##DATA TYPE=MASS SPECTRUM
##SAMPLE DESCRIPTION=H. Fales, LC, NHLBI, NIH, Bethesda, MD 20892
##NAMES=HP
##CAS NAME=Narcissidine, 1,3-diacetyl-4,12-dihydro-
##MOLFORM=C22H29NO7
##CAS REGISTRY NO=116104-54-2
##MP= -300
##BP= -300
##MW= 419
##$RETENTION INDEX=0
##$CONDENSED SPECTRUM=NO
##NPOINTS= 232
##XYDATA=(XY..XY) 1 
    41         12
    43        999
    44         21
    45         98
    49         18
    51         17
    53         22
    54         10
    55         52
    56          7
    57         10
    59         12
    63          9
    65         26
    67         33
    68         34
    69         33
    70         12
    71         35
    74         33
    75          7
    77         53
    78         23
    79         21
    80         19
    81         12
    82         32
    83         18
    84         23
    85         12
    86          8
    89         19
    90         19
    91         52
    92         16
    93         11
    94         13
    95         11
    96         12
    97         25
    98         10
   102         21
   103         44
   104         18
   105         33
   106         15
   107         18
   109          7
   110         14
   111          9
   112         10
   113          7
   114          9
   115         58
   116         19
   117         29
   118         30
   119         28
   120         13
   121         37
   122          7
   124         48
   125          8
   126         18
   127         21
   128         30
   129         19
   130         22
   131         40
   132         21
   133         45
   134         91
   135         27
   136          7
   141         15
   142         29
   143         19
   144         22
   145         29
   146         38
   147         39
   148         15
   149         36
   150         14
   151         88
   152         13
   153          8
   154         16
   155         12
   156         16
   157         14
   158         29
   159         22
   160         23
   161         40
   162         75
   163         28
   164         41
   165         37
   166         11
   167         17
   168         14
   169         15
   170         14
   171         13
   172         17
   173         20
   174         41
   175         34
   176         55
   177         47
   178         36
   179         10
   180         14
   181         12
   182         14
   183         13
   184         26
   185         13
   186         19
   187         11
   188         31
   189        111
   190         52
   191         48
   192         31
   193         58
   194         22
   195          9
   196         14
   197         13
   198         23
   199         11
   200         14
   201         13
   202         13
   203         32
   204         56
   205         23
   206         11
   207         12
   208          8
   209         12
   210         18
   211         10
   212         23
   213         11
   214         30
   215         11
   216         19
   217         13
   218         14
   219         16
   220         18
   221         10
   222         25
   223         12
   224         21
   225         11
   226         27
   227         13
   228         46
   229         20
   230         41
   231         13
   232         11
   233          7
   234          7
   235         11
   236         39
   237         34
   238         21
   239          9
   240         26
   241         11
   242         75
   243         41
   244         19
   246         11
   250         28
   251         11
   252         45
   253         18
   254         26
   255         11
   256         26
   257          8
   258         31
   259         10
   260         13
   266        136
   267         48
   268        334
   269         69
   270         50
   271         12
   272         19
   275          8
   282         17
   283          7
   284        116
   285         26
   286         43
   287         10
   288         13
   296          9
   298         85
   299         53
   300         85
   301         21
   302         18
   314          7
   316         37
   317          8
   328        130
   329         26
   330          7
   344         11
   358        139
   359         35
   360        166
   361         41
   362          9
   376         21
   377          7
   388         33
   389          8
   404         26
   418        842
   419        451
   420        153
   421         28