##TITLE=Library Entry 76184
##JCAMP-DX=Revision 4.10 
##DATA TYPE=MASS SPECTRUM
##SAMPLE DESCRIPTION=Chemical Concepts
##NAMES=HP
##CAS NAME=Cycloocta-1,3-diselenole, 2-(2,4,6-cycloheptatrien-1-ylidene)-
##MOLFORM=C16H12Se2
##CAS REGISTRY NO=116195-71-2
##MP= -300
##BP= -300
##MW= 364
##$RETENTION INDEX=0
##$CONDENSED SPECTRUM=NO
##NPOINTS= 200
##XYDATA=(XY..XY) 1 
    26          6
    27         16
    37          6
    38         14
    39         77
    49          4
    50        102
    51         96
    52         41
    53          2
    61         12
    62         35
    63        109
    64         13
    65          4
    66          0
    73          4
    74         90
    75         84
    76        122
    77         31
    78          6
    80          4
    86          6
    87          9
    88          5
    89        166
    90        151
    91         10
    93          4
    98         15
    99          3
   100          7
   101         30
   102        999
   103         85
   104          4
   105          2
   106          7
   108          1
   113         10
   114         10
   115         28
   117         56
   118          4
   119          8
   125          1
   126          9
   127         10
   128          8
   129         17
   130         17
   131          5
   132          4
   137          0
   138          2
   139         14
   140          5
   141         18
   142          8
   143          8
   144          1
   150          3
   151          4
   152         14
   153          8
   154         16
   155          3
   156         23
   157          2
   158          4
   160          4
   161          0
   162          1
   163          4
   164          0
   165         13
   166          3
   167          9
   168          4
   169         24
   170          2
   171          3
   172          1
   174          0
   175          3
   176         19
   177          8
   178        159
   179        140
   180        398
   181         62
   182        828
   183         72
   184        144
   185         13
   186          1
   187          2
   189         13
   190          4
   191         14
   192          5
   193          5
   194          1
   195          1
   200         16
   201         18
   202        209
   203        209
   204         90
   205         16
   206          9
   207          2
   208          2
   215          1
   217          3
   219          2
   229          1
   230          2
   231          1
   232          4
   233          1
   234          5
   236          7
   238          1
   243          1
   245          2
   252          2
   253          3
   254          9
   255          6
   256         21
   257         10
   258         16
   259          6
   260         20
   261          4
   262         17
   263          2
   264          4
   265          1
   266          1
   267          5
   268          2
   269         10
   270          3
   271          9
   272          1
   273          5
   275          1
   276          1
   277          2
   278          7
   279         10
   280         25
   281         22
   282         43
   283         34
   284         30
   285         10
   286          6
   295          1
   297          1
   299          2
   308          3
   309          1
   310          3
   311          1
   312          5
   314          1
   330          1
   331          1
   332          4
   333          3
   334          9
   335          7
   336         14
   337          3
   338         14
   339          3
   340          3
   345          1
   347          1
   349          1
   354          3
   355          3
   356         24
   357         34
   358        131
   359         98
   360        315
   361        215
   362        528
   363        127
   364        572
   365        106
   366        192
   367         32
   368         16
   369          3