##TITLE=Library Entry 82287
##JCAMP-DX=Revision 4.10 
##DATA TYPE=MASS SPECTRUM
##SAMPLE DESCRIPTION=Chemical Concepts
##NAMES=HP
##CAS NAME=1H-Indole-1-carboxylic acid, 3-[[3-benzoyl-2-(1,1-dimethylethyl)-
1-methyl-5-oxo-4-imidazolidinyl]methyl]-, 1,1-dimethylethyl ester, (2S-trans
)-
##MOLFORM=C29H35N3O4
##CAS REGISTRY NO=116159-76-3
##MP= -300
##BP= -300
##MW= 489
##$RETENTION INDEX=0
##$CONDENSED SPECTRUM=NO
##NPOINTS= 91
##XYDATA=(XY..XY) 1 
    26         12
    27         47
    28         21
    29         83
    31         71
    33         11
    38         11
    39         28
    40         45
    41        150
    42         51
    43         89
    44         12
    45         58
    51         15
    53         10
    54         12
    55         25
    56         25
    57        275
    58         16
    59         53
    61         21
    69         13
    70         10
    71         14
    72         19
    73         23
    76         10
    77        208
    78         18
    83          9
    84          7
    85          9
    91         10
    97          8
    98         12
    99         22
   100         16
   102          7
   103          8
   104          8
   105        999
   106        103
   107          7
   111          6
   115          9
   119          6
   129         19
   130        290
   131         33
   141         12
   142          7
   155         11
   167          7
   170          8
   174         93
   175         11
   185         15
   186         12
   202         16
   203        276
   204         38
   205          8
   207          7
   213          6
   218          6
   230          7
   234         36
   235          8
   254         12
   259          9
   260          8
   262         14
   267          3
   279          4
   293          5
   332         96
   333         22
   376        427
   377        106
   378         16
   389         14
   417          3
   432        613
   433        183
   434         31
   474          9
   489        134
   490         45
   491          8