##TITLE=Library Entry 78067
##JCAMP-DX=Revision 4.10 
##DATA TYPE=MASS SPECTRUM
##SAMPLE DESCRIPTION=N. Wakabayashi, Insect Chem. Ecol. Lab., Agric. Res. Se
rv., USDA, Beltsville, Md, USA
##NAMES=HP
##CAS NAME=2H-3,9a-Methano-1-benzoxepin-4,5,6,7,9,10-hexol, 5a-[(acetyloxy)m
ethyl]octahydro-2,2,9-trimethyl-, 4,6,7,10-tetraacetate-5-benzoate, [3R-(3.a
lpha.,4.alpha.,5.alpha.,5a.alpha.,6.alpha.,7.alpha.,9.beta.,9a.alpha.,10R*)]
-
##MOLFORM=C32H40O14
##CAS REGISTRY NO=116159-73-0
##MP= -300
##BP= -300
##MW= 648
##$RETENTION INDEX=0
##$CONDENSED SPECTRUM=NO
##NPOINTS= 32
##XYDATA=(XY..XY) 1 
    43        430
    77        152
    83         43
    85         36
    95         60
   105        999
   106         81
   109         31
   137         37
   141         41
   143         35
   147         37
   148         33
   149         41
   151         43
   162         36
   163         62
   164         96
   165         51
   175         36
   187         30
   202        351
   203         75
   205         38
   206         45
   216         31
   223         33
   244         54
   261         23
   321         12
   588         23
   589          9