##TITLE=Library Entry 14607
##JCAMP-DX=Revision 4.10 
##DATA TYPE=MASS SPECTRUM
##SAMPLE DESCRIPTION=DENNIS H SMITH DEPT OF CHEM STANFORD UNIV STANFORD CALI
F 9430
##NAMES=HP
##CAS NAME=Pregna-5,16-dien-20-one, 3-hydroxy-, (3.beta.)-
##MOLFORM=C21H30O2
##CAS REGISTRY NO=1162-53-4
##MP= -300
##BP= -300
##MW= 314
##$RETENTION INDEX=0
##$CONDENSED SPECTRUM=NO
##NPOINTS= 144
##XYDATA=(XY..XY) 1 
    40          5
    41        167
    43        999
    45          9
    51          7
    53         56
    55        124
    56          6
    57         63
    65         37
    66         10
    67         79
    68          9
    69         40
    71         17
    77        105
    78         24
    79        157
    81        100
    83         24
    85         12
    91        233
    92         46
    93        152
    94         29
    95         64
    96          7
    97         25
   103         20
   104         13
   105        195
   106         36
   107        182
   108         32
   109         47
   111         19
   115         43
   116         20
   117         79
   118         24
   119        115
   120         72
   121        120
   122         46
   123         43
   124         17
   125         18
   127          7
   128         31
   129         53
   130         19
   131        121
   132         20
   133        112
   134         24
   135        161
   136         38
   137         50
   138          8
   141         29
   142         14
   143         75
   144         22
   145        200
   146         32
   147         91
   148         20
   149         35
   150         14
   151         10
   153          6
   155         24
   156          6
   157         67
   158         20
   159        171
   160         49
   161        101
   162         10
   163         27
   165          7
   167          7
   169         23
   171         41
   172         10
   173         59
   174         18
   175         64
   176         12
   177         14
   178         10
   181         11
   183         23
   185         42
   186         15
   187         35
   188         25
   189         18
   190         27
   191          9
   195          9
   196          5
   197         20
   198          7
   199         15
   201         11
   202         35
   203        187
   204         31
   209          6
   211         22
   212          5
   213         16
   215          8
   225          5
   227          7
   228         10
   229        117
   230         23
   237         14
   238          8
   239         31
   241         11
   242          7
   253         56
   254         26
   255         19
   256          5
   257         16
   263         17
   267          6
   269         12
   270          8
   271         67
   272         10
   281        162
   282         34
   296        125
   297         31
   299        181
   300         33
   312         15
   314        406
   315         94