##TITLE=Library Entry 15256
##JCAMP-DX=Revision 4.10 
##DATA TYPE=MASS SPECTRUM
##SAMPLE DESCRIPTION=Div. of Experiment Therapeutics WRAIR, WRAMC, Washingto
n DC 20307
##NAMES=HP
##CAS NAME=1-Methyl-4-[nitromethyl]-4-piperidinol
##MOLFORM=C7H14N2O3
##CAS REGISTRY NO=116250-49-8
##MP= -300
##BP= -300
##MW= 174
##$RETENTION INDEX=0
##$CONDENSED SPECTRUM=NO
##NPOINTS= 87
##XYDATA=(XY..XY) 1 
    42        428
    43         96
    44        999
    45         83
    46         12
    47          9
    48          3
    49          2
    50         61
    51        100
    52         86
    53         65
    54         42
    55        108
    56         64
    57         96
    58        153
    59         36
    60         21
    61          4
    62          8
    63         21
    64         21
    65         45
    66         34
    67         28
    68         27
    70        181
    71        111
    72         44
    73         19
    74         14
    75         11
    76          9
    77         32
    78         93
    79         64
    80         22
    81         33
    82         34
    83         22
    84         34
    85         25
    86         12
    87          6
    88          8
    89          5
    90          5
    91         16
    92         40
    93         61
    94         90
    96        122
    97         49
    98         28
    99         17
   100          7
   101          3
   102         16
   103          5
   104         22
   105         24
   106        117
   107         77
   108         37
   109         39
   110         29
   111         15
   112         38
   113         42
   114         36
   115         15
   116          8
   117         16
   118         13
   119         15
   120         27
   121         28
   122         43
   123        108
   124         30
   145         29
   146          4
   157         15
   158          1
   174          5
   175          0