##TITLE=Library Entry 11070
##JCAMP-DX=Revision 4.10 
##DATA TYPE=MASS SPECTRUM
##SAMPLE DESCRIPTION=Philip Morris R&D
##NAMES=HP
##CAS NAME=4-Hydroxy-.beta.-ionone
##MOLFORM=C13H20O2
##CAS REGISTRY NO=116296-75-4
##MP= -300
##BP= -300
##MW= 208
##$RETENTION INDEX=0
##$CONDENSED SPECTRUM=NO
##NPOINTS= 135
##XYDATA=(XY..XY) 1 
    38          7
    39        123
    40         36
    41        228
    42         24
    43        999
    44         40
    45         29
    50          9
    51         37
    52         17
    53         78
    54         11
    55        180
    56         24
    57         67
    58         13
    59         15
    60          7
    61          3
    62          4
    63         19
    64         12
    65         65
    66         24
    67         76
    68         11
    69        103
    70         24
    71         57
    72          5
    73          6
    74          7
    75          6
    76          2
    77         90
    78         23
    79        102
    80         22
    81         99
    82         27
    83         40
    84         19
    85         23
    86          2
    87          7
    89         15
    90          3
    91        157
    92         89
    93         96
    94         29
    95        117
    96         32
    97         62
    98         18
    99         18
   101          3
   102          3
   103         14
   104          5
   105        122
   106         28
   107        114
   108         46
   109        512
   110         70
   111         66
   112         13
   113          3
   115         21
   116         11
   117         25
   118          7
   119         67
   120         17
   121         75
   122         42
   123        315
   124         43
   125         35
   126         11
   127          8
   128          9
   129          7
   130          3
   131         26
   132         14
   133        150
   134        110
   135         93
   136         17
   137        130
   138         25
   139         33
   140          4
   141          8
   142         11
   143          3
   145         11
   146          4
   147         97
   148         41
   149         55
   151         29
   152        100
   153         11
   157         12
   158          2
   160          5
   162          9
   163         38
   164         14
   165        109
   166         19
   167          4
   173          2
   175         50
   176          5
   177          8
   178          7
   179         17
   180          9
   181          8
   190          8
   191          5
   193        109
   194         11
   195          3
   205          5
   206          5
   207          3
   208        257
   209         40
   211          4