##TITLE=Library Entry 35215
##JCAMP-DX=Revision 4.10 
##DATA TYPE=MASS SPECTRUM
##SAMPLE DESCRIPTION=NIST Mass Spectrometry Data Center, 1990.
##NAMES=HP
##CAS NAME=3-Cyclopentyl-1-propyne
##MOLFORM=C8H12
##CAS REGISTRY NO=116279-08-4
##MP= -300
##BP= -300
##MW= 108
##$RETENTION INDEX=0
##$CONDENSED SPECTRUM=NO
##NPOINTS= 38
##XYDATA=(XY..XY) 1 
    26         23
    27        122
    28          6
    29         21
    37         21
    38         71
    39        442
    40        110
    41        742
    42         48
    43         15
    49          7
    50         82
    51        130
    52         75
    53        115
    54         37
    55         15
    61          9
    62         27
    63         56
    64          7
    65        141
    66        191
    67        596
    68        843
    69        999
    70         55
    74         16
    77        168
    78         64
    79        392
    80        154
    81         13
    91         78
    93        380
    94         28
   107         18