##TITLE=Library Entry 14589
##JCAMP-DX=Revision 4.10 
##DATA TYPE=MASS SPECTRUM
##SAMPLE DESCRIPTION=D.KRAUSS HEIDELBERG UNIVERSITY, WEST GERMANY
##NAMES=HP
##CAS NAME=Pregna-4,6-diene-3,20-dione
##MOLFORM=C21H28O2
##CAS REGISTRY NO=1162-56-7
##MP= -300
##BP= -300
##MW= 312
##$RETENTION INDEX=0
##$CONDENSED SPECTRUM=NO
##NPOINTS= 113
##XYDATA=(XY..XY) 1 
    29        123
    31         61
    41        307
    43        999
    44        130
    55        307
    56         61
    57        407
    67         23
    69        130
    70         61
    71        261
    77        100
    79        100
    81        130
    83        100
    84         53
    85        253
    91        176
    92         30
    93        123
    94         38
    95        192
    96         38
    97         92
    98         30
    99         46
   103         53
   104         38
   105        100
   106         15
   107        107
   108         15
   109         84
   110         15
   111         53
   112         30
   113         38
   115         61
   116         23
   117         61
   118         23
   119         76
   120         15
   121         46
   122         23
   123         30
   124         23
   125         23
   127         30
   128         38
   129         69
   130         15
   131         76
   132         30
   133        107
   134         23
   135         61
   136        246
   137         38
   141         30
   143         46
   145         84
   146         23
   147         76
   149        292
   150         30
   155         38
   157         38
   159        153
   160         84
   161        230
   162         53
   163         30
   167         61
   169         23
   171         30
   173         92
   174        123
   175        153
   176         53
   177         61
   183         30
   185         23
   187         23
   192         15
   199         30
   209         23
   223         15
   225         15
   227        107
   228         53
   229         15
   239         15
   242         23
   251         15
   253         30
   254          7
   255         15
   256         15
   267         38
   268        115
   269        161
   270         15
   273         23
   279         76
   294         30
   296         38
   297         92
   298         15
   312        769
   313        184
   314         30