##TITLE=Library Entry 40097
##JCAMP-DX=Revision 4.10 
##DATA TYPE=MASS SPECTRUM
##SAMPLE DESCRIPTION=Chemical Concepts
##NAMES=HP
##CAS NAME=Acetamide, N-[[2-(1,1-dimethylethyl)-4-oxo-4H-1,3-dioxin-6-yl]met
hyl]-, (R)-
##MOLFORM=C11H17NO4
##CAS REGISTRY NO=116332-84-4
##MP= -300
##BP= -300
##MW= 227
##$RETENTION INDEX=0
##$CONDENSED SPECTRUM=NO
##NPOINTS= 59
##XYDATA=(XY..XY) 1 
    27         10
    29         56
    30        516
    31         28
    39          4
    41         84
    42         19
    43        331
    44         10
    45         49
    54          5
    55         20
    56         11
    57        132
    58         11
    59          2
    60         14
    61          8
    69         35
    70         16
    71         45
    72        999
    73        463
    74         43
    82          6
    83         24
    84         24
    85         22
    86         19
    87         53
    88          3
    96          2
    97          2
    98         10
    99        210
   100        701
   101         45
   102          3
   105          5
   112         13
   113        236
   114         17
   115          2
   116          2
   126          7
   127          2
   128        203
   129         18
   141        259
   142        174
   143         12
   155          2
   158         85
   159          9
   170          9
   199          7
   227          5
   228         15
   229          2