##TITLE=Library Entry 24515
##JCAMP-DX=Revision 4.10 
##DATA TYPE=MASS SPECTRUM
##SAMPLE DESCRIPTION=Chemical Concepts
##NAMES=HP
##CAS NAME=4H-1,3-Dioxin-4-one, 5-bromo-6-(dibromomethyl)-2-(1,1-dimethyleth
yl)-, (R)-
##MOLFORM=C9H11Br3O3
##CAS REGISTRY NO=116332-83-3
##MP= -300
##BP= -300
##MW= 404
##$RETENTION INDEX=0
##$CONDENSED SPECTRUM=NO
##NPOINTS= 233
##XYDATA=(XY..XY) 1 
    25          0
    26         18
    27         94
    28         11
    29        126
    30          3
    31          1
    36          4
    38          2
    39         25
    40          8
    41        275
    42        176
    43        331
    44         11
    45          4
    46          0
    49          2
    52          6
    53         18
    54          3
    55         23
    56         20
    57        999
    58         54
    59          3
    60          1
    61          1
    62          0
    64          1
    65          1
    66         30
    67          7
    68         70
    69        116
    70         15
    71         99
    72          4
    73          0
    74          0
    75          0
    76          2
    77         20
    78          0
    79          7
    80         16
    81          3
    82         15
    83          6
    84          2
    85        125
    86        182
    87         17
    91          2
    92         11
    93         59
    94         11
    95         54
    96          1
    97          4
    98          2
    99          1
   100          1
   102          0
   103          2
   104          3
   105         27
   106          9
   107         29
   108          4
   109          2
   110          2
   111          3
   112          2
   113          2
   116          1
   117          0
   118          2
   119          4
   120         56
   121        279
   122         54
   123        279
   124          7
   125          1
   126          0
   127          1
   128          0
   129          1
   130          0
   131          1
   132          3
   133         18
   134          6
   135         18
   136          2
   137          2
   138          0
   139          0
   140          0
   141          8
   142          5
   143          1
   146         22
   147        137
   148         23
   149        135
   150          5
   151          2
   152          0
   153          2
   154          0
   155          3
   156          1
   159          1
   160          0
   161          4
   162         14
   163          9
   164         14
   165          6
   167          2
   168          1
   169          2
   170          0
   171         23
   172          5
   173         46
   174          6
   175         22
   176          2
   177          1
   178          0
   179          1
   180          0
   181          1
   183         22
   184          0
   185         45
   186          1
   187         25
   188          1
   189         12
   190          3
   191          2
   192          2
   193          1
   195          2
   196          0
   197          6
   198          1
   199          6
   200          2
   201          8
   202          1
   203          3
   205          2
   206          1
   211         21
   212          1
   213         44
   214          7
   215         24
   216         11
   217          2
   218          5
   219          1
   223          2
   224          0
   225          0
   226          0
   227          1
   233        150
   234         13
   235        144
   236         11
   237          1
   239          2
   240         63
   241         22
   242        124
   243         33
   244         58
   245         16
   246          1
   268          3
   270          5
   272          1
   283          1
   284          0
   285          2
   286          0
   287          0
   288          0
   291          4
   292          3
   293         14
   294         13
   295         13
   296         11
   297          4
   298          4
   299          1
   301          0
   318         39
   319         23
   320        113
   321         70
   322        118
   323         62
   324         38
   325         25
   326          6
   327         18
   328          9
   329         10
   330          4
   361          1
   362          0
   363          3
   364          0
   365          3
   366          0
   367          0
   403          1
   404          7
   405          1
   406         21
   407          3
   408         21
   409          3
   410          7
   411          0