##TITLE=Library Entry 26937
##JCAMP-DX=Revision 4.10 
##DATA TYPE=MASS SPECTRUM
##SAMPLE DESCRIPTION=K. Jacobson, LBC, NIDDK, NIH, Bethesda, MD 20892
##NAMES=HP
##CAS NAME=Phenylalanine, N-tertbutyloxycarbonyl-4-nitro-, tertbutyl(ester)
##MOLFORM=C18H26N2O6
##CAS REGISTRY NO=116366-27-9
##MP= -300
##BP= -300
##MW= 366
##$RETENTION INDEX=0
##$CONDENSED SPECTRUM=NO
##NPOINTS= 232
##XYDATA=(XY..XY) 1 
    41        237
    42         16
    43         42
    44         17
    45          5
    46          1
    47          5
    48          3
    49         32
    50          2
    51         13
    52          2
    53          6
    54          6
    55         29
    56         65
    57        999
    58         55
    59         80
    60          3
    62          6
    63          1
    65          3
    66          1
    67          9
    68          3
    69          6
    70          5
    71          3
    72          1
    73          5
    74         41
    75          3
    77          9
    78         10
    79         10
    80          5
    81         15
    82         13
    83          5
    84         24
    85          2
    86         14
    87          4
    88          5
    89          4
    90          2
    91          9
    92          2
    93          4
    94          3
    95         11
    96          5
    97          6
    98          4
    99          4
   100          2
   101          4
   102          1
   104          3
   105          9
   106        354
   107         42
   108          6
   109          2
   110          2
   111          1
   112          7
   113          2
   115          2
   116          3
   117          4
   118         20
   119         15
   120          8
   121          2
   122         10
   123          4
   124        112
   125         11
   126          5
   127          1
   128          1
   129          1
   130         14
   131          4
   132         10
   133         15
   134         23
   135         13
   136          1
   137          5
   138          2
   139          2
   140          2
   141          6
   142         10
   143          5
   144          1
   145          3
   146          4
   147          1
   148         14
   149          3
   150        580
   151         89
   152         10
   153          2
   154          1
   155          1
   156          6
   157          1
   159          2
   160          3
   161         18
   162         26
   163         48
   164          8
   165          2
   166          3
   167          7
   168        131
   169         21
   170          9
   171          1
   172          1
   174          1
   175          5
   176          2
   177          9
   178         26
   179        189
   180         20
   181          2
   183          2
   184          2
   185         92
   186         15
   187          5
   188          1
   189          4
   190          3
   191          2
   193          1
   194          1
   195          3
   196          4
   197          2
   198          1
   199          1
   200          1
   203          1
   204          2
   205         17
   206        113
   207        184
   208         20
   209          3
   211          5
   212          3
   213         12
   214          3
   215          1
   219         36
   220          6
   221          2
   222         15
   223         33
   224         87
   225         14
   226          2
   229         13
   230          4
   231          7
   233          2
   234          1
   235         11
   236          1
   239         11
   240         15
   241         18
   242          2
   247          1
   249          5
   250          2
   251        143
   252         17
   253          3
   256          0
   257         38
   258          5
   262          1
   263        336
   264         51
   265          9
   266          1
   267          5
   268         72
   269         11
   270          1
   273          2
   274         12
   275          3
   277          1
   278          1
   279          3
   280          3
   281          1
   284          1
   285          7
   286          2
   291          0
   296          2
   307         12
   308          2
   309          1
   313          2
   319        268
   320         55
   321          8
   323          1
   324          7
   325          3
   329          1
   330          0
   331          1
   335          1
   336          1
   337          1
   341          0
   342          3
   363          1