##TITLE=Library Entry 53970
##JCAMP-DX=Revision 4.10 
##DATA TYPE=MASS SPECTRUM
##SAMPLE DESCRIPTION=Chemical Concepts
##NAMES=HP
##CAS NAME=Acetamide, N-[[2-(1,1-dimethylethyl)-6-oxo-1,3-dioxan-4-yl]methyl
]-, (2R-cis)-
##MOLFORM=C11H19NO4
##CAS REGISTRY NO=116332-79-7
##MP= -300
##BP= -300
##MW= 229
##$RETENTION INDEX=0
##$CONDENSED SPECTRUM=NO
##NPOINTS= 66
##XYDATA=(XY..XY) 1 
    26          3
    27          9
    29         30
    30        198
    31         16
    32          3
    43         70
    44         20
    45        197
    46         10
    47         21
    55         28
    56         94
    57        487
    58         76
    59         16
    60         95
    68          5
    69         27
    70        190
    71         63
    72        136
    73        566
    74         23
    82          3
    83         21
    84        999
    85         65
    86         29
    87         50
    88          4
    98         26
    99        113
   100        101
   101         30
   102         30
   103          4
   105          3
   115         41
   125          4
   126         28
   127         11
   128         33
   129          6
   130        531
   131         33
   132          3
   141         11
   142          6
   143        257
   144         88
   145         11
   157          9
   158          5
   159         25
   169         36
   170         27
   171          5
   172         39
   186         24
   211         12
   213          4
   228          6
   229          5
   230         13
   231          2