##TITLE=Library Entry 97901
##JCAMP-DX=Revision 4.10 
##DATA TYPE=MASS SPECTRUM
##SAMPLE DESCRIPTION=P. Molina, Dep. Org. Chem., Univ. Murcia, Murcia, Spain
##NAMES=HP
##CAS NAME=1,2,3,4-Tetrahydro-1,3,7-trimethyl-3-phenyl-6H-[1,2,4]triazino[4,
3-b][1,2,4,5]tetrazin-6-one
##MOLFORM=C13H16N6O
##CAS REGISTRY NO=116471-34-2
##MP= -300
##BP= -300
##MW= 272
##$RETENTION INDEX=0
##$CONDENSED SPECTRUM=NO
##NPOINTS= 15
##XYDATA=(XY..XY) 1 
    43        180
    45        150
    51        170
    57        100
    69        100
    77        610
   103        100
   104        360
   112        120
   118        999
   119        120
   195        230
   257        480
   272        110
   273         18