##TITLE=Library Entry 85632
##JCAMP-DX=Revision 4.10 
##DATA TYPE=MASS SPECTRUM
##SAMPLE DESCRIPTION=V.A. KOPTYUG, VOL.4, ATLAS OF MASS SPECTRA OF ORGANIC C
OMPOUNDS
##NAMES=HP
##CAS NAME=3,5-Dimethyl-1-hexadecylpyrazole
##MOLFORM=C21H40N2
##CAS REGISTRY NO=1164-04-1
##MP= -300
##BP= -300
##MW= 320
##$RETENTION INDEX=0
##$CONDENSED SPECTRUM=NO
##NPOINTS= 61
##XYDATA=(XY..XY) 1 
    26         26
    27         97
    28        107
    29        189
    39         70
    40         23
    41        414
    42        137
    43        529
    53         30
    54         44
    55        372
    56        124
    57        372
    58         19
    67         55
    68         54
    69        210
    70         74
    71        176
    81         43
    82         44
    83        116
    85        100
    95         80
    96        457
    97        287
    98         37
    99         20
   108         21
   109        999
   110        386
   111         56
   123         76
   124        142
   125         24
   137         56
   138         28
   151        232
   152         27
   165        223
   166         31
   179         74
   180         14
   193         37
   194          5
   207         57
   208         13
   221         57
   222         13
   235         32
   249         22
   263         24
   264         10
   277         23
   292         17
   293          7
   305         28
   319         32
   320         93
   321         23