##TITLE=Library Entry 31017
##JCAMP-DX=Revision 4.10 
##DATA TYPE=MASS SPECTRUM
##SAMPLE DESCRIPTION=Div. of Experiment Therapeutics WRAIR, WRAMC, Washingto
n DC 20307
##NAMES=HP
##CAS NAME=N-t-Butyldioxymethyl-N-methylcyclohexylamine
##MOLFORM=C12H25NO2
##CAS REGISTRY NO=116437-28-6
##MP= -300
##BP= -300
##MW= 215
##$RETENTION INDEX=0
##$CONDENSED SPECTRUM=NO
##NPOINTS= 110
##XYDATA=(XY..XY) 1 
    41         93
    42        751
    43        101
    44        174
    45         36
    46        178
    47          4
    48          1
    49          3
    50         11
    51         29
    52         18
    53         73
    54        117
    55        204
    56        257
    57        319
    58         67
    59         38
    60        999
    61         27
    62          4
    63          4
    64          1
    65         13
    66         12
    67        164
    68         66
    69         22
    70        878
    71         74
    72         87
    73         41
    74          4
    75          1
    76          0
    77         18
    78          1
    79         34
    80         12
    81         63
    82        115
    83         25
    84        241
    85         60
    86         15
    87          5
    91          2
    92          0
    93          2
    94          7
    95          4
    96         16
    98        908
    99         88
   100         14
   101          1
   103          1
   104          0
   105          1
   106          3
   107          0
   108          3
   109          2
   110         15
   111          5
   112        110
   113        119
   114         15
   115          2
   117          1
   119          1
   120          0
   121          2
   122          3
   123          1
   124         18
   125          2
   126         72
   127         32
   128          7
   129          3
   131          0
   132          0
   133          0
   134          6
   135          1
   136          1
   137          2
   138          1
   139          1
   140         33
   141        736
   142        142
   143         12
   144          1
   145          0
   149          1
   150          0
   152          1
   155          1
   156          1
   157          1
   172          0
   173          0
   186          2
   187          1
   214          0
   215          1
   216          0