##TITLE=Library Entry 56437
##JCAMP-DX=Revision 4.10 
##DATA TYPE=MASS SPECTRUM
##SAMPLE DESCRIPTION=Div. of Experiment Therapeutics WRAIR, WRAMC, Washingto
n DC 20307
##NAMES=HP
##CAS NAME=2-[2-Diethylaminoethylamino]benzothiazole
##MOLFORM=C13H19N3S
##CAS REGISTRY NO=116495-99-9
##MP= -300
##BP= -300
##MW= 249
##$RETENTION INDEX=0
##$CONDENSED SPECTRUM=NO
##NPOINTS= 132
##XYDATA=(XY..XY) 1 
    41         12
    42         56
    43         16
    44         27
    45         15
    46          2
    50          4
    51          5
    52          3
    53          2
    54          7
    55          6
    56         51
    57         14
    58        122
    59          5
    60          0
    62          1
    63          9
    64          4
    65          9
    66          0
    67          1
    68          4
    69         20
    70         24
    71         35
    72         16
    74          6
    75          3
    76          3
    77          6
    78          6
    79          0
    80          2
    81          3
    82          8
    83          2
    84         34
    86        999
    87         61
    88          3
    89          2
    90         10
    91          5
    92          2
    93          2
    94          2
    95          5
    96         17
    97          8
    98          9
    99        370
   100         46
   101          2
   102          3
   103          0
   104          1
   105          6
   106          2
   107          3
   108         20
   109         28
   110          5
   111          3
   112          4
   113          2
   114          1
   116          1
   117          6
   118          2
   119          1
   121          2
   122          8
   123          8
   124          5
   125          2
   129          0
   132          1
   133          2
   134          9
   135         18
   136         31
   137          5
   138          2
   139          0
   141          6
   143          0
   148          3
   149         11
   150         37
   151         11
   152          3
   157          0
   158          1
   159          1
   161          3
   162          3
   163         45
   164          9
   165          3
   172          1
   175         14
   176         12
   177         26
   178          8
   179          2
   187          0
   188          0
   189          2
   190          1
   191          6
   192          2
   201          2
   202          1
   203          3
   204          3
   205          1
   206          0
   207          4
   219          0
   220          3
   221          2
   222          0
   232          3
   233          0
   234          4
   235          1
   247          1
   248          2
   249          3
   250          0