##TITLE=Library Entry 54137
##JCAMP-DX=Revision 4.10 
##DATA TYPE=MASS SPECTRUM
##SAMPLE DESCRIPTION=A. Brossi, LC, NIDDK, NIH, Bethesda, MD 20892
##NAMES=HP
##CAS NAME=Pyrrolidin-2-one, 5-[2-propionylethyl]-
##MOLFORM=C9H15NO2
##CAS REGISTRY NO=116454-70-7
##MP= -300
##BP= -300
##MW= 169
##$RETENTION INDEX=0
##$CONDENSED SPECTRUM=NO
##NPOINTS= 103
##XYDATA=(XY..XY) 1 
    41        192
    42         48
    43         53
    44         66
    45          9
    46          1
    47          2
    48          3
    49          9
    50          3
    51          9
    52          7
    53         20
    54         35
    55         96
    56        104
    57        132
    58          7
    59          7
    60          4
    61          1
    62          1
    63          2
    64          1
    65          6
    66          6
    67         17
    68         14
    69        189
    70         20
    71          8
    72         14
    73          5
    74          1
    75          0
    76          0
    77          9
    78         19
    79          5
    80          6
    81          9
    82         14
    83         22
    84        999
    85         87
    86         10
    87          1
    88          1
    89          0
    91          3
    92          0
    93          3
    94         10
    95         12
    96         22
    97        570
    98        572
    99         32
   100          3
   101          1
   105          2
   106         12
   107          2
   108          1
   109          2
   110          6
   111          6
   112         43
   113          8
   114          4
   115          1
   119          0
   121          1
   122          4
   123          3
   124         13
   125          2
   126          1
   127          0
   128          0
   129          1
   134          0
   135          1
   136          0
   137          0
   138          2
   139          0
   140         52
   141          9
   142          0
   143          0
   149          1
   150          1
   151          3
   152          4
   153          1
   157          0
   164          0
   167          1
   168          2
   169         22
   170          9
   171          1