##TITLE=Library Entry 36236
##JCAMP-DX=Revision 4.10 
##DATA TYPE=MASS SPECTRUM
##SAMPLE DESCRIPTION=NIST Mass Spectrometry Data Center
##NAMES=HP
##CAS NAME=2,2-Dichloroethanol, trifluoroacetate
##MOLFORM=C4H3Cl2F3O2
##CAS REGISTRY NO=116436-56-7
##MP= -300
##BP= -300
##MW= 210
##$RETENTION INDEX=0
##$CONDENSED SPECTRUM=NO
##NPOINTS= 79
##XYDATA=(XY..XY) 1 
    14          3
    15          4
    24          1
    25          5
    26         40
    27         69
    28          5
    29         35
    30         14
    31         13
    33         17
    35         12
    36          4
    37          5
    38          1
    41          2
    42          9
    43         14
    44         10
    47         24
    48         44
    49         57
    50         86
    51         17
    52          1
    53          4
    54          2
    58          1
    59          2
    60         23
    61        376
    62         75
    63        122
    64         24
    65          2
    66          1
    67          1
    69        999
    70         11
    76          5
    77          9
    78         31
    79          5
    80          3
    81         52
    82          5
    83        169
    84          6
    85        174
    86          3
    87         40
    88          1
    95          9
    96        386
    97        498
    98        263
    99        546
   100         49
   101         46
   102          1
   111          1
   113          3
   115          5
   117          2
   127        825
   128         25
   129          4
   139          4
   141          2
   143          1
   146          4
   148          1
   175         15
   176          1
   177          5
   180          2
   181          1
   182          2
   183          1