##TITLE=Library Entry 83753
##JCAMP-DX=Revision 4.10 
##DATA TYPE=MASS SPECTRUM
##SAMPLE DESCRIPTION=Japan AIST/NIMC Database- Spectrum MS-NW-9123
##NAMES=HP
##CAS NAME=N-Benzyloxycarbonyl-L-tyrosine
##MOLFORM=C17H17NO5
##CAS REGISTRY NO=1164-16-5
##MP= -300
##BP= -300
##MW= 315
##$RETENTION INDEX=0
##$CONDENSED SPECTRUM=NO
##NPOINTS= 118
##XYDATA=(XY..XY) 1 
    17          4
    18          1
    26          1
    27         13
    28         21
    29          8
    30          8
    31          3
    37          1
    38          3
    39         28
    40          3
    41         20
    42          3
    43          8
    44         26
    45          1
    46          1
    50         10
    51         33
    52         12
    53         18
    54          5
    55         25
    56         76
    57          4
    58          1
    61          1
    62          3
    63         10
    64          3
    65         33
    66          4
    67          5
    68          3
    69          2
    70          5
    73          1
    74          3
    75          2
    76          2
    77        109
    78         25
    79        126
    80         13
    81          8
    82         10
    83          7
    84          1
    89         13
    90         15
    91        208
    92         18
    93          1
    94          4
    95          2
    96          3
    97          1
    98          8
    99          1
   100         10
   101          1
   104          1
   105          8
   106          6
   107        999
   108        181
   109         12
   110          5
   112          1
   116          1
   118          2
   119          6
   120          4
   121          1
   123          2
   124          2
   125          2
   132          2
   133          2
   134         12
   135          7
   136         11
   137          1
   138        174
   139         18
   140          1
   144          2
   147          2
   148          1
   152          9
   153          1
   160          5
   161          1
   162          9
   163          3
   164        113
   165         11
   166          1
   178          3
   179          3
   180         14
   181         22
   182          3
   188         14
   189          1
   197         13
   198          2
   206          9
   207         14
   208          2
   209          1
   220          1
   224          5
   226          1
   254          2
   315          6
   316          1