##TITLE=Library Entry 73619
##JCAMP-DX=Revision 4.10 
##DATA TYPE=MASS SPECTRUM
##SAMPLE DESCRIPTION=A. Brossi, LC, NIDDK, NIH, Bethesda, MD 20892
##NAMES=HP
##CAS NAME=Pyrrolidin-2-thione, 5-heptyl-
##MOLFORM=C11H21NS
##CAS REGISTRY NO=116454-75-2
##MP= -300
##BP= -300
##MW= 199
##$RETENTION INDEX=0
##$CONDENSED SPECTRUM=NO
##NPOINTS= 140
##XYDATA=(XY..XY) 1 
    41        312
    42         62
    43        154
    44         64
    45        450
    46         14
    47          9
    48          3
    49          4
    50          4
    51         10
    52          6
    53         37
    54         33
    55        106
    56         96
    57         46
    58         22
    59         22
    60         39
    61          5
    62          6
    63         11
    64          6
    65         12
    66         19
    67        304
    68         39
    69         42
    70         19
    71        114
    72         33
    73         27
    74          9
    75         22
    76          8
    77         12
    78          7
    79         16
    80         23
    81         40
    82         45
    83         16
    84         46
    85         14
    86          9
    87          5
    88          7
    89          2
    90          0
    91          8
    92          4
    93          9
    94         10
    95         17
    96         12
    97         17
    98         13
    99         34
   100        999
   101        314
   102         44
   103         15
   104          2
   105          5
   106          4
   107          3
   108          5
   109          7
   110         17
   111          7
   112         13
   113         17
   114        689
   115        168
   116         42
   117          8
   118          0
   119          1
   120          3
   121          3
   122          4
   123          5
   124         34
   125          6
   126          7
   127          4
   128        140
   129         65
   130         12
   131          3
   133          0
   134          0
   135          2
   136          2
   137          1
   138         11
   139          4
   140          1
   141          2
   142         58
   143         20
   144          5
   145          0
   149          4
   150          1
   152          1
   153          0
   154          1
   155          0
   156         86
   157         19
   158          6
   159          0
   163          2
   164          1
   165          2
   166        233
   167         29
   168          3
   170        100
   171         19
   172          6
   173          0
   179          0
   180          0
   181          0
   182          0
   183          2
   184         46
   185          6
   186          2
   195          1
   196          3
   197          1
   198         35
   199        827
   200        125
   201         46
   202          6