##TITLE=Library Entry 75819
##JCAMP-DX=Revision 4.10 
##DATA TYPE=MASS SPECTRUM
##SAMPLE DESCRIPTION=Organic Synthesis Lab, MSU, Moscow.TRC 550
##NAMES=HP
##CAS NAME=Androstan-3-one, 17-(acetyloxy)-, (5.beta.,17.beta.)-
##MOLFORM=C21H32O3
##CAS REGISTRY NO=1164-92-7
##MP= -300
##BP= -300
##MW= 332
##$RETENTION INDEX=0
##$CONDENSED SPECTRUM=NO
##NPOINTS= 254
##XYDATA=(XY..XY) 1 
    27         57
    29        151
    30          3
    31         15
    38          2
    39         65
    40         20
    41        487
    42         27
    43         27
    44         39
    45         23
    50          2
    51          9
    52          7
    53        139
    54         43
    55        525
    56         31
    57         95
    58         19
    59          8
    60          5
    61          5
    63          2
    64          1
    65         47
    66         26
    67        386
    68        180
    69        160
    70         11
    71         49
    72         15
    73          5
    74          1
    75          3
    77        146
    78         33
    79        373
    80         81
    81        534
    82         96
    83         67
    84         37
    85         73
    86          7
    87          3
    88         26
    89          7
    90          1
    91        287
    92         60
    93        445
    94        545
    95        446
    96         58
    97         92
    98         19
    99         13
   100          1
   101        999
   102         62
   103         19
   104         16
   105        315
   106        118
   107        402
   108        219
   109        195
   110        102
   111         84
   112         10
   113          3
   114         26
   115         18
   116         10
   117         54
   118         59
   119        205
   120        114
   121        234
   122        220
   123        145
   124        201
   125         46
   126          4
   127        287
   128         36
   129         32
   130         16
   131        114
   132         50
   133        201
   134         79
   135        142
   136         56
   137         88
   138         18
   139          6
   140          1
   141          7
   142          6
   143         39
   144         41
   145        151
   146         99
   147        246
   148        188
   149        329
   150         49
   151         25
   152          5
   153          3
   154          2
   155          9
   156          5
   157         49
   158         40
   159        153
   160         89
   161        290
   162        118
   163         90
   164         39
   165         56
   166          8
   167          3
   168          1
   169          9
   170          5
   171         44
   172         45
   173        101
   174         93
   175         88
   176        108
   177         39
   178         18
   179         35
   180          6
   181          2
   182          1
   183         14
   184          6
   185         66
   186         25
   187        109
   188         33
   189         54
   190         22
   191         20
   192          9
   193          3
   194          1
   195          2
   196          1
   197         26
   198         12
   199         73
   200        188
   201        380
   202        326
   203         72
   204         15
   205          7
   206          3
   207          2
   208          3
   209          4
   210          1
   211         23
   212         12
   213        179
   214         96
   215        213
   216         58
   217         58
   218         25
   219         34
   220         36
   221          7
   222          2
   223          3
   224          1
   225         10
   226         10
   227         14
   228         35
   229        110
   230         34
   231        130
   232         30
   233         40
   234          9
   235          4
   236          1
   237          3
   238          2
   239        167
   240         33
   241         17
   242          4
   244        218
   245         47
   246         75
   247         37
   248          7
   249          2
   253         20
   254        100
   255         55
   256         34
   257        245
   258         46
   259         10
   260         21
   261         46
   262        125
   263         23
   264          3
   270          3
   271         31
   272        936
   273        188
   274         33
   275         36
   276          8
   277          2
   278          1
   285          1
   286          6
   287          3
   288         28
   289         19
   290         18
   291          3
   299          8
   300          2
   301          4
   302          1
   303          3
   304          2
   314          8
   315          3
   316         25
   317         40
   318         10
   319          2
   321          2
   330          2
   331          3
   332        324
   333         75