##TITLE=Library Entry 22975
##JCAMP-DX=Revision 4.10 
##DATA TYPE=MASS SPECTRUM
##SAMPLE DESCRIPTION=A.A.Kutin, Moscow, Russia
##NAMES=HP
##CAS NAME=Pyrazol-3(2H)-one, 1,5-dimethyl-2-phenyl-4-thioureido-
##MOLFORM=C12H14N4OS
##CAS REGISTRY NO=116432-95-2
##MP= -300
##BP= -300
##MW= 262
##$RETENTION INDEX=0
##$CONDENSED SPECTRUM=NO
##NPOINTS= 187
##XYDATA=(XY..XY) 1 
    33          7
    34         10
    35          1
    36          5
    37         12
    38         32
    39         75
    40         23
    41         32
    42        116
    43         28
    44         17
    45          9
    46          1
    47          0
    48          0
    50         28
    51         87
    52         29
    53         19
    54         40
    56        999
    57        152
    58         17
    59         48
    60         56
    61          7
    62          9
    63         30
    64         51
    65         29
    66         12
    67         27
    68          6
    69         12
    70         33
    71          5
    72          5
    73          3
    74         10
    75          6
    77        181
    78         13
    79          4
    80          4
    81          8
    82         29
    83         76
    84         84
    85          9
    86          9
    87          1
    88          1
    89          2
    90          6
    91         40
    92         11
    93         24
    94          5
    95          3
    96          8
    97          4
    98          2
    99          2
   100          5
   101          4
   102          3
   103         16
   104         29
   105         11
   106          8
   107          2
   108          5
   109         11
   110          4
   111         11
   112          3
   113          1
   114          2
   115          5
   116          2
   117          4
   118         10
   119         18
   120          4
   121          3
   122          4
   123          5
   124          2
   125          9
   126          2
   127          2
   128          2
   129          2
   130          2
   131          1
   132          1
   133          1
   135         32
   136          5
   137          9
   138         23
   139          2
   140          4
   141          3
   142          3
   143          4
   144          5
   145          9
   146          3
   147          2
   148          0
   149          1
   150          0
   152         17
   153          3
   154          2
   155          2
   156          0
   157          1
   158          1
   159          3
   160          2
   161         18
   162          3
   163          0
   165          2
   166          0
   167          0
   168          0
   169          0
   170          4
   171         10
   172          5
   173          1
   174          0
   175          0
   176          0
   177          0
   178          4
   179          0
   180          0
   181          0
   182          0
   183          0
   184          3
   185          2
   186          1
   187          1
   188          1
   189          1
   190          2
   191          2
   192          0
   193          0
   199          0
   200          1
   201          2
   202         12
   203         19
   204          2
   205          0
   212          3
   213          2
   214          0
   215          2
   216         15
   217          4
   218          0
   219          0
   227          0
   228          3
   229          2
   230         15
   231          2
   233          0
   240          0
   244         44
   245        216
   246         34
   247         11
   248          0
   259          0
   260          0
   262         34
   263          4
   264          1