##TITLE=Library Entry 25132
##JCAMP-DX=Revision 4.10 
##DATA TYPE=MASS SPECTRUM
##SAMPLE DESCRIPTION=V.G.Zaikin, TIPS, Russian Acad. Sci.
##NAMES=HP
##CAS NAME=3-Trifluoroacetoxy-6-ethyldecane
##MOLFORM=C14H25F3O2
##CAS REGISTRY NO=116436-59-0
##MP= -300
##BP= -300
##MW= 282
##$RETENTION INDEX=0
##$CONDENSED SPECTRUM=NO
##NPOINTS= 51
##XYDATA=(XY..XY) 1 
    39        147
    40         44
    41        749
    42        121
    43        514
    44         73
    45         44
    50         25
    51         28
    52         19
    53         49
    54         44
    55        762
    56        161
    57        999
    58         54
    59         13
    61         20
    65         11
    66          9
    67         59
    68         61
    69        877
    70        420
    71        144
    72         11
    81         57
    82         34
    83        392
    84         75
    85         43
    95         26
    96         21
    97        180
    98        152
    99         60
   100         10
   109         12
   110         25
   111         95
   112        182
   113         40
   114          3
   125         10
   126         48
   127         12
   138         12
   139         36
   140          6
   168         21
   169         12