##TITLE=Library Entry 98396
##JCAMP-DX=Revision 4.10 
##DATA TYPE=MASS SPECTRUM
##SAMPLE DESCRIPTION=P. Molina, Dep. Org. Chem., Univ. Murcia, Murcia, Spain
##NAMES=HP
##CAS NAME=1,4-Dihydro-1,7-dimethyl-3-(4-methylphenyl)-6H-[1,2,4]triazino[4,
3-b][1,2,4,5]tetrazin-6-one
##MOLFORM=C13H14N6O
##CAS REGISTRY NO=116471-38-6
##MP= -300
##BP= -300
##MW= 270
##$RETENTION INDEX=0
##$CONDENSED SPECTRUM=NO
##NPOINTS= 16
##XYDATA=(XY..XY) 1 
    43        230
    56        280
    65        160
    89        140
    90        140
    91        280
   110        130
   116        210
   117        700
   118        999
   119        100
   158        100
   175        100
   242        200
   270        470
   271         77