##TITLE=Library Entry 22901
##JCAMP-DX=Revision 4.10 
##DATA TYPE=MASS SPECTRUM
##SAMPLE DESCRIPTION=P. Molina, Dep. Org. Chem., Univ. Murcia, Murcia, Spain
##NAMES=HP
##CAS NAME=1,4-Dihydro-1,3,7-trimethyl-6H-[1,2,4]triazino[4,3-b][1,2,4,5]tet
razin-6-one
##MOLFORM=C7H10N6O
##CAS REGISTRY NO=116471-41-1
##MP= -300
##BP= -300
##MW= 194
##$RETENTION INDEX=0
##$CONDENSED SPECTRUM=NO
##NPOINTS= 19
##XYDATA=(XY..XY) 1 
    41        490
    42        560
    53        150
    54        110
    55        320
    56        999
    69        130
    71        110
    82        200
    83         70
    99        360
   109         50
   110         70
   139         50
   153         50
   154         50
   166        320
   194        610
   195         60