##TITLE=Library Entry 4601
##JCAMP-DX=Revision 4.10 
##DATA TYPE=MASS SPECTRUM
##SAMPLE DESCRIPTION=P. Molina, Dep. Org. Chem., Univ. Murcia, Murcia, Spain
##NAMES=HP
##CAS NAME=3-Acetyl-1,2,3,4-tetrahydro-1,3,7-trimethyl-6H-[1,2,4]triazino[4,
3-b][1,2,4,5]tetrazin-6-one
##MOLFORM=C9H14N6O2
##CAS REGISTRY NO=116471-36-4
##MP= -300
##BP= -300
##MW= 238
##$RETENTION INDEX=0
##$CONDENSED SPECTRUM=NO
##NPOINTS= 12
##XYDATA=(XY..XY) 1 
    42        999
    43        530
    45        100
    57        150
    98        100
   112        200
   113         50
   126         50
   154        140
   195        490
   196         50
   238         50