##TITLE=Library Entry 56608
##JCAMP-DX=Revision 4.10 
##DATA TYPE=MASS SPECTRUM
##SAMPLE DESCRIPTION=A.Mazepa, Phys.-Chem.Institute, Odessa, Ukraine
##NAMES=HP
##CAS NAME=5-(Morpholine-4-carbonyl)-1H-imidazole-4-carboxylic acid (2-benzo
yl-4-bromo-phenyl)-amide
##MOLFORM=C22H19BrN4O4
##CAS REGISTRY NO=116457-52-4
##MP= -300
##BP= -300
##MW= 482
##$RETENTION INDEX=0
##$CONDENSED SPECTRUM=NO
##NPOINTS= 187
##XYDATA=(XY..XY) 1 
    50          3
    51         29
    52          4
    53          2
    54          4
    55         19
    56        117
    57         86
    58         19
    59          1
    63          9
    64         11
    65         12
    66          3
    67         96
    68         96
    69         38
    70         22
    71          6
    72          4
    73          3
    77        273
    78         12
    79          3
    80          5
    84          4
    85         90
    86        999
    87         67
    88         17
    89          3
    90          4
    91         63
    92         11
    93         13
    94         67
    95        169
    96          6
    97          2
    98          1
   104          2
   105        424
   106         25
   107         12
   108          7
   109          1
   111          1
   112          8
   113          1
   114          3
   115          2
   116          3
   117          1
   119          3
   120         10
   121         68
   122          7
   123         98
   124          2
   128          1
   129          5
   130          1
   131          2
   135          4
   136          6
   137          2
   138          1
   139          6
   140          1
   141          1
   146          1
   148          6
   149         19
   150         26
   151          7
   152         20
   153          2
   162          3
   163          1
   164         20
   165          2
   166          4
   167         11
   168          6
   169          4
   170          9
   171          3
   172          4
   176          2
   177         51
   178         19
   179         32
   180         85
   181          8
   182          1
   183          2
   184          1
   185          2
   186          6
   194          1
   195         12
   196         15
   197          7
   198         12
   199          1
   200          9
   206          5
   207         35
   208         66
   209          3
   211          2
   212          2
   214         14
   215          1
   224          6
   226          6
   263          1
   264        103
   265          7
   266        103
   267          4
   271          1
   273          3
   274        109
   275        204
   276        131
   277        184
   278         41
   280          3
   290         37
   291          2
   292        198
   293         20
   294        172
   295         12
   305          4
   306          1
   318          4
   320          4
   325          9
   326          1
   327          5
   333          2
   335          3
   350          1
   352          4
   353          2
   354          1
   355          1
   368         35
   369          2
   370         31
   371          2
   377         18
   378          9
   379         21
   380         11
   383         75
   384          8
   385         73
   386          9
   396         14
   397          2
   398         10
   399          1
   404          6
   425          1
   426          1
   427          1
   439         27
   440          3
   441         26
   442          2
   452         11
   453          3
   454         57
   455          7
   456         36
   457          3
   464          1
   466          2
   481          2
   482        191
   483         50
   484        201
   485         41
   486          3