##TITLE=Library Entry 53361
##JCAMP-DX=Revision 4.10 
##DATA TYPE=MASS SPECTRUM
##SAMPLE DESCRIPTION=Exported from NIST MS Search
##NAMES=HP
##CAS NAME=2-Butenoic acid, 2-methyl-, 9,10-dihydro-8,8-dimethyl-2-oxo-2H,8H
-benzo[1,2-b:3,4-b']dipyran-9-yl ester
##MOLFORM=C19H20O5
##CAS REGISTRY NO=1165-60-2
##MP= -300
##BP= -300
##MW= 328
##$RETENTION INDEX=0
##$CONDENSED SPECTRUM=NO
##NPOINTS= 21
##XYDATA=(XY..XY) 1 
    55        702
    65         47
    77         39
    83        999
    84         67
    91         31
   104         27
   119          4
   131         39
   147         23
   148          4
   159         19
   175         55
   176         23
   185         31
   187         47
   213        833
   214        119
   228        285
   229         59
   328         71