##TITLE=Library Entry 97227
##JCAMP-DX=Revision 4.10 
##DATA TYPE=MASS SPECTRUM
##SAMPLE DESCRIPTION=V.A.Korolev, Moscow, Russia
##NAMES=HP
##CAS NAME=1H-1,3-Benzodiazole-5-carboxamide
##MOLFORM=C8H7N3O
##CAS REGISTRY NO=116568-17-3
##MP= -300
##BP= -300
##MW= 161
##$RETENTION INDEX=0
##$CONDENSED SPECTRUM=NO
##NPOINTS= 85
##XYDATA=(XY..XY) 1 
    35          5
    36         18
    37        208
    38        358
    39        154
    40         64
    41         77
    42         16
    43         51
    44        430
    45        123
    46         29
    47          4
    48         25
    49         26
    50         86
    51        128
    52        338
    53         58
    54          7
    55          5
    57          3
    58         12
    59         12
    60         15
    61        152
    62        369
    63        476
    64        264
    65        112
    66         41
    67         36
    68          4
    69          7
    70          4
    72         40
    73         26
    74         43
    75         86
    76        100
    77         93
    78         81
    79         24
    80         12
    81          3
    82          1
    86         35
    87         94
    88        232
    89        239
    90        794
    91         93
    92         12
    93          3
    94          1
    99          3
   100          3
   101          3
   102          2
   103          7
   104          5
   105         40
   106         12
   114          1
   115         76
   116        340
   117        999
   118         67
   119          4
   129          1
   130          4
   131          2
   132         13
   133          3
   134          1
   142          8
   143        433
   144         58
   145        490
   146         43
   147          3
   160          1
   161        356
   162         36
   163          2