##TITLE=Library Entry 43590
##JCAMP-DX=Revision 4.10 
##DATA TYPE=MASS SPECTRUM
##SAMPLE DESCRIPTION=Chemical Concepts
##NAMES=HP
##CAS NAME=Silane, (3,3-diphenyl-1,2-propadienylidene)bis[trimethyl-
##MOLFORM=C21H28Si2
##CAS REGISTRY NO=116507-70-1
##MP= -300
##BP= -300
##MW= 336
##$RETENTION INDEX=0
##$CONDENSED SPECTRUM=NO
##NPOINTS= 202
##XYDATA=(XY..XY) 1 
    27          0
    29          8
    30          1
    31          6
    37          0
    39          3
    42          1
    43         63
    44         23
    45        225
    46         14
    47          7
    50          0
    51          3
    52          0
    53         15
    54          1
    55         11
    56          1
    57          9
    58          9
    59         26
    60          2
    61          1
    63          2
    64          0
    65          1
    66          1
    67         10
    68          1
    69          8
    70          3
    71          4
    73        999
    74         91
    75         38
    76          2
    77          9
    78          2
    79          4
    80          0
    81          2
    82          0
    83         11
    84          1
    85          3
    86          0
    87          1
    88          0
    89          2
    90          1
    91          5
    92          1
    93          4
    94          0
    95          2
    96          0
    97         10
    98          1
    99          1
   101          2
   102          2
   103          8
   104          1
   105         38
   106          5
   107          8
   108          1
   109          2
   110          0
   111          1
   113          1
   114          0
   115          6
   116          2
   117          3
   118          0
   119          6
   120          2
   121         10
   122          1
   123          1
   124          0
   125          1
   126          2
   127          2
   128          4
   129         18
   130          3
   131         11
   132          1
   133          2
   135         39
   136          6
   137          2
   138          0
   139          3
   140          1
   141          2
   142          1
   143          4
   144          1
   145         12
   146          2
   147          1
   149          0
   150          0
   151          1
   152          3
   153          3
   154          0
   155         10
   156          2
   157          1
   158          0
   159         53
   160          8
   161          3
   162          0
   163          3
   164          3
   165         19
   166          4
   167          3
   168          1
   169          3
   170          0
   171          0
   175          1
   176          2
   177          3
   178          7
   179          5
   180          1
   181          3
   182          0
   183          1
   185          1
   186          0
   187          1
   188          1
   189         11
   190          3
   191          6
   192          3
   193          3
   194          0
   195          2
   196          0
   197          3
   198          0
   200          1
   201          2
   202         15
   203         13
   204          6
   205          8
   206          1
   207          4
   208          2
   209          2
   215          5
   216          2
   217         18
   218          9
   219          5
   220          0
   221          8
   222          1
   223          0
   224          0
   227          0
   228          1
   229          3
   230          2
   231         10
   232          9
   233         24
   234          5
   235          1
   241          0
   243          1
   245         10
   246          3
   248        486
   249        116
   250         26
   251          3
   261          0
   263          2
   264          1
   265          0
   279          2
   280          0
   320          0
   321          8
   322          2
   323          0
   336        110
   337         33
   338         12
   339          2