##TITLE=Library Entry 16599
##JCAMP-DX=Revision 4.10 
##DATA TYPE=MASS SPECTRUM
##SAMPLE DESCRIPTION=Drug Lab
##NAMES=HP
##CAS NAME=Duloxetine
##MOLFORM=C18H19NOS
##CAS REGISTRY NO=116539-59-4
##MP= -300
##BP= -300
##MW= 297
##$RETENTION INDEX=0
##$CONDENSED SPECTRUM=NO
##NPOINTS= 197
##XYDATA=(XY..XY) 1 
    41         21
    42         96
    43         93
    44        999
    45         92
    46          3
    50         12
    51         27
    52          7
    53         11
    54          2
    55         38
    56         49
    57         61
    58        107
    59         34
    62          9
    63         31
    64          4
    65         26
    66         12
    67          1
    68          6
    69         19
    70         20
    71         57
    72          3
    73         16
    74         11
    75         18
    76         15
    77         44
    78         12
    79          9
    81          9
    82          5
    83          8
    84         17
    85         15
    86          7
    87         15
    88         14
    89         34
    90          5
    91         15
    92          2
    93          2
    94          4
    95          5
    96          8
    97        121
    98         15
    99         12
   100          2
   101         17
   102         19
   103         15
   104         17
   105          9
   106          1
   108          8
   109         49
   110         47
   111         24
   112          5
   113         20
   114         16
   115        145
   116         36
   117         12
   118          4
   119          4
   120         17
   121         14
   122          5
   123         25
   124         10
   125          9
   126         32
   127         42
   128         76
   129         16
   130          1
   131          1
   132          1
   133          4
   134          4
   137          4
   138         86
   139         70
   140         27
   141         43
   142          8
   143          9
   144         51
   145         12
   147          5
   149          3
   150         24
   151         40
   152        102
   153        156
   154         23
   155         13
   156         58
   157         42
   158         18
   162          1
   163         29
   164         23
   165        104
   166         20
   167         10
   168         18
   169         63
   170         33
   171         16
   172          7
   173         26
   174          7
   175          6
   176         40
   177         19
   178         57
   179         16
   180          2
   181        143
   182         85
   183         25
   184         32
   185         15
   186         65
   187         15
   188          3
   189         37
   190         14
   191         14
   192          1
   193          4
   194         15
   195         13
   196          4
   197         14
   198          6
   199         18
   200          4
   201          3
   202         17
   203         11
   204          1
   205         26
   206         14
   207         28
   208         59
   209         42
   210         19
   211          9
   212          5
   213         10
   215         11
   216          1
   218         24
   219         21
   220          8
   221        115
   222         26
   223         20
   224         16
   225          2
   231          7
   232          9
   233         38
   234         18
   235         12
   236          4
   237        128
   238         46
   239         93
   240         44
   241         10
   247          1
   249         38
   250         20
   251         44
   252         16
   253          6
   254         21
   263         12
   264         15
   265        121
   266         92
   267         21
   268          4
   295          3
   297        257
   298         53
   299         17