##TITLE=Library Entry 13810
##JCAMP-DX=Revision 4.10 
##DATA TYPE=MASS SPECTRUM
##SAMPLE DESCRIPTION=A.A.Kutin, Moscow, Russia
##NAMES=HP
##CAS NAME=Acetamide, N-(2,3-dihydro-5-chloro-3-oxo-2-phenyl-4-pyridazinyl)-
##MOLFORM=C12H10ClN3O2
##CAS REGISTRY NO=116572-46-4
##MP= -300
##BP= -300
##MW= 263
##$RETENTION INDEX=0
##$CONDENSED SPECTRUM=NO
##NPOINTS= 79
##XYDATA=(XY..XY) 1 
    38         11
    39         44
    40         48
    41          5
    42         21
    43        999
    44        276
    45          0
    47          0
    50         28
    51        257
    52        285
    53         93
    54          8
    55          2
    61          0
    62         12
    63         33
    64         70
    65         67
    66          9
    67          3
    73          2
    74         35
    75         21
    76         20
    77        528
    78        204
    79          4
    80          0
    81          0
    86          2
    87          6
    88        196
    89         58
    90         78
    91         75
    92         89
    93         17
   101          1
   102         16
   103         16
   104         33
   105         25
   116         73
   117         20
   118         12
   119         35
   120          2
   130         19
   131         84
   132         19
   150          0
   156          0
   157          4
   158         42
   159         10
   165          5
   166          1
   168          0
   186          3
   187          4
   192         17
   193         34
   194         18
   195          0
   204         13
   205          0
   206          1
   220        263
   221        995
   222        458
   223        341
   224        100
   225          0
   262          1
   263         58
   264          8
   265          4