##TITLE=Library Entry 29646
##JCAMP-DX=Revision 4.10 
##DATA TYPE=MASS SPECTRUM
##SAMPLE DESCRIPTION=LAC, NIDDK, NIH, Bethesda, MD 20892
##NAMES=HP
##CAS NAME=Androst-4-en-11-ol-3,17-dione, 9-thiocyanato-
##MOLFORM=C20H25NO3S
##CAS REGISTRY NO=1166-72-9
##MP= -300
##BP= -300
##MW= 359
##$RETENTION INDEX=0
##$CONDENSED SPECTRUM=NO
##NPOINTS= 232
##XYDATA=(XY..XY) 1 
    41        744
    42        180
    43        430
    44        111
    45         59
    46         20
    47         16
    50         19
    51        114
    52         69
    53        324
    54         21
    55        712
    56         68
    57         59
    58        135
    59        999
    60         81
    61         53
    62         11
    63         58
    64         54
    65        222
    66         86
    67        293
    68         81
    69        175
    70         29
    71         62
    72         18
    73         16
    75         20
    76         94
    77        493
    78        134
    79        425
    80         82
    81        139
    82         76
    83        109
    84         54
    85         42
    86         21
    87         16
    88         11
    89         68
    91        625
    92        100
    93        192
    94         65
    95        153
    96         67
    97        122
    98         35
    99         42
   100         15
   101         18
   102         36
   103         96
   104         55
   105        305
   106         73
   107        194
   108         83
   109        127
   110         61
   111         50
   112         15
   113         22
   114         12
   115        264
   116         83
   117        169
   118         57
   119        141
   120         71
   121        278
   122        699
   123        195
   124         73
   125         27
   126         20
   127         86
   128        211
   129        243
   130         63
   131        160
   132         52
   133        147
   134        144
   135        305
   136        127
   137        118
   138         26
   139         49
   140         18
   141        160
   142         85
   143        124
   144         64
   145        120
   146         53
   147        133
   148         65
   149         59
   150         28
   151         33
   152        104
   153        131
   154         71
   155        143
   156         47
   157         80
   158         48
   159        101
   160        108
   161        174
   162        124
   163         76
   164         29
   165        161
   166         64
   167        103
   168         68
   169        136
   170         44
   171         84
   172         49
   173         78
   174         35
   175         31
   176         28
   177         33
   178         76
   179         78
   180         30
   181         79
   182         49
   183        114
   184         57
   185         60
   186         48
   187         67
   188         35
   189         52
   190         21
   191         27
   192         28
   193         34
   194         21
   195         61
   196         37
   197         98
   198         47
   199         50
   200         24
   201         35
   202         22
   203         15
   204         14
   205         19
   206         15
   207         58
   208         27
   209         69
   210         35
   211        113
   212         50
   213         53
   214         34
   215         29
   216         16
   219         13
   221         39
   222         20
   223         99
   224         57
   225        118
   226         54
   227         50
   228         38
   229         30
   230         16
   231         11
   235         14
   236         20
   237         28
   238         27
   239        176
   240         60
   241         44
   242         19
   243         32
   244         21
   245         23
   249         32
   250         12
   251         12
   252         11
   253         20
   254         60
   255         24
   256         81
   257         82
   258         49
   259         22
   264         17
   265         27
   266         16
   267        259
   268         59
   269         17
   271         15
   272         36
   280         33
   281         36
   282        339
   283        131
   284         34
   285         62
   286         14
   298         18
   299         16
   300        418
   301        115
   302         29
   325         11
   326         22
   341         36
   342         15
   359         33
   360         12