##TITLE=Library Entry 92803
##JCAMP-DX=Revision 4.10 
##DATA TYPE=MASS SPECTRUM
##SAMPLE DESCRIPTION=NIST Mass Spectrometry Data Center
##NAMES=HP
##CAS NAME=6-Methyl-4,5,8-trithia-1,10-undecadiene
##MOLFORM=C9H16S3
##CAS REGISTRY NO=116664-22-3
##MP= -300
##BP= -300
##MW= 220
##$RETENTION INDEX=1597
##$CONDENSED SPECTRUM=NO
##NPOINTS= 64
##XYDATA=(XY..XY) 1 
    26          2
    27         13
    35          1
    37          4
    38         11
    39        213
    40         18
    41        599
    42         24
    44          4
    45        228
    46         30
    47         68
    48          3
    49          3
    55         65
    56          3
    58         20
    59         97
    60         19
    61         59
    62          2
    63          3
    64         37
    66          4
    68          3
    69         84
    70          4
    71         53
    72         32
    73        794
    74         60
    75         48
    78          5
    81        228
    82         13
    86          3
    87         54
    88          4
    89          4
    90          1
    91          6
   101          6
   103         19
   104         22
   105         40
   106         26
   107         12
   115        999
   116         69
   117         45
   118          3
   133          1
   137         38
   138         21
   139          6
   140          2
   147          6
   179         57
   180          5
   181          7
   220          8
   221          1
   222          1