##TITLE=Library Entry 14119
##JCAMP-DX=Revision 4.10 
##DATA TYPE=MASS SPECTRUM
##SAMPLE DESCRIPTION=A.A.Kutin, Moscow, Russia
##NAMES=HP
##CAS NAME=Pentane-2,4-dione, 3-(5-phenyl-2-furfurylidene)-
##MOLFORM=C16H14O3
##CAS REGISTRY NO=116626-23-4
##MP= -300
##BP= -300
##MW= 254
##$RETENTION INDEX=0
##$CONDENSED SPECTRUM=NO
##NPOINTS= 119
##XYDATA=(XY..XY) 1 
    38         28
    39         78
    40         14
    41          7
    42        163
    43        999
    44        109
    45          2
    50          9
    51         59
    52         11
    53         15
    55          0
    56          2
    58          0
    62          4
    63         74
    64          7
    65         13
    66          2
    67          5
    70          0
    73          0
    74          0
    75         16
    76         35
    77        270
    78         53
    79          8
    80          5
    81          1
    82          3
    85          0
    87          1
    88          9
    89         46
    90          1
    91          9
    97          5
   102          1
   103          1
   105        104
   106         29
   107          1
   109          6
   113          6
   114          4
   115        221
   116        104
   117          6
   119          0
   121          3
   124          7
   125          0
   126          0
   127         29
   128         30
   129         25
   130          3
   131          6
   132          0
   135         47
   136          6
   137         11
   138          8
   139        143
   140         85
   141        165
   142         56
   143          2
   144         11
   149          3
   151          3
   152          3
   153          7
   154         13
   155         11
   157          5
   158          2
   161          3
   163          3
   164          0
   165         50
   166         18
   167          6
   168         32
   169         52
   170         13
   171          0
   173          0
   177         37
   178          4
   183          3
   193          0
   195          6
   197        244
   198         68
   199          0
   207          8
   208          2
   209          0
   211         86
   212         25
   213          0
   216          0
   219          0
   221          2
   226          0
   237          0
   238          0
   239        170
   240         29
   241          0
   245          2
   253         13
   254        632
   255        201
   256         25
   257          0