##TITLE=Library Entry 16886
##JCAMP-DX=Revision 4.10 
##DATA TYPE=MASS SPECTRUM
##SAMPLE DESCRIPTION=Chemical Concepts
##NAMES=HP
##CAS NAME=3-(1-Ethoxyethoxy)-butyraldehyde
##MOLFORM=C8H16O3
##CAS REGISTRY NO=116616-30-9
##MP= -300
##BP= -300
##MW= 160
##$RETENTION INDEX=0
##$CONDENSED SPECTRUM=NO
##NPOINTS= 43
##XYDATA=(XY..XY) 1 
    26         24
    27        164
    28          6
    29        193
    30          8
    31        184
    38          5
    39         44
    40         15
    41        132
    42        307
    43        536
    44        271
    45        999
    46         47
    47         30
    55         16
    57         12
    58         22
    59          4
    60        155
    61         21
    68          6
    69        270
    70         26
    71        195
    72        173
    73        514
    74         32
    75         38
    85         12
    86         37
    87        203
    88         11
    89         69
   113          6
   115         46
   118          5
   129          4
   131         65
   132          5
   159          3
   161         27