##TITLE=Library Entry 67640
##JCAMP-DX=Revision 4.10 
##DATA TYPE=MASS SPECTRUM
##SAMPLE DESCRIPTION=V.G. Zaikin, TIPS RAS, Moscow, Russia
##NAMES=HP
##CAS NAME=2-Furanecarboxylic acid, 2-butyl ester
##MOLFORM=C9H12O3
##CAS REGISTRY NO=116668-42-9
##MP= -300
##BP= -300
##MW= 168
##$RETENTION INDEX=0
##$CONDENSED SPECTRUM=NO
##NPOINTS= 44
##XYDATA=(XY..XY) 1 
    25          6
    26         41
    27        149
    28         29
    29        205
    30          6
    36          8
    37         69
    38        145
    39        441
    40         31
    41        165
    42         21
    43         59
    44         28
    45         13
    49          6
    50         15
    51         19
    52         11
    53         21
    54          6
    55         38
    56        161
    57         79
    65          6
    66         18
    67         37
    68         29
    69          6
    73         59
    79         13
    84         38
    94          9
    95        999
    96         75
    97         11
   112        265
   113        279
   114         19
   139         29
   140          2
   168         32
   169          3