##TITLE=Library Entry 61216
##JCAMP-DX=Revision 4.10 
##DATA TYPE=MASS SPECTRUM
##SAMPLE DESCRIPTION=Chemical Concepts
##NAMES=HP
##CAS NAME=3-Benzyloxybutanoic acid, methyl ester
##MOLFORM=C12H16O3
##CAS REGISTRY NO=116761-24-1
##MP= -300
##BP= -300
##MW= 208
##$RETENTION INDEX=0
##$CONDENSED SPECTRUM=NO
##NPOINTS= 148
##XYDATA=(XY..XY) 1 
    26          1
    27         12
    28          4
    29         11
    30          1
    31          8
    33          6
    35          0
    36          1
    37          0
    38          3
    39         37
    40          4
    41         32
    42         22
    43        111
    44         55
    45         42
    46          1
    47          4
    48          0
    49          1
    50          8
    51         27
    52          8
    53          3
    54          0
    55          6
    56          1
    57          2
    58          3
    59         97
    60          3
    61         10
    62          3
    63         12
    64          5
    65         71
    66          3
    67          0
    68          1
    69         22
    70          5
    71         19
    72          1
    73          1
    74         65
    75          7
    76          2
    77         47
    78         13
    79         77
    80          5
    81          0
    82          5
    83          2
    84          3
    85         14
    86          1
    87        156
    88          7
    89         17
    90         19
    91        999
    92         88
    93          4
    94          0
    95          0
    97          0
    98          1
    99          1
   100          4
   101         21
   102        272
   103         25
   104          1
   105         23
   106          7
   107        451
   108         36
   109          2
   110          1
   111          0
   112          0
   113          0
   115          1
   116          2
   117          7
   118          1
   119          7
   120          1
   121         10
   122         10
   123          1
   125          0
   126          0
   127          0
   128          2
   129          0
   130          1
   131          1
   132          0
   133          1
   134         12
   135          6
   136          0
   137          0
   138          0
   139          0
   140          0
   141          1
   142          0
   143          0
   145          1
   146          0
   147          0
   148          1
   149          0
   150          1
   153          0
   154          0
   155          0
   156          0
   157          0
   158          0
   159          0
   160          1
   161          0
   165          2
   166          1
   167          2
   168          1
   170          0
   172          1
   176          1
   177          1
   178          1
   179          4
   180          6
   181          2
   182          1
   183          0
   188          1
   189          0
   190          0
   197          0
   208          8
   209          1