##TITLE=Library Entry 61154
##JCAMP-DX=Revision 4.10 
##DATA TYPE=MASS SPECTRUM
##SAMPLE DESCRIPTION=Chemical Concepts
##NAMES=HP
##CAS NAME=3-Benzyloxy-butyric acid, t-butyl ester
##MOLFORM=C15H22O3
##CAS REGISTRY NO=116761-25-2
##MP= -300
##BP= -300
##MW= 250
##$RETENTION INDEX=0
##$CONDENSED SPECTRUM=NO
##NPOINTS= 43
##XYDATA=(XY..XY) 1 
    27         23
    28          7
    29         53
    39         62
    40          9
    41        144
    42         19
    43         53
    45         11
    50          9
    51         27
    52          8
    55         11
    56         23
    57        329
    58         12
    59         11
    63         13
    65        102
    69         55
    73          9
    77         61
    78         14
    79        128
    80          8
    85          8
    87         39
    88          7
    89         21
    90         13
    91        999
    92         72
   103          9
   105         25
   107        933
   108         86
   134         16
   135          7
   149         13
   177          9
   193        133
   194         45
   195          6