##TITLE=Library Entry 71182
##JCAMP-DX=Revision 4.10 
##DATA TYPE=MASS SPECTRUM
##SAMPLE DESCRIPTION=A.A.Kutin, Moscow, Russia
##NAMES=HP
##CAS NAME=Pentan-1-one, 1-phenyl-5-(1-piperidinyl)-
##MOLFORM=C16H23NO
##CAS REGISTRY NO=116849-53-7
##MP= -300
##BP= -300
##MW= 245
##$RETENTION INDEX=0
##$CONDENSED SPECTRUM=NO
##NPOINTS= 91
##XYDATA=(XY..XY) 1 
    34          0
    35          7
    36         31
    37          3
    38         12
    39         21
    40         19
    41         76
    42         73
    43         16
    44         27
    45          1
    50         11
    51         38
    52          5
    53          9
    55         91
    56         26
    57          7
    58          1
    62          0
    63          3
    64          0
    65          2
    66          1
    67          5
    68         11
    69         26
    70         30
    71          2
    74          2
    75          3
    77        150
    78         11
    79          2
    80          5
    81          2
    82         10
    83         14
    84         25
    85         11
    86          0
    89          2
    90          2
    91          7
    92          0
    93          0
    94          2
    96         24
    98        999
    99         68
   100          2
   102          0
   103          2
   105        105
   106          6
   107          0
   108          1
   110         11
   111          8
   112          4
   113          2
   115          2
   116          0
   120          0
   124         22
   125          2
   126          1
   128          0
   133          2
   137          0
   138          1
   139          1
   140         10
   141          2
   148          0
   149          0
   151          0
   152          0
   161          1
   163          0
   164          0
   165          3
   180          4
   181          3
   193          3
   194          0
   195          0
   208          0
   245         13
   246          2