##TITLE=Library Entry 107712
##JCAMP-DX=Revision 4.10 
##DATA TYPE=MASS SPECTRUM
##SAMPLE DESCRIPTION=Chemical Concepts
##NAMES=HP
##CAS NAME=2,3-Dihydrooxazole-3-carboxylic acid, 2-(t-butyl)-4(1-hydroxy-1-m
ethylethyl)-5-methyl-, methyl ester
##MOLFORM=C13H23NO4
##CAS REGISTRY NO=116842-25-2
##MP= -300
##BP= -300
##MW= 257
##$RETENTION INDEX=0
##$CONDENSED SPECTRUM=NO
##NPOINTS= 117
##XYDATA=(XY..XY) 1 
    26          4
    27         28
    28         19
    29         90
    30         11
    31         18
    37          1
    38          5
    39        103
    40         10
    41        217
    42         56
    43        301
    44          8
    45          6
    46          1
    50          4
    51         11
    52         13
    53         49
    54         29
    55         80
    56         38
    57        107
    58          6
    59        108
    60          2
    63          1
    65          7
    66         10
    67         26
    68         43
    69         43
    70         39
    71          7
    72          2
    73          4
    77         12
    78          2
    79         14
    80         17
    81         19
    82         49
    83         12
    84         16
    85          4
    86          6
    87          2
    91          2
    92          1
    93          5
    94         23
    95         16
    96         37
    97         14
    98         59
    99          5
   100          4
   101          1
   106          1
   107          2
   108         39
   109          4
   110         14
   111         11
   112         19
   113          3
   114          3
   120          1
   121          2
   122         31
   123         20
   124        999
   125         70
   126         97
   127          7
   128         12
   130         17
   132          2
   136          1
   137          1
   138         31
   139          8
   140         30
   141          4
   142          8
   144          2
   150          8
   151          1
   152          4
   154         14
   155          1
   156         11
   157          1
   158         22
   164          3
   166          6
   168          4
   170          3
   171          5
   172          1
   180          1
   182         60
   183          9
   184          3
   185          3
   198          1
   199          2
   200        106
   201          8
   228         11
   239          6
   240         13
   241          1
   242          5
   257         22
   258          3