##TITLE=Library Entry 14107
##JCAMP-DX=Revision 4.10 
##DATA TYPE=MASS SPECTRUM
##SAMPLE DESCRIPTION=Exported from NIST MS Search
##NAMES=HP
##CAS NAME=Estra-1,3,5(10),9(11)-tetraene-3,17-diol, diacetate, (17.beta.)-
##MOLFORM=C22H26O4
##CAS REGISTRY NO=1169-54-6
##MP= -300
##BP= -300
##MW= 354
##$RETENTION INDEX=0
##$CONDENSED SPECTRUM=NO
##NPOINTS= 180
##XYDATA=(XY..XY) 1 
    41        130
    42         30
    43        999
    44         30
    45         10
    50         50
    51         20
    52         10
    53         50
    54         10
    55        120
    56         20
    57         50
    60         10
    61         10
    63         10
    65         30
    66         10
    67         50
    68         10
    69         40
    70         10
    71         20
    73         10
    74         20
    75         20
    76         50
    77         90
    78         20
    79         70
    80         10
    81        120
    82         10
    83         20
    84         10
    85         10
    89         10
    91         90
    92         20
    93        140
    94         20
    95         50
    96         10
    97         30
    99         10
   102         10
   103         20
   104         10
   105         50
   106         10
   107         80
   108         10
   109         20
   110         10
   115        100
   116         30
   117         30
   118         10
   119         20
   120         10
   121         30
   123         10
   127         70
   128        100
   129         70
   130         20
   131        100
   132         30
   133        140
   134         20
   135         10
   139         20
   140         10
   141         80
   142         20
   143         20
   144         90
   145        120
   146         50
   147         70
   148         10
   149         10
   151         20
   152         80
   153         80
   154         30
   155         30
   156         10
   157        160
   158         80
   159         90
   160         70
   161         20
   165        100
   166         50
   167         70
   168         30
   169         50
   170         50
   171         70
   172         70
   173         30
   176         10
   177         20
   178         50
   179         60
   180         20
   181         80
   182         70
   183         80
   184         70
   185         40
   186         10
   189         10
   190         10
   191         30
   192         10
   193         10
   194         70
   195        160
   196        130
   197        300
   198         90
   199         20
   203         10
   204         10
   205         10
   206         20
   207         10
   208         40
   209         50
   210        330
   211        300
   212        180
   213         80
   214         20
   219         10
   220         10
   221         20
   222         30
   223        320
   224        340
   225        100
   226         20
   231         10
   232         10
   233         30
   234         10
   235         30
   236         20
   237        500
   238        100
   239         20
   240         10
   241         10
   247         10
   248         20
   249         10
   250         10
   251        120
   252        940
   253        270
   254         30
   255         10
   265         10
   266         10
   269         20
   294         60
   295         20
   308         20
   309         10
   310         10
   311         10
   312        900
   313        200
   314         40
   315         10
   354        320
   355         80
   356         10