##TITLE=Library Entry 30190
##JCAMP-DX=Revision 4.10 
##DATA TYPE=MASS SPECTRUM
##SAMPLE DESCRIPTION=Div. of Experiment Therapeutics WRAIR, WRAMC, Washingto
n DC 20307
##NAMES=HP
##CAS NAME=1,1'-Oxalylbis-3-thiosemicarbazide
##MOLFORM=C4H8N6O2S2
##CAS REGISTRY NO=116974-17-5
##MP= -300
##BP= -300
##MW= 236
##$RETENTION INDEX=0
##$CONDENSED SPECTRUM=NO
##NPOINTS= 82
##XYDATA=(XY..XY) 1 
    41         22
    42        115
    43        189
    44        328
    45        104
    46         34
    47         24
    48         10
    53         13
    54         14
    55          2
    56         10
    59        999
    60        277
    61         49
    62         14
    64         55
    66          9
    68         21
    69         30
    70         30
    71         14
    72         22
    73         56
    74        114
    76        491
    77         15
    78         52
    82         12
    84         19
    86        103
    87          9
    91         99
    92         10
    96          8
    97          2
    99          5
   100         45
   101         49
   102         73
   103         16
   104          6
   111          6
   116         42
   118        165
   119          8
   125         14
   127         23
   128         45
   129         14
   130          3
   131          6
   133        156
   134         16
   135         13
   141         23
   143         64
   144         28
   145        136
   146         16
   147          3
   156          2
   158          2
   159        191
   160        158
   161         30
   162         10
   168         12
   169          3
   172          2
   174          2
   177         68
   178         11
   184         36
   185         41
   186         14
   187          4
   192          3
   200          8
   201         13
   202          8
   203          2