##TITLE=Library Entry 77929
##JCAMP-DX=Revision 4.10 
##DATA TYPE=MASS SPECTRUM
##SAMPLE DESCRIPTION=Chemical Concepts
##NAMES=HP
##CAS NAME=2,5-Pyrrolidinedione, 1,1'-(1,6-hexanediyl)bis[3-phenyl-
##MOLFORM=C26H28N2O4
##CAS REGISTRY NO=116904-82-6
##MP= -300
##BP= -300
##MW= 432
##$RETENTION INDEX=0
##$CONDENSED SPECTRUM=NO
##NPOINTS= 263
##XYDATA=(XY..XY) 1 
    26          1
    27         14
    28          6
    29          9
    30          9
    31          0
    35          0
    36          1
    37          0
    38          1
    39         19
    40         37
    41         41
    42          8
    43          8
    44          4
    45          0
    49          0
    50          8
    51         25
    52         12
    53          8
    54          6
    55         26
    56         50
    57          3
    58          1
    59          0
    61          0
    62          1
    63          9
    64          3
    65          9
    66          1
    67         10
    68          3
    69         10
    70         13
    71          1
    72          1
    73          0
    74          2
    75          4
    76          9
    77         80
    78        163
    79         25
    80          6
    81         15
    82         17
    83          9
    84         15
    85          4
    86          2
    87          1
    88          1
    89         10
    90         10
    91         68
    92          8
    93          1
    94          1
    95          2
    96          3
    97          4
    98          8
    99         11
   100          8
   101          2
   102         25
   103        169
   104        999
   105        159
   106         27
   107          8
   108          1
   109          1
   110          1
   111          8
   112         13
   113          1
   114          1
   115          4
   116          3
   117         15
   118         71
   119          8
   120          1
   121          1
   122          1
   123          0
   124          2
   125          1
   126          8
   127          1
   128          3
   129          2
   130          8
   131        104
   132         31
   133          9
   134          1
   135          1
   136          0
   137          0
   138          1
   139          0
   140          1
   141          1
   142          1
   143          2
   144          3
   145          3
   146         19
   147         13
   148          8
   149          2
   150          1
   152          0
   153          0
   154          0
   155          0
   156          1
   157          1
   158         12
   159          7
   160         42
   161         64
   162          7
   163          1
   164          0
   165          1
   166          0
   167          1
   168          0
   169          1
   170          1
   171          3
   172          3
   173          2
   174         61
   175         26
   176        167
   177         20
   178          2
   179          1
   180          1
   181          2
   182          1
   183          1
   184          3
   185          1
   186          5
   187         24
   188         55
   189         42
   190          6
   191          1
   192          1
   193          0
   194          0
   195          0
   197          0
   198          2
   199          1
   200          1
   201          1
   202         18
   203          7
   204          1
   205          0
   206          0
   207          1
   208          0
   209          0
   210          0
   211          1
   212          1
   213          1
   214          2
   215          1
   216         68
   217         12
   218          1
   219          0
   220          0
   226          1
   227          0
   228          1
   229          1
   230         14
   231          4
   232          1
   233          1
   238          0
   239          0
   240          0
   241          0
   242          0
   243          1
   244         68
   245         12
   246          1
   247          0
   253          0
   254          0
   255          1
   256          1
   257          8
   258         25
   259          4
   260          1
   268          0
   271          5
   272          2
   273         41
   274         16
   275          9
   276          1
   277          0
   278          0
   281          1
   282          0
   283          0
   285          1
   286          0
   287          0
   295          0
   299          1
   300         15
   301          9
   302          2
   303          0
   313          2
   314          0
   320          0
   327          1
   328          0
   341          0
   345          1
   346          0
   347          0
   359          0
   361          0
   362          1
   375          0
   376          0
   385          1
   386          1
   387          1
   388          1
   403          2
   404         16
   405          4
   406          1
   414          1
   415          1
   416          0
   430          1
   432        394
   433        108
   434         20
   435          3