##TITLE=Library Entry 61949
##JCAMP-DX=Revision 4.10 
##DATA TYPE=MASS SPECTRUM
##SAMPLE DESCRIPTION=J. MADSEN,DEP. ORG. CHEM.,TECH. UNIV. DENMARK,LYNGBY,DE
NMARK
##NAMES=HP
##CAS NAME=3-Benzyl-5-chloro-1,2,3-triazole 1-oxide
##MOLFORM=C9H8ClN3O
##CAS REGISTRY NO=116932-67-3
##MP= -300
##BP= -300
##MW= 209
##$RETENTION INDEX=0
##$CONDENSED SPECTRUM=NO
##NPOINTS= 47
##XYDATA=(XY..XY) 1 
    38         13
    39         80
    40         45
    41         31
    43         19
    44         28
    46          7
    50         26
    51         71
    52         19
    53          7
    55         12
    56          6
    57         25
    60          5
    62         10
    63         35
    64         12
    65        124
    66          8
    69         50
    71         10
    74          8
    75          7
    76         27
    77         66
    78         15
    81          5
    83          7
    85          6
    89         25
    90         13
    91        999
    92         77
    97          6
   103         29
   104         33
   105         19
   106          6
   119         11
   121          9
   129          6
   130        134
   131         30
   139          5
   149         11
   209         16