##TITLE=Library Entry 47555
##JCAMP-DX=Revision 4.10 
##DATA TYPE=MASS SPECTRUM
##SAMPLE DESCRIPTION=J. MADSEN,DEP. ORG. CHEM.,TECH. UNIV. DENMARK,LYNGBY,DE
NMARK
##NAMES=HP
##CAS NAME=5-Methyl-3-phenyl-1,2,3-triazole 1-oxide
##MOLFORM=C9H9N3O
##CAS REGISTRY NO=116932-65-1
##MP= -300
##BP= -300
##MW= 175
##$RETENTION INDEX=0
##$CONDENSED SPECTRUM=NO
##NPOINTS= 41
##XYDATA=(XY..XY) 1 
    50         75
    51        312
    52         53
    54          4
    55          3
    57          5
    62          7
    63         20
    64         18
    65         16
    67          6
    69         13
    74         17
    75         16
    76         38
    77        999
    78         75
    79          4
    88          6
    89          5
    90          7
    91         75
    92          6
   102          6
   103        120
   104         57
   105         20
   115          5
   116          4
   118          8
   119          4
   128          9
   129          8
   130        314
   131        168
   132         16
   159         11
   174          4
   175        787
   176         84
   177          5