##TITLE=Library Entry 47508
##JCAMP-DX=Revision 4.10 
##DATA TYPE=MASS SPECTRUM
##SAMPLE DESCRIPTION=J. MADSEN,DEP. ORG. CHEM.,TECH. UNIV. DENMARK,LYNGBY,DE
NMARK
##NAMES=HP
##CAS NAME=3-Phenyl-1,2,3-triazole 1-oxide
##MOLFORM=C8H7N3O
##CAS REGISTRY NO=116932-60-6
##MP= -300
##BP= -300
##MW= 161
##$RETENTION INDEX=0
##$CONDENSED SPECTRUM=NO
##NPOINTS= 36
##XYDATA=(XY..XY) 1 
    50         72
    51        298
    52         22
    55         12
    57         27
    62          9
    63         21
    64         18
    65         10
    69         12
    71         15
    74         17
    75         16
    76         24
    77        999
    78         70
    79          9
    81         10
    83         10
    85         10
    89         13
    90         19
    91        127
    92         11
    97         10
   102          7
   104         66
   105         16
   117         80
   118         18
   130         31
   131         12
   145         26
   146          9
   161        956
   162         95