##TITLE=Library Entry 49506
##JCAMP-DX=Revision 4.10 
##DATA TYPE=MASS SPECTRUM
##SAMPLE DESCRIPTION=NIST Mass Spectrometry Data Center, 1994
##NAMES=HP
##CAS NAME=4,7-Methanoisobenzofuran-1,3-dione, 3a,4,7,7a-tetrahydro, 5-methy
l-
##MOLFORM=C10H10O3
##CAS REGISTRY NO=117-40-8
##MP= -300
##BP= -300
##MW= 178
##$RETENTION INDEX=0
##$CONDENSED SPECTRUM=NO
##NPOINTS= 78
##XYDATA=(XY..XY) 1 
    12          1
    13          1
    14          4
    15         41
    16          1
    24          1
    26         90
    27        158
    28         15
    29         15
    37         15
    38         57
    39        244
    40         42
    41         41
    42          5
    43          3
    44          7
    45          8
    50         69
    51        149
    52         74
    53         55
    54         24
    55         42
    56          2
    60          3
    61          8
    62         27
    63         57
    64         15
    65        100
    66         95
    67          8
    68          2
    69          1
    71          1
    74         13
    75          9
    77        166
    78        103
    79        434
    80        999
    81         65
    82          2
    85          1
    86          2
    87          2
    89         16
    91        282
    92         27
    93          7
    94          3
    98          3
    99         17
   100          2
   101          1
   102          5
   103         26
   104          1
   105         92
   106         49
   107          6
   108          1
   115          2
   116          2
   117          1
   119         47
   120          4
   131          1
   133         50
   134         19
   135          2
   136          1
   150          5
   160          5
   178         53
   179          8