##TITLE=Library Entry 90151
##JCAMP-DX=Revision 4.10 
##DATA TYPE=MASS SPECTRUM
##SAMPLE DESCRIPTION=Tox21 Consortium/NIST Mass Spectrometry Data Center, 20
12
##NAMES=HP
##CAS NAME=Trifluoperazine
##MOLFORM=C21H24F3N3S
##CAS REGISTRY NO=117-89-5
##MP= -300
##BP= -300
##MW= 407
##$RETENTION INDEX=2664
##$CONDENSED SPECTRUM=NO
##NPOINTS= 303
##XYDATA=(XY..XY) 1 
    15          5
    26          2
    27          8
    28         31
    29         15
    30         13
    31          2
    38          1
    39         11
    40          3
    41         56
    42        285
    43        360
    44        133
    45         17
    46          1
    47          1
    50          4
    51          8
    52          3
    53          3
    54         19
    55         35
    56        157
    57         85
    58        129
    59         12
    60          1
    62          2
    63          9
    64          2
    65          6
    66          1
    67          4
    68         19
    69         36
    70        762
    71        220
    72         53
    73          4
    74          2
    75          6
    76          4
    77         17
    78          4
    79          1
    80          3
    81          6
    82         36
    83         43
    84         76
    85        100
    86         15
    87          2
    88          2
    89          4
    90          2
    91          3
    92          1
    93          3
    94          3
    95         12
    96         32
    97         55
    98        105
    99         82
   100         16
   101          9
   102          3
   103          2
   104          2
   105          2
   106          2
   107          3
   108         11
   109         12
   110          4
   111         88
   112         22
   113        999
   114        111
   115          9
   116          2
   117          3
   118          1
   119          2
   120          3
   121          3
   122          2
   123          3
   124          4
   125         16
   126         12
   127        239
   128         23
   129          2
   130          5
   131          2
   132          3
   133          4
   134          4
   135          2
   136          3
   137          3
   138          6
   139         38
   140         17
   141        346
   142         33
   143          3
   144          2
   145          7
   146          3
   147          2
   148          1
   149          1
   150          2
   151          7
   152         14
   153         11
   154          4
   155          1
   156          1
   157         10
   158          4
   159          2
   160          1
   161          1
   162          1
   163          2
   164          7
   165          4
   166          5
   167          5
   168          1
   169          6
   170          7
   171          7
   172          4
   173          1
   174          1
   175          4
   176          5
   177          8
   178         10
   179          7
   180          2
   181          2
   182          7
   183          5
   184         15
   185          4
   186          2
   187          2
   188          4
   189          4
   190          2
   191          3
   192          1
   193          1
   194          3
   195          5
   196         31
   197         26
   198         12
   199          4
   200          2
   201         11
   202         17
   203          8
   204          6
   205          2
   206          4
   207          4
   208          6
   209          6
   210          9
   211          7
   212          7
   213          6
   214          6
   215          9
   216          8
   217          2
   218          1
   219          4
   220          6
   221          5
   222         26
   223         12
   224          4
   225          3
   226          7
   227          4
   228         15
   229          4
   230          4
   231          2
   232          2
   233         10
   234         16
   235         15
   236          5
   237          2
   238          7
   239          9
   240          9
   241          3
   242          2
   243          1
   244          1
   245          5
   246         14
   247         37
   248        218
   249         35
   250          4
   251          4
   252          4
   253          2
   254          2
   255          1
   256          1
   258          3
   259          3
   260         16
   261          9
   262         10
   263          2
   264          3
   265          9
   266        193
   267         90
   268         20
   269          5
   270          1
   271          1
   272          6
   273          2
   274          8
   275          3
   276          1
   277          1
   278         11
   279          8
   280        130
   281         67
   282         16
   283          4
   284          1
   285          1
   286          1
   287          2
   288          1
   289          1
   290          1
   291         12
   292         40
   293         58
   294         64
   295         12
   296          4
   304          5
   306        178
   307        100
   308         26
   309          7
   310          1
   320          2
   321          3
   322          1
   323          1
   333          1
   334          1
   335          2
   336          9
   337          4
   338          1
   348          3
   349          4
   350         37
   351         10
   352          3
   353          1
   363         27
   364          8
   365          5
   366          1
   368          2
   369          1
   377          3
   378          3
   379          1
   388          1
   391          1
   392          6
   393          2
   405          7
   407        446
   408        111
   409         33
   410          6
   411          1