##TITLE=Library Entry 29990
##JCAMP-DX=Revision 4.10 
##DATA TYPE=MASS SPECTRUM
##SAMPLE DESCRIPTION=Japan AIST/NIMC Database- Spectrum MS-NW-7121
##NAMES=HP
##CAS NAME=Bis(2-methoxyethyl) phthalate
##MOLFORM=C14H18O6
##CAS REGISTRY NO=117-82-8
##MP= -300
##BP= -300
##MW= 282
##$RETENTION INDEX=1986
##$CONDENSED SPECTRUM=NO
##NPOINTS= 98
##XYDATA=(XY..XY) 1 
    14          2
    15         56
    16          1
    17          2
    18          7
    26          3
    27         12
    28         45
    29        120
    30          4
    31        131
    32          7
    33          4
    37          1
    38          2
    39          7
    40          1
    41          9
    42          3
    43         55
    44          8
    45        110
    46          3
    49          1
    50         28
    51          8
    52          3
    53          2
    57          3
    58        673
    59        999
    60         39
    61          3
    63          2
    64          2
    65         17
    66          6
    72          4
    73          3
    74          7
    75         19
    76         73
    77         29
    78          2
    79          1
    89          1
    90          1
    91          3
    92          5
    93          9
   101          1
   103          2
   104         75
   105         13
   106          1
   116          1
   118          1
   119          1
   120          1
   121          8
   122          3
   132         18
   133          9
   134          1
   135          2
   145          1
   147          3
   148          6
   149        108
   150         11
   151          2
   162          1
   163         14
   164          2
   167         13
   168          2
   176         21
   177          4
   178          1
   179          3
   180          1
   181          1
   191          1
   192          1
   193          4
   194          8
   195          1
   206         14
   207         47
   208          7
   209          1
   223          3
   224          7
   225          5
   251          2
   252          6
   253          1
   282          1