##TITLE=Library Entry 76677
##JCAMP-DX=Revision 4.10 
##DATA TYPE=MASS SPECTRUM
##SAMPLE DESCRIPTION=ASES Database, Dalian Institute, P.R. China
##NAMES=HP
##CAS NAME=1-Phenyl-4-cyano-5-hydroxy-1,2,3-triazole
##MOLFORM=C9H6N4O
##CAS REGISTRY NO=117015-37-9
##MP= -300
##BP= -300
##MW= 186
##$RETENTION INDEX=0
##$CONDENSED SPECTRUM=NO
##NPOINTS= 11
##XYDATA=(XY..XY) 1 
    92        151
   103        999
   104        211
   115         72
   116         12
   129        255
   130        169
   131         18
   157         45
   158         82
   186        614