##TITLE=Library Entry 54823
##JCAMP-DX=Revision 4.10 
##DATA TYPE=MASS SPECTRUM
##SAMPLE DESCRIPTION=Asinex Ltd, Moscow, Russia
##NAMES=HP
##CAS NAME=Hexahydropyrimidine-2,4,6-trione, 5-(2-thiazolylhydrazono)-
##MOLFORM=C7H5N5O3S
##CAS REGISTRY NO=117043-03-5
##MP= -300
##BP= -300
##MW= 239
##$RETENTION INDEX=0
##$CONDENSED SPECTRUM=NO
##NPOINTS= 105
##XYDATA=(XY..XY) 1 
    33         40
    34         12
    35          1
    36         15
    37          6
    38         37
    39         62
    40        169
    41         80
    42        175
    43        302
    44        587
    45        739
    46         91
    47         37
    48         11
    50          6
    51         14
    52         24
    53        145
    54        375
    55        511
    56        113
    57        151
    58        406
    59        178
    60         42
    61          8
    62          0
    63          4
    64         13
    65          8
    66         13
    67         18
    68         24
    69         43
    70        189
    71        198
    72         49
    73         24
    74          3
    75          3
    76         14
    77          8
    78          1
    80         27
    82         14
    83         23
    85        999
    86         59
    87         39
    88          0
    91          1
    92          3
    93          1
    94          1
    95          0
    96          4
    97         21
    98        121
    99        111
   100         48
   101         12
   102          4
   105          1
   108          5
   109          6
   110         17
   111          6
   112         11
   113          4
   114         10
   115          0
   123          0
   124         18
   125         94
   126         12
   127          8
   128         16
   129          4
   138          3
   140        176
   141         15
   142          8
   151          0
   152         10
   153          2
   155         25
   156          0
   157          7
   167         71
   168         12
   169          3
   180          0
   181          1
   183         21
   194          2
   195          2
   202          0
   211        223
   212         18
   213          8
   239        141
   240         12
   241          4