##TITLE=Library Entry 76676
##JCAMP-DX=Revision 4.10 
##DATA TYPE=MASS SPECTRUM
##SAMPLE DESCRIPTION=ASES Database, Dalian Institute, P.R. China
##NAMES=HP
##CAS NAME=N-Phenyl-2-diazo-2-cyanoacetamide
##MOLFORM=C9H6N4O
##CAS REGISTRY NO=117015-33-5
##MP= -300
##BP= -300
##MW= 186
##$RETENTION INDEX=0
##$CONDENSED SPECTRUM=NO
##NPOINTS= 11
##XYDATA=(XY..XY) 1 
    92        154
   103        999
   104        200
   115         60
   116         13
   129        248
   130        176
   131         18
   157         45
   158        112
   186        674