##TITLE=Library Entry 4417
##JCAMP-DX=Revision 4.10 
##DATA TYPE=MASS SPECTRUM
##SAMPLE DESCRIPTION=A.S.Moskovkin,I.M.Karnaukh, Russian Center on Disaster
 Medicine
##NAMES=HP
##CAS NAME=3,5,7-Tribromo-1-azaadamantane
##MOLFORM=C9H12Br3N
##CAS REGISTRY NO=117013-37-3
##MP= -300
##BP= -300
##MW= 371
##$RETENTION INDEX=0
##$CONDENSED SPECTRUM=NO
##NPOINTS= 142
##XYDATA=(XY..XY) 1 
    37         23
    38        100
    39        930
    40        190
    41        600
    42        999
    43        300
    44        140
    45         13
    49          6
    50        100
    51        290
    52        170
    53        290
    54        110
    55        220
    56         58
    57        140
    58        170
    59         19
    60         18
    61         14
    62         45
    63        150
    64         82
    65        560
    66        370
    67        180
    68         52
    69         84
    70         32
    71         52
    72          5
    73         21
    74         19
    75         22
    76         26
    77        370
    78        170
    79        290
    80        110
    81         78
    82         37
    83         57
    84         17
    85         33
    87         11
    88          5
    89         48
    90         40
    91        440
    92        130
    93        150
    94        110
    95         67
    96         18
    97         33
    98         10
    99          7
   102         19
   103        130
   104        170
   105        330
   106        120
   107         69
   108         26
   109         20
   110         13
   111         18
   112          5
   115         14
   116         11
   117         67
   118         65
   119         57
   120         77
   121         38
   122         41
   123         11
   124         13
   125          9
   129          7
   130         23
   131         26
   132        180
   133        140
   134        340
   135         40
   136          5
   137          5
   145          8
   146          6
   147          5
   148          6
   149         23
   150         23
   151          8
   157          6
   158         16
   159          7
   160         13
   165          8
   169         19
   170          9
   171         32
   172         21
   173         15
   174         14
   182          8
   183         91
   184         22
   185         95
   186         18
   187         11
   198          7
   200          6
   212        180
   213         81
   214        180
   215         78
   216         12
   226          9
   230         28
   231          6
   232         27
   250          5
   259         29
   261         30
   292        360
   293         37
   294        710
   295         70
   296        340
   297         33
   340          6
   371         28
   372          3
   373         81
   374          8
   375         80
   376          8
   377         27