##TITLE=Library Entry 54138
##JCAMP-DX=Revision 4.10 
##DATA TYPE=MASS SPECTRUM
##SAMPLE DESCRIPTION=A. Brossi, LC, NIDDK, NIH, Bethesda, MD 20892
##NAMES=HP
##CAS NAME=Pyrrolidin-2-one, 5-[2-butyrylethyl]-
##MOLFORM=C10H17NO2
##CAS REGISTRY NO=117155-75-6
##MP= -300
##BP= -300
##MW= 183
##$RETENTION INDEX=1229
##$CONDENSED SPECTRUM=NO
##NPOINTS= 101
##XYDATA=(XY..XY) 1 
    41        212
    42         53
    43        165
    44         43
    45          5
    48          1
    49          1
    50          2
    51          5
    52          6
    53         20
    54         34
    55         88
    56         83
    57         24
    58         34
    59          5
    60          4
    61          1
    63          1
    65          6
    66          6
    67         17
    68          7
    69        157
    70         18
    71         47
    72          6
    73          3
    74          1
    75          0
    76          0
    77          7
    78         11
    79          4
    80          6
    81          9
    82         16
    83         25
    84        999
    85         81
    86          9
    87          1
    91          2
    93          3
    94          8
    95          9
    96         12
    97        450
    98        513
    99         37
   100          7
   101          1
   105          1
   106          7
   107          2
   108          1
   109          2
   110         12
   111         11
   112         41
   113         15
   114          2
   115          1
   119          0
   120          0
   121          0
   122          4
   123          3
   124          7
   125          1
   126          3
   127          1
   128          2
   129          1
   136          1
   137          2
   138          2
   139          1
   140         54
   141          5
   149          1
   150          6
   151          0
   152          0
   153          1
   154          6
   155         14
   156          2
   157          0
   158          0
   164          1
   165          3
   166          4
   168          0
   171          0
   181          0
   182          2
   183         15
   184          8
   185          1