##TITLE=Library Entry 76561
##JCAMP-DX=Revision 4.10 
##DATA TYPE=MASS SPECTRUM
##SAMPLE DESCRIPTION=Zaikin V.G., TIPS RAS, Moscow, Russia
##NAMES=HP
##CAS NAME=Pentanoic acid, nonyl ester
##MOLFORM=C14H28O2
##CAS REGISTRY NO=117197-08-7
##MP= -300
##BP= -300
##MW= 228
##$RETENTION INDEX=1610
##$CONDENSED SPECTRUM=NO
##NPOINTS= 71
##XYDATA=(XY..XY) 1 
    26          6
    27         31
    28         34
    29         86
    30          3
    31          3
    39         32
    40          7
    41        201
    42         71
    43        203
    44         15
    45          8
    53         12
    54         25
    55        231
    56        305
    57        419
    58         17
    59          6
    60         62
    61         70
    67         28
    68         63
    69        217
    70        314
    71        121
    72          6
    73         65
    74          6
    75         18
    79          7
    81         11
    82         86
    83        247
    84        278
    85        845
    86         39
    87         14
    95          8
    96         37
    97        319
    98        267
    99         12
   100          8
   101         18
   102         66
   103        999
   104         60
   105          6
   111         14
   115         13
   116         39
   117          3
   124          5
   125          3
   126        365
   127         31
   129         11
   130          4
   141          7
   143         18
   149         31
   150          3
   156          4
   158          8
   171         24
   172          3
   176          3
   177         10
   186          5