##TITLE=Library Entry 3091
##JCAMP-DX=Revision 4.10 
##DATA TYPE=MASS SPECTRUM
##SAMPLE DESCRIPTION=V.Zaikin,Topchiev Inst.Petrochem.Synth.,Moscow
##NAMES=HP
##CAS NAME=Valeric acid, tridecyl ester
##MOLFORM=C18H36O2
##CAS REGISTRY NO=117177-34-1
##MP= -300
##BP= -300
##MW= 284
##$RETENTION INDEX=0
##$CONDENSED SPECTRUM=NO
##NPOINTS= 108
##XYDATA=(XY..XY) 1 
    27        435
    28         45
    29        542
    30         19
    31         16
    35          4
    36         13
    37          6
    38         18
    39        192
    40         44
    41        999
    42        269
    43        790
    44        100
    45         33
    46          4
    48          2
    49          4
    50         11
    51         23
    52          8
    53         72
    54        109
    55        671
    56        347
    57        945
    58         67
    59         11
    60        107
    61         39
    62          5
    63          4
    65         13
    66          7
    67         98
    68        117
    69        379
    70        240
    71        175
    72         14
    73         70
    74          9
    75          9
    77         10
    78          5
    79         12
    80          5
    81         40
    82        133
    83        304
    84        193
    85        697
    86         34
    87          9
    89          2
    91          5
    92          2
    93          4
    95         24
    96         56
    97        191
    98        100
    99         19
   100          9
   101         17
   102         63
   103        811
   104         62
   105          5
   109          8
   110         17
   111        108
   112         74
   113         19
   114          2
   115          9
   116         15
   117          2
   123          2
   124         12
   125         44
   126         39
   127          7
   129          7
   133          3
   135          3
   139         19
   140         19
   141          7
   142          3
   143          4
   145          3
   152          4
   153          9
   154         56
   155          7
   158         11
   173          2
   181          5
   182         70
   183         10
   199          4
   206          3
   208          4
   212          2
   227          6
   228          4