##TITLE=Library Entry 18878
##JCAMP-DX=Revision 4.10 
##DATA TYPE=MASS SPECTRUM
##SAMPLE DESCRIPTION=Humboldt-Universitat zu Berlin, Department of Chemistry
, Analytical Group
##NAMES=HP
##CAS NAME=2-Acrylamidothiazole
##MOLFORM=C6H6N2OS
##CAS REGISTRY NO=117158-04-0
##MP= -300
##BP= -300
##MW= 154
##$RETENTION INDEX=0
##$CONDENSED SPECTRUM=NO
##NPOINTS= 103
##XYDATA=(XY..XY) 1 
    12          3
    13          5
    14          7
    15          3
    16          3
    17         12
    18         39
    24          2
    25         18
    26        107
    27        505
    28        136
    29         37
    30          1
    31          1
    32         17
    33          4
    34          1
    35          0
    36          1
    37          5
    38         14
    39         15
    40         25
    41         15
    42          6
    43         12
    44         23
    45        212
    46         25
    47         12
    48          2
    49          1
    50          2
    51          6
    52          8
    53         34
    55        999
    56         46
    57         68
    58        107
    59         24
    60          8
    61          1
    62          0
    63         11
    64          1
    65          4
    66          2
    67          1
    68          1
    69          5
    70         14
    71         18
    72          8
    73         34
    74          2
    75          1
    77          0
    79          0
    80          0
    81          2
    82          3
    83          5
    84          2
    85          3
    86          3
    87          0
    91          3
    93          1
    94          0
    95          0
    96          0
    97          1
    98          4
    99         21
   100        318
   101         19
   102         15
   103          0
   107          2
   109          2
   110          0
   111          2
   112          1
   113          2
   123          0
   125        229
   126        259
   127         33
   128         13
   129          2
   135          0
   137          0
   149          0
   150          0
   151          0
   153         48
   154        160
   155         18
   156         15
   157          1
   158          0