##TITLE=Library Entry 11436
##JCAMP-DX=Revision 4.10 
##DATA TYPE=MASS SPECTRUM
##SAMPLE DESCRIPTION=V.G.Zaikin, TIPS RAS, Moscow, Russia
##NAMES=HP
##CAS NAME=Hexanoic acid, tridecyl ester
##MOLFORM=C19H38O2
##CAS REGISTRY NO=117197-09-8
##MP= -300
##BP= -300
##MW= 298
##$RETENTION INDEX=0
##$CONDENSED SPECTRUM=NO
##NPOINTS= 97
##XYDATA=(XY..XY) 1 
    25          7
    26         44
    27        243
    28         54
    29        381
    30         14
    31         16
    36          9
    37         11
    38         18
    39        177
    40         47
    41        688
    42        252
    43        999
    44         78
    45         32
    47          3
    49          3
    50         11
    51         17
    52          7
    53         55
    54         95
    55        639
    56        342
    57        481
    58         35
    59          9
    60        111
    61         79
    62          4
    65          8
    66         13
    67         88
    68        129
    69        395
    70        309
    71        375
    72         23
    73         97
    74         12
    75          9
    77          7
    79         15
    80          9
    81         43
    82        138
    83        331
    84        177
    85        112
    86         11
    87         49
    89         13
    91          6
    94          4
    95         21
    96         59
    97        226
    98        135
    99        446
   100         38
   101         19
   109          7
   110         25
   111        119
   112         72
   113         16
   114         11
   115         19
   116         97
   117        955
   118         66
   119          6
   124         11
   125         48
   126         45
   127         11
   128          3
   129          7
   130          3
   131          3
   138          7
   139         17
   140         25
   141          4
   143          4
   153         11
   154         75
   155          8
   156          3
   172         17
   182        151
   183         29
   227         17
   228          3
   241          3