##TITLE=Library Entry 20374
##JCAMP-DX=Revision 4.10 
##DATA TYPE=MASS SPECTRUM
##SAMPLE DESCRIPTION=Japan AIST/NIMC Database- Spectrum MS-IW-3604
##NAMES=HP
##CAS NAME=Tetramethylene bis(2,2,2-trifluoroethanesulfonate)
##MOLFORM=C8H12F6O6S2
##CAS REGISTRY NO=117186-54-6
##MP= -300
##BP= -300
##MW= 382
##$RETENTION INDEX=0
##$CONDENSED SPECTRUM=NO
##NPOINTS= 115
##XYDATA=(XY..XY) 1 
    14          1
    15          6
    20          3
    26          7
    27         68
    28         55
    29         76
    30          5
    31         45
    32          3
    33         69
    34          1
    38          2
    39         67
    40         20
    41        235
    42        668
    43        301
    44         83
    45         23
    46          2
    47          1
    48         18
    49          2
    50          4
    51         12
    52          2
    53         25
    54        594
    55        999
    56         64
    57         23
    58          6
    59         47
    60          2
    61         13
    62          1
    63         18
    64         98
    65         33
    66          2
    67         30
    69         23
    70          7
    71        921
    72         53
    73         17
    74          1
    75          1
    76          2
    77          2
    78          3
    79          2
    80          2
    81          8
    82          3
    83        443
    84         12
    85          1
    87          4
    89          1
    91          1
    95          1
    97          1
   102          1
   103          6
   107         67
   108          2
   109          4
   111          1
   112          3
   113          5
   115          1
   116          1
   125         40
   126          1
   127         27
   128          2
   129          2
   131          8
   132          1
   134          1
   135          1
   136          1
   145         10
   146          9
   147        620
   148         20
   149         36
   150          1
   153          1
   157          2
   161          2
   165         34
   166          1
   167          2
   177        139
   178          5
   179          7
   190        130
   191          8
   192          7
   203          2
   205         10
   212          1
   217          9
   218          1
   219         12
   220          1
   225          7
   227          7
   311         25
   312          1
   313          2
   341          1