##TITLE=Library Entry 77535
##JCAMP-DX=Revision 4.10 
##DATA TYPE=MASS SPECTRUM
##SAMPLE DESCRIPTION=A.A.Kutin, Moscow, Russia
##NAMES=HP
##CAS NAME=Pyrido[2,3-b]thiophene, 2,3-dihydro-, S-dioxide
##MOLFORM=C7H7NO2S
##CAS REGISTRY NO=117103-43-2
##MP= -300
##BP= -300
##MW= 169
##$RETENTION INDEX=0
##$CONDENSED SPECTRUM=NO
##NPOINTS= 104
##XYDATA=(XY..XY) 1 
    33          5
    34          6
    35          2
    37         51
    38        105
    39        410
    40         78
    41         42
    42         56
    44         41
    45         33
    46         11
    47          8
    48         47
    49         26
    50        233
    51        407
    52        377
    53         48
    54         19
    55         12
    56          8
    57          9
    58         12
    60          6
    61         13
    62         33
    63        130
    64        157
    65        326
    66         42
    67         13
    68          2
    69         20
    70          9
    71          5
    72          1
    73          7
    74         24
    75         58
    76        100
    77        259
    78        582
    79        319
    80         33
    81          9
    83         33
    84          6
    85        103
    87         15
    88          4
    89          4
    90         11
    91         17
    92         34
    93         51
    94          5
    95          5
    96          3
    97          3
    98          2
    99          8
   101          1
   102         21
   104        999
   105        224
   106         21
   107          3
   108         21
   109          9
   110          5
   111          1
   113         95
   114          7
   115          6
   116          0
   118          4
   120        620
   121        952
   122         68
   123          7
   124          3
   125          0
   126          0
   129          1
   134          6
   135          9
   136         24
   137          7
   138          4
   142          1
   143          1
   149          0
   150          1
   151         10
   152          9
   153          1
   154          0
   166          0
   167          7
   169        921
   170         77
   171         46
   172          3