##TITLE=Library Entry 13411
##JCAMP-DX=Revision 4.10 
##DATA TYPE=MASS SPECTRUM
##SAMPLE DESCRIPTION=V. Nevalainen, Dep. Chem., Univ. Helsinki, Helsinki, Fi
nland
##NAMES=HP
##CAS NAME=[1,4]Oxathiino[2,3-b]-1,4-oxathiin, hexahydro-8a-methyl-
##MOLFORM=C7H12O2S2
##CAS REGISTRY NO=117239-02-8
##MP= -300
##BP= -300
##MW= 192
##$RETENTION INDEX=0
##$CONDENSED SPECTRUM=NO
##NPOINTS= 19
##XYDATA=(XY..XY) 1 
    43        999
    45        150
    59         60
    61        230
    70         50
    76         70
    78         50
    86         40
    87        380
    88        330
   103         90
   104        160
   105        300
   116         50
   121         70
   164         40
   192        410
   193         38
   194         37