##TITLE=Library Entry 6924
##JCAMP-DX=Revision 4.10 
##DATA TYPE=MASS SPECTRUM
##SAMPLE DESCRIPTION=V. Nevalainen, Dep. Chem., Univ. Helsinki, Helsinki, Fi
nland
##NAMES=HP
##CAS NAME=Ethanone, 1-(3-chloro-5,6-dihydro-1,4-oxathiin-2-yl)-
##MOLFORM=C6H7ClO2S
##CAS REGISTRY NO=117238-97-8
##MP= -300
##BP= -300
##MW= 178
##$RETENTION INDEX=0
##$CONDENSED SPECTRUM=NO
##NPOINTS= 20
##XYDATA=(XY..XY) 1 
    43        999
    45        310
    46        120
    61         70
    74        120
    86         70
   100         90
   101         50
   105         70
   107         60
   118        100
   135        240
   136        110
   137        100
   138         40
   142        120
   143        150
   178        290
   179         20
   180        110