##TITLE=Library Entry 51427
##JCAMP-DX=Revision 4.10 
##DATA TYPE=MASS SPECTRUM
##SAMPLE DESCRIPTION=Chemical Concepts
##NAMES=HP
##CAS NAME=Boroxin, tris(cyclohexyloxy)-
##MOLFORM=C18H33B3O6
##CAS REGISTRY NO=1172-69-6
##MP= -300
##BP= -300
##MW= 378
##$RETENTION INDEX=0
##$CONDENSED SPECTRUM=NO
##NPOINTS= 186
##XYDATA=(XY..XY) 1 
    26          6
    27         66
    29         94
    30          1
    31          4
    37          1
    38          4
    39         68
    40         20
    41        353
    42         32
    43         40
    44         23
    45          4
    50          3
    51          7
    52         10
    53         96
    54         95
    55        237
    56         67
    57         96
    58          5
    63          1
    65         18
    66          9
    67        206
    68         19
    69         12
    72          5
    75          2
    77         23
    78         14
    79         95
    80         63
    81        681
    82        999
    83        467
    84         26
    88          3
    89          4
    90          1
    91          5
    92          4
    93          8
    94          3
    95          2
    96          4
   100          2
   102          3
   105          3
   107          3
   108          0
   109          8
   110          8
   111          1
   112          3
   113         19
   114         47
   115         68
   117          6
   119          2
   121          6
   122          5
   123          9
   124          2
   125          1
   126          2
   127          6
   128          3
   129          2
   130          3
   131          9
   132         36
   133         49
   135          2
   137          1
   138          1
   139          2
   140          6
   141          1
   144         19
   145          3
   146          1
   147          3
   149          2
   150          3
   151          4
   152          2
   153          9
   154          7
   155          9
   156          4
   157          3
   158          7
   159          6
   164         10
   165         11
   166          5
   167          8
   168          5
   169         13
   170         52
   171         71
   172          7
   173          5
   178          1
   180          2
   184          4
   185          9
   186          3
   187          6
   194          5
   195          5
   196         22
   197         27
   198          4
   199          5
   207          2
   209         10
   210         13
   211         10
   212          3
   213          9
   214         29
   215         34
   221          4
   222          3
   223          5
   224          6
   234          3
   235          4
   236          6
   237          3
   239          0
   240          3
   241          6
   250          3
   251          0
   252         16
   253         18
   263          4
   264          1
   266          3
   267          4
   277          4
   278         13
   279         20
   280          8
   281          6
   291          4
   292         11
   293         16
   294          8
   295         16
   296         39
   297         43
   298          5
   305          4
   306          2
   318         14
   319         20
   320          5
   321          7
   322         12
   323          6
   332          9
   333         54
   334        213
   335        295
   336         52
   337          9
   347         11
   348         37
   349         58
   350         14
   360          3
   361         12
   362         21
   363          5
   375          5
   376         43
   377        132
   378        173
   379         37
   380          5