##TITLE=Library Entry 67168
##JCAMP-DX=Revision 4.10 
##DATA TYPE=MASS SPECTRUM
##SAMPLE DESCRIPTION=Chemical Concepts
##NAMES=HP
##CAS NAME=2H-1b,4-Ethanopentaleno[1,2-b]oxirene, hexahydro-, (1a.alpha.,1b.
beta.,4.beta.,4a.alpha.,5a.alpha.)-
##MOLFORM=C10H14O
##CAS REGISTRY NO=117221-80-4
##MP= -300
##BP= -300
##MW= 150
##$RETENTION INDEX=0
##$CONDENSED SPECTRUM=NO
##NPOINTS= 99
##XYDATA=(XY..XY) 1 
    25          2
    26         43
    27        450
    28         74
    29        175
    30          4
    31         12
    37         13
    38         55
    39        704
    40        111
    41        567
    42         39
    43         54
    44         38
    45          9
    49          3
    50         73
    51        202
    52        101
    53        311
    54         77
    55        233
    56         13
    57         32
    58          5
    59          5
    60          5
    61          7
    62         26
    63         76
    64         21
    65        237
    66        263
    67        437
    68        112
    69         34
    70         24
    71         15
    72          5
    73          8
    74         11
    75         18
    76         12
    77        504
    78        260
    79        932
    80        302
    81        249
    82         42
    83         61
    84         11
    85          5
    86          2
    87          3
    88          3
    89         13
    90          9
    91        567
    92        117
    93        700
    94        999
    95        177
    96        148
    97         14
    98          7
   102          7
   103         66
   104         94
   105        135
   106        382
   107        394
   108        120
   109        139
   110         10
   111          2
   115         14
   116          8
   117        101
   118         15
   119         65
   120         34
   121        779
   122        326
   123         28
   124          2
   128          4
   129          4
   130          8
   131         26
   132         36
   133         10
   134          4
   135        116
   136         13
   149         38
   150        229
   151         25
   152          5