##TITLE=Library Entry 83801
##JCAMP-DX=Revision 4.10 
##DATA TYPE=MASS SPECTRUM
##SAMPLE DESCRIPTION=Y.KAWANO, COLL. TROP. AGRIC., UNIV. OF HAWAII, HAWAII
##NAMES=HP
##CAS NAME=Cyclopropanecarboxylic acid, 3-(3-methoxy-2-methyl-3-oxo-1-propen
yl)-2,2-dimethyl-, 2-methyl-4-oxo-3-(2-pentenyl)-2-cyclopenten-1-yl ester, [
1R-[1.alpha.[S*(Z)],3.beta.(E)]]-
##MOLFORM=C22H30O5
##CAS REGISTRY NO=1172-63-0
##MP= -300
##BP= -300
##MW= 374
##$RETENTION INDEX=2558
##$CONDENSED SPECTRUM=NO
##NPOINTS= 88
##XYDATA=(XY..XY) 1 
    27        140
    29        360
    39        250
    41        560
    42         32
    43        588
    44         53
    50         29
    51         50
    52         49
    53        182
    54         39
    55        630
    56         39
    57        134
    58         36
    59        132
    60         48
    65        132
    66         52
    67        130
    68         39
    69        118
    70         14
    71         29
    72          3
    73         18
    77        293
    78         78
    79        368
    80         83
    81        137
    91        500
    92         72
    93        665
    94         56
    95         48
    96         21
    97         27
   103         32
   104          8
   105        196
   106         39
   107        999
   108        119
   109         94
   110         13
   111         18
   112         59
   115         36
   116          2
   117         28
   118          8
   119         49
   120         43
   121        322
   122         57
   123         56
   125         55
   133        129
   134         48
   135        353
   136         74
   137         27
   139         45
   145         53
   146         13
   147         34
   148         18
   149         42
   150         20
   151         12
   152          9
   153         24
   161         32
   162         56
   163        258
   164        102
   165        102
   166         14
   167        267
   168         38
   169          8
   197          4
   198          0
   211          9
   212          9
   343          7