##TITLE=Library Entry 11679
##JCAMP-DX=Revision 4.10 
##DATA TYPE=MASS SPECTRUM
##SAMPLE DESCRIPTION=V. Nevalainen, Dep. Chem., Univ. Helsinki, Helsinki, Fi
nland
##NAMES=HP
##CAS NAME=2-Butanone, 3-[(2-chloroethyl)thio]-
##MOLFORM=C6H11ClOS
##CAS REGISTRY NO=117239-10-8
##MP= -300
##BP= -300
##MW= 166
##$RETENTION INDEX=0
##$CONDENSED SPECTRUM=NO
##NPOINTS= 21
##XYDATA=(XY..XY) 1 
    43        999
    45        280
    59        930
    60        240
    61        650
    63        390
    65        130
    72        150
    74         50
    87        100
    89         60
    95         90
    97         30
   102        150
   105         50
   123        970
   125        350
   130        510
   166        100
   167          7
   168         30