##TITLE=Library Entry 76294
##JCAMP-DX=Revision 4.10 
##DATA TYPE=MASS SPECTRUM
##SAMPLE DESCRIPTION=V. Nevalainen, Dep. Chem., Univ. Helsinki, Helsinki, Fi
nland
##NAMES=HP
##CAS NAME=2,2'-Bi-1,3-oxathiolane, 2-methyl-
##MOLFORM=C7H12O2S2
##CAS REGISTRY NO=117239-01-7
##MP= -300
##BP= -300
##MW= 192
##$RETENTION INDEX=0
##$CONDENSED SPECTRUM=NO
##NPOINTS= 14
##XYDATA=(XY..XY) 1 
    43        460
    45         70
    59         50
    60         70
    61        130
    89        150
   103        999
   116         30
   128         10
   130         10
   132         10
   172         10
   174         10
   192         20