##TITLE=Library Entry 83644
##JCAMP-DX=Revision 4.10 
##DATA TYPE=MASS SPECTRUM
##SAMPLE DESCRIPTION=Chemical Concepts
##NAMES=HP
##CAS NAME=2H-2,4a-Ethanopentaleno[1,2-b]oxirene, hexahydro-, (1a.alpha.,1b.
alpha.,2.beta.,4a.beta.,5a.alpha.)-
##MOLFORM=C10H14O
##CAS REGISTRY NO=117221-81-5
##MP= -300
##BP= -300
##MW= 150
##$RETENTION INDEX=0
##$CONDENSED SPECTRUM=NO
##NPOINTS= 95
##XYDATA=(XY..XY) 1 
    26         31
    27        387
    28         48
    29        146
    30          2
    31         11
    37          9
    38         45
    39        573
    40         95
    41        476
    42         33
    43         43
    44         32
    45          8
    49          3
    50         62
    51        172
    52         88
    53        260
    54         69
    55        172
    56         13
    57         29
    58          3
    59          5
    60          3
    61          5
    62         21
    63         66
    64         19
    65        182
    66        129
    67        269
    68        111
    69         28
    70         94
    71         15
    72          3
    73         10
    74          8
    75         15
    76          7
    77        427
    78        363
    79        820
    80        197
    81        279
    82         40
    83         49
    84          6
    85          3
    86          1
    87          2
    89         16
    90          7
    91        473
    92        150
    93        660
    94        532
    95        114
    96        112
    97          9
   102          4
   103         50
   104        152
   105        106
   106        353
   107        999
   108        127
   109         83
   110          6
   115         12
   116          5
   117         53
   118          8
   119         43
   120         31
   121        375
   122        254
   123         23
   124          2
   128          4
   129          2
   130          8
   131         12
   132         18
   133          6
   134          2
   135         62
   136          5
   149         44
   150         57
   151          6
   152          1