##TITLE=Library Entry 32251
##JCAMP-DX=Revision 4.10 
##DATA TYPE=MASS SPECTRUM
##SAMPLE DESCRIPTION=A.A.Kutin, Moscow, Russia
##NAMES=HP
##CAS NAME=Tetracyclo[6.3.0.0(3,7).0(5,10)]undecan-6-one, 9,9-dichloro-
##MOLFORM=C11H10Cl2O
##CAS REGISTRY NO=117389-51-2
##MP= -300
##BP= -300
##MW= 228
##$RETENTION INDEX=0
##$CONDENSED SPECTRUM=NO
##NPOINTS= 148
##XYDATA=(XY..XY) 1 
    35          2
    36         10
    37          7
    38         33
    39        161
    40         46
    41         21
    42          3
    43          2
    44          2
    47          0
    49         13
    50         53
    51        170
    52         46
    53         53
    54          8
    55         51
    56          2
    57          1
    60          0
    61         12
    62         26
    63         98
    64         94
    65        130
    66        999
    67         84
    68         19
    69          3
    72          2
    73         53
    74         23
    75         57
    76         22
    77        162
    78         80
    79         48
    80          5
    81         31
    82         16
    83          3
    84          2
    85         10
    86          6
    87         22
    88         24
    89         49
    90         21
    91         70
    92         19
    93          3
    94         21
    95         14
    97          6
    99         81
   100        185
   101         94
   102         99
   103         65
   104         13
   105          8
   107          0
   108          0
   109          4
   110          1
   111         10
   112         73
   113         35
   114         34
   115        137
   116         57
   117         20
   118          4
   119          2
   120          3
   122         21
   123          6
   124         16
   125         83
   126         49
   127        141
   128        291
   129        541
   130        156
   131         24
   132          1
   134        133
   135         17
   136         83
   137         18
   138         24
   139         14
   140          6
   141          4
   142          0
   146          5
   147          9
   148          4
   149         23
   150         15
   151         33
   152         10
   153         14
   154          2
   155          0
   156         13
   157         78
   158         39
   159          8
   160          9
   161          5
   162         22
   163         18
   164        116
   165        337
   166         70
   167        114
   168          9
   173          2
   174          1
   175          6
   177          1
   178          1
   180          1
   185          0
   186          4
   187          0
   188          4
   191          4
   192         24
   193        237
   194         35
   195         78
   196          7
   200         24
   201          3
   202         16
   203          0
   204          2
   214          7
   216          2
   228        193
   229         22
   230        121
   231         13
   232         19
   233          1