##TITLE=Library Entry 84034
##JCAMP-DX=Revision 4.10 
##DATA TYPE=MASS SPECTRUM
##SAMPLE DESCRIPTION=P.A. SZCZEPANIK, ARGONNE NATIONAL LABORATORY, USA
##NAMES=HP
##CAS NAME=Cholan-24-oic acid, 3-oxo-, methyl ester, (5.beta.)-
##MOLFORM=C25H40O3
##CAS REGISTRY NO=1173-32-6
##MP= -300
##BP= -300
##MW= 388
##$RETENTION INDEX=3124
##$CONDENSED SPECTRUM=NO
##NPOINTS= 224
##XYDATA=(XY..XY) 1 
   100         18
   101         25
   102         26
   103         69
   104         75
   105        814
   106        291
   107        999
   108        680
   109        943
   110        599
   111        195
   112         64
   113         35
   114         46
   115        237
   116         65
   117        146
   118        216
   119        635
   120        303
   121        660
   122        779
   123        464
   124        414
   125        114
   126         63
   127         49
   128        110
   129        114
   130         67
   131        445
   132        170
   133        572
   134        216
   135        483
   136        203
   137        315
   138         54
   139         29
   140         10
   141        107
   142        129
   143        152
   144         84
   145        306
   146         99
   147        437
   148        132
   149        351
   150        114
   151        104
   152         17
   153         42
   154        134
   155        111
   156         56
   157        188
   158        158
   159        575
   160        186
   161        806
   162        466
   163        343
   164        125
   165        241
   166         22
   167         69
   168         37
   169         47
   170         31
   171        157
   172         86
   173        289
   174        151
   175        369
   176        526
   177        147
   178         88
   179        125
   180         31
   181         51
   183         35
   184         13
   185        104
   186         49
   187        164
   188         72
   189        230
   190         86
   191         87
   192         24
   193         36
   194         10
   195         43
   197         60
   198         25
   199        224
   200         73
   201        120
   202         60
   203        137
   204         47
   205         41
   207         21
   208         60
   209         29
   210         11
   211         72
   213        663
   214        237
   215        328
   216         63
   217        219
   218         81
   219         56
   220         13
   221         12
   222         14
   223         17
   224         22
   225         24
   226         29
   227         63
   228         80
   229        141
   230         72
   231        641
   232        297
   233        105
   234         39
   235         20
   236         17
   237         35
   238         10
   239         29
   240         15
   241         28
   242         26
   243         51
   244         75
   245         85
   246        567
   247        121
   248         44
   249         30
   250         22
   252         21
   253         42
   254         28
   255        267
   256         65
   257         66
   258         37
   259         26
   260         28
   261         21
   263         31
   264         30
   265         60
   266         26
   267         24
   268         29
   270         68
   271        279
   272        310
   273        808
   274        205
   275         41
   278         19
   280         10
   281         41
   282         42
   283         26
   284         29
   286         90
   287         45
   288         21
   289         12
   290         10
   291          9
   295         39
   297        110
   298         41
   300         54
   301         49
   302         89
   303         23
   305         23
   306         17
   307          9
   311         10
   315        293
   316        107
   318        384
   319        141
   321         43
   323         76
   324         28
   326         19
   327         27
   328        118
   329         65
   331         41
   332         20
   333         13
   335         10
   339        148
   341        104
   342         26
   351          7
   356        413
   359          8
   361         13
   365         10
   368          8
   369         11
   370         94
   371         54
   373        172
   375         17
   384         13
   387         19
   388        360