##TITLE=Library Entry 47476
##JCAMP-DX=Revision 4.10 
##DATA TYPE=MASS SPECTRUM
##SAMPLE DESCRIPTION=J.H.BOWIE UNIVERSITY OF ADELAIDE, AUSTRALIA
##NAMES=HP
##CAS NAME=Diazene, 1,1'-[1,1'-biphenyl]-4,4'-diylbis[2-phenyl-
##MOLFORM=C24H18N4
##CAS REGISTRY NO=1174-10-3
##MP= -300
##BP= -300
##MW= 362
##$RETENTION INDEX=0
##$CONDENSED SPECTRUM=NO
##NPOINTS= 22
##XYDATA=(XY..XY) 1 
    50         60
    51        240
    76         60
    77        999
    78        120
   105        200
   126        100
   127         70
   139         30
   151         80
   152        770
   153        120
   168         40
   180        200
   181         40
   204         30
   227         30
   257        580
   258        100
   285         30
   362        400
   363        110