##TITLE=Library Entry 26340
##JCAMP-DX=Revision 4.10 
##DATA TYPE=MASS SPECTRUM
##SAMPLE DESCRIPTION=NIST Mass Spectrometry Data Center
##NAMES=HP
##CAS NAME=6-Methylheptyl 2-methylbutanoate
##MOLFORM=C13H26O2
##CAS REGISTRY NO=117421-31-5
##MP= -300
##BP= -300
##MW= 214
##$RETENTION INDEX=1398
##$CONDENSED SPECTRUM=NO
##NPOINTS= 44
##XYDATA=(XY..XY) 1 
    27         34
    29         97
    31          4
    39         58
    41        349
    42         87
    43        293
    45         10
    55        259
    56        476
    57        999
    58         45
    61          4
    67         38
    68         72
    69        383
    70        221
    71        213
    72         13
    73         12
    74         84
    75         22
    83         47
    84        201
    85        368
    86         16
    87         35
    96          8
    97        168
    98         15
   100          2
   102         33
   103        726
   104         46
   111         15
   112        140
   113         14
   129         11
   130          4
   143          5
   157         16
   158          7
   169          1
   186          5