##TITLE=Library Entry 65930
##JCAMP-DX=Revision 4.10 
##DATA TYPE=MASS SPECTRUM
##SAMPLE DESCRIPTION=Chemical Concepts
##NAMES=HP
##CAS NAME=2-Pyridineamine,3-methyl-2-[1-(4-nitrophenyl)methylidene]
##MOLFORM=C13H11N3O2
##CAS REGISTRY NO=117486-99-4
##MP= -300
##BP= -300
##MW= 241
##$RETENTION INDEX=0
##$CONDENSED SPECTRUM=NO
##NPOINTS= 178
##XYDATA=(XY..XY) 1 
    26          1
    27         11
    28          7
    29          3
    30          6
    37          2
    38          8
    39         70
    40         11
    41         13
    42          4
    43          6
    44          0
    45          1
    46          1
    47          0
    49          0
    50         21
    51         30
    52         11
    53         10
    54          4
    55          4
    56          3
    57          8
    58          0
    60          0
    61          1
    62         11
    63         32
    64         20
    65        137
    66         74
    67         24
    68          1
    69          2
    70          1
    71          2
    72          0
    73          0
    74          5
    75         10
    76         18
    77         16
    78         11
    79          8
    80          5
    81          1
    82          0
    83          2
    84          6
    85          1
    86          1
    87          4
    88          4
    89          9
    90         10
    91         13
    92        126
    93        999
    94         68
    95          3
    96          2
    97         11
    98          0
    99          0
   100          0
   101          1
   102          4
   103          6
   104          3
   105          4
   106          0
   107          1
   108          3
   109          0
   110          0
   111          0
   112          0
   113          1
   114          2
   115          6
   116          1
   117          2
   118         11
   119         35
   120          4
   121          0
   122          0
   123          0
   124          0
   125          0
   126          1
   127          2
   128          2
   129          1
   130          1
   131          0
   132          0
   134          0
   135          0
   136          2
   137          0
   138          0
   139          4
   140          4
   141          3
   142          1
   143          2
   144          0
   145          0
   146          0
   147          0
   148          0
   149          3
   150          8
   151          7
   152          2
   153          4
   154          2
   155          2
   156          1
   157          0
   160          0
   163          0
   164          0
   165          1
   166          7
   167         26
   168         22
   169          3
   172          0
   177          0
   178          0
   179          4
   180          7
   181          3
   182          4
   183          4
   184          1
   185          0
   186          0
   187          0
   190          0
   191          0
   192          5
   193         15
   194         52
   195         16
   196          2
   197          0
   199          0
   200          0
   205          0
   206          0
   207          0
   208          0
   209          0
   210          2
   211          1
   212          0
   213         13
   214          3
   215          0
   220          1
   221          0
   222          0
   223          0
   224          8
   225          1
   226          4
   227          0
   230          1
   239          2
   240        108
   241        122
   242         18
   243          1