##TITLE=Library Entry 14394
##JCAMP-DX=Revision 4.10 
##DATA TYPE=MASS SPECTRUM
##SAMPLE DESCRIPTION=R RYHAGE MS-LAB KAROLINSKA INSTITUTET STOCKHOLM SWEDEN
##NAMES=HP
##CAS NAME=Pregnane-3,20-diol, diacetate, (3.alpha.,5.beta.,20S)-
##MOLFORM=C25H40O4
##CAS REGISTRY NO=1174-69-2
##MP= -300
##BP= -300
##MW= 404
##$RETENTION INDEX=0
##$CONDENSED SPECTRUM=NO
##NPOINTS= 176
##XYDATA=(XY..XY) 1 
    13          8
    14         20
    15         77
    16          8
    17          8
    18         23
    26         11
    27         42
    29         74
    31          8
    38          5
    39         57
    40         15
    41        194
    42         43
    43        999
    44         44
    45        108
    50          8
    51         16
    52         10
    53         82
    54         50
    55        255
    56         19
    57         33
    60         61
    61         32
    63          7
    65         38
    66         22
    67        236
    68         74
    69         90
    70         13
    71         25
    72          5
    77        119
    78         36
    79        288
    80         64
    81        285
    82         36
    83         48
    84          9
    85         11
    86          8
    87         44
    89          5
    91        252
    92         67
    93        335
    94        130
    95        219
    96         27
    97         29
    98          6
   103         15
   104         23
   105        236
   106        127
   107        294
   108        147
   109        133
   110         18
   111         19
   112          5
   114          7
   115         23
   116         11
   117         55
   118         37
   119        161
   120        111
   121        213
   122        111
   123         68
   124         10
   125          6
   127          9
   128         18
   129         22
   130         12
   131         77
   132         36
   133        147
   134         86
   135        116
   136         27
   137         14
   141          8
   142          8
   143         24
   144         12
   145        116
   146         42
   147        172
   148         65
   149        101
   150         15
   151          6
   155          6
   157         22
   158         14
   159        133
   160         65
   161        141
   162         84
   163         38
   164          7
   165          6
   171         19
   172         13
   173         83
   174         87
   175        108
   176         60
   177         23
   178          5
   185         21
   186         11
   187         67
   188         62
   189         41
   190         16
   191          8
   199         35
   200         19
   201        101
   202         58
   203         27
   204          6
   213         65
   214         43
   215        302
   216        197
   217         67
   218         11
   227         52
   228         39
   229        116
   230        205
   231         40
   232          5
   241         26
   242         37
   243         31
   244          7
   255         74
   256         31
   257         13
   268          6
   269        310
   270         72
   271         11
   275          8
   276         13
   283         11
   284        474
   285        130
   286         19
   287          6
   288         13
   289          6
   290         24
   291          5
   301          5
   302         12
   303          5
   315         12
   316          5
   329         42
   330         11
   344        116
   345         32
   346          5