##TITLE=Library Entry 83655
##JCAMP-DX=Revision 4.10 
##DATA TYPE=MASS SPECTRUM
##SAMPLE DESCRIPTION=Chemical Concepts
##NAMES=HP
##CAS NAME=Cyclopentanecarboxylic acid, 3-ethenyl-2-methylene-, methyl ester
##MOLFORM=C10H14O2
##CAS REGISTRY NO=117459-86-6
##MP= -300
##BP= -300
##MW= 166
##$RETENTION INDEX=0
##$CONDENSED SPECTRUM=NO
##NPOINTS= 91
##XYDATA=(XY..XY) 1 
    26         13
    27        196
    29        125
    30          3
    31          7
    33          2
    37          4
    38         20
    39        254
    40         38
    41        189
    42          9
    43         19
    44          4
    45         19
    49          1
    50         32
    51         90
    52         53
    53        130
    54         29
    55         46
    56          2
    57          3
    58          4
    59         94
    60          3
    61          5
    62          8
    63         26
    64          7
    65         93
    66         26
    67         68
    68          8
    69          8
    71          5
    74         10
    75          8
    76          5
    77        180
    78        122
    79        770
    80         99
    81         18
    82          3
    83          2
    84          3
    85          1
    87         16
    88          3
    89          4
    90          3
    91        508
    92         94
    93         33
    94          3
    95          9
    96          2
    97          3
    98          1
    99          2
   100          1
   102          2
   103         20
   104          7
   105        125
   106        561
   107        999
   108         81
   109          9
   110          3
   111          3
   112          1
   119         10
   121          1
   123         16
   124          2
   125          2
   133          7
   134         23
   135         17
   136          2
   137          8
   138          8
   139          1
   151         19
   152          2
   165          2
   166         49
   167          6