##TITLE=Library Entry 65538
##JCAMP-DX=Revision 4.10 
##DATA TYPE=MASS SPECTRUM
##SAMPLE DESCRIPTION=M.Hierro ET AL.JAOCS,73,575(1996)
##NAMES=HP
##CAS NAME=14-Methylhexadecanoic acid, picolinyl ester
##MOLFORM=C23H39NO2
##CAS REGISTRY NO=117485-91-3
##MP= -300
##BP= -300
##MW= 361
##$RETENTION INDEX=0
##$CONDENSED SPECTRUM=NO
##NPOINTS= 141
##XYDATA=(XY..XY) 1 
    53         35
    54         22
    55        247
    56         79
    57        279
    58         15
    60          4
    62          5
    63         22
    64         25
    65        156
    66         29
    67         43
    68         13
    69        114
    70         48
    71         76
    72          6
    76          5
    77          8
    78         28
    79         22
    80         39
    81         22
    82          6
    83         62
    84         19
    85         37
    86          4
    90          5
    91         51
    92        999
    93        654
    94         82
    95         24
    97         32
    98         27
    99         12
   101          5
   104          7
   106         33
   107         52
   108        668
   109        308
   110        103
   111         24
   112         12
   113          5
   120          9
   121          4
   122          4
   123          8
   125          5
   127          7
   130          5
   132          5
   134          4
   135         11
   136          5
   137          2
   139          8
   140          3
   143          4
   146          4
   148         15
   149          3
   150          4
   151        522
   152         50
   153         10
   156          2
   157          5
   162          4
   164        689
   165         98
   166         14
   167          2
   171          3
   178         96
   179         25
   181          4
   190          6
   192         35
   202          2
   204         12
   205          2
   206        151
   213          4
   218          6
   220        153
   221         39
   222          7
   223          6
   224          2
   231          3
   232         10
   233          5
   234        171
   235         35
   236          5
   243          2
   246         11
   247          3
   248        205
   249         35
   250          2
   260          9
   262        229
   263         54
   264          9
   274          6
   276        198
   277         49
   278          7
   288          6
   290        209
   291         55
   292          8
   293          3
   302          8
   304        503
   305        114
   306         21
   314          3
   315          3
   318         12
   330          5
   331          6
   332        394
   333         92
   334         14
   344          6
   345          6
   346        227
   347         63
   348         11
   359         12
   360         82
   361        182
   362         46
   363          8