##TITLE=Library Entry 65040
##JCAMP-DX=Revision 4.10 
##DATA TYPE=MASS SPECTRUM
##SAMPLE DESCRIPTION=Chemical Concepts
##NAMES=HP
##CAS NAME=2-Pyridineamine, N2-[1-(2-nitrophenyl)methylidene]-3-methyl
##MOLFORM=C13H11N3O2
##CAS REGISTRY NO=117486-98-3
##MP= -300
##BP= -300
##MW= 241
##$RETENTION INDEX=0
##$CONDENSED SPECTRUM=NO
##NPOINTS= 183
##XYDATA=(XY..XY) 1 
    26         10
    27         67
    28         47
    29          9
    30         23
    37         11
    38         44
    39        407
    40         44
    41         61
    42         24
    43         20
    44          2
    45          3
    46          6
    47          2
    49          3
    50         95
    51        190
    52         94
    53         71
    54         17
    55         11
    56         12
    57         26
    58          1
    60          2
    61         10
    62         48
    63        136
    64        120
    65        768
    66        175
    67         38
    68          6
    69          7
    70          4
    71          7
    72          1
    73          4
    74         20
    75         46
    76        139
    77        140
    78         66
    79         59
    80         77
    81         13
    82          4
    83          6
    84         25
    85          4
    86          9
    87         15
    88         17
    89         40
    90         43
    91        235
    92        999
    93        652
    94         61
    95          5
    96         11
    97         22
    98          2
    99          3
   100          3
   101          7
   102         49
   103         37
   104        142
   105         76
   106         12
   107        139
   108         31
   109          8
   110          1
   111          2
   112          2
   113          6
   114         13
   115         24
   116         14
   117         10
   118         14
   119         27
   120         19
   121         75
   122          6
   123          2
   125          3
   126          6
   127         17
   128         15
   129         20
   130         11
   131         11
   132          7
   133          5
   134         49
   135        362
   136         28
   137          3
   138          4
   139         24
   140         27
   141         19
   142         10
   143          6
   144          6
   145          6
   146          7
   147          2
   148          1
   149          7
   150          1
   151          2
   152          9
   153         14
   154         18
   155         14
   156         12
   157         18
   158          5
   159          3
   160          2
   163          1
   164          5
   165          7
   166         42
   167         85
   168        121
   169         45
   170         17
   171         11
   172          3
   176          6
   177          2
   178          3
   179         22
   180         16
   181         59
   182        277
   183         73
   184         46
   185          8
   186          2
   191          5
   192         34
   193         79
   194        129
   195        575
   196        255
   197         44
   198         11
   199         34
   200          5
   201          1
   202          1
   204          1
   205          1
   206         19
   207          8
   208          4
   209         10
   211         14
   212        114
   213         24
   214          7
   215          1
   220          3
   221          3
   222         35
   223         25
   224        233
   225         38
   226          5
   227          1
   240         19
   241        176
   242         33
   243          3
   244          0