##TITLE=Library Entry 65872
##JCAMP-DX=Revision 4.10 
##DATA TYPE=MASS SPECTRUM
##SAMPLE DESCRIPTION=V.A.Korolev, Moscow, Russia
##NAMES=HP
##CAS NAME=5-Amino-2H-1-benzofuran-3-one
##MOLFORM=C8H7NO2
##CAS REGISTRY NO=1174298-02-2
##MP= -300
##BP= -300
##MW= 149
##$RETENTION INDEX=0
##$CONDENSED SPECTRUM=NO
##NPOINTS= 58
##XYDATA=(XY..XY) 1 
    37        273
    38        424
    39        525
    40        235
    41        896
    42        440
    43         34
    44         29
    45         33
    46         85
    47         50
    48         11
    49         91
    50        313
    51        436
    52        962
    53        430
    54        155
    55          9
    60         34
    61        218
    62        407
    63        648
    64        486
    65        620
    66        696
    67         97
    68          8
    72          1
    73         21
    74         76
    75         52
    76         65
    77         50
    78        121
    79         70
    80         44
    81          2
    86          4
    87         11
    88         24
    89         55
    90         65
    91        388
    92        558
    93        999
    94         72
   102          4
   104         53
   105         22
   120        261
   121        220
   122         16
   147          1
   148         82
   149        894
   150         86
   151          3