##TITLE=Library Entry 23000
##JCAMP-DX=Revision 4.10 
##DATA TYPE=MASS SPECTRUM
##SAMPLE DESCRIPTION=Institute of Organic Chemistry, USSR, 1990
##NAMES=HP
##CAS NAME=3,10-Dihydroxy-5,8,15,18,23,26-hexaoxa-1,12-diazabicyclo[10.8.8]o
ctacosane
##MOLFORM=C20H40N2O8
##CAS REGISTRY NO=117536-17-1
##MP= -300
##BP= -300
##MW= 436
##$RETENTION INDEX=0
##$CONDENSED SPECTRUM=NO
##NPOINTS= 197
##XYDATA=(XY..XY) 1 
    50         69
    51         66
    52         80
    53         33
    54         69
    55        200
    56        999
    57        546
    58        546
    59        236
    69        146
    70        509
    71        327
    72        400
    73        140
    74        122
    75         44
    76         31
    77         75
    78        400
    82        131
    83        346
    84        236
    85        200
    86        309
    87        236
    88        200
    89         44
    94        118
    95         71
    96        109
    97         69
    98        149
    99        144
   100        873
   101        309
   102        182
   108         60
   109         49
   110         64
   111         75
   112        182
   113         84
   114        800
   115        182
   116        182
   117         33
   118         96
   126        135
   127        104
   128         73
   129        200
   130         60
   131        400
   132         46
   133        382
   134         35
   140         67
   141         38
   142        107
   143        106
   144        873
   145        200
   146        382
   147         55
   148         20
   149         46
   156         82
   157         66
   158        236
   159        104
   160         80
   170         80
   171         47
   172         91
   173         64
   174         20
   175         29
   176         62
   181         55
   182         18
   183         27
   184         49
   185         47
   186         73
   187         93
   188         86
   189         29
   190         87
   191         18
   192         55
   199         62
   200         60
   201         40
   202         56
   203         47
   204        182
   205         42
   206        273
   207         44
   213        146
   214         46
   215         87
   216         73
   217         44
   218         66
   228         49
   229         95
   230         75
   231         40
   232         60
   233         46
   234         31
   239         18
   241         27
   242         18
   243         56
   244         36
   245         44
   246         47
   247         18
   248         58
   257         40
   258         22
   259         76
   260         55
   261         56
   262         60
   271         40
   272         26
   273         56
   274         46
   275        116
   276         73
   277         22
   278         71
   279         18
   287        147
   288         40
   289        999
   290        255
   291         67
   292        327
   293         56
   294         95
   299         27
   300         18
   301        149
   302         49
   303         69
   304         53
   305         51
   306         22
   323         40
   324         15
   325         51
   326         22
   327         86
   328         33
   329         55
   330         22
   331        142
   332         36
   333         36
   335         47
   336         18
   343         38
   344         18
   345         35
   346         22
   347         82
   348         18
   349         24
   357         24
   359         49
   360         22
   361        255
   362         82
   363         27
   375        309
   376         67
   378         26
   379         22
   387         13
   388          9
   389         15
   391         22
   392         15
   393         18
   405         38
   406         27
   407         11
   418         40
   419         22
   435         36
   436         69
   437         33