##TITLE=Library Entry 62548
##JCAMP-DX=Revision 4.10 
##DATA TYPE=MASS SPECTRUM
##SAMPLE DESCRIPTION=A.A.Kutin, Moscow, Russia
##NAMES=HP
##CAS NAME=Benzenesulfonamide,4-methyl-N-(7-methyldibenzo[c,E]1,2thiazin-9-y
lidene-5,5-dioxide)-
##MOLFORM=C20H16N2O4S2
##CAS REGISTRY NO=117562-21-7
##MP= -300
##BP= -300
##MW= 412
##$RETENTION INDEX=0
##$CONDENSED SPECTRUM=NO
##NPOINTS= 91
##XYDATA=(XY..XY) 1 
    38          3
    39         65
    40         90
    41         21
    43          9
    44         36
    45          1
    50         14
    51         47
    52         11
    55          2
    57          1
    62          7
    63         36
    64         26
    65        193
    66         15
    69          4
    74         16
    75         54
    76         23
    77         54
    78         12
    79          5
    88          3
    89         42
    91        999
    92         69
    93          4
    99          4
   100          9
   101         41
   102         11
   105         34
   107          4
   108          3
   113          5
   114          3
   115          7
   121          8
   125          4
   126         19
   127         19
   128          6
   135          3
   136          1
   137          7
   138         11
   139         62
   140         37
   141          9
   151         10
   152         20
   153         26
   155        515
   156         40
   157         18
   164         20
   165         18
   166         31
   167         34
   168          9
   178          4
   179          6
   180          8
   181          2
   182          1
   191          7
   192         33
   193          9
   195          1
   225          3
   230          2
   231          1
   242          2
   256          3
   257          8
   259         35
   260          3
   269         46
   270          3
   282          1
   283         26
   284         14
   333         32
   334          1
   340          7
   347          2
   348         41
   349          5
   412         17