##TITLE=Library Entry 79450
##JCAMP-DX=Revision 4.10 
##DATA TYPE=MASS SPECTRUM
##SAMPLE DESCRIPTION=Patti Price, Georgia Bureau of Investigation, Decatur,
 Georgia
##NAMES=HP
##CAS NAME=Androst-5-ene-3,17-diol, 17-benzoate, (3.beta.,17.beta.)-
##MOLFORM=C26H34O3
##CAS REGISTRY NO=1175-12-8
##MP= -300
##BP= -300
##MW= 394
##$RETENTION INDEX=0
##$CONDENSED SPECTRUM=NO
##NPOINTS= 181
##XYDATA=(XY..XY) 1 
    41         39
    43         23
    45          1
    50          1
    51         16
    52          1
    53         12
    54          1
    55         57
    56          2
    57         15
    65          9
    66          1
    67         34
    68          4
    69         10
    70          1
    71          3
    72          1
    73          1
    74          1
    75          1
    76          6
    77        177
    78         17
    79         59
    80          6
    81         50
    82          4
    83          8
    84          1
    85          1
    91         68
    92         15
    93         50
    94         17
    95         29
    96          3
    97          6
   103          4
   104         11
   105        999
   106         83
   107         76
   108         11
   109         14
   110          1
   111          1
   115          9
   116          5
   117         25
   118         13
   119         40
   120         26
   121         25
   122          6
   123          5
   124          4
   125         11
   127          1
   128          8
   129         14
   130          7
   131         35
   132         12
   133         51
   134         14
   135          9
   136          1
   137          1
   138          1
   141          4
   142          3
   143         22
   144         12
   145         47
   146         26
   147         28
   148         20
   149          7
   150          1
   151          1
   152          1
   153          1
   155          3
   156          1
   157         18
   158         11
   159         31
   160         36
   161         86
   162         14
   163          7
   164          1
   165          1
   168          1
   169          3
   170          1
   171         12
   172          7
   173         22
   174          7
   175          4
   176          1
   177          2
   179          1
   181          1
   182          1
   183         10
   184          3
   185          8
   186          8
   187         22
   188          4
   189          2
   190          1
   195          1
   197         14
   198          1
   199         10
   200          3
   201          3
   202          1
   203          1
   207          1
   211          7
   212          4
   213         13
   214          2
   215          6
   216          1
   217          1
   218          1
   225          7
   226          1
   227          3
   228          2
   229          3
   230          3
   231          1
   239         44
   240          9
   243          1
   244          1
   252          1
   253          8
   254         18
   255          7
   256          1
   257         33
   258          5
   259          1
   268          1
   270          2
   271          7
   272         23
   273          4
   282          4
   283         11
   284          2
   308          1
   309         30
   310          7
   321          1
   322          1
   334          5
   335          2
   336          1
   337          1
   351          1
   361          4
   362          1
   376         31
   377          7
   378          1
   379          6
   380          1
   392          1
   394         50
   395         14
   396          1