##TITLE=Library Entry 57314
##JCAMP-DX=Revision 4.10 
##DATA TYPE=MASS SPECTRUM
##SAMPLE DESCRIPTION=Institute of Organic Chemistry, USSR, 1990
##NAMES=HP
##CAS NAME=(2S,13S)-12,13-Dihydroxy-1,4,7,10-tetraoxacyclotetradecane
##MOLFORM=C10H20O6
##CAS REGISTRY NO=117666-56-5
##MP= -300
##BP= -300
##MW= 236
##$RETENTION INDEX=0
##$CONDENSED SPECTRUM=NO
##NPOINTS= 58
##XYDATA=(XY..XY) 1 
    54         24
    55        128
    56        114
    57        333
    58        569
    59        902
    60        122
    61        137
    62         22
    63         28
    69        118
    70         80
    71        122
    72        129
    73        451
    74         65
    75        139
    76         28
    77         24
    81         20
    82         24
    83         41
    84         24
    85         78
    86        112
    87        999
    88        122
    89        745
    90         45
    91         28
    99         86
   100         53
   101         69
   102         45
   103        122
   104         22
   105         37
   107         63
   112         35
   113         43
   115         39
   116         26
   117         98
   119         53
   130         22
   131         84
   132         20
   133         90
   149         22
   151          8
   161         24
   163         10
   165         10
   175        765
   176         77
   177         22
   193         37
   236          6