##TITLE=Library Entry 81617
##JCAMP-DX=Revision 4.10 
##DATA TYPE=MASS SPECTRUM
##SAMPLE DESCRIPTION=A. Liguori, Dep. Chem., Univ. Calabria, Calabria, Italy
##NAMES=HP
##CAS NAME=Ethanone, 1-(3-benzoyl-2,3-dihydro-2-phenyl-4-isoxazolyl)-
##MOLFORM=C18H15NO3
##CAS REGISTRY NO=117644-62-9
##MP= -300
##BP= -300
##MW= 293
##$RETENTION INDEX=0
##$CONDENSED SPECTRUM=NO
##NPOINTS= 41
##XYDATA=(XY..XY) 1 
    77        640
    78         50
    83         40
    89         90
    90         80
    91        240
    93        120
    94         50
    95         40
   104        120
   105        999
   106        140
   115         70
   116        110
   117         80
   118        120
   121         30
   129        100
   130         30
   144         90
   146         90
   149         30
   165        100
   172        120
   175         50
   180         80
   188        750
   189        120
   194         90
   203         20
   204         20
   205         10
   206         24
   209         40
   216         30
   250        280
   251        100
   264         46
   265         36
   293        220
   294         44