##TITLE=Library Entry 46665
##JCAMP-DX=Revision 4.10 
##DATA TYPE=MASS SPECTRUM
##SAMPLE DESCRIPTION=A.A.Kutin, Moscow, Russia
##NAMES=HP
##CAS NAME=1H-1,2,3-Triazole-4-carboxylic acid, 5-azidomethyl-1-phenyl-
##MOLFORM=C11H10N6O2
##CAS REGISTRY NO=117693-94-4
##MP= -300
##BP= -300
##MW= 258
##$RETENTION INDEX=0
##$CONDENSED SPECTRUM=NO
##NPOINTS= 135
##XYDATA=(XY..XY) 1 
    33          1
    34          0
    37         17
    38         47
    39         96
    40         31
    41         15
    42         11
    43         29
    44         25
    45         41
    46          1
    49          7
    50        113
    51        479
    52         58
    53         19
    54         65
    55         12
    56         13
    57          5
    58          8
    59         68
    60          2
    61          8
    62         22
    63         50
    64         35
    65         43
    66         15
    67          5
    68          7
    69         13
    70          1
    71          6
    73          5
    74         21
    75         32
    76        102
    77        999
    78        101
    79          6
    80          8
    81          1
    82          0
    83          2
    84          0
    85          1
    86          2
    87          7
    88         21
    89         59
    90         30
    91         38
    92          6
    93          4
    94          0
    95          0
    97          0
    99         12
   100          1
   101          4
   102         16
   103         56
   104         41
   105          8
   106          5
   107          4
   108          1
   109          0
   110          0
   111          0
   112          0
   113          1
   114         17
   115         41
   116         79
   117         94
   118         30
   119         34
   120          3
   121          0
   127          1
   128         37
   129         52
   130         84
   131         16
   132          8
   133          4
   134         36
   135          3
   140          1
   141          7
   142         30
   143        122
   144        200
   145         31
   146         18
   147          2
   148          0
   149          0
   155          1
   156          9
   157         10
   158         14
   159          5
   160          6
   161          0
   162          0
   168          1
   169          7
   170         15
   171         30
   172         38
   173          7
   174          6
   175          7
   176          1
   186          1
   188        205
   189         24
   190          2
   198          0
   199          1
   200          1
   201          3
   202          5
   203          0
   227          5
   228          1
   229          0
   230          1
   258         22
   259          3
   260          0