##TITLE=Library Entry 14118
##JCAMP-DX=Revision 4.10 
##DATA TYPE=MASS SPECTRUM
##SAMPLE DESCRIPTION=V.G.Zaikin, TIPS, Russian Acad. Sci.
##NAMES=HP
##CAS NAME=3beta,17beta-Diacetoxy-17-isopregn-5-en-20-one
##MOLFORM=C25H36O5
##CAS REGISTRY NO=1176-21-2
##MP= -300
##BP= -300
##MW= 416
##$RETENTION INDEX=0
##$CONDENSED SPECTRUM=NO
##NPOINTS= 125
##XYDATA=(XY..XY) 1 
    39        252
    40         91
    41        376
    42        305
    43        999
    44        193
    45        337
    50         49
    51         94
    52         54
    53        122
    54         38
    55        252
    56         50
    57         57
    60        205
    63         26
    64         17
    65         82
    66         52
    67        253
    68         42
    69         75
    70         21
    71         57
    77        196
    78        109
    79        306
    80         59
    81        396
    82         52
    83         53
    91        416
    92        112
    93        288
    94         70
    95        155
    96         36
    97         59
   105        332
   106         97
   107        234
   108         75
   109        211
   110         33
   111         28
   115        112
   116         58
   117        169
   118         67
   119        168
   120        116
   121        185
   122         48
   123         67
   128        116
   129        149
   130         76
   131        202
   132         91
   133        242
   134         49
   135         67
   141         78
   142         67
   143        206
   144         91
   145        282
   146         86
   147        189
   149         52
   150         30
   155         46
   156         40
   157        261
   158        149
   159        165
   160         54
   161         59
   165         40
   166         25
   167         36
   169         48
   171         72
   172         36
   173         51
   175         29
   177         24
   179         20
   181         35
   183         38
   184         17
   185         56
   186         35
   187         35
   211         50
   212         40
   213        250
   214         60
   235         17
   236         17
   237         40
   238         17
   251         48
   252         91
   253        759
   254        320
   255         72
   263         33
   264         12
   270         78
   271        231
   272         62
   281         61
   282         25
   295         18
   296        116
   297         36
   312          8
   313        124
   314         55
   354         33
   356        481
   357        146
   358         28