##TITLE=Library Entry 70969
##JCAMP-DX=Revision 4.10 
##DATA TYPE=MASS SPECTRUM
##SAMPLE DESCRIPTION=Institute of Organic Chemistry, USSR, 1990
##NAMES=HP
##CAS NAME=N-[2-(Perfluorophenoxy)ethyl]piperidine
##MOLFORM=C13H14F5NO
##CAS REGISTRY NO=117766-21-9
##MP= -300
##BP= -300
##MW= 295
##$RETENTION INDEX=0
##$CONDENSED SPECTRUM=NO
##NPOINTS= 22
##XYDATA=(XY..XY) 1 
    40          9
    41         70
    42         78
    43         12
    44         39
    54         13
    55         88
    56         39
    57          7
    68          5
    69         30
    70         30
    83         36
    84          6
    96         23
    98        999
    99         78
   111         14
   112          8
   155          6
   184          8
   295         26