##TITLE=Library Entry 68336
##JCAMP-DX=Revision 4.10 
##DATA TYPE=MASS SPECTRUM
##SAMPLE DESCRIPTION=Japan AIST/NIMC Database- Spectrum MS-IW-6210
##NAMES=HP
##CAS NAME=2-Pentynal semicarbazone
##MOLFORM=C6H9N3O
##CAS REGISTRY NO=117785-63-4
##MP= -300
##BP= -300
##MW= 139
##$RETENTION INDEX=0
##$CONDENSED SPECTRUM=NO
##NPOINTS= 83
##XYDATA=(XY..XY) 1 
    14          1
    15          6
    16          9
    17         23
    18         20
    25          1
    26         11
    27         87
    28         74
    29         40
    30         12
    31         10
    32          1
    36          1
    37         17
    38         43
    39        239
    40         96
    41        331
    42         78
    43        241
    44        279
    45          9
    46          1
    48          1
    49          8
    50         50
    51        104
    52         64
    53        153
    54        150
    55         20
    56         25
    57          4
    58          2
    60        709
    61         64
    62         18
    63         38
    64         18
    65        176
    66         61
    67        134
    68        203
    69         98
    70          9
    71          8
    72         11
    73          1
    75          5
    76          5
    77          1
    78         31
    79         10
    80        252
    81        392
    82         26
    83          1
    85          9
    86          1
    88          3
    93          7
    95        999
    96        800
    97         67
    98          2
    99         17
   100          1
   109          1
   110          8
   111          1
   112          3
   113          3
   121          2
   122          3
   123          7
   124          7
   125          2
   137          1
   138          6
   139        558
   140        103
   141          7