##TITLE=Library Entry 41712
##JCAMP-DX=Revision 4.10 
##DATA TYPE=MASS SPECTRUM
##SAMPLE DESCRIPTION=Org.Mass.Spectrom.,22(7)421(1987);J.S.Srendsen ET AL
##NAMES=HP
##CAS NAME=3-Trimethylsilyloxynonanedioic acid, dimethyl ester
##MOLFORM=C14H28O5Si
##CAS REGISTRY NO=117750-04-6
##MP= -300
##BP= -300
##MW= 304
##$RETENTION INDEX=0
##$CONDENSED SPECTRUM=NO
##NPOINTS= 88
##XYDATA=(XY..XY) 1 
    55        185
    57         23
    58         19
    59        264
    61         39
    67         35
    69         29
    71         38
    72         30
    73        999
    74        109
    75        261
    76         16
    77         17
    79         33
    80         16
    81        275
    82         22
    83         11
    85         16
    87         17
    89        685
    90         50
    91         50
    95         58
    97         20
    99         28
   101         61
   103         23
   105        144
   106         11
   107         26
   109         22
   113         20
   114         11
   115         23
   116          8
   117         44
   121         14
   123        112
   124          8
   125         13
   127         72
   129         28
   130         39
   131         84
   133        299
   134         26
   135         10
   141         13
   143         47
   145         10
   146         10
   150         25
   151        255
   152         20
   155        206
   156         28
   157         11
   159        196
   160         20
   171         11
   173         10
   175        528
   176         63
   177         19
   182         14
   183        188
   184         23
   185         11
   187         48
   197         23
   199         14
   201         10
   202         54
   215        160
   216         22
   225         38
   229          8
   231         97
   232         13
   241         14
   247         13
   257         76
   258         10
   273         10
   289        153
   290         26