##TITLE=Library Entry 37533
##JCAMP-DX=Revision 4.10 
##DATA TYPE=MASS SPECTRUM
##SAMPLE DESCRIPTION=Chemical Concepts
##NAMES=HP
##CAS NAME=Dodecanoic acid, 1,1-dimethylpropyl ester
##MOLFORM=C17H34O2
##CAS REGISTRY NO=117769-92-3
##MP= -300
##BP= -300
##MW= 270
##$RETENTION INDEX=0
##$CONDENSED SPECTRUM=NO
##NPOINTS= 140
##XYDATA=(XY..XY) 1 
    25          0
    26          6
    27         97
    28         33
    29        204
    30          4
    31          9
    33          0
    36          0
    37          3
    38          5
    39         83
    40         15
    41        274
    42        142
    43        602
    44         24
    45          8
    46          0
    49          0
    50          4
    51          6
    52          2
    53         27
    54         20
    55        345
    56         55
    57        157
    58         11
    59         22
    60         40
    61          9
    62          1
    63          1
    64          0
    65          2
    66          1
    67         22
    68         11
    69         53
    70        999
    71        815
    72         50
    73         39
    74          3
    75          0
    76          0
    77          1
    78          0
    79          4
    80          2
    81         16
    82          8
    83         38
    84         22
    85         48
    86          4
    87          9
    88          1
    89          2
    91          1
    92          0
    93          2
    94          1
    95         26
    96          6
    97         26
    98         21
    99          9
   100          1
   101          7
   102          1
   103          1
   104          0
   105          0
   106          0
   107          1
   108          0
   109         13
   110          2
   111          8
   112          5
   113          2
   114          1
   115          6
   116          1
   117          0
   119          0
   120          0
   121          1
   122          0
   123          3
   124          1
   125          1
   126          1
   127          0
   128          0
   129          9
   130          2
   131          0
   132          0
   133          0
   135          0
   136          0
   137          0
   138          2
   139          1
   140          6
   141          2
   143          3
   144          0
   145          0
   149          0
   151          0
   152          0
   156          0
   157          8
   158          1
   159          0
   162          0
   163          1
   164          0
   165          0
   166          0
   171          3
   172          0
   180          0
   181          1
   183        128
   184         18
   185          1
   200         36
   201         17
   202          1
   203          0
   207          0
   241          2
   242          0
   255          1
   256          0