##TITLE=Library Entry 16928
##JCAMP-DX=Revision 4.10 
##DATA TYPE=MASS SPECTRUM
##SAMPLE DESCRIPTION=K. Jacobson, LBC, NIDDK, NIH, Bethesda, MD 20892
##NAMES=HP
##CAS NAME=Xanthine, 8-[4-[2-(ethoxycarbonyl)aminoethyl]aminocarbonylmethoxy
]-
##MOLFORM=C24H32N6O6
##CAS REGISTRY NO=117723-94-1
##MP= -300
##BP= -300
##MW= 500
##$RETENTION INDEX=0
##$CONDENSED SPECTRUM=NO
##NPOINTS= 126
##XYDATA=(XY..XY) 1 
    41        159
    42        275
    43        554
    44        479
    45        999
    46        357
    51         36
    53         33
    54         49
    55        279
    56        166
    57        231
    58         62
    59         24
    60        129
    61         38
    67         68
    68         46
    69        152
    70         97
    71        131
    72         28
    73        174
    74         46
    77         66
    78        133
    79         11
    81         51
    82         54
    83        107
    84        125
    85        129
    86        184
    87         69
    88         14
    91         10
    95         40
    96         40
    97         94
    98         50
    99         62
   101         35
   102         84
   103         22
   104         32
   105         28
   106        115
   107         44
   110         12
   111         46
   113         41
   115         93
   116         26
   119         10
   120         49
   121         48
   122         52
   124         89
   125         33
   127         47
   129         63
   132         10
   135         14
   138         13
   141         10
   143         43
   145         14
   147         11
   149         80
   151         11
   154         10
   157         11
   167         10
   171         10
   177         13
   185         27
   197         12
   199         13
   212         10
   213         28
   214         65
   221         34
   226         33
   227         42
   228         52
   240         23
   241         10
   242         23
   243         13
   244         90
   256         44
   257         13
   258         26
   270         10
   281         10
   284         28
   285         36
   286         22
   290         11
   296         12
   298         11
   299         26
   301         10
   311         10
   313         21
   326         55
   327         64
   328         85
   329         69
   340         37
   341         95
   342         28
   369         12
   370         14
   385         11
   386         36
   398         10
   410         51
   428         42
   429          9
   454         29
   455         26
   458         42
   500        546
   501        146
   502         15