##TITLE=Library Entry 6644
##JCAMP-DX=Revision 4.10 
##DATA TYPE=MASS SPECTRUM
##SAMPLE DESCRIPTION=LAC, NIDDK, NIH, Bethesda, MD 20892
##NAMES=HP
##CAS NAME=Piperidine, 1-methyl-4-acetylmethyl-4-[3-methoxyphenyl]-
##MOLFORM=C16H23NO2
##CAS REGISTRY NO=117719-36-5
##MP= -300
##BP= -300
##MW= 261
##$RETENTION INDEX=0
##$CONDENSED SPECTRUM=NO
##NPOINTS= 151
##XYDATA=(XY..XY) 1 
    42        896
    43        999
    44        289
    45         14
    47          6
    48          2
    49         14
    50         20
    51         53
    52         21
    53         55
    54         20
    55         47
    56         39
    57        140
    58         46
    59         22
    60          1
    61          0
    62          7
    63         40
    64         27
    65         64
    66         33
    67         33
    68         19
    69         16
    70        428
    71        194
    72         15
    73          1
    74          5
    75          8
    76         14
    77        123
    78         63
    79         38
    80         14
    81         22
    82         33
    83         16
    84         13
    85          4
    86         10
    87          4
    88          3
    89         27
    90         21
    91         93
    92         34
    93         20
    94        110
    95         41
    96        209
    97         17
    98          4
    99          0
   100          2
   101         17
   102         33
   103         43
   104         15
   105         22
   106         12
   107         29
   108         52
   109        161
   110        180
   111         17
   112          8
   113          2
   114          2
   115         83
   116         24
   117         30
   118         24
   119          9
   120          5
   121         66
   122         17
   123          4
   124          4
   126          2
   127         18
   128         32
   129         30
   130         10
   131         28
   132         11
   133         37
   134         16
   135         25
   136         12
   137        118
   138         18
   139          3
   140          1
   141          6
   142          3
   143          6
   144         17
   145         33
   146         21
   147         16
   148          9
   149         22
   150         22
   151          4
   152         12
   153         27
   154          8
   155          0
   157          5
   158         14
   159         30
   160         28
   161         35
   162          7
   163          2
   170          4
   171          5
   172         20
   173          9
   174         15
   175         10
   176          5
   177          2
   178          0
   186          5
   187          5
   188         36
   189         16
   190         12
   191          3
   196         49
   197          4
   200          4
   201          2
   202        488
   203        369
   204         57
   205          6
   216          3
   218        332
   219         50
   220          4
   246          4
   260         25
   261        167
   262         39
   263          5