##TITLE=Library Entry 31108
##JCAMP-DX=Revision 4.10 
##DATA TYPE=MASS SPECTRUM
##SAMPLE DESCRIPTION=Richard Turcotte. Direction des laboratoires d'expertis
es et d'analyses alimentaires, Quebec, Canada.
##NAMES=HP
##CAS NAME=THIAZOPYR
##MOLFORM=C16H17F5N2O2S
##CAS REGISTRY NO=117718-60-2
##MP= -300
##BP= -300
##MW= 396
##$RETENTION INDEX=0
##$CONDENSED SPECTRUM=NO
##NPOINTS= 334
##XYDATA=(XY..XY) 1 
    41         91
    42         12
    43        125
    44          9
    45        120
    46          9
    47          9
    50          4
    51         25
    52          4
    53          5
    54          3
    55          4
    56          3
    57          9
    58         45
    59        294
    60        999
    61        241
    62         56
    63         26
    64          7
    65          5
    66          3
    67          3
    68          2
    69         25
    70          4
    71          2
    73          3
    74          3
    75         19
    76         12
    77         11
    78          5
    79          4
    81          9
    82          5
    83          5
    85          2
    86          6
    87          9
    88         19
    89         10
    90          3
    91          4
    92          2
    93          9
    94          7
    95          6
    96          5
    99          9
   100         12
   101         13
   102          9
   103          6
   104          2
   105          2
   106          8
   107         10
   108          7
   109          3
   110          3
   111          2
   112          4
   113         10
   114         10
   115          9
   116          5
   117          3
   118          6
   119          6
   120         11
   121          5
   122          2
   123          2
   124          4
   125          6
   126         44
   127         13
   128         91
   129         14
   130          9
   131          7
   132          8
   133         15
   134         12
   135          5
   136          2
   137          9
   138         11
   139         10
   140         15
   141          8
   142          7
   143          8
   144         12
   145         15
   146         14
   147         10
   148          5
   149          4
   150          7
   151         16
   152         17
   153         11
   154          4
   155          7
   156          6
   157         11
   158         20
   159         12
   160         10
   161          6
   162          6
   163         10
   164         18
   165         21
   166         10
   167          6
   168          8
   169         10
   170         15
   171         15
   172         12
   173          8
   174          9
   175         13
   176         13
   177         15
   178         14
   179          8
   180          6
   181          5
   182          5
   183         20
   184         18
   185         14
   186          8
   187          7
   188         12
   189         12
   190         16
   191         21
   192          8
   193          6
   194         10
   195         26
   196         16
   197         17
   198         11
   199         10
   200          6
   201         13
   202         15
   203         21
   204         11
   205         16
   206          7
   207          9
   208         12
   209         14
   210         15
   211         14
   212          9
   213         10
   214          9
   215         18
   216         21
   217         19
   218          8
   219          6
   220          8
   221         20
   222         13
   223         18
   224         17
   225         21
   226         11
   227         13
   228         10
   229         11
   230         12
   231          9
   232          8
   233         13
   234         11
   235         25
   236         19
   237         16
   238         12
   239         14
   240         11
   241         16
   242         20
   243         20
   244         13
   245          9
   246         14
   247         18
   248         15
   249         16
   250          9
   251          9
   252         10
   253         23
   254          6
   255         17
   256          9
   257         10
   258         20
   259         33
   260         10
   261         14
   262         22
   263         15
   264          6
   265         19
   266         12
   267         33
   268         16
   269         24
   270         10
   271         25
   272         19
   273         18
   274         36
   275         32
   276         17
   277         12
   278          5
   279         13
   280         10
   281         13
   282         17
   283          9
   284          6
   285         31
   286         12
   287         17
   288         13
   289         24
   290         36
   291         28
   292         10
   293         38
   294         59
   295         18
   296          7
   297         11
   298          6
   299         14
   300         50
   301         66
   302         31
   303         29
   304          6
   305         21
   306        245
   307         42
   308         17
   309          6
   310          9
   311          5
   313          5
   314          5
   315         31
   316         14
   317         35
   318         25
   319         19
   320         56
   321         67
   322         12
   323          8
   324          3
   325         12
   326        161
   327        541
   328        102
   329         89
   330         22
   331         19
   332          6
   333         49
   334         14
   335         30
   336         10
   337        174
   338         29
   339         14
   340          2
   341         10
   343          5
   345          3
   346          5
   347          6
   348         70
   349        241
   350         46
   351          7
   352          6
   353         13
   354         14
   355          3
   356         13
   357          2
   359         35
   360          6
   361         68
   362         13
   363        413
   364         72
   365        173
   366         30
   367         13
   368         89
   369         15
   370          5
   374         20
   375          5
   376         29
   377         77
   378         16
   379         63
   380         11
   381        196
   382         36
   383         13
   394          8
   395         10
   396         89
   397         17
   398          4