##TITLE=Library Entry 79842
##JCAMP-DX=Revision 4.10 
##DATA TYPE=MASS SPECTRUM
##SAMPLE DESCRIPTION=Japan AIST/NIMC Database- Spectrum MS-IW-1996
##NAMES=HP
##CAS NAME=N-(6-Chloro-3-hydroxy-4-pyridazinyl)benzamide
##MOLFORM=C11H8ClN3O2
##CAS REGISTRY NO=117892-39-4
##MP= -300
##BP= -300
##MW= 249
##$RETENTION INDEX=0
##$CONDENSED SPECTRUM=NO
##NPOINTS= 51
##XYDATA=(XY..XY) 1 
    17          2
    18          1
    26          1
    27          6
    28         15
    29          2
    36          2
    37          2
    38          3
    39          5
    40          1
    43          1
    44          1
    50         19
    51         84
    52         36
    53          3
    54          2
    60          1
    61          1
    62          1
    63          1
    65          2
    66          4
    67          1
    73          1
    74          7
    75          5
    76         13
    77        451
    78         31
    79          1
    80          1
    81          1
    86          2
    87          4
    88          1
    89          2
   101          1
   103          2
   104          4
   105        999
   106         79
   107          4
   116          1
   140          1
   172          2
   249        110
   250         14
   251         37
   252          5