##TITLE=Library Entry 78995
##JCAMP-DX=Revision 4.10 
##DATA TYPE=MASS SPECTRUM
##SAMPLE DESCRIPTION=G. Lange, Inst. Org. Chem., Univ. Wurzburg, Wurzburg, G
ermany
##NAMES=HP
##CAS NAME=1-Pentanone, 4-hydroxy-4-methyl-1-phenyl-, (2,4-dinitrophenyl)hyd
razone
##MOLFORM=C18H20N4O5
##CAS REGISTRY NO=117861-44-6
##MP= -300
##BP= -300
##MW= 372
##$RETENTION INDEX=0
##$CONDENSED SPECTRUM=NO
##NPOINTS= 229
##XYDATA=(XY..XY) 1 
    38         18
    39         80
    40         17
    41        251
    42         36
    43        449
    44         28
    45         35
    50         41
    51        131
    52         52
    53         50
    54         18
    55         86
    56         14
    57         20
    58         18
    59        239
    60         10
    61         20
    62         26
    63         74
    64         41
    65         40
    66         19
    67         55
    68         73
    69        129
    70         27
    71         29
    73         10
    74         15
    75         55
    76         74
    77        506
    78        133
    79         89
    80         21
    81         17
    82          5
    83         14
    85          5
    87          6
    88         14
    89         33
    90         39
    91        153
    92         53
    93         24
    94         33
    95         16
    96          8
    97          8
   102         37
   103        501
   104        278
   105        999
   106         96
   107         18
   108          6
   114          7
   115        158
   116         95
   117        102
   118         45
   119         39
   120         22
   121         14
   122         51
   123          7
   127         15
   128         39
   129        100
   130        110
   131         58
   132         50
   133         20
   134          9
   135          9
   136          6
   137         14
   138         11
   139         13
   140          9
   141         28
   142         41
   143         44
   144         32
   145         58
   146         26
   147          6
   150          7
   151         13
   152         29
   153         22
   154         10
   155         20
   156        108
   157        237
   158        122
   159         82
   160         16
   163          8
   164         20
   165         34
   166         34
   167         18
   168         14
   169         70
   170        370
   171        306
   172         90
   173         64
   174        201
   175        388
   176        110
   177         32
   178         24
   179         15
   180         14
   181         18
   182         16
   183         16
   184          5
   186          5
   188          7
   189         13
   190         14
   191         18
   192         33
   193         38
   194         16
   195          8
   196         32
   198         14
   202          6
   203          9
   204         19
   205         30
   206         29
   207         21
   208          8
   209          7
   217          6
   218         18
   219         32
   220         18
   221         16
   222         19
   223          9
   225          7
   230          5
   231          6
   232         13
   233         33
   234         11
   235          9
   236          9
   238         14
   239         11
   245         11
   246         12
   247         11
   248          5
   249          9
   250          8
   251         20
   252         21
   253         18
   254          5
   259         10
   260          8
   261          7
   262          7
   263          6
   264          5
   265         56
   266         15
   267         10
   268          5
   273         13
   274          6
   275          5
   277         10
   278         14
   279        104
   280         31
   281         13
   290         14
   291         14
   292         19
   293         10
   294         12
   295         66
   296         65
   297         21
   299          9
   300         27
   304         20
   305         15
   306         13
   307         26
   308        105
   309         23
   311         70
   312         12
   313         14
   314          6
   319         16
   320          6
   321         60
   322         13
   323          5
   325          9
   336         10
   337        115
   338         26
   339        101
   340         19
   342          5
   353         24
   354        119
   355         30
   356          6
   357         31
   358          6
   372        164
   373         35
   374          5