##TITLE=Library Entry 50890
##JCAMP-DX=Revision 4.10 
##DATA TYPE=MASS SPECTRUM
##SAMPLE DESCRIPTION=Chemical Concepts
##NAMES=HP
##CAS NAME=d-Galactose, 1,2:3,4-di-O-isopropylidene-, 6-decanoate
##MOLFORM=C22H38O7
##CAS REGISTRY NO=117920-01-1
##MP= -300
##BP= -300
##MW= 414
##$RETENTION INDEX=0
##$CONDENSED SPECTRUM=NO
##NPOINTS= 232
##XYDATA=(XY..XY) 1 
    25          0
    26          3
    27         84
    28         29
    29        149
    30          3
    31         51
    38          1
    39         36
    40          5
    41        307
    42         31
    43        246
    44         26
    45         13
    47          0
    50          0
    51          1
    52          1
    53         10
    54          6
    55         65
    56         12
    57        169
    58         29
    59        333
    60         10
    61          2
    65          2
    66          1
    67         16
    68         19
    69        132
    70         37
    71        149
    72         10
    73         15
    74          2
    75          0
    76          2
    77          2
    79          4
    80          4
    81        999
    82         69
    83         31
    84         54
    85        290
    86         19
    87          4
    88          0
    89          2
    91          0
    92          0
    93          2
    94          1
    95         44
    96          5
    97         53
    98         92
    99         13
   100        362
   101         82
   102          3
   103          2
   104          4
   105          0
   107          1
   109        110
   110          6
   111         23
   112          4
   113        269
   114         90
   115         10
   116          6
   117          1
   118          0
   121          1
   122          1
   123          5
   124          1
   125         16
   126         32
   127        129
   128          6
   129         27
   130          1
   131          1
   132          0
   133          0
   135          9
   136          0
   137         12
   138          6
   139         25
   140          2
   141         29
   142         17
   143          3
   144          8
   145          2
   146          0
   149         21
   150          5
   151          0
   152          2
   153          5
   155        326
   156         15
   157          8
   158          1
   159          1
   164          0
   165          0
   166          0
   167         36
   168          2
   169        404
   170         19
   171         10
   172          4
   173          2
   174          1
   178          0
   181          1
   182          2
   183          2
   184         75
   185        108
   186          9
   187          2
   188          1
   193          0
   195          0
   196          0
   197          2
   199          5
   200          1
   201          2
   202          2
   203         12
   204          0
   205          0
   209          0
   211          0
   213          2
   214          2
   215          6
   216          0
   221          0
   224          0
   225          0
   227         98
   228         11
   229          2
   231          0
   234          0
   238          1
   239          0
   240          0
   241          4
   242         45
   243          5
   244          2
   245         10
   246          1
   252          3
   253          2
   255          1
   256          1
   257          4
   261          0
   263          0
   267          0
   268          0
   269          3
   270          0
   271          1
   279          4
   280          4
   281         18
   282          2
   283          1
   284          0
   285          0
   286          1
   288          0
   293          0
   296          2
   297          1
   298          2
   299          4
   300          1
   301          0
   302         13
   303          1
   309          0
   310          1
   311          0
   313          0
   314          0
   315          1
   321          0
   323          0
   327          3
   328          2
   329          0
   338          0
   339          1
   341         25
   342          3
   343          2
   344          0
   355          1
   356          6
   357         10
   358          8
   359          1
   369          0
   385          0
   391          0
   397          0
   399        148
   400         24
   401          2
   411          0
   413          1
   414          0
   415         33
   416          8
   417          1