##TITLE=Library Entry 60710
##JCAMP-DX=Revision 4.10 
##DATA TYPE=MASS SPECTRUM
##SAMPLE DESCRIPTION=A. Brossi, LC, NIDDK, NIH, Bethesda, MD 20892
##NAMES=HP
##CAS NAME=Chromone, 2-[2-[3,5-dibenzyloxyphenyl]ethenyl]-3-methyl-
##MOLFORM=C32H26O4
##CAS REGISTRY NO=117970-58-8
##MP= -300
##BP= -300
##MW= 474
##$RETENTION INDEX=0
##$CONDENSED SPECTRUM=NO
##NPOINTS= 124
##XYDATA=(XY..XY) 1 
    41          4
    43          3
    44          0
    45          0
    50          1
    51          4
    52          1
    53          0
    55          2
    56          0
    57          2
    62          0
    63          7
    64          3
    65         50
    66          3
    69          3
    71          0
    75          0
    76          2
    77          4
    78          1
    79          0
    83          1
    89         11
    90          5
    91        999
    92         81
    93          4
    97          0
   102          2
   103          1
   105          2
   107          0
   113          0
   115          6
   116          0
   120          0
   121         12
   122          0
   126          0
   127          2
   128          3
   129          1
   131          3
   139          2
   141          0
   147          0
   151          0
   152          3
   153          1
   161          0
   165          4
   166          1
   167          2
   168          0
   173          0
   174          2
   176          0
   178          4
   179          4
   180         11
   181         45
   182          7
   183          1
   184          1
   185          7
   186          1
   189          3
   191          1
   195          0
   197          2
   201          2
   202          1
   205          3
   207          0
   209          2
   210          1
   211          3
   218          1
   219          2
   221          2
   223          3
   224          0
   233          1
   234          1
   235          4
   236          0
   247          2
   249          4
   250          0
   251          1
   261          3
   262          3
   263          6
   264          3
   265          0
   277          2
   279          6
   280          0
   291          8
   292          5
   293          3
   294          1
   313          2
   315          0
   325          1
   337          0
   339          0
   355          7
   356          1
   367          1
   368         17
   369          4
   383         39
   384         12
   385          2
   459         68
   460         23
   461          4
   473          0
   474         72
   475         25
   476          5