##TITLE=Library Entry 5363
##JCAMP-DX=Revision 4.10 
##DATA TYPE=MASS SPECTRUM
##SAMPLE DESCRIPTION=A.S.Moskovkin,I.M.Karnaukh, Russian Center on Disaster
 Medicine
##NAMES=HP
##CAS NAME=8-Nitro-1,3,6-triazahomoadamantane
##MOLFORM=C8H14N4O2
##CAS REGISTRY NO=117947-08-7
##MP= -300
##BP= -300
##MW= 198
##$RETENTION INDEX=0
##$CONDENSED SPECTRUM=NO
##NPOINTS= 86
##XYDATA=(XY..XY) 1 
    27         29
    28        130
    29         35
    30         46
    38          7
    39        110
    40         43
    41        240
    42        999
    43         77
    44         81
    51         12
    52         20
    53         63
    54        130
    55        260
    56        210
    57         69
    58         76
    60         11
    62         56
    65         13
    66         28
    67        100
    68        300
    69         90
    70         67
    71         26
    72         13
    77         10
    78          5
    79         11
    80        290
    81        260
    82        480
    83        210
    84         72
    85         64
    86          5
    92          6
    93         40
    94         86
    95        180
    96        210
    97        110
    98         37
    99         28
   107         18
   108         21
   109        460
   110        190
   111        220
   112         27
   113         24
   115          5
   121         15
   122         16
   123        130
   124         64
   125         50
   126          7
   127         13
   128         20
   129          7
   135          4
   136         12
   137          7
   138         90
   139         63
   140         93
   141         16
   149         22
   150         11
   151          7
   152        230
   153         26
   154          7
   155          4
   156         21
   167          8
   168          7
   170        410
   171         37
   198        740
   199         76
   200          4