##TITLE=Library Entry 79996
##JCAMP-DX=Revision 4.10 
##DATA TYPE=MASS SPECTRUM
##SAMPLE DESCRIPTION=Chemical Concepts
##NAMES=HP
##CAS NAME=B-Norandrost-4-ene-3,6-dione, 17.beta.-hydroxy-, benzoate
##MOLFORM=C25H28O4
##CAS REGISTRY NO=117962-17-1
##MP= -300
##BP= -300
##MW= 392
##$RETENTION INDEX=0
##$CONDENSED SPECTRUM=NO
##NPOINTS= 252
##XYDATA=(XY..XY) 1 
    25          9
    26         14
    29          2
    30          1
    38          1
    39         13
    40          4
    41         37
    42          4
    43         17
    44          2
    45          3
    47          1
    48          1
    50          7
    51         36
    52          7
    53         20
    54          3
    55         38
    56          4
    57         10
    60          1
    61          1
    63          2
    64          1
    65         14
    66         13
    67         19
    68          6
    69         10
    70          2
    71          4
    72          1
    73          2
    74          1
    75          3
    76         10
    77        250
    78         24
    79         41
    80         24
    81         23
    82          4
    83          6
    84          1
    85          2
    87          1
    89          2
    90          1
    91         42
    92          9
    93         19
    94          6
    95         11
    96          3
    97          4
    98          2
    99          1
   101          1
   102          1
   103          6
   104          8
   105        999
   106         83
   107         17
   108          6
   109          9
   110          5
   111          3
   114          1
   115         10
   116          5
   117         13
   118          4
   119         12
   120          6
   121          9
   122          4
   123          5
   124          1
   125          1
   126          1
   127          3
   128          8
   129         10
   130          4
   131         13
   132          8
   133         16
   134          7
   135          6
   136          7
   137          8
   138          4
   139          2
   140          1
   141          5
   142          4
   143          7
   144          3
   145          8
   146          4
   147          6
   148          4
   149          3
   150          1
   151          1
   152          1
   153          2
   154          1
   155          3
   156          2
   157          5
   158          2
   159          7
   160          6
   161          5
   162          2
   163          5
   164          1
   165          2
   166          1
   167          2
   168          1
   169          3
   170          1
   171          4
   172          3
   173          5
   174          2
   175          3
   176          8
   177          5
   178          7
   179          2
   180          1
   181          3
   182          1
   183          3
   184          2
   185          4
   186          3
   187          5
   188          3
   189         12
   190         24
   191          5
   192          1
   193          1
   194          1
   195          1
   196          1
   197          3
   198          2
   199          3
   200          2
   201          3
   202          2
   203          2
   205          1
   206          1
   207          1
   208          1
   209          2
   210          3
   211          4
   212          2
   213          6
   214          5
   215          5
   216          2
   217          1
   223          2
   224          2
   225          3
   226          2
   227          5
   228          3
   229          3
   230          4
   231          9
   232          2
   233          1
   234          1
   235          1
   236          1
   237          2
   238          1
   239          1
   240          1
   241         19
   242         14
   243         11
   244          5
   245          2
   246          0
   247          0
   250          1
   251          5
   252          4
   253          7
   254          3
   255         12
   256          3
   257          2
   258          1
   259          3
   260          1
   263          1
   264          1
   265          1
   266          1
   267          4
   268         13
   269         10
   270         90
   271         20
   272          2
   279          2
   280          1
   281          0
   284          1
   285          2
   286          1
   287         76
   288         17
   289         16
   290          3
   292        104
   293         31
   299          0
   308          0
   335          1
   336          9
   337          2
   338          1
   346          0
   348          1
   349          1
   364          2
   374          0
   375          3
   376          1
   377          6
   378          2
   390          4
   391          1
   392         44
   393         30
   394          7
   395          1