##TITLE=Library Entry 81155
##JCAMP-DX=Revision 4.10 
##DATA TYPE=MASS SPECTRUM
##SAMPLE DESCRIPTION=NIST Mass Spectrometry Data Center
##NAMES=HP
##CAS NAME=2,6-Dimethylthiophenol
##MOLFORM=C8H10S
##CAS REGISTRY NO=118-72-9
##MP= -300
##BP= -300
##MW= 138
##$RETENTION INDEX=1226
##$CONDENSED SPECTRUM=NO
##NPOINTS= 98
##XYDATA=(XY..XY) 1 
    15          3
    26          3
    27         22
    28          1
    29          1
    32          1
    33          3
    34          4
    35          1
    37          4
    38         12
    39         67
    40          6
    41         10
    45         95
    46          4
    47          8
    49          2
    50         26
    51         68
    52         20
    53         26
    54          3
    55          2
    57          2
    58          9
    59         23
    60          4
    61          9
    62         20
    63         51
    64          9
    65         54
    66          9
    67         23
    68         27
    69         56
    70         12
    71         15
    72          2
    73          3
    74         14
    75         14
    76         14
    77        174
    78        128
    79        108
    80          8
    81          6
    82          9
    83          6
    84          5
    85          6
    86          5
    87          5
    88          1
    89         22
    90          8
    91        111
    92         15
    93         39
    94          9
    95         10
    96          3
    97         31
    98         11
    99          3
   100          1
   101          4
   102         29
   103        191
   104         65
   105        999
   106        101
   107          5
   108          6
   109         13
   110          7
   111          9
   112          3
   113          1
   117          1
   119          1
   120          1
   121         53
   122         18
   123         62
   124          6
   125          3
   133          2
   134         25
   135         42
   136          9
   137         84
   138        889
   139         96
   140         48
   141          4