##TITLE=Library Entry 98001
##JCAMP-DX=Revision 4.10 
##DATA TYPE=MASS SPECTRUM
##SAMPLE DESCRIPTION=NIST Mass Spectrometry Data Center, 1998.
##NAMES=HP
##CAS NAME=Benzoic acid, 2-methyl-
##MOLFORM=C8H8O2
##CAS REGISTRY NO=118-90-1
##MP= -300
##BP= -300
##MW= 136
##$RETENTION INDEX=1229
##$CONDENSED SPECTRUM=NO
##NPOINTS= 63
##XYDATA=(XY..XY) 1 
    26          7
    27         23
    29          8
    31          1
    37         18
    38         44
    39        193
    40         18
    41         27
    42          1
    43         20
    44         10
    45         82
    49         12
    50         94
    51        142
    52         34
    53         45
    54          2
    55          7
    56          1
    59         62
    61         37
    62         98
    63        241
    64         59
    65        325
    66         26
    67          3
    71          1
    73          7
    74         31
    75         21
    76         13
    77        121
    78         17
    79         41
    80          3
    81          1
    84          2
    85         13
    86         24
    87         16
    88          3
    89        253
    90        766
    91        936
    92         87
    93          7
    94          1
   105         14
   106          1
   107         16
   108          1
   118        999
   119        292
   120         24
   121          8
   133          3
   135         31
   136        740
   137         67
   138          5