##TITLE=Library Entry 59533
##JCAMP-DX=Revision 4.10 
##DATA TYPE=MASS SPECTRUM
##SAMPLE DESCRIPTION=NIST Mass Spectrometry Data Center, 1992
##NAMES=HP
##CAS NAME=Benzoic acid, 2-hydroxy-, phenylmethyl ester
##MOLFORM=C14H12O3
##CAS REGISTRY NO=118-58-1
##MP= -300
##BP= -300
##MW= 228
##$RETENTION INDEX=1869
##$CONDENSED SPECTRUM=NO
##NPOINTS= 91
##XYDATA=(XY..XY) 1 
    14          0
    15          0
    16          0
    17          1
    18          9
    26          3
    27         13
    28          7
    29          4
    30          0
    31          1
    37          5
    38         25
    39        132
    40          7
    41         13
    42          1
    43          0
    44          1
    45          1
    50         19
    51         40
    52         12
    53         23
    54          1
    55          2
    61          3
    62         16
    63         53
    64         35
    65        197
    66         13
    67          1
    68          0
    69          0
    73          0
    74          4
    75          4
    76          5
    77         27
    78          6
    79         15
    80          2
    81          9
    82          0
    85          0
    86          1
    87          0
    89         28
    91        999
    92        115
    93         25
    94          2
    95          0
   104          0
   105          3
   106          1
   107          6
   108          2
   109          2
   114          1
   115          0
   120         14
   121         33
   122          3
   127          0
   128          0
   129          0
   137          0
   138          0
   139          0
   141          0
   150          0
   151          0
   152          1
   153          1
   155          0
   164          0
   165          1
   169          0
   181          1
   182          0
   183          0
   184          0
   197          0
   209          0
   210          2
   211          0
   228        115
   229         17
   230          1