##TITLE=Library Entry 57562
##JCAMP-DX=Revision 4.10 
##DATA TYPE=MASS SPECTRUM
##SAMPLE DESCRIPTION=Japan AIST/NIMC Database- Spectrum MS-NW-1394
##NAMES=HP
##CAS NAME=p-Benzoquinone, 2,3,5,6-tetrachloro-
##MOLFORM=C6Cl4O2
##CAS REGISTRY NO=118-75-2
##MP= -300
##BP= -300
##MW= 244
##$RETENTION INDEX=1516
##$CONDENSED SPECTRUM=NO
##NPOINTS= 174
##XYDATA=(XY..XY) 1 
    12         23
    14          5
    16          6
    17          2
    18          8
    20          1
    24         40
    25          2
    27          1
    28          3
    29          3
    35         36
    36         68
    37         10
    38          8
    39          1
    40          5
    41          2
    42          1
    43          3
    44         34
    45          1
    47        125
    48         49
    49         41
    50          1
    51          1
    52         81
    53          9
    55          3
    56          2
    57          3
    59        107
    60         44
    61         35
    62          3
    63         20
    64          3
    65         15
    66          5
    67          1
    68          1
    69          1
    70          1
    71         44
    72          2
    73         16
    74          2
    75          1
    76          5
    77          4
    78          2
    79          1
    80          6
    81          2
    82          4
    83        115
    84         10
    85         38
    86          3
    87        999
    88         35
    89        314
    90         11
    91          4
    92          2
    93          1
    94        211
    95         46
    96        133
    97         12
    98         21
    99          1
   105          2
   106         12
   107          3
   108          7
   109          1
   110          1
   111         28
   112          2
   113         11
   114          1
   118        135
   119         11
   120         90
   121          8
   122         90
   123          7
   124         51
   125          3
   126          8
   129          2
   130         10
   131          3
   132          7
   133          1
   134          1
   141          5
   143          5
   145          2
   146          1
   147         22
   148          2
   149         13
   150          6
   151          2
   152          3
   153        121
   154         13
   155        114
   156         13
   157         46
   158          5
   159         11
   160          1
   161          3
   163          1
   164          1
   165          5
   166          1
   167          4
   168          1
   169          2
   175          9
   176          1
   177          6
   178          1
   179          1
   180          1
   181        174
   182         21
   183        168
   184         19
   185         54
   186          7
   187          8
   188        194
   189          9
   190        243
   191         11
   192        118
   193          7
   194         26
   195          2
   196          2
   202          1
   209        456
   210         39
   211        431
   212         39
   213        140
   214         13
   215         15
   216        187
   217         11
   218        232
   219         14
   220        115
   221          7
   222         24
   223          1
   224          2
   232          1
   244        489
   245         33
   246        668
   247         48
   248        367
   249         26
   250         99
   251          7
   252         13
   253          1