##TITLE=Library Entry 37565
##JCAMP-DX=Revision 4.10 
##DATA TYPE=MASS SPECTRUM
##SAMPLE DESCRIPTION=Japan AIST/NIMC Database- Spectrum MS-NW-7949
##NAMES=HP
##CAS NAME=1,3-Dichloro-5,5-dimethylhydantoin
##MOLFORM=C5H6Cl2N2O2
##CAS REGISTRY NO=118-52-5
##MP= -300
##BP= -300
##MW= 196
##$RETENTION INDEX=0
##$CONDENSED SPECTRUM=NO
##NPOINTS= 122
##XYDATA=(XY..XY) 1 
    12          3
    13          2
    14         16
    15        309
    16          5
    18          2
    24          1
    25          7
    26         36
    27         86
    28        188
    29         80
    30         18
    31          1
    32          1
    34          2
    35         15
    36         29
    37         10
    38         25
    39        144
    40        106
    41        181
    42        188
    43         28
    44          9
    47          2
    48          3
    49         56
    50          4
    51         22
    52         15
    53          7
    54         35
    55         23
    56        507
    57         35
    58          3
    59          3
    60          1
    61          1
    62          7
    63          5
    64          3
    65          1
    66          3
    67          6
    68          9
    69         12
    70        999
    71         24
    72         36
    74          7
    75          7
    76        748
    77         36
    78        249
    79         12
    80          1
    81          1
    82          2
    83          7
    84        321
    85         15
    86          1
    87          1
    89          1
    90         10
    91        439
    92         24
    93        145
    94          5
    95          4
    97          2
    98          6
    99          2
   100          6
   102          1
   103          3
   104        433
   105         17
   106        139
   107          7
   109          1
   111         26
   112         13
   113         20
   114          1
   117          1
   118          9
   119          2
   120          4
   126          9
   127         20
   128         13
   129          1
   133          1
   137          1
   139          1
   146          4
   147        105
   148          8
   149         36
   150          2
   161        336
   162         98
   163        113
   164         28
   165          3
   181        273
   182         15
   183        198
   184         10
   185         30
   186          2
   195          1
   196        299
   197         26
   198        214
   199         13
   200         35
   201          3