##TITLE=Library Entry 109895
##JCAMP-DX=Revision 4.10 
##DATA TYPE=MASS SPECTRUM
##SAMPLE DESCRIPTION=Japan AIST/NIMC Database- Spectrum MS-NW- 588
##NAMES=HP
##CAS NAME=Benzene, 1,3-dichloro-2-methyl-
##MOLFORM=C7H6Cl2
##CAS REGISTRY NO=118-69-4
##MP= -300
##BP= -300
##MW= 160
##$RETENTION INDEX=1110
##$CONDENSED SPECTRUM=NO
##NPOINTS= 75
##XYDATA=(XY..XY) 1 
    15          1
    26          4
    27          6
    35          2
    36          5
    37         15
    38         20
    39         64
    40          4
    41          2
    42          1
    43         28
    44         73
    45          2
    47          4
    48          3
    49         11
    50         31
    51         32
    52          2
    60          8
    61         31
    62        102
    63        152
    64         21
    65         10
    71          1
    72          6
    73         56
    74         17
    75         24
    76          2
    77          2
    79          2
    80          8
    81          5
    83          2
    84          8
    85         15
    86         19
    87         21
    88          9
    89        370
    90         51
    91          4
    96          3
    97         17
    98          3
    99         52
   100          4
   101         15
   102          1
   107          2
   108          1
   109          5
   110          1
   111          2
   121          1
   123         35
   124        102
   125        999
   126        108
   127        322
   128         23
   129          1
   133          7
   135          5
   158          1
   159         66
   160        471
   161         79
   162        303
   163         30
   164         49
   165          4