##TITLE=Library Entry 28556
##JCAMP-DX=Revision 4.10 
##DATA TYPE=MASS SPECTRUM
##SAMPLE DESCRIPTION=Patti Price, Georgia Bureau of Investigation, Decatur,
 Georgia
##NAMES=HP
##CAS NAME=Amodryl
##MOLFORM=C17H20BrNO
##CAS REGISTRY NO=118-23-0
##MP= -300
##BP= -300
##MW= 333
##$RETENTION INDEX=2150
##$CONDENSED SPECTRUM=NO
##NPOINTS= 75
##XYDATA=(XY..XY) 1 
    41          3
    42         56
    43         16
    44         23
    45         66
    46          1
    50          7
    51         13
    52          1
    54          1
    55          1
    56         13
    57         13
    58        999
    59         37
    62          2
    63          8
    64          1
    65          2
    70          3
    71          4
    72          6
    73        177
    74         10
    75          6
    76          6
    77         14
    78          2
    79          1
    82          4
    83          3
    85          1
    86          3
    87          2
    88          3
    89          6
    90          1
    91          2
    99          1
   101          1
   102          1
   105          4
   113          2
   114          1
   115          8
   116          1
   126          2
   127          1
   128          1
   137          1
   138          1
   139         13
   140          1
   150          1
   151          1
   152          2
   153          1
   154          1
   155          3
   157          3
   162          1
   163         16
   164         20
   165        135
   166         50
   167          7
   178          1
   179          1
   180          1
   183          2
   185          1
   245          8
   246          1
   247          8
   248          1