##TITLE=Library Entry 51254
##JCAMP-DX=Revision 4.10 
##DATA TYPE=MASS SPECTRUM
##SAMPLE DESCRIPTION=Chemical Concepts
##NAMES=HP
##CAS NAME=3,7-Cycloundecadien-1-ol, 1,5,5,8-tetramethyl-
##MOLFORM=C15H26O
##CAS REGISTRY NO=118014-38-3
##MP= -300
##BP= -300
##MW= 222
##$RETENTION INDEX=0
##$CONDENSED SPECTRUM=NO
##NPOINTS= 172
##XYDATA=(XY..XY) 1 
    26          6
    27        139
    28         13
    29        108
    30          4
    31         16
    36          0
    37          2
    38          6
    39        162
    40         36
    41        326
    42         37
    43        455
    44         16
    45         25
    46          0
    47          1
    48          1
    49          0
    50          5
    51         27
    52         18
    53        146
    54         42
    55        210
    56         26
    57         42
    58         45
    59         24
    60          3
    61          1
    62          2
    63          8
    64          2
    65         49
    66         23
    67        498
    68         81
    69         88
    70        111
    71        253
    72         17
    73          4
    74          2
    75          1
    76          1
    77         79
    78         15
    79        147
    80         63
    81        209
    82        999
    83        449
    84         56
    85         71
    86          8
    87          1
    88          0
    89          2
    90          2
    91         84
    92         37
    93        224
    94         44
    95         90
    96         42
    97         47
    98         13
    99          4
   100          1
   101          1
   102          1
   103          8
   104          2
   105         56
   106         18
   107        143
   108         40
   109         88
   110         15
   111         68
   112         13
   113         32
   114          3
   115          7
   116          2
   117          4
   118          1
   119         38
   120         15
   121         98
   122        133
   123         55
   124          9
   125        126
   126         20
   127          4
   128          3
   129          1
   130          1
   131          3
   132          1
   133         24
   134         14
   135         42
   136         24
   137         21
   138         16
   139         42
   140         17
   141          8
   142          0
   143          1
   144          0
   145          3
   146          1
   147         26
   148         21
   149         21
   150          4
   151          4
   152          4
   153          3
   154          1
   155          0
   156          1
   159          1
   160          0
   161         40
   162          9
   163          5
   164          8
   165          3
   166          3
   167          1
   170          0
   171          0
   173          0
   175          9
   176          3
   177          1
   178          1
   179          4
   180          1
   181          1
   182          0
   187          0
   189         27
   190          5
   191          1
   192          0
   193          0
   194          1
   195          0
   196          0
   202          0
   203          1
   204         41
   205          9
   206          1
   207          9
   208          1
   209          0
   213          0
   215          0
   218          0
   220          1
   221          0
   222         37
   223          6
   224          1