##TITLE=Library Entry 64094
##JCAMP-DX=Revision 4.10 
##DATA TYPE=MASS SPECTRUM
##SAMPLE DESCRIPTION=Dr. Jiri Zamecnik, DCIEM, North York, Canada, GP Librar
y
##NAMES=HP
##CAS NAME=4-Benzyloxyindole-3-yl)-N-methylglyoxylamide
##MOLFORM=C18H16N2O3
##CAS REGISTRY NO=118052-07-6
##MP= -300
##BP= -300
##MW= 308
##$RETENTION INDEX=0
##$CONDENSED SPECTRUM=NO
##NPOINTS= 44
##XYDATA=(XY..XY) 1 
    38         55
    50         23
    51         30
    58         44
    63         17
    65         90
    75         16
    76         74
    77         38
    89         27
    91        999
    92         72
   103         48
   104         52
   115          5
   116          7
   120          9
   131        130
   132         19
   143          3
   159        170
   160        294
   161         28
   172          5
   177          3
   179          3
   191          2
   193          2
   194         14
   204          9
   205          3
   206          5
   220          6
   222        124
   223         22
   250        691
   251        128
   252         11
   277         94
   278         15
   279          2
   290         15
   308         95
   309         15