##TITLE=Library Entry 23296
##JCAMP-DX=Revision 4.10 
##DATA TYPE=MASS SPECTRUM
##SAMPLE DESCRIPTION=Chemical Concepts
##NAMES=HP
##CAS NAME=Propanoic acid, 2,2-dimethyl-, 2-pentynyl ester
##MOLFORM=C10H16O2
##CAS REGISTRY NO=118006-67-0
##MP= -300
##BP= -300
##MW= 168
##$RETENTION INDEX=0
##$CONDENSED SPECTRUM=NO
##NPOINTS= 89
##XYDATA=(XY..XY) 1 
    27         15
    28         24
    29        121
    30          1
    33          1
    38          3
    39         49
    40         29
    41        276
    42         19
    43         13
    44         10
    45          2
    49          1
    50          1
    51          9
    52         15
    53          9
    54          3
    55         36
    56         32
    57        999
    58         53
    59         14
    60          2
    63          1
    64          3
    65         41
    66         66
    67         99
    68          6
    69         13
    70          6
    71          8
    72          2
    73          2
    74          1
    77          7
    78          1
    79          2
    80          1
    81          4
    82          2
    83         25
    84         41
    85        116
    86          7
    87          3
    88          2
    91          3
    92          0
    93          2
    95         13
    96          2
    97          9
    98          3
    99          2
   100          1
   101          1
   103          8
   104          2
   105         16
   106          3
   107          4
   108          1
   109          2
   110          0
   111         15
   112         47
   113          3
   114          1
   115          2
   122          2
   123          2
   125          6
   126          2
   127          2
   128          1
   129          1
   134          1
   135          2
   137          1
   139          2
   153         14
   154          3
   167          4
   168         65
   169          8
   170          2