##TITLE=Library Entry 7481
##JCAMP-DX=Revision 4.10 
##DATA TYPE=MASS SPECTRUM
##SAMPLE DESCRIPTION=Div. of Experiment Therapeutics WRAIR, WRAMC, Washingto
n DC 20307
##NAMES=HP
##CAS NAME=Cholan-24-oic acid, 3,12-bis(acetyloxy)-, methyl ester, (3.alpha.
,5.beta.,12.alpha.)-
##MOLFORM=C29H46O6
##CAS REGISTRY NO=1181-44-8
##MP= -300
##BP= -300
##MW= 490
##$RETENTION INDEX=3296
##$CONDENSED SPECTRUM=NO
##NPOINTS= 172
##XYDATA=(XY..XY) 1 
    41        229
    43        999
    44         26
    45         24
    51          2
    53         55
    55        533
    56         13
    57         86
    59         79
    61         45
    65         22
    67        245
    69        142
    71         41
    73         88
    74         91
    77         61
    79        196
    81        381
    83        168
    84         52
    85         25
    87         31
    91        149
    93        258
    95        268
    96          9
    97         59
    98          3
    99         26
   100          2
   101          2
   103          9
   105        182
   107        257
   108         74
   109        131
   110         21
   111         24
   112          2
   113          2
   115         55
   117         44
   118          7
   119        118
   120         13
   121        162
   122         39
   123         49
   124         12
   125         10
   127         10
   128         11
   129         13
   131         68
   133        103
   134         20
   135         76
   136         14
   137         22
   139          7
   141         25
   143         35
   145        110
   147        165
   149         85
   150          6
   151         14
   152          2
   154        148
   155         22
   157         35
   158          4
   159         76
   161         74
   162         18
   163         30
   164         10
   165          7
   167          6
   169         11
   171         25
   173         58
   174         15
   175         28
   176          2
   177         17
   178          2
   179          6
   181          4
   183          5
   185         22
   187         39
   189         27
   191         20
   193         12
   195         39
   196          5
   197          7
   199         33
   201         44
   203         39
   204          2
   205          2
   207         17
   208         32
   209          9
   211          9
   213         44
   214          9
   215         33
   216         16
   217         23
   218          2
   219          6
   221         12
   225          9
   227         17
   228         17
   229         36
   231         34
   232          9
   234          3
   239          5
   241          9
   242          4
   243          6
   247          5
   249          2
   253         13
   254         19
   255        460
   256         96
   257         12
   259          2
   260         10
   261         31
   262          2
   263          7
   271          2
   273         16
   274          9
   275          6
   283         20
   284         10
   289          9
   297         17
   302          2
   313          8
   314         13
   315        125
   316         33
   318          2
   323          2
   330          2
   339          2
   341          7
   355         28
   356          8
   357         40
   358          3
   359         27
   360          8
   369          2
   370        158
   371         44
   372          9
   373          4
   388         21
   389          6
   430         11