##TITLE=Library Entry 16913
##JCAMP-DX=Revision 4.10 
##DATA TYPE=MASS SPECTRUM
##SAMPLE DESCRIPTION=Chemical Concepts
##NAMES=HP
##CAS NAME=1-(3-Methoxymethyl-5-methylphenyl)ethanol
##MOLFORM=C11H16O2
##CAS REGISTRY NO=118127-63-2
##MP= -300
##BP= -300
##MW= 180
##$RETENTION INDEX=0
##$CONDENSED SPECTRUM=NO
##NPOINTS= 81
##XYDATA=(XY..XY) 1 
    31         15
    32          5
    33          4
    39         67
    40          5
    41         46
    43        649
    44         12
    45        999
    46         24
    47          3
    50          6
    51         41
    52         16
    53         26
    55         15
    57          3
    59          2
    61         23
    62          3
    63         27
    64          9
    65         61
    66          9
    67         16
    74          7
    75         50
    76          6
    77        165
    78         48
    79         74
    80          5
    81          4
    82         13
    89         18
    90          6
    91        249
    92         29
    93         51
    94          2
    95          4
   102         13
   103         89
   104         51
   105        527
   106        297
   107         53
   109          2
   115         38
   116         16
   117         32
   118         12
   119         80
   120         53
   121         35
   122          3
   128          7
   129          7
   131         62
   132         46
   133        364
   134         61
   135        218
   136         33
   137          7
   145          3
   147         60
   148        101
   149        142
   150         33
   151          7
   161          6
   162         20
   163         21
   165        446
   166         71
   167          5
   179         46
   180        368
   181         47
   182          3