##TITLE=Library Entry 77488
##JCAMP-DX=Revision 4.10 
##DATA TYPE=MASS SPECTRUM
##SAMPLE DESCRIPTION=P.A. SZCZEPANIK, ARGONNE NATIONAL LABORATORY, USA
##NAMES=HP
##CAS NAME=Cholan-24-oic acid, 3,6-bis(acetyloxy)-, methyl ester, (3.alpha.,
5.beta.,6.alpha.)-
##MOLFORM=C29H46O6
##CAS REGISTRY NO=1181-65-3
##MP= -300
##BP= -300
##MW= 490
##$RETENTION INDEX=3397
##$CONDENSED SPECTRUM=NO
##NPOINTS= 210
##XYDATA=(XY..XY) 1 
   100         29
   101         28
   102         68
   103         65
   104        999
   105        422
   106        675
   107        187
   108        386
   109         78
   110         72
   111         21
   112         25
   113         12
   114        370
   115         71
   116        364
   117        257
   119        489
   120        444
   122        144
   123        180
   124         45
   125         58
   127        164
   128        247
   129        111
   130        573
   131        111
   133        394
   134        119
   135        330
   136         61
   137         73
   138         23
   139         27
   141        150
   142        102
   143        345
   144        141
   145        615
   146        174
   147        594
   148        160
   149        168
   150         43
   151         43
   152         25
   153         36
   154         41
   155        141
   156         72
   157        247
   158        179
   159        440
   160        257
   161        285
   162         68
   163        110
   164         25
   165         60
   166         17
   167         65
   168         34
   169         98
   170         38
   171        177
   172         97
   173        204
   174        123
   175        152
   176         47
   177        102
   178         31
   179         39
   180         18
   181         50
   182         18
   183         73
   184         34
   185        164
   186         87
   187         81
   188         25
   189         87
   190         31
   191         33
   192         22
   193         56
   194         30
   195         98
   196         40
   197        129
   198         36
   199        205
   200         77
   201        206
   202         56
   203         31
   204         21
   205         22
   206         16
   207        110
   208        104
   209        121
   210         24
   211         90
   212         47
   213        427
   214        123
   215        114
   216         37
   217        116
   219         23
   220         18
   221         60
   223         30
   224         17
   226         35
   227         29
   229         74
   231        135
   232         90
   233         38
   234          9
   235         22
   236         23
   237         17
   240         35
   241         31
   242         23
   243         18
   244         16
   245         16
   246         59
   247         56
   248        299
   249         93
   250         67
   252         64
   255        372
   256        112
   257         36
   262         90
   263         32
   264         42
   267         53
   269         63
   270         24
   271         14
   274         14
   275         19
   277         17
   278          9
   281         69
   282         26
   283         49
   284         19
   286          8
   287         12
   289         15
   290          9
   292         33
   293          9
   294         14
   295         19
   299         14
   301         19
   303         14
   305         26
   307         10
   308          7
   310         17
   314         23
   315         38
   316         81
   319         10
   321         33
   322         48
   325          9
   329         24
   330          7
   335          6
   336          6
   341         47
   342         30
   344         11
   349          4
   351         11
   355        260
   358         11
   360          7
   361          8
   363          8
   370        413
   373          5
   382         10
   383          5
   385          6
   388          4
   392          9
   399          7
   401         12
   402          4
   403          6
   414          7
   416          3
   429         10
   474          4
   477          6