##TITLE=Library Entry 45119
##JCAMP-DX=Revision 4.10 
##DATA TYPE=MASS SPECTRUM
##SAMPLE DESCRIPTION=A. Stambouli, Lab. Phys. Org. Chem., UA CNRS, Villeurba
nne, France
##NAMES=HP
##CAS NAME=1-Dodecanamine, N-(2,2-dimethoxyethylidene)-
##MOLFORM=C16H33NO2
##CAS REGISTRY NO=118264-83-8
##MP= -300
##BP= -300
##MW= 271
##$RETENTION INDEX=0
##$CONDENSED SPECTRUM=NO
##NPOINTS= 19
##XYDATA=(XY..XY) 1 
    43        230
    45        270
    56        120
    58        110
    69         70
    71         70
    73         50
    74        230
    75        999
    91         30
    95         26
    96         22
    97         27
    98         13
    99         17
   196        194
   197         28
   239         13
   240         30