##TITLE=Library Entry 49202
##JCAMP-DX=Revision 4.10 
##DATA TYPE=MASS SPECTRUM
##SAMPLE DESCRIPTION=P. Traldi, CNR, Corso Stat. Unit 4, Padova, Italy
##NAMES=HP
##CAS NAME=2,6-Pyridinedicarboxaldehyde, 4-hydroxy-, bis[methyl(2-pyridyl)hy
drazone]
##MOLFORM=C19H19N7O
##CAS REGISTRY NO=118252-02-1
##MP= -300
##BP= -300
##MW= 361
##$RETENTION INDEX=0
##$CONDENSED SPECTRUM=NO
##NPOINTS= 18
##XYDATA=(XY..XY) 1 
    78        101
    79        999
    92         20
   107        101
   108        111
   117          5
   118          1
   119         30
   120         40
   145         60
   227          2
   228          5
   237          4
   238          1
   254          2
   255          3
   360          1
   361          7