##TITLE=Library Entry 90563
##JCAMP-DX=Revision 4.10 
##DATA TYPE=MASS SPECTRUM
##SAMPLE DESCRIPTION=Org.Mass.Spectrom.,23(8)566(1988);W.Vetter ET AL
##NAMES=HP
##CAS NAME=17-(1,2,4-triazolo[4,3-a] pyrid-3-yl) heptadecanoic acid,pyrrolid
ide
##MOLFORM=C27H44N4O
##CAS REGISTRY NO=118268-04-5
##MP= -300
##BP= -300
##MW= 440
##$RETENTION INDEX=0
##$CONDENSED SPECTRUM=NO
##NPOINTS= 137
##XYDATA=(XY..XY) 1 
    26         32
    27         98
    28        128
    29        118
    30         64
    31         15
    32         20
    36         18
    37         19
    38         24
    39        125
    40         33
    41        332
    42         80
    43        370
    44         92
    45         15
    50         21
    51         27
    52         22
    53         25
    54         34
    55        421
    56         75
    57        120
    58         15
    59         20
    60         50
    63         10
    64         20
    65         30
    66         60
    67        135
    68         50
    69        175
    70        335
    71        197
    72        140
    73         40
    77         18
    78         65
    79         40
    80         15
    81         35
    82         28
    83         45
    84         23
    85        100
    86         18
    87         15
    91         20
    92         18
    93        123
    94        175
    95         50
    96         25
    97         35
    98        124
    99         21
   107         20
   108          8
   109         24
   110          9
   111         11
   112         22
   113        999
   114         80
   115         20
   119         27
   120         20
   121         15
   126        197
   127         50
   128         20
   132         61
   133        532
   134         62
   135         20
   140         35
   141         14
   146        458
   147        126
   148         18
   149         24
   154         19
   159         20
   160         97
   161         39
   168         26
   172         29
   174         40
   175         46
   182         20
   188         80
   189         30
   196         15
   202         93
   203         25
   210         13
   216         56
   217         28
   222         10
   224         16
   230         40
   231         26
   238         13
   244         58
   245         21
   252         12
   258         59
   259         22
   266         12
   272         60
   273         20
   280         10
   286         70
   287         20
   294          6
   300         97
   301         27
   308         25
   309          8
   314         38
   315         25
   328        285
   329         70
   342        118
   343        113
   344         26
   354         25
   368         28
   369         10
   370         62
   371         20
   439         10
   440         75
   441         28