##TITLE=Library Entry 55970
##JCAMP-DX=Revision 4.10 
##DATA TYPE=MASS SPECTRUM
##SAMPLE DESCRIPTION=Chemical Concepts
##NAMES=HP
##CAS NAME=l-Isoleucine, N-(3-methyl-1-oxobutyl)-, methyl ester
##MOLFORM=C12H23NO3
##CAS REGISTRY NO=118388-30-0
##MP= -300
##BP= -300
##MW= 229
##$RETENTION INDEX=0
##$CONDENSED SPECTRUM=NO
##NPOINTS= 77
##XYDATA=(XY..XY) 1 
    31         16
    33         21
    38          0
    39         57
    40         19
    41        284
    42         44
    43         96
    44         61
    45         18
    50          0
    51          2
    52          0
    53          8
    54          7
    55         43
    56         55
    57        421
    58         34
    59         43
    60         22
    65          1
    67          6
    68         15
    69         98
    70         48
    71         13
    72          2
    73          6
    74         17
    76          1
    81          1
    82          5
    83         11
    84         30
    85        218
    86        999
    87         53
    88        129
    89         74
    90         23
    95          2
    96         32
    97         23
    98         15
    99         19
   100          4
   101          4
   102        161
   103         11
   112         16
   113         11
   114          0
   116         13
   127          8
   128         56
   129         19
   130          4
   131         21
   140          0
   141         80
   142          8
   144         40
   145          2
   146          5
   154          1
   155          5
   168          6
   169          0
   170        113
   171         12
   172          1
   173         35
   174          2
   182          1
   187          8
   198          1