##TITLE=Library Entry 41510
##JCAMP-DX=Revision 4.10 
##DATA TYPE=MASS SPECTRUM
##SAMPLE DESCRIPTION=Chemical Concepts
##NAMES=HP
##CAS NAME=3-Butanone, 1-(t-butyldimethylsilyl)-1-phenyl-
##MOLFORM=C16H26OSi
##CAS REGISTRY NO=118356-59-5
##MP= -300
##BP= -300
##MW= 262
##$RETENTION INDEX=0
##$CONDENSED SPECTRUM=NO
##NPOINTS= 102
##XYDATA=(XY..XY) 1 
    27         16
    29         32
    31         12
    39         23
    40          3
    41         50
    42          3
    43        275
    44         12
    45         54
    46          2
    47          5
    50          3
    51         14
    52          4
    53         11
    54          2
    55          7
    56          6
    57         27
    58         51
    59        115
    60          9
    61         29
    62          2
    63          7
    65          6
    67          4
    69          4
    71          1
    72          5
    73        999
    74         61
    75        888
    76         54
    77         52
    78         19
    79          9
    81          2
    83          5
    85         11
    86          2
    87          2
    89          3
    91        104
    92          7
    95          2
    99         14
   100          2
   101          4
   102          7
   103         31
   104         35
   105         30
   106          2
   107          6
   113          3
   115         44
   116         19
   117         18
   118          3
   119          6
   120          2
   121         14
   122          3
   123          2
   127         36
   128         15
   129         23
   130         10
   131        386
   132         39
   133          8
   135        222
   136         27
   137         33
   138          3
   143          2
   145         21
   146         40
   147         47
   148         13
   149          7
   161         20
   162          4
   175          3
   177          3
   187         20
   188          2
   189          9
   190          2
   191          3
   203          3
   204          5
   205        477
   206         87
   207         24
   208          2
   247         26
   248          5
   262         27
   263          4