##TITLE=Library Entry 68000
##JCAMP-DX=Revision 4.10 
##DATA TYPE=MASS SPECTRUM
##SAMPLE DESCRIPTION=Chemical Concepts
##NAMES=HP
##CAS NAME=2-Methyl-3-propenylcyclopropanecarboxylic acid, methyl ester
##MOLFORM=C9H14O2
##CAS REGISTRY NO=118316-01-1
##MP= -300
##BP= -300
##MW= 154
##$RETENTION INDEX=0
##$CONDENSED SPECTRUM=NO
##NPOINTS= 111
##XYDATA=(XY..XY) 1 
    26          7
    27         80
    28         10
    29         50
    30          2
    31          5
    33          1
    34          0
    35          1
    36          0
    37          2
    38         11
    39        148
    40         20
    41        173
    42          9
    43         32
    44          2
    45         10
    46          0
    47          3
    49          2
    50         14
    51         35
    52         18
    53        101
    54         19
    55        221
    56         13
    57         12
    58          1
    59         60
    60          2
    61          2
    62          4
    63         11
    64          3
    65         36
    66         16
    67        260
    68         20
    69         36
    70          3
    71          8
    72          9
    73          2
    74          3
    75          3
    76          3
    77         89
    78         17
    79        227
    80         46
    81         27
    82         12
    83          8
    84         12
    85         46
    86          8
    87          2
    88          2
    89          1
    90          1
    91         30
    92          4
    93         74
    94        117
    95        999
    96         55
    97         18
    98         15
    99          4
   100          6
   101          3
   102          1
   103          1
   104          2
   105          5
   106          2
   107         26
   108          5
   109          4
   110          2
   111         32
   112         16
   113          4
   114          1
   115          1
   116          1
   117          1
   118          1
   119          1
   120          1
   122         26
   123         46
   124          6
   125        172
   126         15
   127          2
   133          1
   134          1
   135          1
   136          1
   137          1
   138          1
   139        109
   140          9
   141          3
   153          5
   154        180
   155         16