##TITLE=Library Entry 14487
##JCAMP-DX=Revision 4.10 
##DATA TYPE=MASS SPECTRUM
##SAMPLE DESCRIPTION=LAC, NIDDK, NIH, Bethesda, MD 20892
##NAMES=HP
##CAS NAME=5,16-Pregnadiene, 20-acetoxy-3-oxo
##MOLFORM=C23H32O3
##CAS REGISTRY NO=118378-70-4
##MP= -300
##BP= -300
##MW= 356
##$RETENTION INDEX=0
##$CONDENSED SPECTRUM=NO
##NPOINTS= 193
##XYDATA=(XY..XY) 1 
    41         85
    43        999
    45         21
    47         16
    48          1
    49          6
    51          2
    53         39
    55         72
    57         12
    59          1
    60          1
    61          3
    63          2
    65         26
    67         54
    69         14
    70          0
    71          5
    73          1
    76          0
    77         64
    79         83
    81         53
    83         17
    84         15
    86         18
    88          3
    89          1
    91        132
    93         81
    94          8
    95         25
    96          1
    97          5
    98          0
    99          2
   100          0
   102          0
   103         15
   105        108
   106         12
   107         69
   108          7
   109         15
   111          5
   112          1
   113          2
   115         26
   116          7
   117         48
   118          6
   119         42
   120         20
   121         58
   122          8
   123         19
   124          6
   125          2
   126          1
   127          4
   128         19
   129         20
   130         15
   131         43
   132          6
   133         43
   135         46
   136          8
   137         57
   138          4
   139          1
   141         17
   142         10
   143         32
   145         80
   146         18
   147         26
   148          8
   149          9
   150          3
   151          3
   152          3
   153          4
   154          3
   155         11
   156          1
   157         31
   158         13
   159         34
   160         15
   161         25
   162          3
   163          3
   165          6
   166          3
   167          5
   168          2
   169          8
   170          1
   171         14
   172          3
   173         19
   174          7
   175         25
   176          6
   177          3
   178          2
   179          3
   180          1
   181          6
   182          2
   183          8
   184          2
   185         11
   186         17
   187         10
   188         21
   189          7
   190          2
   191          2
   192          1
   193          2
   194          0
   195          5
   196          2
   197          8
   198          4
   199          8
   200          2
   201          4
   202          2
   203          3
   204          1
   205          0
   207          4
   208          1
   209          3
   210          1
   211          7
   212          3
   213          4
   214          1
   215          2
   216          1
   219          0
   221          2
   222          0
   223          3
   224          1
   225          9
   226          2
   227          2
   228          0
   229          1
   235          1
   237          5
   238          2
   239          6
   240          1
   241          1
   242          2
   249          1
   251          3
   252          0
   253         21
   254          4
   255          1
   263          6
   264          1
   265          1
   267          4
   268          2
   269          3
   270          0
   278          1
   279          2
   280          0
   281         45
   282          9
   283          1
   284          0
   295          4
   296        191
   297         44
   298          5
   310          1
   311          0
   312         11
   313          3
   326          0
   328          1
   356          2