##TITLE=Library Entry 27245
##JCAMP-DX=Revision 4.10 
##DATA TYPE=MASS SPECTRUM
##SAMPLE DESCRIPTION=K.Wood ET AL.,Org.Mass Spectrom.,25,423 (1990)
##NAMES=HP
##CAS NAME=tert-Butyl o-trimethylsilylphenyl sulfone
##MOLFORM=C13H22O2SSi
##CAS REGISTRY NO=118335-07-2
##MP= -300
##BP= -300
##MW= 270
##$RETENTION INDEX=0
##$CONDENSED SPECTRUM=NO
##NPOINTS= 76
##XYDATA=(XY..XY) 1 
    44         50
    46         15
    49          4
    50          4
    53         21
    55         21
    57        999
    58         34
    59          7
    61          1
    63          7
    66          7
    67          9
    69         10
    71          6
    73         33
    75         18
    77         15
    79          3
    83          6
    85          3
    89          3
    91         18
    93         18
    95          4
    96          6
   101          3
   102          3
   104         15
   106          3
   107          9
   108          3
   110          1
   116          4
   118         33
   120         27
   122          4
   123          3
   124          9
   133          9
   135        186
   136         16
   137          7
   144          1
   147          1
   148         10
   149         21
   151          7
   152          9
   164          1
   165          3
   167         12
   168          3
   169         16
   179          1
   182          7
   183          1
   184        113
   185          9
   195          1
   197         13
   199        908
   200        118
   201         62
   202          4
   203          1
   213          9
   215          3
   216          1
   227          4
   239          1
   241          1
   243          3
   255         34
   256          4
   257          3