##TITLE=Library Entry 7214
##JCAMP-DX=Revision 4.10 
##DATA TYPE=MASS SPECTRUM
##SAMPLE DESCRIPTION=A. Mourino, Dep. Org. Chim., Fac. Sci. C.S.I.C., Santia
go de Compostela, Spain
##NAMES=HP
##CAS NAME=1.alpha.,2.alpha.-Epoxy-1.beta.-methylcholesta-4,6-dien-3-one
##MOLFORM=C28H42O2
##CAS REGISTRY NO=118414-37-2
##MP= -300
##BP= -300
##MW= 410
##$RETENTION INDEX=0
##$CONDENSED SPECTRUM=NO
##NPOINTS= 25
##XYDATA=(XY..XY) 1 
    43        999
    53        220
    55        860
    57        640
    67        290
    69        410
    71        260
    77        210
    79        310
    81        530
    91        430
    93        310
    95        550
   105        280
   107        330
   133        310
   145        250
   149        290
   243        140
   247        550
   297        150
   380        130
   409        220
   410         70
   411         21