##TITLE=Library Entry 63018
##JCAMP-DX=Revision 4.10 
##DATA TYPE=MASS SPECTRUM
##SAMPLE DESCRIPTION=A. Selva, CNR, Cent. Stud. Nat. Org. Subst., Dep. Chem.
, Politech. Milan, Italy
##NAMES=HP
##CAS NAME=2-Pyrrolidinone, 5-methyl-1-[(4-methylphenyl)sulfonyl]-
##MOLFORM=C12H15NO3S
##CAS REGISTRY NO=118429-46-2
##MP= -300
##BP= -300
##MW= 253
##$RETENTION INDEX=0
##$CONDENSED SPECTRUM=NO
##NPOINTS= 26
##XYDATA=(XY..XY) 1 
    55        200
    56        190
    57        130
    65        420
    69         90
    70         70
    73         80
    77         90
    83         50
    89        100
    91        999
   119         50
   134        120
   155        460
   174        860
   175        120
   183         80
   184         70
   188        140
   189        570
   190         80
   198         30
   225         20
   228         10
   238         40
   253         30