##TITLE=Library Entry 30050
##JCAMP-DX=Revision 4.10 
##DATA TYPE=MASS SPECTRUM
##SAMPLE DESCRIPTION=Exported from NIST MS Search
##NAMES=HP
##CAS NAME=2-Fluoropropene
##MOLFORM=C3H5F
##CAS REGISTRY NO=1184-60-7
##MP= -300
##BP= -300
##MW= 60
##$RETENTION INDEX=0
##$CONDENSED SPECTRUM=NO
##NPOINTS= 36
##XYDATA=(XY..XY) 1 
    12          4
    13          6
    14         13
    15         17
    16          1
    19         14
    20          9
    24          3
    25          8
    26         34
    27        136
    28          7
    29          3
    31         70
    32         13
    33        160
    34          2
    35          1
    36         23
    37         70
    38         81
    39        355
    40         71
    41         33
    42          1
    43          3
    44         32
    45        133
    46          8
    55          4
    56         19
    57        137
    58         38
    59        999
    60        575
    61         18