##TITLE=Library Entry 79355
##JCAMP-DX=Revision 4.10 
##DATA TYPE=MASS SPECTRUM
##SAMPLE DESCRIPTION=G. Lange, Inst. Org. Chem., Univ. Wurzburg, Germany
##NAMES=HP
##CAS NAME=2,3-Dioxabicyclo[2.2.1]heptane, 1-phenyl-
##MOLFORM=C11H12O2
##CAS REGISTRY NO=118476-60-1
##MP= -300
##BP= -300
##MW= 176
##$RETENTION INDEX=0
##$CONDENSED SPECTRUM=NO
##NPOINTS= 89
##XYDATA=(XY..XY) 1 
    37          1
    38          7
    39         76
    40          8
    41         25
    42         20
    43         72
    44          4
    45          3
    46          2
    50         63
    51        249
    52         30
    53         23
    54         12
    55         43
    56          8
    57         12
    58          7
    60          2
    62          7
    63         29
    64          8
    65         52
    66         20
    67          3
    69         31
    70          7
    71         59
    72          5
    73          2
    74         16
    75         19
    76         33
    77        631
    78        147
    79         26
    81          5
    83          3
    85          4
    89         17
    90          5
    91        108
    92         18
    93          1
    94         46
    95          4
   102         24
   103         59
   104         21
   105        999
   106         78
   107          8
   115         99
   116         24
   117         52
   118         18
   119          5
   120        247
   121         22
   122          2
   127         26
   128        112
   129         73
   130         15
   131         27
   132         14
   133         46
   134         10
   141         32
   142         33
   143        420
   144         57
   145         21
   146         30
   147         86
   148         54
   149          9
   157          8
   158         15
   159         16
   160         27
   161         13
   173          1
   174          2
   175          5
   176         44
   177          5
   178          2