##TITLE=Library Entry 1406
##JCAMP-DX=Revision 4.10 
##DATA TYPE=MASS SPECTRUM
##SAMPLE DESCRIPTION=NIST Mass Spectrometry Data Center, 1994
##NAMES=HP
##CAS NAME=4-Phenoxyphenethylamine
##MOLFORM=C14H15NO
##CAS REGISTRY NO=118468-18-1
##MP= -300
##BP= -300
##MW= 213
##$RETENTION INDEX=0
##$CONDENSED SPECTRUM=NO
##NPOINTS= 87
##XYDATA=(XY..XY) 1 
     4          0
    14          0
    15          2
    18          3
    26          2
    27         17
    28         47
    29          0
    30        999
    31         15
    32          2
    38          9
    39         49
    40          6
    41          4
    42          7
    43          3
    44          0
    50         34
    51        137
    52         21
    53         10
    54          2
    55          9
    61          1
    62          7
    63         33
    64         14
    65         30
    66          4
    67          1
    74          7
    75          9
    77        170
    78         37
    79         11
    80          4
    87          1
    89         63
    90         37
    91         77
    92          7
    93          1
    94          1
   102          2
   103          2
   104          2
   105          1
   106          8
   107         45
   108          3
   115         22
   116          4
   117          3
   118          6
   119          8
   120          1
   126          1
   127         10
   128         14
   129         15
   130          1
   134          2
   139          4
   140          1
   141          9
   151          2
   152         12
   153         26
   154         16
   155         35
   156          9
   157          1
   165          5
   166          1
   167          2
   168          2
   169          3
   181          4
   183         96
   184        434
   185         60
   186          5
   196          2
   211          2
   213         15
   214          3