##TITLE=Library Entry 17781
##JCAMP-DX=Revision 4.10 
##DATA TYPE=MASS SPECTRUM
##SAMPLE DESCRIPTION=Chemical Concepts
##NAMES=HP
##CAS NAME=1-(4-Methoxymethylnaphthalen-2-yl)ethanol
##MOLFORM=C14H16O2
##CAS REGISTRY NO=118513-21-6
##MP= -300
##BP= -300
##MW= 216
##$RETENTION INDEX=0
##$CONDENSED SPECTRUM=NO
##NPOINTS= 94
##XYDATA=(XY..XY) 1 
    31          8
    32          0
    39         33
    41          6
    43        274
    44          5
    45        999
    46         22
    49          3
    50         18
    51         37
    52          4
    53          2
    55          5
    57          1
    58          9
    61         39
    62         16
    63         46
    64         13
    65         12
    69          7
    70         27
    71         15
    72         11
    74         14
    75         26
    76         22
    77         32
    78          7
    82          6
    83         10
    84         10
    85         93
    86         15
    87         13
    88          6
    89         18
    91         24
    92         10
    93          2
    98          3
    99         14
   100         14
   101         24
   102         12
   103          2
   105          4
   113          8
   114          6
   115        122
   116         13
   119          7
   126         22
   127         77
   128        127
   129         89
   130          8
   133          2
   139         97
   140         35
   141        577
   142        178
   143         32
   150          1
   151         10
   152         42
   153         27
   154          9
   155         77
   156        126
   157         29
   165         28
   166          9
   167         74
   168         20
   169        177
   170         32
   171        200
   172         33
   173          2
   183         59
   184         22
   185        180
   186         27
   198         25
   199         17
   200          1
   201        208
   202         30
   215         29
   216        594
   217         91
   218          7