##TITLE=Library Entry 13731
##JCAMP-DX=Revision 4.10 
##DATA TYPE=MASS SPECTRUM
##SAMPLE DESCRIPTION=Chemical Concepts
##NAMES=HP
##CAS NAME=1-Naphthalenemethanol, .alpha.,.alpha.-dimethyl-4-methoxymethyl-
##MOLFORM=C15H18O2
##CAS REGISTRY NO=118513-25-0
##MP= -300
##BP= -300
##MW= 230
##$RETENTION INDEX=0
##$CONDENSED SPECTRUM=NO
##NPOINTS= 94
##XYDATA=(XY..XY) 1 
    31        105
    32          8
    37          5
    38         13
    39         86
    40          4
    41         41
    42         11
    43        999
    44         23
    45        455
    50         46
    51         82
    52          8
    53          6
    57         11
    59         81
    61          6
    62         38
    63         87
    64         15
    65         20
    69          5
    70          6
    71          5
    74         39
    75         62
    76         40
    77         63
    78         18
    82         20
    86         21
    87         31
    88         20
    89         54
    90          3
    91         24
    92          6
    98         12
    99         11
   100         13
   101         20
   102         21
   103          4
   107          6
   113         25
   114         10
   115        211
   116         20
   126         44
   127        118
   128        170
   129         95
   138          4
   139        196
   140         96
   141        576
   142         94
   143         16
   150          4
   151         21
   152         81
   153         77
   154         42
   155        720
   156        127
   157         28
   163         11
   165         92
   166         26
   167         19
   168         27
   169         22
   170         10
   171         55
   172         23
   178          5
   179         12
   180          8
   181         25
   182         19
   183        705
   184        126
   185         31
   197         14
   199         31
   200          5
   213         21
   214         10
   215        725
   216        107
   217          7
   230        443
   231         68