##TITLE=Library Entry 17641
##JCAMP-DX=Revision 4.10 
##DATA TYPE=MASS SPECTRUM
##SAMPLE DESCRIPTION=Chemical Concepts
##NAMES=HP
##CAS NAME=1-(5-Methoxymethylnaphthalen-1-yl)ethanol
##MOLFORM=C14H16O2
##CAS REGISTRY NO=118513-18-1
##MP= -300
##BP= -300
##MW= 216
##$RETENTION INDEX=0
##$CONDENSED SPECTRUM=NO
##NPOINTS= 102
##XYDATA=(XY..XY) 1 
    30          7
    31          8
    32          0
    39         36
    41         21
    42          6
    43        268
    44         30
    45        999
    46         20
    50         24
    51         34
    52          5
    53          4
    55         14
    56          3
    57         15
    58         13
    60          3
    61         17
    62         14
    63         51
    64          9
    65         13
    69         12
    70         25
    71          5
    73          5
    74         22
    75         24
    76         24
    77         35
    78          5
    81          6
    82          9
    83         14
    84          6
    85         13
    86         10
    87         14
    88          5
    89         21
    91         11
    92          4
    93          3
    95          3
    98          9
    99         12
   100         39
   101         33
   102         14
   113          8
   114          6
   115        149
   116         13
   126         25
   127         82
   128        124
   129         80
   130          8
   131          1
   139         87
   140         28
   141        581
   142        165
   143         33
   144          5
   145          4
   150          5
   151         13
   152         63
   153         65
   154         18
   155        111
   156         67
   157         21
   158          2
   163          3
   164          3
   165         38
   166         14
   167         86
   168         27
   169        155
   170         33
   171         50
   172         14
   173          4
   183         72
   184         23
   185         48
   186          9
   190          4
   198         22
   199         14
   200          6
   201        175
   202         29
   215         17
   216        375
   217         60
   218          6