##TITLE=Library Entry 17782
##JCAMP-DX=Revision 4.10 
##DATA TYPE=MASS SPECTRUM
##SAMPLE DESCRIPTION=Chemical Concepts
##NAMES=HP
##CAS NAME=1-(6-Methoxymethylnaphthalen-2-yl)ethanol
##MOLFORM=C14H16O2
##CAS REGISTRY NO=118513-22-7
##MP= -300
##BP= -300
##MW= 216
##$RETENTION INDEX=0
##$CONDENSED SPECTRUM=NO
##NPOINTS= 82
##XYDATA=(XY..XY) 1 
    31          2
    38          2
    39         21
    43        245
    44          5
    45        999
    46         19
    50         15
    51         28
    57          3
    62         11
    63         38
    64          7
    65          7
    69          5
    70         18
    72          4
    74         14
    75         20
    76         14
    77         27
    78          7
    82          2
    84          2
    85         12
    86          7
    87         11
    88          3
    89         15
    91          7
    92         16
    98          3
    99         15
   100         31
   101         37
   102         11
   103          3
   105          4
   113          6
   114          6
   115         90
   116          7
   126         22
   127         64
   128        107
   129         98
   130          8
   139         77
   140         40
   141        516
   142        129
   143         32
   151          5
   152         22
   153         18
   154         11
   155         41
   156         15
   157         10
   158          4
   165         12
   167         17
   168         11
   169         67
   170         62
   171         99
   172         22
   173         21
   183         35
   184          9
   185        133
   186         24
   199         53
   200         16
   201        456
   202         64
   203          4
   214         29
   215         50
   216        584
   217         92
   218          7