##TITLE=Library Entry 17642
##JCAMP-DX=Revision 4.10 
##DATA TYPE=MASS SPECTRUM
##SAMPLE DESCRIPTION=Chemical Concepts
##NAMES=HP
##CAS NAME=1-(7-Methoxymethylnaphthalen-2-yl)ethanol
##MOLFORM=C14H16O2
##CAS REGISTRY NO=118513-23-8
##MP= -300
##BP= -300
##MW= 216
##$RETENTION INDEX=0
##$CONDENSED SPECTRUM=NO
##NPOINTS= 131
##XYDATA=(XY..XY) 1 
    30          5
    31          7
    32          4
    37          2
    38          6
    39         33
    40          2
    41          6
    42          1
    43        301
    44          9
    45        999
    46         32
    47          3
    49          1
    50         26
    51         46
    52          8
    53          4
    55          3
    56          1
    57          5
    58         12
    61          6
    62         21
    63         58
    64         16
    65         14
    66          1
    67          1
    69          9
    70         30
    71          8
    72          8
    73          2
    74         28
    75         33
    76         27
    77         44
    78         14
    79          7
    81          1
    82          9
    83          8
    84          6
    85         26
    86         22
    87         18
    88          9
    89         24
    90          3
    91         16
    92         21
    93         12
    98          9
    99         20
   100         56
   101         57
   102         20
   103          5
   105          5
   106          2
   107          4
   108          1
   110          2
   111          3
   113         14
   114         10
   115        153
   116         16
   117          2
   119          1
   122          1
   125          5
   126         36
   127        106
   128        184
   129        214
   130         23
   131          2
   133          1
   137          3
   138          4
   139        101
   140         43
   141        801
   142        241
   143         52
   144          5
   145          1
   150          4
   151         11
   152         41
   153         35
   154         16
   155         59
   156         25
   157         27
   158         25
   159          3
   163          2
   164          2
   165         20
   166          5
   167         25
   168         14
   169        139
   170         52
   171        113
   172         35
   173         56
   174          6
   181          4
   182          2
   183         36
   184         21
   185        234
   186         54
   187          7
   197          2
   198          5
   199         30
   200         41
   201        490
   202         71
   203          6
   214          5
   215         52
   216        621
   217         93
   218          7