##TITLE=Library Entry 8733
##JCAMP-DX=Revision 4.10 
##DATA TYPE=MASS SPECTRUM
##SAMPLE DESCRIPTION=Exported from NIST MS Search
##NAMES=HP
##CAS NAME=1-Butanol, 2,2-dimethyl-
##MOLFORM=C6H14O
##CAS REGISTRY NO=1185-33-7
##MP= -300
##BP= -300
##MW= 102
##$RETENTION INDEX=773
##$CONDENSED SPECTRUM=NO
##NPOINTS= 54
##XYDATA=(XY..XY) 1 
    12          2
    13          2
    14          8
    15         43
    16          2
    17          1
    18          3
    19          6
    25          1
    26         44
    27        350
    28         56
    29        340
    30         15
    31        222
    36          1
    37          8
    38         20
    39        209
    40         30
    41        349
    42         58
    43        999
    44         37
    45         99
    46          6
    52          6
    53         42
    54         10
    55        308
    56         47
    57         91
    58          9
    59         25
    60          1
    67          6
    68          2
    69         72
    70        314
    71        809
    72         60
    73        172
    74          8
    83          3
    84          6
    85         10
    86          2
    87         26
    88          4
    98          3
    99         12
   100          1
   101          3
   102          1