##TITLE=Library Entry 40612
##JCAMP-DX=Revision 4.10 
##DATA TYPE=MASS SPECTRUM
##SAMPLE DESCRIPTION=Exported from NIST MS Search
##NAMES=HP
##CAS NAME=3,4-Hexanediol, 3,4-dimethyl-
##MOLFORM=C8H18O2
##CAS REGISTRY NO=1185-02-0
##MP= -300
##BP= -300
##MW= 146
##$RETENTION INDEX=0
##$CONDENSED SPECTRUM=NO
##NPOINTS= 19
##XYDATA=(XY..XY) 1 
    41         40
    42         10
    43        550
    44         10
    45         40
    55        180
    56         30
    57        120
    58         10
    61         40
    71         20
    72        120
    73        999
    74         50
    99        130
   113         30
   117         80
   131         10
   146         30