##TITLE=Library Entry 18602
##JCAMP-DX=Revision 4.10 
##DATA TYPE=MASS SPECTRUM
##SAMPLE DESCRIPTION=Chemical Concepts
##NAMES=HP
##CAS NAME=3-Oxabicyclo[3.2.0]heptane-2,4-dione, cis-
##MOLFORM=C6H6O3
##CAS REGISTRY NO=118554-23-7
##MP= -300
##BP= -300
##MW= 126
##$RETENTION INDEX=0
##$CONDENSED SPECTRUM=NO
##NPOINTS= 62
##XYDATA=(XY..XY) 1 
    26        155
    27        223
    28         16
    29          9
    31          0
    34          0
    36          1
    37         12
    38         23
    39        507
    40          3
    41          4
    42          6
    43         14
    44          8
    45          4
    48          1
    49          9
    50         36
    51         32
    52         18
    53        124
    54        999
    55         51
    56          1
    57          0
    58          0
    60          0
    61          1
    62          0
    63          0
    64          0
    66          0
    67          0
    68          0
    69          0
    70          0
    71          2
    72          0
    73          0
    77          0
    79          0
    80          0
    81          6
    82        202
    83         11
    84          0
    91          0
    95          0
    96          1
    97          0
    98          2
    99         10
   100          0
   101          0
   108          0
   124          1
   125          0
   126          4
   127          7
   128          2
   129          0