##TITLE=Library Entry 9918
##JCAMP-DX=Revision 4.10 
##DATA TYPE=MASS SPECTRUM
##SAMPLE DESCRIPTION=NIST Mass Spectrometry Data Center, 1994
##NAMES=HP
##CAS NAME=2,2-Dimethylvaleric acid
##MOLFORM=C7H14O2
##CAS REGISTRY NO=1185-39-3
##MP= -300
##BP= -300
##MW= 130
##$RETENTION INDEX=0
##$CONDENSED SPECTRUM=NO
##NPOINTS= 46
##XYDATA=(XY..XY) 1 
    18          2
    30          8
    37          8
    39        328
    41        462
    43        999
    44          5
    46          0
    47          0
    50         11
    51         22
    52          8
    53         47
    54          0
    55        120
    56         56
    57        181
    58         14
    60          8
    61          1
    62          2
    63          3
    65          7
    66          3
    67         14
    68          8
    69         84
    70         46
    71          8
    72          1
    73        258
    77          2
    79          1
    81          1
    83         22
    85        612
    86         45
    88        469
    89         22
    90          2
    97          4
    99          1
   101         54
   102         10
   103          1
   115          6