##TITLE=Library Entry 17780
##JCAMP-DX=Revision 4.10 
##DATA TYPE=MASS SPECTRUM
##SAMPLE DESCRIPTION=Chemical Concepts
##NAMES=HP
##CAS NAME=1-(6-Methoxymethylnaphthalene-1-yl)ethanol
##MOLFORM=C14H16O2
##CAS REGISTRY NO=118513-19-2
##MP= -300
##BP= -300
##MW= 216
##$RETENTION INDEX=0
##$CONDENSED SPECTRUM=NO
##NPOINTS= 112
##XYDATA=(XY..XY) 1 
    31          4
    32         12
    38          2
    39         15
    41          2
    43        131
    44          4
    45        999
    46         23
    47          1
    50         10
    51         19
    52          3
    53          2
    55          1
    57          2
    58          7
    59          1
    61          4
    62          8
    63         27
    64         10
    65          6
    69          6
    70         20
    71          5
    72          2
    74         10
    75         15
    76         15
    77         18
    78          4
    79          1
    82         11
    83          3
    84          7
    85         22
    86          9
    87          8
    88          3
    89         10
    91          7
    92         13
    93          6
    98          4
    99         17
   100         45
   101         31
   102          9
   103          2
   107          1
   113          6
   114          6
   115         74
   116          8
   125          1
   126         15
   127         48
   128         71
   129         57
   130          6
   137          1
   138          1
   139         55
   140         27
   141        352
   142         96
   143         20
   144          2
   150          2
   151          7
   152         30
   153         28
   154         12
   155         63
   156         21
   157          9
   158          4
   163          2
   164          2
   165         18
   166          5
   167         18
   168         13
   169        318
   170         54
   171         52
   172         18
   173         25
   174          3
   181          1
   182          2
   183         41
   184          9
   185         93
   186         18
   187          3
   188          1
   197          1
   198          3
   199         29
   200          9
   201        202
   202         30
   203          2
   213          1
   214         12
   215         27
   216        454
   217         68
   218          7
   219          1