##TITLE=Library Entry 61249
##JCAMP-DX=Revision 4.10 
##DATA TYPE=MASS SPECTRUM
##SAMPLE DESCRIPTION=Chemical Concepts
##NAMES=HP
##CAS NAME=Oxiraneethanol, .beta.-(phenylmethoxy)-, 4-methylbenzenesulfonate
, [S-(R*,S*)]-
##MOLFORM=C18H20O5S
##CAS REGISTRY NO=118653-94-4
##MP= -300
##BP= -300
##MW= 348
##$RETENTION INDEX=0
##$CONDENSED SPECTRUM=NO
##NPOINTS= 92
##XYDATA=(XY..XY) 1 
    26          2
    27         14
    28          2
    29         13
    31         11
    38          4
    39         58
    40          9
    41         43
    42         88
    43         22
    44          2
    45         10
    50         12
    51         37
    52         11
    53          7
    54          5
    55         11
    56          2
    57         24
    58          2
    59          8
    62          7
    63         36
    65        139
    66         10
    67          2
    68          2
    69         29
    70        202
    71         24
    72          5
    73          2
    74          3
    75          6
    76          5
    77         46
    78         14
    79         43
    80          3
    83          2
    84          2
    85          5
    87          9
    89         40
    90         32
    91        999
    92        132
    93          8
    98         12
   103          2
   104         79
   105         90
   106         20
   107        218
   108         26
   109          2
   115          3
   117          5
   118          3
   119          5
   120         14
   121          2
   133         10
   134          2
   139         11
   141          2
   145          4
   146          2
   155        208
   156         35
   157         12
   158          4
   163          2
   165          5
   166          4
   167         11
   168          2
   172         48
   173        135
   174         12
   181          3
   193          4
   211          3
   212         20
   213          3
   224         14
   225          5
   261          2
   262          9
   348          3