##TITLE=Library Entry 70019
##JCAMP-DX=Revision 4.10 
##DATA TYPE=MASS SPECTRUM
##SAMPLE DESCRIPTION=NIST Mass Spectrometry Data Center
##NAMES=HP
##CAS NAME=6-Nonyl-5,6-dihydro-2H-pyran-2-one
##MOLFORM=C14H24O2
##CAS REGISTRY NO=118663-83-5
##MP= -300
##BP= -300
##MW= 224
##$RETENTION INDEX=1911
##$CONDENSED SPECTRUM=NO
##NPOINTS= 134
##XYDATA=(XY..XY) 1 
    26          1
    27         20
    28          4
    29         45
    30          1
    31          1
    37          1
    38          3
    39         91
    40         56
    41        234
    42         54
    43        118
    44         10
    45          3
    50          1
    51          4
    52          3
    53         25
    54         24
    55        150
    56         41
    57         67
    58          5
    59          1
    60          1
    61          2
    63          1
    65         10
    66         14
    67         97
    68        630
    69        238
    70         48
    71         36
    72          2
    73          8
    74          1
    77          9
    78          5
    79         34
    80         37
    81         87
    82         46
    83         88
    84         37
    85         13
    86         68
    87          4
    88          1
    91          6
    92          5
    93         21
    94         56
    95         77
    96         68
    97        999
    98         74
    99         55
   100          7
   101          2
   103          1
   104          4
   105          3
   106          3
   107         28
   108         34
   109         38
   110         22
   111         26
   112         32
   113         19
   114          4
   117          3
   118          1
   119          3
   120          2
   121         31
   122         30
   123         21
   124          9
   125         27
   126         18
   127          9
   128          2
   129          1
   131          3
   132          6
   133          2
   134          1
   135         24
   136         19
   137         10
   138         10
   139         25
   140         22
   141          3
   142          4
   143          1
   144          1
   145          1
   146          1
   147          1
   149          9
   150         33
   151          6
   152          4
   153         13
   154          6
   155          5
   156          5
   157          1
   159          1
   162          3
   163          6
   164         51
   165         10
   167          6
   168          9
   169          1
   170          3
   177          3
   178          3
   179          2
   180          1
   181          3
   182          1
   183          1
   195          2
   196          1
   206          1
   223          1
   224          6
   225          1