##TITLE=Library Entry 57070
##JCAMP-DX=Revision 4.10 
##DATA TYPE=MASS SPECTRUM
##SAMPLE DESCRIPTION=NIST Mass Spectrometry Data Center, 1990.
##NAMES=HP
##CAS NAME=1-Hepten-4-ol, 4-methyl-
##MOLFORM=C8H16O
##CAS REGISTRY NO=1186-31-8
##MP= -300
##BP= -300
##MW= 128
##$RETENTION INDEX=0
##$CONDENSED SPECTRUM=NO
##NPOINTS= 35
##XYDATA=(XY..XY) 1 
    14         15
    27        102
    28         18
    29         79
    31         38
    39        231
    40         54
    41        360
    43        962
    45        936
    46         22
    51         24
    53         57
    54         14
    55         71
    56         14
    57         54
    58         34
    59         19
    65         24
    66         14
    67        109
    68         35
    69        273
    70         29
    71        182
    77         26
    79         39
    81         45
    82         14
    85        209
    87        999
    88         53
    95         76
   110         28