##TITLE=Library Entry 61166
##JCAMP-DX=Revision 4.10 
##DATA TYPE=MASS SPECTRUM
##SAMPLE DESCRIPTION=Chemical Concepts
##NAMES=HP
##CAS NAME=Toluene-4-sulfonic acid, 2-benzyloxy-3-hydroxy-1-hydroxymethyl-pr
opyl ester
##MOLFORM=C18H22O6S
##CAS REGISTRY NO=118653-93-3
##MP= -300
##BP= -300
##MW= 366
##$RETENTION INDEX=0
##$CONDENSED SPECTRUM=NO
##NPOINTS= 107
##XYDATA=(XY..XY) 1 
    26          4
    27         21
    29         29
    30          2
    31         65
    36          2
    38          8
    39         77
    40          7
    41         31
    42          9
    43         18
    44          3
    45         18
    47          2
    48          1
    50         19
    51         45
    52         13
    53          7
    55         10
    56          1
    57         10
    58          2
    59          4
    61          3
    62          9
    63         40
    64         13
    65        165
    66          8
    67          1
    68          4
    69          6
    70         55
    71          6
    73          7
    74          4
    75          8
    76          3
    77         56
    78         14
    79         62
    80          7
    81          2
    85          2
    86          6
    87          5
    88          5
    89         43
    90         30
    91        999
    92        152
    93          8
    98          1
    99          6
   103          2
   104          3
   105         16
   106          3
   107        218
   108         56
   109          4
   110          1
   111          3
   112          1
   115          1
   116          3
   117          4
   118          3
   119          2
   121          1
   125          1
   126          3
   133          2
   134          9
   135          1
   139          7
   140          1
   141          1
   145          1
   146          4
   152          1
   155        165
   156         15
   157          7
   163          6
   164          5
   165          5
   166          3
   167          8
   168          1
   171          1
   172         37
   173         70
   174          7
   176          2
   178          4
   183          1
   187          3
   198          2
   215          7
   225          1
   242          1
   255          1
   279          1
   366          2