##TITLE=Library Entry 30729
##JCAMP-DX=Revision 4.10 
##DATA TYPE=MASS SPECTRUM
##SAMPLE DESCRIPTION=R. Neidlein, Pharm.-Chem. Inst., Univ. Heidelberg, Heid
elberg, W. Germany
##NAMES=HP
##CAS NAME=4a,8a-Methanophthalazine-1,4-dicarboxylic acid, 1,2-dihydro-1-met
hoxy-, dimethyl ester, (1.alpha.,4a.alpha.,8a.alpha.)-
##MOLFORM=C14H16N2O5
##CAS REGISTRY NO=118643-91-7
##MP= -300
##BP= -300
##MW= 292
##$RETENTION INDEX=0
##$CONDENSED SPECTRUM=NO
##NPOINTS= 28
##XYDATA=(XY..XY) 1 
    59        999
    63        310
    77        260
    88        150
    89        500
    91        160
   102        220
   103        200
   115        280
   116        560
   129        160
   130        200
   131        130
   143        100
   144        100
   145        100
   157        110
   158        120
   159         90
   173        120
   189         90
   217        110
   232        320
   233        840
   234        150
   261         70
   292          0
   293          0