##TITLE=Library Entry 29536
##JCAMP-DX=Revision 4.10 
##DATA TYPE=MASS SPECTRUM
##SAMPLE DESCRIPTION=NIST Mass Spectrometry Data Center, 1994
##NAMES=HP
##CAS NAME=Dimethyl 2,3-Dibromo-1,4-butanedioate, (2R,3R)-rel-
##MOLFORM=C6H8Br2O4
##CAS REGISTRY NO=1186-98-7
##MP= -300
##BP= -300
##MW= 302
##$RETENTION INDEX=0
##$CONDENSED SPECTRUM=NO
##NPOINTS= 129
##XYDATA=(XY..XY) 1 
    15        292
    16          7
    17          2
    18          2
    25         51
    26        353
    27         56
    28         38
    29        256
    30         64
    31         28
    32          1
    33          1
    36          2
    37          7
    38          8
    39         83
    40          8
    41         57
    42         27
    43          0
    44          5
    45         17
    47          4
    51          1
    53        197
    54        118
    55         31
    56          3
    57         17
    58          0
    59        999
    60         22
    61          4
    68          2
    69         29
    70          1
    71          2
    72          1
    75         62
    76          2
    79         20
    80         12
    81         35
    82         33
    83          3
    84          1
    85        238
    86         12
    87          1
    91          2
    92          6
    93         15
    94         12
    95         15
    96          7
    97          2
    99          4
   100          3
   104         17
   105        117
   106         18
   107        109
   108          3
   109         23
   111         24
   113        237
   114         23
   115          3
   119          7
   120          5
   121          9
   122          4
   123         17
   125         14
   131          3
   133        178
   135        167
   136          9
   137          1
   138          4
   149          1
   151          1
   153          2
   155          1
   161          1
   163          5
   164         12
   165          6
   166         11
   167          1
   173          1
   175          1
   177          1
   179        172
   181        159
   182          9
   183          3
   184          8
   185          4
   186         13
   187          2
   188          7
   189          1
   190          1
   191        263
   192          1
   193        246
   194         15
   195         28
   197         25
   199         10
   201         21
   203          9
   211          2
   213          4
   215          3
   217          1
   223         92
   225         94
   226          5
   239          1
   241          3
   243          3
   245          4
   247          2
   271         12
   273         26
   275         11