##TITLE=Library Entry 25972
##JCAMP-DX=Revision 4.10 
##DATA TYPE=MASS SPECTRUM
##SAMPLE DESCRIPTION=NIST Mass Spectrometry Data Center
##NAMES=HP
##CAS NAME=4-Methylheptane-3,5-dione
##MOLFORM=C8H14O2
##CAS REGISTRY NO=1187-04-8
##MP= -300
##BP= -300
##MW= 142
##$RETENTION INDEX=1056
##$CONDENSED SPECTRUM=NO
##NPOINTS= 32
##XYDATA=(XY..XY) 1 
    26         11
    27         69
    28         48
    29        223
    30          5
    31          4
    39         27
    41         32
    42         13
    44         11
    45          6
    50          4
    51          5
    53         10
    55         41
    56         19
    57        999
    58        185
    59         28
    65          4
    67         16
    68          5
    70          3
    71         24
    85         20
    86        260
    87         21
   113         23
   114         25
   140          2
   142         27
   143          3