##TITLE=Library Entry 12779
##JCAMP-DX=Revision 4.10 
##DATA TYPE=MASS SPECTRUM
##SAMPLE DESCRIPTION=J.M. Halket, Trace Anal. Unit (TAU), London, UK
##NAMES=HP
##CAS NAME=1H-Indole-2,3-dione, 1-acetyl-5-methyl-
##MOLFORM=C11H9NO3
##CAS REGISTRY NO=118726-65-1
##MP= -300
##BP= -300
##MW= 203
##$RETENTION INDEX=0
##$CONDENSED SPECTRUM=NO
##NPOINTS= 74
##XYDATA=(XY..XY) 1 
    37         18
    38         36
    39         91
    40         13
    41         18
    42          3
    43        999
    44         24
    45          3
    49         11
    50        106
    51        218
    52         94
    53         46
    54          8
    55          5
    56          3
    57          2
    60          1
    61         19
    62         46
    63         81
    64         33
    65         19
    66          5
    67          2
    70          1
    71          1
    73          6
    74         20
    75         49
    76        112
    77        365
    78        100
    79          7
    80          3
    85          5
    86          8
    87         10
    88         11
    89         43
    90         19
    91         13
    92          1
    97          1
    99          4
   100          2
   102         33
   103         50
   104        516
   105         61
   106         24
   107          3
   116          5
   117          3
   118          4
   119          1
   130         14
   131         55
   132         32
   133        273
   134         24
   144          1
   146          3
   157          1
   160        966
   161        514
   162         50
   163          5
   175         31
   176          4
   179          1
   203        150
   204         18