##TITLE=Library Entry 15747
##JCAMP-DX=Revision 4.10 
##DATA TYPE=MASS SPECTRUM
##SAMPLE DESCRIPTION=M. RYSKA, MS LAB., PHARM. BIOCHEM. RES. INST., PRAGUE.
 CZECH.
##NAMES=HP
##CAS NAME=Thioxanthen-9-one, 4-[(3-methylamino)propoxy]-
##MOLFORM=C17H17NO2S
##CAS REGISTRY NO=118793-90-1
##MP= -300
##BP= -300
##MW= 299
##$RETENTION INDEX=0
##$CONDENSED SPECTRUM=NO
##NPOINTS= 27
##XYDATA=(XY..XY) 1 
    41         44
    42         71
    43         82
    44        999
    45         36
    56         34
    57         79
    58         35
    69         46
    70         65
    71         73
    72        953
    73         48
   127         37
   139         50
   171        139
   172         44
   200         36
   212         59
   213         30
   227         51
   228        331
   229        113
   230         22
   256         27
   299        113
   300         27