##TITLE=Library Entry 31251
##JCAMP-DX=Revision 4.10 
##DATA TYPE=MASS SPECTRUM
##SAMPLE DESCRIPTION=Japan AIST/NIMC Database- Spectrum MS-NW-4973
##NAMES=HP
##CAS NAME=S-Methyl-L-cysteine
##MOLFORM=C4H9NO2S
##CAS REGISTRY NO=1187-84-4
##MP= -300
##BP= -300
##MW= 135
##$RETENTION INDEX=0
##$CONDENSED SPECTRUM=NO
##NPOINTS= 75
##XYDATA=(XY..XY) 1 
    12          1
    13          2
    14         10
    15         77
    16          3
    17         10
    18         38
    25          1
    26          8
    27         88
    28        315
    29         25
    30        119
    31          3
    32          4
    33          3
    34          5
    35        110
    36          1
    37          5
    38          2
    39          5
    40         14
    41         53
    42        199
    43        360
    44         89
    45        107
    46        104
    47        117
    48         36
    49          9
    50          1
    53          1
    54          1
    55          9
    56         15
    57         14
    58         14
    59         15
    60         11
    61        999
    62        715
    63         64
    64         33
    65          1
    68          1
    69          3
    70          9
    71          4
    72          6
    73         23
    74        582
    75         84
    76          8
    77          4
    85          2
    87        116
    88         12
    89         11
    90        376
    91         17
    92         16
   100          3
   101          2
   103         10
   105          2
   116          1
   118         38
   119          3
   120          2
   135        301
   136         19
   137         15
   138          1