##TITLE=Library Entry 26168
##JCAMP-DX=Revision 4.10 
##DATA TYPE=MASS SPECTRUM
##SAMPLE DESCRIPTION=William W. Christie, Mylnefield Lipid Analysis, Invergo
wrie, Dundee, Scotland, UK
##NAMES=HP
##CAS NAME=Methyl 2-hydroxy-pentacosanoate
##MOLFORM=C26H52O3
##CAS REGISTRY NO=118745-42-9
##MP= -300
##BP= -300
##MW= 412
##$RETENTION INDEX=0
##$CONDENSED SPECTRUM=NO
##NPOINTS= 170
##XYDATA=(XY..XY) 1 
    53         20
    54         60
    55        639
    56        139
    57        999
    58         60
    59         40
    61         10
    65         10
    66         20
    67        249
    68        139
    69        569
    70        119
    71        559
    72         40
    73         10
    74         20
    75         10
    76         20
    77         10
    79         40
    80         20
    81        309
    82        279
    83        649
    84        100
    85        419
    86         40
    87         60
    88         10
    89         20
    90        329
    91         20
    93         20
    94         20
    95        329
    96        239
    97        689
    98        149
    99        149
   100         20
   101         20
   102         10
   103        149
   104         10
   105         10
   107         10
   108         10
   109        189
   110         90
   111        429
   112         70
   113        179
   114         60
   115         10
   121         10
   122         10
   123        109
   124         70
   125        229
   126         40
   127        219
   128         30
   129         10
   131         10
   132         20
   135         10
   136         10
   137         70
   138         70
   139        109
   140         20
   141        100
   142         20
   143         10
   145        100
   146         10
   147         10
   149         10
   151         40
   152         30
   153         80
   154         20
   155         30
   156         40
   157         10
   159         80
   160         10
   165         20
   166         10
   167         50
   168         10
   169         30
   170         30
   171         10
   179         10
   180         10
   181         30
   182         10
   183         20
   184         10
   185         10
   193         10
   194         10
   195         30
   196         10
   197         10
   199         10
   207         10
   208         10
   209         20
   211         10
   212         10
   213         10
   222         10
   223         10
   225         10
   226         10
   227         10
   236         10
   237         20
   239         10
   241         10
   249         10
   250         10
   251         10
   252         10
   253         10
   255         10
   264         10
   265         10
   266         10
   267         10
   269         10
   277         10
   278         10
   279         10
   281         10
   291         10
   292         10
   297         10
   298         10
   306         10
   307         10
   308         40
   309         10
   311         10
   322         10
   333         20
   335         70
   336         30
   337         10
   340         10
   350         10
   352        139
   353         50
   354        439
   355        109
   356         20
   363         10
   368         30
   381         80
   382         20
   395         10
   397         10
   412        639
   413        189
   414         30
   415         10