##TITLE=Library Entry 40095
##JCAMP-DX=Revision 4.10 
##DATA TYPE=MASS SPECTRUM
##SAMPLE DESCRIPTION=Japan AIST/NIMC Database- Spectrum MS-NW-2223
##NAMES=HP
##CAS NAME=Urea, tetraethyl-
##MOLFORM=C9H20N2O
##CAS REGISTRY NO=1187-03-7
##MP= -300
##BP= -300
##MW= 172
##$RETENTION INDEX=0
##$CONDENSED SPECTRUM=NO
##NPOINTS= 54
##XYDATA=(XY..XY) 1 
    14          1
    15         22
    18          1
    26          6
    27         86
    28         37
    29        359
    30         40
    39          2
    40          4
    41         11
    42         86
    43         14
    44        206
    45          4
    46          1
    52          2
    54          4
    55          4
    56         82
    57         11
    58        310
    59         10
    60          1
    69          1
    70         26
    71         27
    72        999
    73         88
    74         28
    75          1
    84         14
    85          1
    86          6
    87          1
    99          2
   100        901
   101         58
   102          4
   106          1
   113          6
   115          3
   127          4
   129          4
   141          1
   143         20
   144         10
   155          4
   157         15
   158          1
   170          2
   172        194
   173         21
   174          2