##TITLE=Library Entry 8481
##JCAMP-DX=Revision 4.10 
##DATA TYPE=MASS SPECTRUM
##SAMPLE DESCRIPTION=B. F. SMITH
##NAMES=HP
##CAS NAME=2-Hexanone, 5-methyl-3-methylene-
##MOLFORM=C8H14O
##CAS REGISTRY NO=1187-87-7
##MP= -300
##BP= -300
##MW= 126
##$RETENTION INDEX=0
##$CONDENSED SPECTRUM=NO
##NPOINTS= 76
##XYDATA=(XY..XY) 1 
    13          3
    14         22
    15        184
    16          3
    17          4
    18         16
    26         16
    27        199
    28         19
    29         48
    30          1
    31          3
    33          1
    37          7
    38         23
    39        234
    40         70
    41        356
    42         66
    43        999
    44         27
    45         11
    47          3
    49          1
    50         11
    51         22
    52         10
    53         36
    54          9
    56         26
    57         21
    58          4
    59          1
    61          1
    62          3
    63          7
    64          2
    65         13
    66          8
    67         27
    68         13
    69        478
    70        135
    71         21
    72          5
    74          1
    77         11
    78          3
    79          8
    80          2
    81         11
    82          5
    83         90
    84        104
    85         15
    86          2
    91          7
    92          1
    93         28
    94          2
    95          4
    96          1
    97         11
    98          4
   105          1
   107          3
   108          2
   109          3
   111        176
   112         14
   113          1
   124          1
   125          8
   126        121
   127         12
   128          1