##TITLE=Library Entry 54458
##JCAMP-DX=Revision 4.10 
##DATA TYPE=MASS SPECTRUM
##SAMPLE DESCRIPTION=M. RYSKA, MS LAB., PHARM. BIOCHEM. RES. INST., PRAGUE,
 CZECH.
##NAMES=HP
##CAS NAME=Thioxanthen-9-one, 4-[4-(butylamino)butoxy]-
##MOLFORM=C21H25NO2S
##CAS REGISTRY NO=118793-94-5
##MP= -300
##BP= -300
##MW= 355
##$RETENTION INDEX=0
##$CONDENSED SPECTRUM=NO
##NPOINTS= 77
##XYDATA=(XY..XY) 1 
    38         30
    39        130
    40         30
    41        170
    42        280
    43         90
    44        120
    45         30
    50        120
    51         80
    52         20
    53         40
    54         30
    55        140
    56         80
    57         20
    61         20
    62         60
    63        130
    64         40
    65         20
    68         20
    69        260
    70        120
    71         30
    72         50
    73         30
    74         80
    75         80
    76         90
    77         70
    81         20
    82         50
    83         60
    84        999
    85        210
    86        190
    87         50
    89         20
    91         20
    92         20
    93         60
    94         20
    95         70
    96         60
    98         30
    99         20
   100         60
   101         30
   102         30
   105         20
   108         40
   114         40
   126         60
   127        120
   128        280
   129         30
   139         90
   145         40
   146         20
   169         20
   170         50
   171        500
   172        290
   173         70
   183         20
   199         40
   200        240
   201         50
   227         70
   228        730
   229        130
   230         40
   240         20
   270         20
   312         20
   355          2