##TITLE=Library Entry 1220
##JCAMP-DX=Revision 4.10 
##DATA TYPE=MASS SPECTRUM
##SAMPLE DESCRIPTION=Chemical Concepts
##NAMES=HP
##CAS NAME=N-(2,2-Dimethyl-propyl)-propionamide
##MOLFORM=C8H17NO
##CAS REGISTRY NO=118764-26-4
##MP= -300
##BP= -300
##MW= 143
##$RETENTION INDEX=0
##$CONDENSED SPECTRUM=NO
##NPOINTS= 50
##XYDATA=(XY..XY) 1 
    26         19
    27        202
    29        596
    30        999
    31         37
    33          5
    36         11
    38         12
    39         98
    40         17
    41        291
    42         44
    43        205
    44        107
    45         17
    51         14
    52          7
    53         25
    54         16
    55        153
    56        115
    57        750
    58        295
    59         58
    60         11
    64          6
    65          8
    66          4
    67         10
    68          9
    69         36
    70         31
    71         84
    72        448
    73         27
    74         10
    77         14
    79          9
    81         10
    83         11
    84         10
    85         30
    86        310
    87        919
    88        161
    89          8
   114         19
   128         45
   143        145
   144         15