##TITLE=Library Entry 57588
##JCAMP-DX=Revision 4.10 
##DATA TYPE=MASS SPECTRUM
##SAMPLE DESCRIPTION=ASES Database, Dalian Institute, P.R. China
##NAMES=HP
##CAS NAME=Allyl hyponitrite
##MOLFORM=C6H10N2O2
##CAS REGISTRY NO=118728-49-7
##MP= -300
##BP= -300
##MW= 142
##$RETENTION INDEX=0
##$CONDENSED SPECTRUM=NO
##NPOINTS= 12
##XYDATA=(XY..XY) 1 
    41        802
    42         65
    54        119
    55        181
    57        112
    81         64
    82         31
    85         39
    88        999
   112         47
   125         15
   141         16