##TITLE=Library Entry 2491
##JCAMP-DX=Revision 4.10 
##DATA TYPE=MASS SPECTRUM
##SAMPLE DESCRIPTION=Chemical Concepts
##NAMES=HP
##CAS NAME=3-Hexen-2-one, 3-methyl-
##MOLFORM=C7H12O
##CAS REGISTRY NO=1187-80-0
##MP= -300
##BP= -300
##MW= 112
##$RETENTION INDEX=0
##$CONDENSED SPECTRUM=NO
##NPOINTS= 65
##XYDATA=(XY..XY) 1 
    26         21
    27        179
    28         19
    29         62
    30          1
    31          3
    33          0
    36          0
    37         11
    38         25
    39        229
    40         30
    41        999
    42         62
    43        639
    44         12
    45          4
    49          3
    50         21
    51         32
    52         13
    53         65
    54         15
    55         46
    56          8
    57         26
    58          3
    59          0
    61          3
    62          7
    63         10
    64          1
    65         13
    66          6
    67         41
    68         10
    69        481
    70         35
    71          9
    72          2
    73          0
    74          0
    75          0
    77          7
    78          0
    79         12
    80          0
    81          1
    82          3
    83          2
    84          3
    85          7
    86          0
    91          1
    93          2
    94          0
    95          2
    96          1
    97        155
    98         10
    99          2
   111          4
   112        179
   113         13
   114          0