##TITLE=Library Entry 40529
##JCAMP-DX=Revision 4.10 
##DATA TYPE=MASS SPECTRUM
##SAMPLE DESCRIPTION=Exported from NIST MS Search
##NAMES=HP
##CAS NAME=4-Heptanone, oxime
##MOLFORM=C7H15NO
##CAS REGISTRY NO=1188-63-2
##MP= -300
##BP= -300
##MW= 129
##$RETENTION INDEX=0
##$CONDENSED SPECTRUM=NO
##NPOINTS= 58
##XYDATA=(XY..XY) 1 
    25         16
    26         57
    27        450
    28        127
    29        221
    30         24
    31         26
    32         14
    37         16
    38         36
    39        250
    40         57
    41        573
    42        163
    43        393
    44         36
    45         22
    46         16
    50         16
    51         18
    52         24
    53         41
    54         82
    55         77
    56         51
    57         92
    58         18
    59         16
    60         18
    64         20
    65         20
    66         16
    67         24
    68         47
    69         45
    70        266
    71         34
    72         24
    73        999
    74         45
    81         16
    82         16
    83         18
    84         18
    85         12
    87         12
    96         24
    97         16
    98         24
   100         12
   101        127
   102         16
   112         24
   114        245
   115         16
   128         16
   129         73
   130         20