##TITLE=Library Entry 15531
##JCAMP-DX=Revision 4.10 
##DATA TYPE=MASS SPECTRUM
##SAMPLE DESCRIPTION=Japan AIST/NIMC Database- Spectrum MS-NW-6717
##NAMES=HP
##CAS NAME=N(Epsilon)-methyl-l-lysine
##MOLFORM=C7H16N2O2
##CAS REGISTRY NO=1188-07-4
##MP= -300
##BP= -300
##MW= 160
##$RETENTION INDEX=0
##$CONDENSED SPECTRUM=NO
##NPOINTS= 86
##XYDATA=(XY..XY) 1 
    14          1
    15         38
    16          3
    17          9
    18         27
    19          1
    26          7
    27         46
    28        164
    29         47
    30        116
    31         15
    32          2
    39         40
    40          9
    41         62
    42        140
    43        152
    44        999
    45         29
    46          8
    50          3
    51          5
    52          5
    53          9
    54         21
    55         30
    56        209
    57         53
    58         46
    59          7
    60          2
    63          1
    65          3
    66          3
    67         19
    68         24
    69         11
    70        129
    71         34
    72         86
    73         45
    74         14
    75          5
    78          1
    79          1
    80          5
    81          7
    82         80
    83        110
    84         96
    85         19
    86         26
    87          5
    88          2
    89          3
    94          5
    95          2
    96         40
    97         34
    98         68
    99         10
   100          5
   109          1
   110          2
   111          2
   112          1
   113          7
   114         19
   115          6
   116          1
   117          3
   124         19
   125         12
   126          2
   127          2
   128          6
   129          2
   130          3
   140          2
   141          2
   142         14
   143          5
   144          4
   160         45
   161          4