##TITLE=Library Entry 53705
##JCAMP-DX=Revision 4.10 
##DATA TYPE=MASS SPECTRUM
##SAMPLE DESCRIPTION=Japan AIST/NIMC Database- Spectrum MS-NW-3030
##NAMES=HP
##CAS NAME=N-Acetyl-L-glutamic acid
##MOLFORM=C7H11NO5
##CAS REGISTRY NO=1188-37-0
##MP= -300
##BP= -300
##MW= 189
##$RETENTION INDEX=0
##$CONDENSED SPECTRUM=NO
##NPOINTS= 119
##XYDATA=(XY..XY) 1 
    12          4
    13          5
    14         47
    15         97
    16          6
    17         37
    18        151
    24          2
    25          5
    26         36
    27         87
    28        226
    29         42
    30         39
    31         16
    32          7
    34          2
    36          6
    37          7
    38         13
    39         59
    40         28
    41        185
    42        136
    43        910
    44         95
    45         85
    46         10
    47          1
    50          3
    51          7
    52         14
    53         10
    54         56
    55         78
    56        205
    57        102
    58          8
    59          8
    60         57
    61          5
    63          1
    64          2
    65          2
    66          7
    67         16
    68         52
    69          9
    70          9
    71          9
    72         14
    73         15
    74        108
    75          7
    76          1
    77          1
    78          1
    79          3
    80          9
    81          7
    82         36
    83         92
    84        999
    85        147
    86         45
    87         15
    88         19
    89          1
    91          2
    93          1
    94          1
    95          4
    96          1
    97          8
    98         17
    99         36
   100         30
   101         20
   102        436
   103         21
   104          3
   105          1
   107          2
   108          1
   109          4
   110          6
   111         75
   112         21
   113          8
   114          2
   115          4
   116         20
   117         11
   118          1
   119          1
   125          9
   126        176
   127         29
   128         11
   129         31
   130         33
   131          3
   132          1
   141          1
   143         14
   144        184
   145         24
   146         18
   147          4
   153         47
   154          4
   155          1
   156          1
   158          8
   159          2
   160          2
   171         41
   172          4
   189          5