##TITLE=Library Entry 15088
##JCAMP-DX=Revision 4.10 
##DATA TYPE=MASS SPECTRUM
##SAMPLE DESCRIPTION=Japan AIST/NIMC Database- Spectrum MS-NW- 480
##NAMES=HP
##CAS NAME=N-dl-Alanylglycine
##MOLFORM=C5H10N2O3
##CAS REGISTRY NO=1188-01-8
##MP= -300
##BP= -300
##MW= 146
##$RETENTION INDEX=0
##$CONDENSED SPECTRUM=NO
##NPOINTS= 59
##XYDATA=(XY..XY) 1 
    14          1
    15          9
    16          1
    17          6
    18         67
    26          3
    27         14
    28         48
    29         16
    30         53
    31          6
    32          1
    36          1
    39          3
    40          6
    41         15
    42         47
    43         26
    44        999
    45         29
    53          1
    54          2
    55         10
    56         19
    57         13
    58          3
    59          1
    60          4
    67          3
    68          2
    69          6
    70          3
    71          3
    73          4
    74          4
    76          2
    81          3
    82          3
    83          4
    84          3
    85         36
    86          3
    95          2
    96          2
    97          3
    98          3
    99          2
   100          1
   101          3
   102          1
   109          1
   111          2
   112          1
   113          3
   123          1
   128          6
   129          1
   131          1
   146          1