##TITLE=Library Entry 55787
##JCAMP-DX=Revision 4.10 
##DATA TYPE=MASS SPECTRUM
##SAMPLE DESCRIPTION=Japan AIST/NIMC Database- Spectrum MS-NW-2004
##NAMES=HP
##CAS NAME=N-Acetyl-L-leucine
##MOLFORM=C8H15NO3
##CAS REGISTRY NO=1188-21-2
##MP= -300
##BP= -300
##MW= 173
##$RETENTION INDEX=0
##$CONDENSED SPECTRUM=NO
##NPOINTS= 86
##XYDATA=(XY..XY) 1 
    14          9
    15         81
    16          1
    17          9
    18         40
    26          9
    27         97
    28        112
    29         70
    30        323
    31          5
    32          1
    37          2
    38          7
    39         65
    40         23
    41        170
    42         95
    43        633
    44        409
    45         15
    46         11
    50          3
    51          5
    52          3
    53         16
    54          9
    55         28
    56         27
    57        109
    58          6
    59         18
    60        113
    61          3
    65          2
    66          2
    67         14
    68         55
    69         36
    70        125
    71         39
    72         21
    73         16
    74        190
    75         44
    76          3
    81          7
    82          3
    83          3
    84         33
    85         99
    86        999
    87         59
    88         54
    89          4
    94          2
    95          5
    96         25
    97          7
    98          5
    99        289
   100         15
   101          4
   109          1
   110          1
   111          3
   112         57
   113         17
   114         23
   115          9
   116         36
   117        254
   118         11
   119          2
   126          2
   127          9
   128        378
   129         49
   130         37
   131          5
   137          3
   140          2
   155          5
   158          9
   173         14
   174          2