##TITLE=Library Entry 85369
##JCAMP-DX=Revision 4.10 
##DATA TYPE=MASS SPECTRUM
##SAMPLE DESCRIPTION=Chemical Concepts
##NAMES=HP
##CAS NAME=3-(4-Methoxycarbonylmethyl-5-oxo-2,5-dihydro-1H-pyrrol-3-yl)-prop
ionic acid, methyl ester
##MOLFORM=C11H15NO5
##CAS REGISTRY NO=118826-22-5
##MP= -300
##BP= -300
##MW= 241
##$RETENTION INDEX=0
##$CONDENSED SPECTRUM=NO
##NPOINTS= 174
##XYDATA=(XY..XY) 1 
    25          1
    26          8
    27         66
    28         85
    29         46
    30         24
    31         21
    33          5
    37          3
    38         13
    39        113
    40         45
    41        126
    42         33
    43        111
    44         14
    45         59
    46          2
    47          2
    49          1
    50         17
    51         52
    52         47
    53         88
    54         26
    55        108
    56         27
    57         75
    58         17
    59        119
    60         15
    61         12
    62          5
    63         18
    64         11
    65         81
    66         45
    67        109
    68         26
    69         56
    70         17
    71         46
    72          8
    73         12
    74          8
    75          6
    76          5
    77         58
    78         18
    79         70
    80        120
    81         51
    82         25
    83         52
    84         14
    85         29
    86          3
    87         45
    88          4
    89          3
    90          3
    91        146
    92         34
    93         50
    94         71
    95         77
    96         32
    97         33
    98          8
    99         11
   100          1
   101          7
   102          1
   103          1
   104          6
   105          8
   106          6
   107         36
   108        999
   109        128
   110         32
   111         20
   112         15
   113          7
   114         11
   115          2
   117          1
   118          2
   119          3
   120         11
   121        169
   122        140
   123         31
   124         27
   125         10
   126          9
   127          4
   128          1
   129          6
   130          1
   131          3
   132          2
   133          2
   134          2
   135          7
   136         29
   137          7
   138         15
   139         27
   140         10
   141          3
   142          1
   143          1
   145          1
   146          1
   147          3
   148          6
   149         50
   150        116
   151         22
   152          7
   153          3
   154         13
   155          3
   156          2
   157          4
   158          2
   159          1
   160          2
   161          2
   162          1
   163          3
   164          2
   165          3
   166         12
   167         19
   168         13
   169          2
   170          1
   171          1
   173          2
   174          1
   177          3
   178         56
   179          6
   180          4
   181        644
   182        156
   183         19
   184          2
   189          1
   190          2
   191          1
   192          1
   193          2
   194          1
   195          1
   196          1
   197          1
   205          1
   207          1
   208          1
   209         75
   210        212
   211         24
   212          3
   219          1
   220          8
   221          1
   223          3
   224          1
   241         53
   242         10
   243          1