##TITLE=Library Entry 90235
##JCAMP-DX=Revision 4.10 
##DATA TYPE=MASS SPECTRUM
##SAMPLE DESCRIPTION=Japan AIST/NIMC Database- Spectrum MS-IW-3305
##NAMES=HP
##CAS NAME=Ethyl(4-methyl-2,5-dioxo-4-imidazolidinyl) acetate
##MOLFORM=C8H12N2O4
##CAS REGISTRY NO=118802-54-3
##MP= -300
##BP= -300
##MW= 200
##$RETENTION INDEX=0
##$CONDENSED SPECTRUM=NO
##NPOINTS= 83
##XYDATA=(XY..XY) 1 
    14          1
    15         13
    26          6
    27         41
    28         39
    29        135
    30          6
    31          5
    38          3
    39         37
    40         20
    41         93
    42        370
    43         57
    44         20
    45         38
    46          1
    52          2
    53          2
    54          9
    55         12
    56         16
    57         51
    58          4
    59          2
    60        156
    61        103
    62          3
    67          2
    68         15
    69          9
    70         98
    71          5
    72          1
    73          8
    74          2
    82         15
    83         38
    84         21
    85         14
    86         31
    87          2
    88        393
    89         17
    90          2
    95          1
    96          9
    97          1
    98          6
    99         11
   100          4
   101          4
   109          1
   110         11
   111          5
   112          9
   113        999
   114         63
   115         11
   125          1
   126          9
   127         13
   128          6
   129        178
   130         15
   131          1
   139         10
   140          1
   141          1
   143          2
   154        133
   155        151
   156         11
   157          6
   171          3
   172         11
   173          1
   185        153
   186         13
   187          2
   200        174
   201         18
   202          2