##TITLE=Library Entry 90972
##JCAMP-DX=Revision 4.10 
##DATA TYPE=MASS SPECTRUM
##SAMPLE DESCRIPTION=NIST Mass Spectrometry Data Center, 1998.
##NAMES=HP
##CAS NAME=Butanamine, N-ethyl-N-2-(1-naphthyloxy)ethyl-
##MOLFORM=C18H25NO
##CAS REGISTRY NO=118868-77-2
##MP= -300
##BP= -300
##MW= 271
##$RETENTION INDEX=0
##$CONDENSED SPECTRUM=NO
##NPOINTS= 104
##XYDATA=(XY..XY) 1 
    15          1
    26          1
    27         11
    28          6
    29         46
    30         19
    39          9
    40          1
    41         47
    42         70
    43         16
    44         38
    45          1
    50          2
    51          4
    52          1
    53          2
    54          7
    55         15
    56         89
    57         91
    58         78
    59          3
    62          3
    63         11
    64          2
    65          6
    66          1
    67          1
    68          3
    69          2
    70         24
    71         18
    72        290
    73         14
    74          3
    75          6
    76          3
    77         10
    78          1
    80          1
    82          2
    84         34
    85         18
    86         14
    87          4
    88          5
    89         16
    90          2
    91          1
    96          1
    97          1
    98         17
    99          3
   100          5
   101          7
   102          2
   107          2
   110          1
   112         25
   114        999
   115        235
   116         25
   117          2
   125          1
   126         15
   127         58
   128        115
   129         16
   130          1
   139          1
   140          1
   141         10
   142          2
   143         23
   144         12
   145          1
   152          3
   153          4
   154          1
   155          4
   156          3
   157          5
   158          1
   168          1
   169          7
   170          5
   171         18
   172          2
   185          1
   198          1
   199          1
   214          1
   228         54
   229          9
   230          1
   242          1
   256          3
   257          1
   269          1
   270          2
   271         31
   272          7
   273          1