##TITLE=Library Entry 8889
##JCAMP-DX=Revision 4.10 
##DATA TYPE=MASS SPECTRUM
##SAMPLE DESCRIPTION=D.HENNEBERG, MAX-PLANCK INSTITUTE, MULHEIM, WEST GERMAN
Y
##NAMES=HP
##CAS NAME=Heptane, 2,5,5-trimethyl-
##MOLFORM=C10H22
##CAS REGISTRY NO=1189-99-7
##MP= -300
##BP= -300
##MW= 142
##$RETENTION INDEX=892
##$CONDENSED SPECTRUM=NO
##NPOINTS= 48
##XYDATA=(XY..XY) 1 
    24          0
    25          0
    26         13
    27        130
    28          9
    29        198
    30          5
    37          7
    38          1
    39         72
    40         12
    41        285
    42         75
    43        999
    44         29
    45          0
    50          0
    51          2
    52          1
    53         16
    54          3
    55        118
    56         68
    57        772
    58         34
    65          0
    67          4
    68          3
    69         33
    70        242
    71        954
    72         55
    73          0
    77          0
    79          0
    81          0
    83          2
    84          2
    85         60
    86          3
    97          0
    99         15
   100          0
   112         19
   113         74
   114          5
   127         11
   128          0