##TITLE=Library Entry 50463
##JCAMP-DX=Revision 4.10 
##DATA TYPE=MASS SPECTRUM
##SAMPLE DESCRIPTION=ASES Database, Dalian Institute, P.R. China
##NAMES=HP
##CAS NAME=3-(2-Hydroxycyclohexyl)-furan
##MOLFORM=C10H14O2
##CAS REGISTRY NO=118959-04-9
##MP= -300
##BP= -300
##MW= 166
##$RETENTION INDEX=0
##$CONDENSED SPECTRUM=NO
##NPOINTS= 23
##XYDATA=(XY..XY) 1 
    39        312
    41        240
    43        100
    53        150
    55        120
    65        110
    67        189
    69         60
    77        119
    79        219
    81        999
    82        606
    83         69
    91        120
    94        190
    95        610
    96         80
   107         80
   120         49
   138         79
   149        110
   166        410
   167         50