##TITLE=Library Entry 82390
##JCAMP-DX=Revision 4.10 
##DATA TYPE=MASS SPECTRUM
##SAMPLE DESCRIPTION=Japan AIST/NIMC Database- Spectrum MS-IW-3736
##NAMES=HP
##CAS NAME=Chlorosulfonyl isocyanate
##MOLFORM=CClNO3S
##CAS REGISTRY NO=1189-71-5
##MP= -300
##BP= -300
##MW= 141
##$RETENTION INDEX=0
##$CONDENSED SPECTRUM=NO
##NPOINTS= 42
##XYDATA=(XY..XY) 1 
    12          1
    14          2
    15          2
    16          2
    26          2
    27          1
    28         36
    29          7
    30         25
    32         19
    35          9
    36         17
    37          3
    38          6
    42        127
    43         66
    44         51
    46         14
    48        100
    49          5
    50          4
    51          1
    62          2
    64        205
    65          2
    66          9
    67          1
    70          1
    76          2
    77          3
    83          8
    85          3
    90          6
    99         68
   101         25
   103          1
   106        999
   107         23
   108         50
   141         35
   142          1
   143         12