##TITLE=Library Entry 7285
##JCAMP-DX=Revision 4.10 
##DATA TYPE=MASS SPECTRUM
##SAMPLE DESCRIPTION=H. Fales, LC, NHLBI, NIH, Bethesda, MD 20892
##NAMES=HP
##CAS NAME=3.alpha.,5.alpha.-Cyclo-ergosta-7,9(11),22t-triene-6.beta.-ol
##MOLFORM=C28H42O
##CAS REGISTRY NO=118978-72-6
##MP= -300
##BP= -300
##MW= 394
##$RETENTION INDEX=0
##$CONDENSED SPECTRUM=NO
##NPOINTS= 232
##XYDATA=(XY..XY) 1 
    41        450
    43        999
    44         52
    45         88
    49         62
    51         40
    53        105
    55        755
    57        240
    59         65
    60         25
    65         51
    66         13
    67        206
    69        650
    70         18
    71        176
    73         42
    74         25
    77        134
    79        198
    80         11
    81        307
    82         20
    83        239
    84         42
    85         77
    86         38
    87         34
    91        194
    93        213
    94         19
    95        274
    96         33
    97        104
    98         34
    99         43
   101         17
   103         30
   105        167
   106         10
   107        180
   108         11
   109        152
   110         21
   111         69
   113         36
   114          8
   115         67
   116         25
   117         67
   119         82
   121        188
   122         69
   123        143
   124         58
   125         92
   126         17
   127         32
   128         62
   129         73
   130         16
   131         97
   133        103
   134         22
   135         84
   136         33
   137         55
   138         19
   139         38
   141         78
   142         39
   143        108
   144         21
   145        133
   146         20
   147         97
   149         46
   150         26
   151         36
   152         29
   153         44
   154         26
   155         72
   156         18
   157        131
   158         38
   159        111
   160         29
   161         66
   162         24
   163         41
   164         10
   165         63
   166         26
   167         47
   168         22
   169         53
   171         71
   172         20
   173         67
   174         30
   175         62
   176         27
   177         41
   178         30
   179         46
   180         13
   181         47
   182         22
   183         58
   185         71
   186         13
   187         51
   188         18
   189         36
   190         10
   191         31
   192         17
   193         29
   194         16
   195         43
   196         12
   197         81
   198         27
   199        196
   200         37
   201         36
   202         15
   203         30
   205         28
   207         32
   209         45
   210         22
   211         63
   212         29
   213         51
   214         22
   215         67
   216         52
   217         31
   218          9
   219         25
   221         20
   222          8
   223         33
   224         16
   225         44
   226         37
   227         71
   228         28
   229         42
   230         18
   231         24
   232         15
   233         22
   235         28
   236         16
   237         52
   238         55
   239         57
   240         17
   241         31
   242         22
   243         58
   244         24
   245         34
   246         13
   247         17
   249         27
   250         15
   251         57
   252         33
   253        432
   254         90
   255         46
   256         18
   257         20
   258          9
   259         17
   261          9
   263         15
   265         27
   266         23
   267         59
   268         29
   269         53
   270         21
   271         17
   273         12
   277         12
   279         19
   281         21
   282          9
   283         24
   284         15
   285         24
   287         10
   293         13
   295         18
   296         17
   297         23
   298         13
   299         16
   307         12
   309          9
   311         13
   315          8
   325          8
   335         16
   337         29
   339          9
   340         13
   351         15
   361         24
   362         80
   363         24
   364         14
   366          8
   367         15
   374         19
   376         19
   377        121
   378         67
   379         20
   380          8
   383          0
   392         16
   393         14
   394         72
   395         24
   396          5