##TITLE=Library Entry 19193
##JCAMP-DX=Revision 4.10 
##DATA TYPE=MASS SPECTRUM
##SAMPLE DESCRIPTION=Chemical Concepts
##NAMES=HP
##CAS NAME=5-Octen-2-ol, 5-methyl-
##MOLFORM=C9H18O
##CAS REGISTRY NO=118989-20-1
##MP= -300
##BP= -300
##MW= 142
##$RETENTION INDEX=0
##$CONDENSED SPECTRUM=NO
##NPOINTS= 84
##XYDATA=(XY..XY) 1 
    23          1
    24          1
    25          1
    26         15
    27        315
    29        266
    30          8
    31         65
    37          5
    38         15
    39        332
    40         69
    41        947
    42        115
    43        471
    44         21
    45        586
    46         14
    47          2
    48          2
    49          1
    50         14
    51         43
    52         24
    53        176
    54         75
    55        999
    56        321
    57         93
    58        704
    59        159
    60          6
    62          4
    63         12
    64          3
    65         44
    66         24
    67        873
    68        119
    69        482
    70         99
    71        266
    72         24
    73          2
    75          1
    77         40
    78          7
    79         66
    80         19
    81        276
    82        497
    83        134
    84        338
    85        182
    86         15
    87          6
    91         18
    92          2
    93         37
    94         15
    95        849
    96         71
    97         19
    98         65
    99         36
   100          3
   105          2
   107         13
   108          2
   109        270
   110         25
   111          8
   113          2
   114          1
   122          8
   123          9
   124         28
   125          4
   127         24
   128          2
   140          1
   141          1
   142         93
   143         10