##TITLE=Library Entry 34530
##JCAMP-DX=Revision 4.10 
##DATA TYPE=MASS SPECTRUM
##SAMPLE DESCRIPTION=NIST Mass Spectrometry Data Center
##NAMES=HP
##CAS NAME=trans-Geranic acid methyl ester
##MOLFORM=C11H18O2
##CAS REGISTRY NO=1189-09-9
##MP= -300
##BP= -300
##MW= 182
##$RETENTION INDEX=1324
##$CONDENSED SPECTRUM=NO
##NPOINTS= 59
##XYDATA=(XY..XY) 1 
    27         27
    29         21
    38          5
    39        108
    40         16
    41        431
    42         25
    45          7
    50          5
    51         20
    52         10
    53         71
    54         29
    55         34
    59         19
    63          5
    65         18
    66          9
    67         68
    68         23
    69        999
    70         52
    71          7
    73         12
    74          6
    77         21
    79         27
    80          5
    81         27
    82         94
    83        159
    84          9
    87          4
    91         16
    95         12
    96          6
    99         30
   105          6
   107         35
   108         15
   109          8
   114        301
   115         21
   121          8
   122         92
   123        188
   124         17
   125         16
   127          8
   135          6
   138          9
   139         50
   140          7
   150         29
   151         58
   152          6
   167          6
   182         14
   183          2