##TITLE=Library Entry 79562
##JCAMP-DX=Revision 4.10 
##DATA TYPE=MASS SPECTRUM
##SAMPLE DESCRIPTION=Chemical Concepts
##NAMES=HP
##CAS NAME=Azetidine, 1-benzoyl-3-ethenyl-
##MOLFORM=C12H13NO
##CAS REGISTRY NO=118973-03-8
##MP= -300
##BP= -300
##MW= 187
##$RETENTION INDEX=0
##$CONDENSED SPECTRUM=NO
##NPOINTS= 35
##XYDATA=(XY..XY) 1 
    27         19
    28          7
    29          7
    38          2
    39         23
    40          2
    41         10
    42          5
    43          2
    50         19
    51         75
    52          7
    53         12
    54         34
    55          8
    56          5
    67          4
    74          5
    75          6
    76         15
    77        411
    78         27
    80          4
    82         13
    91          3
   104          5
   105        999
   106         71
   107          5
   122          4
   172          5
   185          6
   186         68
   187        123
   188         18