##TITLE=Library Entry 15614
##JCAMP-DX=Revision 4.10 
##DATA TYPE=MASS SPECTRUM
##SAMPLE DESCRIPTION=Chemical Concepts
##NAMES=HP
##CAS NAME=N-Dimethylaminomethyl-N-methylformamide
##MOLFORM=C5H12N2O
##CAS REGISTRY NO=1189-06-6
##MP= -300
##BP= -300
##MW= 116
##$RETENTION INDEX=0
##$CONDENSED SPECTRUM=NO
##NPOINTS= 47
##XYDATA=(XY..XY) 1 
    26          2
    27         28
    28        274
    29        178
    30        449
    31          8
    38          4
    39          7
    40         21
    41         40
    42        351
    43         85
    44        999
    45        127
    46         43
    47          0
    49          0
    51          0
    52          0
    54          1
    55          4
    56          9
    57        386
    58        921
    59        406
    60         30
    61          0
    69          2
    70          1
    71          3
    72        131
    73         30
    74         23
    75          1
    85          4
    86          1
    87          1
    88         38
    89          1
    91          0
    99          1
   101         51
   102          9
   103          0
   115          1
   116         72
   117          5