##TITLE=Library Entry 34216
##JCAMP-DX=Revision 4.10 
##DATA TYPE=MASS SPECTRUM
##SAMPLE DESCRIPTION=Japan AIST/NIMC Database- Spectrum MS-NW-5160
##NAMES=HP
##CAS NAME=1,3-Butylene glycol dimethacrylate
##MOLFORM=C12H18O4
##CAS REGISTRY NO=1189-08-8
##MP= -300
##BP= -300
##MW= 226
##$RETENTION INDEX=0
##$CONDENSED SPECTRUM=NO
##NPOINTS= 88
##XYDATA=(XY..XY) 1 
    15          8
    18          1
    26          4
    27         21
    28          9
    29         19
    31          6
    37          2
    38          7
    39        122
    40         39
    41        428
    42         30
    43         30
    44          3
    45         16
    51          1
    53          6
    54         44
    55        201
    56         16
    57          6
    58          3
    59          8
    67          3
    68         31
    69        999
    70         54
    71         46
    72          5
    73          3
    79          2
    80          2
    81          5
    82          9
    83          2
    84          2
    85          3
    86         18
    87         79
    88          4
    89          1
    94          5
    95         41
    96          6
    97          6
    98         13
    99          9
   100          2
   101          6
   102          1
   107          1
   108         12
   109          3
   110          3
   111         26
   112         16
   113         14
   114          2
   115          1
   117          1
   122          2
   123          1
   125          9
   126         12
   127          3
   128          2
   136         19
   137          3
   138          1
   139          1
   140         78
   141         86
   142          9
   143          1
   144          1
   153          1
   154         10
   155          5
   157          3
   171          2
   172         22
   173          2
   180          3
   181          1
   198          2
   208          2
   226          3