##TITLE=Library Entry 77569
##JCAMP-DX=Revision 4.10 
##DATA TYPE=MASS SPECTRUM
##SAMPLE DESCRIPTION=CONTINENTAL OIL CO., PONCA CITY, OKLA, USA
##NAMES=HP
##CAS NAME=Naphthalene, 1,2,3,4-tetrahydro-
##MOLFORM=C10H12
##CAS REGISTRY NO=119-64-2
##MP= -300
##BP= -300
##MW= 132
##$RETENTION INDEX=1155
##$CONDENSED SPECTRUM=NO
##NPOINTS= 82
##XYDATA=(XY..XY) 1 
    13          1
    14          4
    15         64
    16          2
    25          1
    26         29
    27        123
    28         32
    29          8
    30          0
    36          1
    37         10
    38         31
    39        166
    40         15
    41         25
    42          1
    43          2
    44          1
    49          5
    50         79
    51        173
    52         47
    53         42
    54          7
    55          2
    56          3
    57         10
    58         23
    61         10
    62         34
    63        115
    64        101
    65        129
    66         11
    67          3
    73          4
    74         33
    75         33
    76         28
    77        126
    78        131
    79         22
    80          2
    82         11
    85          4
    86          7
    87         11
    88          5
    89         39
    90          9
    91        432
    92         35
    93          1
    97          1
    98          7
    99          3
   100          2
   101         10
   102         47
   103        111
   104        999
   105         99
   106          5
   113          3
   114          6
   115        135
   116         64
   117        145
   118         14
   119          1
   122          1
   125          2
   126         10
   127         37
   128         78
   129         50
   130         21
   131        146
   132        530
   133         57
   134          3