##TITLE=Library Entry 59879
##JCAMP-DX=Revision 4.10 
##DATA TYPE=MASS SPECTRUM
##SAMPLE DESCRIPTION=MASS SPEC DATA COMPILATION OF PEST. AND IND. CHEMICALS,
 T. CAIRNS, FDA, USA
##NAMES=HP
##CAS NAME=Benzenemethanamine, N-ethyl-N-(3-methylphenyl)-
##MOLFORM=C16H19N
##CAS REGISTRY NO=119-94-8
##MP= -300
##BP= -300
##MW= 225
##$RETENTION INDEX=1800
##$CONDENSED SPECTRUM=NO
##NPOINTS= 11
##XYDATA=(XY..XY) 1 
    65        120
    77         20
    91        999
    92        100
   118         40
   120         30
   148         40
   210        110
   211         20
   225         80
   226         20