##TITLE=Library Entry 48563
##JCAMP-DX=Revision 4.10 
##DATA TYPE=MASS SPECTRUM
##SAMPLE DESCRIPTION=Japan AIST/NIMC Database- Spectrum MS-NW-1944
##NAMES=HP
##CAS NAME=Hydrazine, (2,4-dinitrophenyl)-
##MOLFORM=C6H6N4O4
##CAS REGISTRY NO=119-26-6
##MP= -300
##BP= -300
##MW= 198
##$RETENTION INDEX=0
##$CONDENSED SPECTRUM=NO
##NPOINTS= 134
##XYDATA=(XY..XY) 1 
    12          2
    14          7
    15          3
    16          6
    25          3
    26         28
    27         75
    28        250
    29        123
    30        544
    31         33
    32          3
    36          4
    37         67
    38        125
    39        238
    40         46
    41         32
    42         15
    43         22
    44         68
    45          8
    46         30
    47          1
    48          8
    49         18
    50        428
    51        917
    52        459
    53        110
    54         32
    55         25
    56          6
    57          5
    58          1
    60          7
    61         83
    62        204
    63        480
    64        221
    65         85
    66         71
    67         27
    68         42
    69         10
    70          2
    71          3
    72          1
    73         29
    74        225
    75        668
    76        643
    77        308
    78        798
    79        999
    80         93
    81         11
    82          9
    83          3
    84          2
    85          2
    86          5
    87         20
    88         43
    89         39
    90        105
    91         63
    92        338
    93         59
    94         16
    95         14
    96          4
    97          2
    98          1
    99          2
   100          1
   101          2
   102          2
   103         10
   104         29
   105         90
   106        145
   107         46
   108         12
   109          4
   110          4
   111          3
   112          2
   113          1
   117          1
   118         15
   119         14
   120          9
   121         10
   122        459
   123         40
   124          4
   125          1
   126          3
   134         29
   135         43
   136         43
   137         17
   138         34
   139          8
   140          6
   142          1
   148          9
   149          5
   150          9
   151          3
   152         67
   153         13
   154         12
   155          2
   163          1
   164        159
   165         16
   166          2
   167          2
   168        232
   169         18
   170          3
   172          1
   178          1
   180        118
   181         20
   182          9
   183         11
   184          2
   195          1
   198        565
   199         49
   200          7