##TITLE=Library Entry 47149
##JCAMP-DX=Revision 4.10 
##DATA TYPE=MASS SPECTRUM
##SAMPLE DESCRIPTION=NIST Mass Spectrometry Data Center, 1998.
##NAMES=HP
##CAS NAME=Benzenamine, 4-methyl-3-nitro-
##MOLFORM=C7H8N2O2
##CAS REGISTRY NO=119-32-4
##MP= -300
##BP= -300
##MW= 152
##$RETENTION INDEX=0
##$CONDENSED SPECTRUM=NO
##NPOINTS= 83
##XYDATA=(XY..XY) 1 
    15          3
    17          1
    26         13
    27         47
    28         98
    29         15
    30         91
    31          2
    37         14
    38         38
    39        149
    40         35
    41         84
    42         46
    43          6
    44          5
    46         18
    48          1
    49         10
    50        119
    51        287
    52        262
    53        203
    54        120
    55         11
    56          5
    60          2
    61         20
    62         55
    63        122
    64         48
    65        123
    66        100
    67         77
    68         11
    69          6
    73          6
    74         29
    75         32
    76         58
    77        999
    78        353
    79        489
    80        397
    81         34
    82          3
    85          4
    86          7
    87          7
    88          5
    89         64
    90         27
    91         40
    92         40
    93         81
    94         55
    95         10
    96          2
    99          3
   100          3
   102         17
   103          8
   104        546
   105        571
   106        491
   107        932
   108         88
   109          4
   117          4
   118         19
   119         10
   120         10
   121         15
   122         29
   123          5
   133          1
   135        704
   136         64
   137          4
   151          4
   152        767
   153         65
   154          4