##TITLE=Library Entry 65970
##JCAMP-DX=Revision 4.10 
##DATA TYPE=MASS SPECTRUM
##SAMPLE DESCRIPTION=V.A.KOPTYUG, ATLAS OF MASS SPECTRA OF ORGANIC COMPOUNDS
##NAMES=HP
##CAS NAME=p,p'-Diaminodiphenyl sulfoxide
##MOLFORM=C12H12N2OS
##CAS REGISTRY NO=119-59-5
##MP= -300
##BP= -300
##MW= 232
##$RETENTION INDEX=0
##$CONDENSED SPECTRUM=NO
##NPOINTS= 89
##XYDATA=(XY..XY) 1 
    29         29
    30         78
    34         11
    38         37
    39        361
    40        227
    41        231
    42        100
    43         55
    44        149
    45         85
    48         90
    50         93
    51        182
    52        167
    53        108
    54        227
    55         22
    56         14
    57         18
    60         11
    63        104
    64        138
    65        522
    66        660
    67        276
    68         18
    69         11
    70         11
    71         11
    73         11
    74         11
    75         14
    76         74
    77         93
    78        115
    80        119
    81         18
    82         11
    90         14
    91        104
    92        410
    93        999
    94        339
    95         26
    97         26
    99         18
   106         11
   108         63
   117         37
   122         11
   123         14
   124        149
   125         52
   127         11
   128         11
   129         11
   130         22
   131         11
   136         11
   142         18
   143         11
   149         18
   154         29
   155         14
   156        108
   157         22
   162         11
   166         22
   167         26
   171         26
   175         11
   181         14
   182         41
   183        134
   184        343
   185         63
   186         14
   187         29
   198         33
   199         70
   200         55
   201         33
   202         18
   214         44
   215        257
   216        593
   217         51
   218          8