##TITLE=Library Entry 81169
##JCAMP-DX=Revision 4.10 
##DATA TYPE=MASS SPECTRUM
##SAMPLE DESCRIPTION=Japan AIST/NIMC Database- Spectrum MS-NW-9970
##NAMES=HP
##CAS NAME=Benzenemethanol, 4-chloro-.alpha.-phenyl-
##MOLFORM=C13H11ClO
##CAS REGISTRY NO=119-56-2
##MP= -300
##BP= -300
##MW= 218
##$RETENTION INDEX=2335
##$CONDENSED SPECTRUM=NO
##NPOINTS= 110
##XYDATA=(XY..XY) 1 
    17          2
    18         13
    27          7
    28          4
    29          8
    36          1
    38          2
    39         13
    50         26
    51         73
    52         13
    53          6
    55          2
    61          2
    62          6
    63         17
    64          5
    65          3
    69          8
    70          1
    73          4
    74         12
    75         44
    76         33
    77        299
    78        167
    79        133
    80          8
    81         10
    82         26
    83         10
    84          1
    85          4
    86          3
    87          5
    88          2
    89          9
    90          3
    91         11
    95          1
    98          2
    99          3
   100          5
   101          4
   102          3
   103          1
   104          5
   105        999
   106        118
   107         65
   108          5
   109          2
   110          2
   111         65
   112         82
   113         64
   114         30
   115         19
   116          1
   123          1
   125          3
   126          4
   127          5
   128          3
   129          1
   137          2
   138          2
   139        330
   140         41
   141        176
   142         17
   143         23
   144          1
   149          2
   150          3
   151          9
   152         29
   153         27
   154         10
   155          7
   162          2
   163         15
   164         15
   165         87
   166         39
   167         10
   168          2
   181          9
   182          5
   183        106
   184         14
   185          1
   188          1
   189          4
   190          1
   191          1
   199          9
   200          4
   201         21
   202          7
   203          7
   204          2
   215          1
   216          5
   217         99
   218        316
   219         76
   220        105
   221         13
   222          1