##TITLE=Library Entry 53070
##JCAMP-DX=Revision 4.10 
##DATA TYPE=MASS SPECTRUM
##SAMPLE DESCRIPTION=Japan AIST/NIMC Database- Spectrum MS-IW-5535
##NAMES=HP
##CAS NAME=Methanone, dicyclohexyl-
##MOLFORM=C13H22O
##CAS REGISTRY NO=119-60-8
##MP= -300
##BP= -300
##MW= 194
##$RETENTION INDEX=1558
##$CONDENSED SPECTRUM=NO
##NPOINTS= 79
##XYDATA=(XY..XY) 1 
    26          1
    27         20
    28          6
    29         25
    39         32
    40          5
    41        125
    42          9
    43         11
    50          1
    51          4
    52          3
    53         18
    54         24
    55        285
    56         12
    57          4
    63          1
    65          6
    66          4
    67         58
    68          8
    69          7
    70          1
    71          3
    77         10
    78          3
    79         28
    80          9
    81         26
    82         34
    83        999
    84         71
    85          2
    91         12
    92          5
    93          7
    94         31
    95         31
    96          3
    97          3
    98          3
   105          5
   106          1
   107          3
   108          2
   109          9
   110         62
   111        332
   112         29
   113         12
   114          1
   115          1
   117          1
   119          3
   120          1
   121          1
   126          3
   127          1
   131          1
   133          6
   134          3
   135          1
   137          1
   139         12
   140          1
   147          3
   148          1
   152          1
   153          1
   165          1
   166          1
   174          1
   176         10
   177          1
   192          1
   194         88
   195         14
   196          1