##TITLE=Library Entry 70098
##JCAMP-DX=Revision 4.10 
##DATA TYPE=MASS SPECTRUM
##SAMPLE DESCRIPTION=Richard Turcotte. Direction des laboratoires d'expertis
es et d'analyses alimentaires, Quebec, Canada.
##NAMES=HP
##CAS NAME=Phosphorothioic acid, O-(1,6-dihydro-6-oxo-1-phenyl-3-pyridazinyl
) O,O-diethyl ester
##MOLFORM=C14H17N2O4PS
##CAS REGISTRY NO=119-12-0
##MP= -300
##BP= -300
##MW= 340
##$RETENTION INDEX=2447
##$CONDENSED SPECTRUM=NO
##NPOINTS= 175
##XYDATA=(XY..XY) 1 
    42          3
    45         33
    46          9
    47         19
    49          2
    50         24
    51        130
    52         66
    53         32
    54        115
    55         28
    56          5
    57          3
    60          6
    61         11
    62          6
    63         57
    64         69
    65        241
    66          5
    67          4
    68          5
    69         14
    70         14
    71         15
    72          4
    73          6
    74          4
    76         19
    77        771
    78         69
    79         16
    80        110
    81         96
    82        263
    83         23
    85          6
    87          4
    88          3
    89          7
    90         16
    91        263
    92         47
    93        120
    94         11
    95         30
    96          5
    97        999
    98         31
    99         68
   103         12
   104         26
   105        123
   106         24
   107         33
   109        255
   110         24
   111         11
   112          4
   113          4
   114         17
   115         29
   116         21
   117         12
   118         10
   119         17
   120          5
   121         43
   123         27
   124          6
   125        418
   126         25
   127         36
   128          7
   129         19
   130          3
   131          9
   132          2
   134          3
   135         11
   136          2
   137         51
   139          6
   140          5
   141          7
   142         26
   143         25
   144         31
   145          5
   146          7
   147         38
   148         15
   151         21
   152          2
   153         82
   154          6
   155         28
   157         10
   158          7
   159          6
   160         49
   161         13
   163          2
   167          8
   169         11
   170         23
   171         91
   172         30
   173         40
   174         22
   175         18
   176         42
   178          6
   179         52
   180          2
   181          5
   183          4
   184          2
   186          4
   187        156
   188        646
   189         97
   190          8
   191         34
   194          4
   197          6
   198          3
   199        595
   200         85
   201         22
   202          9
   203        187
   204        359
   205         58
   206         22
   207         29
   209         24
   215         22
   216         29
   221          2
   223          2
   231          8
   232         12
   233         20
   235         22
   236          2
   239          2
   249         29
   250          2
   251         13
   253         15
   256          2
   263          3
   265          9
   267         16
   268          2
   269         22
   282          2
   283         11
   284          5
   285          2
   295          9
   309          5
   311          4
   312          9
   323          4
   324         14
   325          4
   327          9
   339         15
   340        712
   341        145
   342         34
   343         12
   344          2