##TITLE=Library Entry 30842
##JCAMP-DX=Revision 4.10 
##DATA TYPE=MASS SPECTRUM
##SAMPLE DESCRIPTION=K. Kirk, LC, NIDDK, NIH, Bethesda, MD 20892
##NAMES=HP
##CAS NAME=1,3-Propanediol, 2-amino-1-(4-nitrophenyl)-
##MOLFORM=C9H12N2O4
##CAS REGISTRY NO=119-62-0
##MP= -300
##BP= -300
##MW= 212
##$RETENTION INDEX=0
##$CONDENSED SPECTRUM=NO
##NPOINTS= 21
##XYDATA=(XY..XY) 1 
    42        159
    43         42
    51         26
    60        999
    61         26
    66          8
    77         53
    78         43
    89         17
    90          8
   105         35
   106         61
   117         53
   118          7
   135          7
   136         84
   153         54
   154         13
   181         69
   182         29
   212          8