##TITLE=Library Entry 65859
##JCAMP-DX=Revision 4.10 
##DATA TYPE=MASS SPECTRUM
##SAMPLE DESCRIPTION=Chemical Concepts
##NAMES=HP
##CAS NAME=Pteroic acid
##MOLFORM=C14H12N6O3
##CAS REGISTRY NO=119-24-4
##MP= -300
##BP= -300
##MW= 312
##$RETENTION INDEX=0
##$CONDENSED SPECTRUM=NO
##NPOINTS= 113
##XYDATA=(XY..XY) 1 
    25          3
    26         26
    27         52
    28        103
    29         20
    30          6
    31         15
    36          3
    37         45
    38         98
    39        249
    40         60
    41         88
    42         61
    43        131
    44        806
    45         32
    46         27
    47          3
    48          1
    49          8
    50         48
    51         56
    52         90
    53         57
    54         57
    55         14
    56          3
    57          8
    58          1
    59          1
    60         28
    61         32
    62         53
    63        103
    64         64
    65        421
    66        312
    67         45
    68         17
    69         14
    70          5
    71          2
    73          9
    74         19
    75         12
    76         13
    77         21
    78         20
    79         16
    80         31
    81         21
    82          4
    83          1
    84          1
    85          2
    86          1
    87          2
    88          3
    89          6
    90         16
    91         42
    92        396
    93        999
    94         63
    95          7
    96          1
    97          0
    98          1
   102          1
   104          3
   105          7
   106         27
   107         32
   108         40
   109         34
   110          3
   118          6
   119          5
   120        803
   121         62
   122         25
   123          5
   126          2
   128          1
   129          1
   131          1
   132          2
   133         10
   134         14
   135         15
   136         28
   137        764
   138         56
   139          4
   141          1
   146          1
   148          2
   149          7
   150         33
   151          3
   163         33
   164          3
   165          1
   175         12
   176         20
   177        271
   178         24
   179          1
   266          3
   267          2
   268         10
   269          2