##TITLE=Library Entry 79156
##JCAMP-DX=Revision 4.10 
##DATA TYPE=MASS SPECTRUM
##SAMPLE DESCRIPTION=NIST Mass Spectrometry Data Center, 1998.
##NAMES=HP
##CAS NAME=Benzoin
##MOLFORM=C14H12O2
##CAS REGISTRY NO=119-53-9
##MP= -300
##BP= -300
##MW= 212
##$RETENTION INDEX=0
##$CONDENSED SPECTRUM=NO
##NPOINTS= 77
##XYDATA=(XY..XY) 1 
    26          1
    27         11
    29         10
    37          1
    38          5
    39         25
    40          2
    49          2
    50         60
    51        208
    52         32
    53         21
    54          1
    55          2
    61          2
    62          9
    63         21
    64          4
    65          4
    66          1
    69          1
    73          2
    74         17
    75         13
    76         22
    77        655
    78         96
    79        389
    80         26
    81          1
    82          1
    85          1
    86          2
    87          3
    88          1
    89         15
    90          8
    91          2
    98          1
    99          1
   101          1
   102          1
   103          1
   105        999
   106        111
   107        597
   108         47
   109          3
   110          1
   113          1
   115          4
   118          1
   126          2
   127          1
   128          2
   133          1
   139          3
   150          1
   151          2
   152          8
   153          3
   154          1
   155          1
   163          2
   164          3
   165         14
   166          3
   167          3
   176          1
   178          3
   181          1
   194          4
   195          2
   196          1
   210          2
   212          9
   213          1