##TITLE=Library Entry 79539
##JCAMP-DX=Revision 4.10 
##DATA TYPE=MASS SPECTRUM
##SAMPLE DESCRIPTION=NIST Mass Spectrometry Data Center, 1990.
##NAMES=HP
##CAS NAME=Benzophenone
##MOLFORM=C13H10O
##CAS REGISTRY NO=119-61-9
##MP= -300
##BP= -300
##MW= 182
##$RETENTION INDEX=1635
##$CONDENSED SPECTRUM=NO
##NPOINTS= 51
##XYDATA=(XY..XY) 1 
    17          0
    18          1
    26          4
    27         21
    37          4
    38          8
    39         17
    44          0
    50         88
    51        257
    52         21
    53          3
    61          2
    62         10
    63         14
    64          5
    65          1
    73          5
    74         32
    75         27
    76         69
    77        613
    78         42
    86          4
    87          4
    89          3
    91          2
    98          3
    99          2
   100          1
   101          3
   102          4
   105        999
   106         71
   107          4
   113          1
   115          3
   126          6
   127          5
   150          7
   151         16
   152         29
   153         18
   154         12
   155          2
   163          2
   165          4
   181         76
   182        409
   183         62
   184          5