##TITLE=Library Entry 39577
##JCAMP-DX=Revision 4.10 
##DATA TYPE=MASS SPECTRUM
##SAMPLE DESCRIPTION=Exported from NIST MS Search
##NAMES=HP
##CAS NAME=Isolan
##MOLFORM=C10H17N3O2
##CAS REGISTRY NO=119-38-0
##MP= -300
##BP= -300
##MW= 211
##$RETENTION INDEX=1498
##$CONDENSED SPECTRUM=NO
##NPOINTS= 20
##XYDATA=(XY..XY) 1 
    15         60
    18         20
    27         60
    28         70
    29         50
    39         10
    40         10
    41         60
    42         50
    43         60
    44         30
    45         60
    51         10
    52         10
    53         10
    55         10
    66         10
    72        999
   111         10
   211         30