##TITLE=Library Entry 79253
##JCAMP-DX=Revision 4.10 
##DATA TYPE=MASS SPECTRUM
##SAMPLE DESCRIPTION=Japan AIST/NIMC Database- Spectrum MS-NW-1828
##NAMES=HP
##CAS NAME=Benzoic acid, 2-formyl-
##MOLFORM=C8H6O3
##CAS REGISTRY NO=119-67-5
##MP= -300
##BP= -300
##MW= 150
##$RETENTION INDEX=0
##$CONDENSED SPECTRUM=NO
##NPOINTS= 87
##XYDATA=(XY..XY) 1 
    12          1
    14          3
    15          1
    16          1
    17          3
    18         10
    25          2
    26          9
    27         35
    28          6
    29         38
    30          1
    31          1
    36          4
    37         45
    38         72
    39        116
    40          8
    41          3
    42          2
    43          7
    44         21
    45         22
    46          1
    47          9
    48          3
    49         29
    50        278
    51        267
    52         64
    53         31
    54          2
    55          5
    57          1
    60          5
    61         16
    62         18
    63         23
    64          9
    65        115
    66         21
    67          2
    68          1
    69          1
    71          1
    72          2
    73         23
    74         99
    75         75
    76        301
    77        484
    78         64
    79          6
    84          1
    85          4
    86          4
    87          3
    89          2
    90          1
    91          2
    92          5
    93         56
    94         20
    95          2
    99          1
   101          1
   102          1
   103          4
   104        221
   105        999
   106        110
   107          8
   111          4
   113          1
   121         35
   122        445
   123         34
   124          3
   132         38
   133         55
   134         14
   135          1
   148         12
   149         83
   150         65
   151          6
   152          1