##TITLE=Library Entry 40932
##JCAMP-DX=Revision 4.10 
##DATA TYPE=MASS SPECTRUM
##SAMPLE DESCRIPTION=Chemical Concepts
##NAMES=HP
##CAS NAME=d-Mannitol, 1-O-(22-hydroxydocosyl)-
##MOLFORM=C28H58O7
##CAS REGISTRY NO=119049-22-8
##MP= -300
##BP= -300
##MW= 506
##$RETENTION INDEX=0
##$CONDENSED SPECTRUM=NO
##NPOINTS= 275
##XYDATA=(XY..XY) 1 
    26          5
    27         51
    28         19
    29        151
    30          5
    31        128
    33          1
    39         26
    40          6
    41        398
    42         90
    43        548
    44         81
    45        169
    46          5
    47          7
    49          4
    51          2
    52          1
    53         17
    54         68
    55        834
    56        159
    57        583
    58         52
    59         23
    60         69
    61        281
    62          9
    63          3
    65          4
    66         10
    67        168
    68        123
    69        705
    70        106
    71        353
    72         25
    73        999
    74        139
    75         44
    76          2
    77         10
    78          2
    79         16
    80         19
    81        178
    82        184
    83        609
    84         74
    85        219
    86         96
    87         85
    88         15
    89         14
    90          1
    91         76
    92          5
    93         10
    94         15
    95        161
    96        116
    97        604
    98         75
    99         97
   100         18
   101         14
   102          9
   103        394
   104         46
   105         10
   106          1
   107          7
   108          5
   109        115
   110         39
   111        328
   112         43
   113         51
   114         13
   115        100
   116         30
   117         19
   118          2
   119          3
   121         12
   122          6
   123         74
   124         31
   125        181
   126         21
   127         36
   128         30
   129        133
   130         18
   131          9
   132         10
   133        258
   134         12
   135         15
   136          7
   137         47
   138         21
   139         76
   140         12
   141         25
   142          2
   143          3
   144          2
   145          7
   146         29
   147         85
   148          6
   149          7
   150          2
   151         20
   152          9
   153         51
   154          8
   155         17
   156          2
   157          3
   159          2
   161          1
   163          5
   164          1
   165        102
   166          9
   167         35
   168          6
   169         10
   171          2
   175          1
   177          2
   179          8
   180          4
   181         22
   182          2
   183         57
   184          3
   185          3
   189          1
   191          3
   193          7
   194          2
   195         12
   196          2
   197          5
   199          2
   203          1
   205          1
   207          5
   208          4
   209         12
   210          2
   211          4
   212          1
   213          1
   219          1
   221          5
   222          3
   223          9
   224          3
   225          6
   226          1
   227          1
   233          1
   235          4
   236          2
   237          6
   238          2
   239          2
   241          2
   249          5
   250          6
   251          3
   253          1
   255          1
   261          2
   262          1
   263          2
   264          3
   265          2
   267          2
   269          1
   275          1
   277          1
   278          6
   279          4
   280          1
   281          3
   282          1
   292          2
   293          2
   294          2
   295          3
   297          1
   303          2
   304          2
   305         21
   306         29
   307          9
   308          2
   309          1
   310          1
   317          1
   319          2
   321          4
   322          1
   323         33
   324          8
   325         41
   326         10
   327          2
   331         12
   332          4
   333          1
   334          1
   335          4
   336          1
   337          3
   338          1
   339          4
   340          1
   341         12
   342          4
   343         83
   344         24
   345          4
   347          2
   349         76
   350         19
   351          4
   352          1
   353          4
   354          1
   355         19
   356          6
   357          3
   361          3
   362          2
   363          1
   365          1
   367         57
   368         16
   369          2
   373          1
   377          1
   379         13
   380          7
   381          2
   383          1
   385          2
   391          7
   392          2
   395          1
   397         77
   398         23
   399          5
   409         18
   410          8
   421          2
   427          3
   435          2
   436          1
   439          7
   440          4
   452          2
   453          1
   470          2
   489          7
   490          1
   507         25
   508          6
   509          1