##TITLE=Library Entry 55627
##JCAMP-DX=Revision 4.10 
##DATA TYPE=MASS SPECTRUM
##SAMPLE DESCRIPTION=LAC, NIDDK, NIH, Bethesda, MD 20892
##NAMES=HP
##CAS NAME=26-Norcoprostan-16,22-epoxy-3.alpha.-ol, 25-iodo-3-O-acetyl-
##MOLFORM=C28H45IO3
##CAS REGISTRY NO=119008-80-9
##MP= -300
##BP= -300
##MW= 556
##$RETENTION INDEX=0
##$CONDENSED SPECTRUM=NO
##NPOINTS= 169
##XYDATA=(XY..XY) 1 
    41        219
    43        671
    45         26
    49          4
    51          2
    53         46
    55        457
    57        159
    58         12
    59          2
    61         30
    65         20
    67        270
    69        154
    70          2
    71         32
    72          2
    73          7
    77         69
    79        205
    81        322
    83        212
    85        999
    86         49
    87          2
    88          2
    91        176
    93        341
    95        713
    96         39
    97         65
    99         28
   100          9
   101          7
   103         10
   105        221
   107        410
   108         15
   109        187
   110         20
   111         23
   113        164
   114         14
   115         15
   117         56
   119        134
   120         76
   121        170
   122         89
   123         56
   125         38
   127         47
   128         10
   129         27
   130         36
   131         70
   133        135
   134         15
   135        141
   136         26
   137         22
   139         23
   140          2
   141          6
   142         12
   143         32
   145        116
   147        226
   149        111
   150         20
   151         13
   153          9
   155         13
   157         61
   159        113
   161        154
   162         11
   163         58
   164          9
   165          6
   167          4
   169         20
   171         25
   173         78
   174         22
   175         87
   176         21
   177         25
   178          1
   179          2
   181          3
   183         10
   185         31
   187         71
   189         49
   190          2
   191          7
   197          8
   199         31
   201         69
   202          8
   203         23
   205          4
   211         12
   213         26
   214         24
   215         81
   216         19
   217         22
   219          1
   223          1
   225          4
   227         47
   228          9
   229         40
   230          5
   231         26
   239         10
   241         34
   242          6
   243         16
   245          2
   253         17
   255        676
   256         92
   257        259
   258         35
   259          2
   265          7
   267         11
   269        106
   270         11
   271         12
   273         32
   274          4
   277          2
   281          7
   283         14
   284         26
   285         29
   286          3
   287          6
   295         20
   313         21
   315        841
   316        180
   317         24
   319         14
   329          7
   330          2
   331          3
   344          3
   351         70
   352         18
   369        112
   370         28
   371          4
   373         81
   374         21
   386         18
   387         12
   411         10
   429        325
   430         96
   431         15
   481          7
   497         10
   556          4
   557          1