##TITLE=Library Entry 1198
##JCAMP-DX=Revision 4.10 
##DATA TYPE=MASS SPECTRUM
##SAMPLE DESCRIPTION=Japan AIST/NIMC Database- Spectrum MS-NW-2594
##NAMES=HP
##CAS NAME=L-Homocitrulline
##MOLFORM=C7H15N3O3
##CAS REGISTRY NO=1190-49-4
##MP= -300
##BP= -300
##MW= 189
##$RETENTION INDEX=0
##$CONDENSED SPECTRUM=NO
##NPOINTS= 108
##XYDATA=(XY..XY) 1 
    12          5
    14          5
    15         24
    16        137
    17        186
    18         73
    19          1
    26         12
    27         56
    28        221
    29         55
    30        999
    31         21
    32          4
    35          1
    36         10
    37          2
    38          5
    39         38
    40          9
    41         92
    42        105
    43        298
    44        241
    45         35
    46         15
    50          3
    51          4
    52          7
    53         11
    54         37
    55         81
    56        478
    57         83
    58         25
    59         48
    60         15
    61          4
    65          5
    66          6
    67         45
    68         18
    69         24
    70         67
    71         63
    72        357
    73         35
    74         79
    75         19
    76          1
    77          1
    78          2
    79          4
    80          7
    81         11
    82         99
    83        165
    84        523
    85         44
    86          8
    87         12
    88         13
    89         12
    91          1
    92          1
    93          3
    94          1
    95          3
    96          3
    97          5
    98          7
    99         35
   100         40
   101         25
   102          4
   103          4
   104          1
   107          1
   108          2
   109          5
   110         20
   111         37
   112          9
   113         22
   114          5
   115          3
   116          7
   117         11
   118          1
   123          1
   124          6
   125         17
   126          5
   127         45
   128         38
   129         42
   130         16
   131          2
   142          6
   143          3
   144          8
   146          4
   152          1
   153         10
   154         12
   155          2
   171          7
   172          1