##TITLE=Library Entry 78152
##JCAMP-DX=Revision 4.10 
##DATA TYPE=MASS SPECTRUM
##SAMPLE DESCRIPTION=Japan AIST/NIMC Database- Spectrum MS-NW-3820
##NAMES=HP
##CAS NAME=Propanedioic acid, dibutyl ester
##MOLFORM=C11H20O4
##CAS REGISTRY NO=1190-39-2
##MP= -300
##BP= -300
##MW= 216
##$RETENTION INDEX=1406
##$CONDENSED SPECTRUM=NO
##NPOINTS= 87
##XYDATA=(XY..XY) 1 
    14          5
    15         16
    18          2
    26          9
    27        116
    28         47
    29        359
    30          9
    31         37
    32          3
    33          2
    36          1
    37          1
    38          3
    39         59
    40         12
    41        406
    42        133
    43         75
    44          9
    45          7
    50          2
    51          2
    52          1
    53          8
    54          8
    55         88
    56        500
    57        879
    58         40
    59          2
    60         69
    61         25
    62          1
    68          2
    69         25
    70          2
    71         31
    72         17
    73         56
    74          3
    75          1
    82          1
    83         42
    84          4
    85          2
    86          4
    87        385
    88         13
    89          6
    90          1
    98          1
    99          2
   100          5
   101         12
   102          2
   103          1
   104          7
   105        999
   106         40
   107          9
   112          1
   113          5
   114          3
   115          1
   116         11
   117          9
   118          3
   119          1
   125         12
   126          1
   127          2
   130          2
   131          5
   132          7
   133          2
   141          1
   143        321
   144         25
   145          4
   159          1
   160          2
   161         53
   162          5
   173          1
   187          4
   188          1