##TITLE=Library Entry 63954
##JCAMP-DX=Revision 4.10 
##DATA TYPE=MASS SPECTRUM
##SAMPLE DESCRIPTION=Chemical Concepts
##NAMES=HP
##CAS NAME=1-(Toluene-4-sulfonyl)-3-vinylazetidine-2-carboxylic acid, ethyl
 ester
##MOLFORM=C15H19NO4S
##CAS REGISTRY NO=119027-73-5
##MP= -300
##BP= -300
##MW= 309
##$RETENTION INDEX=0
##$CONDENSED SPECTRUM=NO
##NPOINTS= 99
##XYDATA=(XY..XY) 1 
    26          5
    27         88
    28         32
    29        139
    30          7
    31          5
    38          4
    39        107
    40          9
    41         55
    42         19
    43         19
    45          5
    50         11
    51         32
    52         18
    53        125
    54        159
    55         44
    56          5
    57         14
    58          2
    59          4
    62          5
    63         33
    64         11
    65        176
    66         13
    67         13
    68          5
    69          7
    70         16
    71          8
    73          2
    74          2
    75          4
    76          4
    77         13
    78          7
    79         10
    80        201
    81        234
    82         40
    83          5
    85         10
    86          2
    88          3
    89         40
    90         36
    91        999
    92         95
    93          8
    95          2
    96          3
    97         19
    98        113
    99         36
   100          2
   103          4
   104          2
   105         11
   106          2
   107          6
   108         15
   109          2
   111          6
   115          2
   117          2
   118          7
   119          4
   121          2
   124          4
   125          3
   126         79
   127         32
   128          6
   129          3
   139         63
   140          7
   141          4
   145          8
   149          8
   154        221
   155        672
   156         61
   157         41
   159          3
   171          2
   178          2
   184          5
   209         31
   210          5
   211          2
   236        706
   237         95
   238         38
   239          5
   244          2
   309          2