##TITLE=Library Entry 43162
##JCAMP-DX=Revision 4.10 
##DATA TYPE=MASS SPECTRUM
##SAMPLE DESCRIPTION=Chemical Concepts
##NAMES=HP
##CAS NAME=4-[1,2-Dimethyl-6-(2-trimethylsilylethoxymethoxy)cyclohexyl]but-3
-en-2-one
##MOLFORM=C18H34O3Si
##CAS REGISTRY NO=119018-20-1
##MP= -300
##BP= -300
##MW= 326
##$RETENTION INDEX=0
##$CONDENSED SPECTRUM=NO
##NPOINTS= 206
##XYDATA=(XY..XY) 1 
    26          1
    27         23
    28         16
    29         35
    30          5
    31         12
    38          0
    39         27
    40          5
    41        117
    42         13
    43        438
    44         26
    45         62
    46          4
    47          8
    48          0
    50          1
    51          6
    52          4
    53         35
    54          7
    55         84
    56          8
    57         32
    58         61
    59         49
    60          5
    61         11
    63          2
    64          1
    65         11
    66          5
    67         35
    68          9
    69         48
    70          6
    71         35
    72         18
    73        999
    74         68
    75        119
    76          7
    77         28
    78          5
    79         36
    80          8
    81        102
    82         22
    83         26
    84         14
    85         24
    86          3
    87          6
    88         10
    89          6
    90          1
    91         28
    92          5
    95         62
    96         22
    97         34
    98         10
    99          8
   100          3
   101        115
   102          8
   103         79
   104          7
   105         18
   106          4
   107         39
   108         17
   109        104
   110         31
   111         14
   112          3
   113          3
   114          1
   115         12
   116          5
   117         12
   118          2
   119         18
   120          8
   121         38
   122         18
   123         45
   124          7
   125         29
   126          5
   127          6
   128          1
   129         29
   130         35
   131         11
   132          2
   133          7
   134          5
   135         50
   136          9
   137         14
   138          3
   139          6
   140          3
   141          6
   142         14
   143         30
   144          5
   145         20
   146          3
   147          4
   148          1
   149         13
   150          8
   151          4
   152          3
   153          3
   154          1
   155          5
   156          3
   157         13
   158          2
   159          9
   160          3
   161         19
   162          3
   163         16
   164          3
   165          5
   166          2
   167          3
   168          1
   169         30
   170          8
   171          7
   172         66
   173         12
   174          3
   175          1
   177          2
   178         34
   179         44
   180          9
   181          5
   182          1
   183         15
   184          2
   185          3
   186          0
   187          0
   189          0
   191          2
   192          0
   193          0
   194          1
   195          6
   196          8
   197        479
   198         63
   199         19
   200          2
   201          0
   205          0
   207          0
   208          0
   209          8
   210          4
   211          8
   212          2
   213          3
   214          1
   221          0
   222          0
   223          1
   224          0
   225          6
   226          2
   227          0
   228          0
   229          0
   230          1
   235          0
   236          1
   237          1
   239          2
   240          6
   241          1
   250          0
   251          0
   252          0
   253         35
   254          8
   255          2
   256          0
   266          1
   268        220
   269         44
   270         12
   271          1
   282          0
   283          2
   284          0
   297          0
   308          0
   326          0