##TITLE=Library Entry 28612
##JCAMP-DX=Revision 4.10 
##DATA TYPE=MASS SPECTRUM
##SAMPLE DESCRIPTION=Institute of Organic Chemistry, USSR, 1990
##NAMES=HP
##CAS NAME=5,8,15,18,23-Pentaoxa-1,12-diazabicyclo[10.8.5]-pentacosane
##MOLFORM=C18H36N2O5
##CAS REGISTRY NO=119017-37-7
##MP= -300
##BP= -300
##MW= 360
##$RETENTION INDEX=0
##$CONDENSED SPECTRUM=NO
##NPOINTS= 143
##XYDATA=(XY..XY) 1 
    54        106
    55        219
    56        753
    57        616
    58        999
    59        164
    68         85
    69        151
    70        808
    71        425
    72        945
    73        110
    74         62
    79        973
    80         29
    81         41
    82        206
    83        151
    84        644
    85        302
    86        411
    87         81
    88        384
    89         53
    96        247
    97        115
    98        425
    99        137
   100        603
   101        219
   102        233
   103         38
   108         82
   109         51
   110         96
   111        107
   112        164
   113        115
   114        767
   115         96
   116        260
   117         47
   122         82
   123         19
   124         59
   125         30
   126        151
   127         55
   128        274
   129         69
   130        164
   131         55
   132         89
   136         55
   138         60
   139         22
   140         81
   141         29
   142        233
   143         53
   144        192
   145         30
   146        106
   147         25
   149         80
   150         11
   152         29
   153         19
   154         34
   155         19
   156         55
   157         44
   158        192
   159         27
   160         96
   161         19
   170         64
   171         34
   172        164
   173         37
   174         48
   184         45
   185         25
   186         69
   187         26
   188         51
   189         25
   190         27
   198         26
   199         27
   200         48
   201         25
   202         41
   204         38
   212         16
   213         25
   214         25
   215         33
   216         45
   217         16
   218         22
   227         34
   228         22
   229         37
   230         34
   231         15
   232         21
   241         71
   242         22
   243         27
   244         15
   245         21
   255         48
   256         15
   257         37
   259         27
   260         16
   267         27
   269         34
   270         14
   271         51
   272         19
   273         21
   285         70
   286         21
   287         41
   288         14
   299         27
   300         27
   301         29
   303         21
   315         75
   316         19
   317         38
   329        107
   330         55
   331         43
   343         37
   344         11
   345         14
   359         16
   360        101
   361         26