##TITLE=Library Entry 64291
##JCAMP-DX=Revision 4.10 
##DATA TYPE=MASS SPECTRUM
##SAMPLE DESCRIPTION=K. Kirk, LBC, NIDDK, NIH, Bethesda, MD 20892
##NAMES=HP
##CAS NAME=.alpha.-Tetralone, 6,7-dibenzyloxy-
##MOLFORM=C24H22O3
##CAS REGISTRY NO=119034-87-6
##MP= -300
##BP= -300
##MW= 358
##$RETENTION INDEX=0
##$CONDENSED SPECTRUM=NO
##NPOINTS= 149
##XYDATA=(XY..XY) 1 
    41         10
    42          2
    43          7
    44          3
    45          2
    49          3
    50          6
    51         13
    52          4
    53          4
    55          9
    56          4
    57          6
    60          0
    61          0
    62          2
    63         14
    64         11
    65         67
    66          4
    67          2
    68          1
    69         36
    70          2
    71          3
    73          0
    74          1
    75          1
    76          5
    77         13
    78          8
    79          4
    81          2
    82          2
    83          4
    84          4
    85          2
    86          2
    87          0
    88          0
    89         15
    90          6
    91        999
    92         96
    93          5
    95          2
    96          1
    97          3
    98          0
    99          0
   100          6
   102          1
   103          3
   104          4
   105         11
   106          5
   107          3
   109          1
   111          2
   112          1
   114          2
   115          3
   118          0
   119          6
   120         11
   121          3
   122          2
   123          1
   124          4
   125          1
   126          0
   127          0
   128          0
   129          0
   131         17
   132          1
   133          1
   134          0
   135          1
   139          2
   140          0
   141          2
   143          0
   148          3
   149          8
   150          6
   151          1
   152          2
   153          2
   154          0
   155          2
   157          0
   161          0
   162          3
   163          3
   164          0
   165          4
   166          2
   167          4
   168          1
   169          2
   176          1
   177          0
   178         11
   179          7
   180          7
   181         72
   182         12
   183          2
   189          3
   190          3
   191          0
   193          0
   194          0
   195          0
   197          0
   210          3
   211         12
   212          2
   219         20
   221          2
   222          2
   223          2
   224          0
   226          0
   231          0
   237          1
   238          1
   239          8
   240          2
   249          1
   250          0
   252          0
   253          0
   264          5
   265          5
   266          8
   267        169
   268         33
   269          5
   282          5
   283          1
   302          0
   329          0
   330          3
   331          0
   358        119
   359         31
   360          5