##TITLE=Library Entry 23499
##JCAMP-DX=Revision 4.10 
##DATA TYPE=MASS SPECTRUM
##SAMPLE DESCRIPTION=Chemical Concepts
##NAMES=HP
##CAS NAME=Tetrahydrofuran-2-one, 3-t-butoxycarbonylamino-4-vinyl-
##MOLFORM=C11H17NO4
##CAS REGISTRY NO=119027-68-8
##MP= -300
##BP= -300
##MW= 227
##$RETENTION INDEX=0
##$CONDENSED SPECTRUM=NO
##NPOINTS= 122
##XYDATA=(XY..XY) 1 
    25          0
    26          6
    27         50
    28         58
    29        112
    30         11
    31         17
    37          2
    38          6
    39         81
    40         16
    41        233
    42         18
    43         31
    44         25
    45          3
    46          1
    49          1
    50          5
    51          9
    52          8
    53         32
    54        198
    55         48
    56         65
    57        999
    58         49
    59        194
    60          7
    61          0
    62          3
    63          0
    64          0
    65          5
    66         16
    67         25
    68         13
    69         33
    70          8
    71          4
    72          1
    73          5
    74         15
    75          1
    76          0
    77          0
    78          0
    79          1
    80         19
    81         16
    82        125
    83         29
    84          4
    85          2
    86          0
    87          0
    91          1
    92          0
    93          3
    94          1
    95          3
    96          2
    97          3
    98          2
    99          1
   100          2
   101          3
   102          1
   104          0
   105          0
   106          0
   107          0
   108          5
   109          3
   110         15
   111          8
   112          3
   113         12
   114          9
   115          1
   116          0
   118          0
   119          0
   120          0
   121          0
   122          0
   123          0
   124          7
   125         18
   126         27
   127         72
   128         39
   129          3
   130          1
   131          0
   132          0
   133          0
   135          0
   136          0
   137          0
   138          0
   139          0
   140          0
   141          2
   142          0
   143          1
   144          3
   153          7
   154         36
   155          3
   156          0
   168          5
   169          1
   171        129
   172         34
   173          3
   174          0
   209          0
   212          4
   213          0
   227          1
   228          0