##TITLE=Library Entry 35326
##JCAMP-DX=Revision 4.10 
##DATA TYPE=MASS SPECTRUM
##SAMPLE DESCRIPTION=Chemical Concepts
##NAMES=HP
##CAS NAME=d-Mannitol, 1,1'-O-1,16-hexadecanediylbis-
##MOLFORM=C28H58O12
##CAS REGISTRY NO=119049-16-0
##MP= -300
##BP= -300
##MW= 586
##$RETENTION INDEX=0
##$CONDENSED SPECTRUM=NO
##NPOINTS= 324
##XYDATA=(XY..XY) 1 
    26          6
    27         71
    28          1
    29        161
    30         10
    31        143
    33          1
    37          2
    38          1
    39         35
    40         10
    41        370
    42         74
    43        413
    44        132
    45        308
    46          8
    47         10
    49          5
    50          1
    51          3
    52          2
    53         33
    54         53
    55        744
    56        138
    57        512
    58         50
    59         33
    60         80
    61        414
    62         15
    63          5
    64          1
    65          6
    66          8
    67        137
    68         76
    69        999
    70        116
    71        248
    72         24
    73        906
    74        129
    75         64
    76          3
    77          8
    78          1
    79         19
    80         13
    81        212
    82         95
    83        615
    84         59
    85        278
    86         66
    87        183
    88         13
    89         15
    90          3
    91         85
    92          5
    93          9
    94         14
    95        160
    96         62
    97        444
    98         54
    99        233
   100         24
   101         38
   102          9
   103        322
   104         29
   105         11
   106          1
   107          7
   108          5
   109         85
   110         30
   111        438
   112         47
   113         66
   114         14
   115         91
   116         22
   117         40
   118          2
   119          6
   120          1
   121         14
   122          4
   123         47
   124         17
   125        113
   126         14
   127         32
   128         22
   129        653
   130         56
   131         31
   132          6
   133        113
   134          6
   135         13
   136          5
   137         31
   138         10
   139         47
   140          7
   141         21
   142          3
   143          5
   144          2
   145         16
   146         32
   147        269
   148         19
   149         12
   150          3
   151         19
   152          5
   153         24
   154          5
   155          9
   156          1
   157          6
   158          1
   159         39
   160          3
   161          5
   163          9
   164          1
   165        302
   166         24
   167         16
   168          2
   169          3
   170          1
   171         30
   172          4
   173          6
   174          1
   175         10
   176          1
   177         25
   178          3
   179          5
   180          5
   181          2
   182          1
   183         87
   184          7
   185          9
   186          1
   187          1
   188          1
   189         34
   190          4
   191          2
   193          3
   194          3
   195         11
   196          1
   197          2
   199          1
   201         12
   202          1
   203          4
   204          1
   205          2
   207         11
   209          2
   210          1
   213          7
   214          1
   215          4
   217          1
   219         12
   220          2
   221         20
   222         11
   223          7
   224          2
   225          4
   231         16
   232          1
   233          1
   235          2
   237          4
   238          1
   239         40
   240          8
   241         36
   242          5
   243          3
   245          1
   247          6
   248          1
   249          2
   251          3
   253          4
   254          2
   255         10
   256          1
   257          8
   258          1
   259         34
   260          8
   261          2
   262          1
   263          2
   264          1
   265         27
   266          6
   267          2
   269          4
   271         18
   272          5
   273         32
   274          8
   277          2
   278          1
   279          2
   281          1
   282          1
   283         37
   284          9
   285          3
   286          4
   287          1
   291          1
   292          1
   293          2
   295         20
   296          6
   297         14
   298          3
   299          2
   300          1
   303          3
   305          1
   307          3
   308          2
   309          3
   310          1
   311          4
   312          1
   313         28
   314          6
   315         19
   316          5
   317          1
   319          1
   321          2
   323          1
   325          8
   326          2
   327         15
   328          5
   329          1
   331          1
   333          2
   334          2
   337          6
   338          2
   339          3
   340          1
   345          1
   349          4
   350          2
   351         22
   352          6
   353          2
   355          5
   356          3
   357          3
   363          1
   367          7
   368          4
   369          5
   370          3
   377          1
   381          3
   385         13
   386          4
   387          9
   388          2
   393          3
   396          1
   397          3
   403         10
   404          4
   405         36
   406         15
   407          2
   411          9
   412          2
   415          2
   417          2
   418          1
   423         52
   424         13
   425          3
   426          2
   429          8
   430          2
   435          6
   436          2
   441          4
   442          1
   447         30
   448          5
   449          1
   453          7
   454          1
   459          4
   471          6
   472          3
   477         10
   478          2
   483          1
   507          5
   508          1