##TITLE=Library Entry 90335
##JCAMP-DX=Revision 4.10 
##DATA TYPE=MASS SPECTRUM
##SAMPLE DESCRIPTION=RADIAN CORP
##NAMES=HP
##CAS NAME=Butanenitrile, 4-(dichloromethylsilyl)-
##MOLFORM=C5H9Cl2NSi
##CAS REGISTRY NO=1190-16-5
##MP= -300
##BP= -300
##MW= 181
##$RETENTION INDEX=0
##$CONDENSED SPECTRUM=NO
##NPOINTS= 102
##XYDATA=(XY..XY) 1 
    15          8
    26         12
    27         32
    28         23
    29          7
    37          5
    38         11
    39         43
    40         38
    41         43
    42         14
    43         20
    51          4
    52          8
    53         10
    54         13
    55          4
    59          4
    63        198
    64         19
    65         79
    66         10
    67          6
    68          6
    76          2
    77         19
    78         21
    79         36
    80          9
    81         11
    83          1
    90          6
    92          8
    94          1
    95          3
    98         35
    99         29
   100         27
   101         20
   102          6
   103         11
   104          8
   105         16
   106          3
   107          5
   109         57
   110          4
   111         26
   112         40
   113        999
   114         97
   115        694
   116         49
   117        131
   118         68
   119         16
   120         25
   121          5
   123          4
   124          9
   125         21
   126          8
   127         13
   130          4
   134         10
   135          1
   136         31
   137          9
   138        162
   139         56
   140        108
   141         52
   142         26
   143         17
   145          6
   146         74
   147          9
   148         26
   149         23
   150          1
   151          8
   153        613
   154         59
   155        414
   156         37
   157         81
   158          6
   159          8
   161          6
   162          5
   166         80
   167          8
   168         52
   169          2
   170         10
   171          3
   173         23
   174          2
   175         19
   176          1
   177          3
   185          1