##TITLE=Library Entry 20969
##JCAMP-DX=Revision 4.10 
##DATA TYPE=MASS SPECTRUM
##SAMPLE DESCRIPTION=Japan AIST/NIMC Database- Spectrum MS-NW-4374
##NAMES=HP
##CAS NAME=Butane, 1,3-dichloro-
##MOLFORM=C4H8Cl2
##CAS REGISTRY NO=1190-22-3
##MP= -300
##BP= -300
##MW= 126
##$RETENTION INDEX=826
##$CONDENSED SPECTRUM=NO
##NPOINTS= 53
##XYDATA=(XY..XY) 1 
    14          2
    15          6
    25          2
    26         30
    27        234
    28         28
    29        107
    30          2
    35          4
    36         11
    37          6
    38         10
    39         92
    40          7
    41         94
    42         19
    43          1
    47          2
    48          3
    49         53
    50         12
    51         17
    52          4
    53         44
    54        108
    55        999
    56         48
    57          1
    60          2
    61          9
    62         73
    63        209
    64         26
    65         60
    66          1
    73          3
    75         88
    76          7
    77         39
    78          2
    79          4
    83          3
    85          2
    88          1
    89          9
    90        295
    91         54
    92         96
    93         17
    94          1
   111          2
   113          1
   126          1