##TITLE=Library Entry 40930
##JCAMP-DX=Revision 4.10 
##DATA TYPE=MASS SPECTRUM
##SAMPLE DESCRIPTION=Chemical Concepts
##NAMES=HP
##CAS NAME=Hexanoic acid, 6-hydroxy-
##MOLFORM=C6H12O3
##CAS REGISTRY NO=1191-25-9
##MP= -300
##BP= -300
##MW= 132
##$RETENTION INDEX=2540
##$CONDENSED SPECTRUM=NO
##NPOINTS= 89
##XYDATA=(XY..XY) 1 
    24          0
    26         15
    27        157
    28         69
    29        182
    30         16
    31        312
    33          1
    36          0
    37          0
    38          4
    39         98
    40         26
    41        258
    42        119
    43        120
    44         32
    45         70
    46          4
    47          5
    48          1
    49          1
    50          2
    51          4
    52          1
    53         29
    54         54
    55        669
    56         72
    57         74
    58         53
    59         67
    60        422
    61         17
    62          2
    63          1
    64          0
    65          4
    66          1
    67         51
    68        222
    69         92
    70        214
    71         38
    72         10
    73        999
    74         76
    75          6
    76          0
    77          0
    78          0
    79          1
    81         11
    82          2
    83         47
    84         30
    85         16
    86        145
    87         16
    88          2
    89          4
    90          5
    91          0
    93          0
    95         16
    96         57
    97         15
    98          1
    99         53
   100          3
   101         37
   102        274
   103         16
   104          1
   107          0
   108          0
   112          1
   113         14
   114        112
   115         20
   116          1
   120          0
   121          2
   122          0
   123          0
   131          0
   132          0
   133          2
   136          0