##TITLE=Library Entry 30036
##JCAMP-DX=Revision 4.10 
##DATA TYPE=MASS SPECTRUM
##SAMPLE DESCRIPTION=D.HENNEBERG, MAX-PLANCK INSTITUTE, MULHEIM, WEST GERMAN
Y
##NAMES=HP
##CAS NAME=2,5,8,11,14,17-Hexaoxaoctadecane
##MOLFORM=C12H26O6
##CAS REGISTRY NO=1191-87-3
##MP= -300
##BP= -300
##MW= 266
##$RETENTION INDEX=0
##$CONDENSED SPECTRUM=NO
##NPOINTS= 85
##XYDATA=(XY..XY) 1 
    27          6
    28         19
    29         79
    30          4
    31        103
    32          1
    33          3
    34          0
    39          0
    40          0
    41          8
    42          6
    43         34
    44         25
    45        120
    46          3
    47          0
    53          0
    54          0
    55          1
    56          2
    57         10
    58        293
    59        999
    60         36
    61          3
    68          1
    69          1
    70         13
    71          8
    72         34
    73         32
    74          2
    75          7
    76          0
    77          1
    79          0
    80          0
    81          0
    83          0
    84          0
    85          1
    86          6
    87         88
    88         20
    89         67
    90          4
    91          1
    96          0
    97          0
    98          0
    99          1
   100          1
   101         18
   102         36
   103        268
   104         14
   105          2
   113          0
   114          1
   115          5
   116          2
   117          8
   118          1
   119          2
   121          1
   131         17
   132          1
   133         23
   134          1
   135          0
   145          1
   146          0
   147         27
   148          2
   159          1
   162          0
   163          2
   175          2
   176          0
   177          5
   178          0
   191          0
   207          0
   221          3