##TITLE=Library Entry 40419
##JCAMP-DX=Revision 4.10 
##DATA TYPE=MASS SPECTRUM
##SAMPLE DESCRIPTION=TNO Volatile Compounds in Food - Chemical Concepts
##NAMES=HP
##CAS NAME=N-.alpha.-Methylmetoxuron
##MOLFORM=C11H15ClN2O2
##CAS REGISTRY NO=119157-21-0
##MP= -300
##BP= -300
##MW= 242
##$RETENTION INDEX=0
##$CONDENSED SPECTRUM=NO
##NPOINTS= 145
##XYDATA=(XY..XY) 1 
    22          4
    26          1
    27          1
    28          0
    30          7
    31          1
    32          2
    34          7
    36          4
    37          3
    38          9
    39          1
    42         39
    44          6
    45          2
    46          5
    47          0
    48          0
    49          1
    50         12
    51         21
    52          9
    53         11
    55          2
    57          5
    58          6
    59          1
    60          1
    61          3
    62         11
    63         20
    64          9
    65         35
    66         30
    67         20
    68          1
    69          1
    71          4
    72        999
    73        110
    74         18
    75         23
    76         22
    77         28
    78         10
    79         15
    80          1
    81          0
    83          0
    84          1
    85        267
    86          6
    87         13
    88          0
    89          1
    90         18
    91          4
    92         25
    93          9
    95          1
    96          2
    97          0
    98          9
    99         19
   100         11
   101         11
   102          5
   103          4
   104          5
   105          3
   106          1
   107          2
   108          1
   109          1
   110          1
   111          6
   112         12
   113          5
   114          7
   115          1
   117          1
   119          1
   120         24
   124          4
   125          0
   126         25
   127         20
   128         12
   129          6
   130          2
   132          1
   133          1
   134          3
   135          7
   136          1
   138          1
   139          1
   140         19
   141          3
   142         21
   143          1
   144          3
   145          1
   148          1
   149          5
   150          5
   154         29
   155         46
   156         21
   157         28
   158          6
   159          1
   160          1
   162          1
   163          1
   167          1
   168         38
   169         14
   170        127
   171         28
   172         26
   173          3
   176          6
   177          4
   180          6
   181          1
   182          9
   183         24
   184         25
   185         18
   186          5
   198         15
   199          0
   200          3
   207          2
   208          0
   211          4
   225          1
   227          9
   229          1
   241          0
   242        423
   243         27
   244        107
   245         16