##TITLE=Library Entry 44507
##JCAMP-DX=Revision 4.10 
##DATA TYPE=MASS SPECTRUM
##SAMPLE DESCRIPTION=N.W. Davies, Centr. Sci. Lab., Univ. Tasmania, Hobart,
 Australia
##NAMES=HP
##CAS NAME=4-Decenoic acid, methyl ester
##MOLFORM=C11H20O2
##CAS REGISTRY NO=1191-02-2
##MP= -300
##BP= -300
##MW= 184
##$RETENTION INDEX=1617
##$CONDENSED SPECTRUM=NO
##NPOINTS= 76
##XYDATA=(XY..XY) 1 
    26         16
    27        269
    29        367
    30         10
    31         23
    38         10
    39        271
    41        753
    42        155
    43        740
    45         39
    51         27
    52         19
    53        147
    54        475
    55        701
    56        109
    57        115
    58         52
    59        303
    65         40
    66         32
    67        455
    68        333
    69        553
    70         57
    71         83
    72         34
    73         34
    74        999
    75         81
    77         37
    78         11
    79         73
    80         34
    81        347
    82        177
    83        131
    84        295
    85        282
    86         21
    87        150
    88         21
    91         21
    93         54
    94         21
    95        140
    96        249
    97        119
    98         35
    99         29
   100         13
   101         33
   107         13
   108         40
   109         60
   110        504
   111        111
   112         11
   113         45
   114         42
   115         23
   119         10
   123         81
   124         46
   125         13
   127         30
   128         18
   133         10
   134         14
   135         51
   141         14
   152        175
   153         52
   184         21
   185          3