##TITLE=Library Entry 17981
##JCAMP-DX=Revision 4.10 
##DATA TYPE=MASS SPECTRUM
##SAMPLE DESCRIPTION=NIST Mass Spectrometry Data Center, 1994
##NAMES=HP
##CAS NAME=1,4-Butanedithiol
##MOLFORM=C4H10S2
##CAS REGISTRY NO=1191-08-8
##MP= -300
##BP= -300
##MW= 122
##$RETENTION INDEX=1063
##$CONDENSED SPECTRUM=NO
##NPOINTS= 76
##XYDATA=(XY..XY) 1 
    11          0
    12          1
    13          3
    14          6
    15         26
    26        106
    27        457
    28         31
    29        163
    30          3
    32         26
    33         67
    34         52
    35        101
    36          5
    37         20
    38         49
    39        254
    40         43
    41        245
    42         66
    43         37
    44          3
    45        409
    46        369
    47        999
    48         44
    49         49
    50         24
    51         26
    52         15
    53         89
    54        258
    55        573
    56         31
    57         37
    58        111
    59        230
    60        838
    61        191
    62         46
    63          8
    64          6
    65          2
    66          4
    67          1
    68          3
    69         13
    70          3
    71         19
    72         11
    73         58
    74          5
    75          8
    76          1
    77          1
    78          2
    79         12
    80          3
    81          5
    82          2
    83          1
    84          4
    85         17
    88        623
    89         58
    90         28
    91          2
    92          0
    93          0
   120          7
   122        291
   123         18
   124         27
   125          1
   126          0