##TITLE=Library Entry 40567
##JCAMP-DX=Revision 4.10 
##DATA TYPE=MASS SPECTRUM
##SAMPLE DESCRIPTION=RADIAN CORP
##NAMES=HP
##CAS NAME=2-Hexenoic acid
##MOLFORM=C6H10O2
##CAS REGISTRY NO=1191-04-4
##MP= -300
##BP= -300
##MW= 114
##$RETENTION INDEX=1980
##$CONDENSED SPECTRUM=NO
##NPOINTS= 70
##XYDATA=(XY..XY) 1 
    15          5
    18          6
    25          2
    26         35
    27        284
    28         70
    29        310
    30          9
    31         33
    32         16
    33          2
    36          1
    37         14
    38         63
    39        476
    40        149
    41        518
    42        523
    43        187
    44         35
    45        167
    46          3
    47          4
    49          4
    50         32
    51         49
    52         19
    53        132
    54         44
    55        446
    56         56
    57        101
    58         42
    59         72
    60        133
    61          9
    62         10
    63         15
    64          2
    65         24
    66         14
    67         79
    68        362
    69        174
    70         14
    71         74
    72         12
    73        999
    74         39
    75          7
    76          1
    77          3
    79          1
    81         93
    82          6
    83          4
    84          2
    85         25
    86         50
    87          3
    95         19
    96         77
    97         47
    98          2
    99        302
   100         17
   101          1
   113          6
   114         75
   115          7