##TITLE=Library Entry 49106
##JCAMP-DX=Revision 4.10 
##DATA TYPE=MASS SPECTRUM
##SAMPLE DESCRIPTION=Japan AIST/NIMC Database- Spectrum MS-IW-2592
##NAMES=HP
##CAS NAME=9,12,15-Octadecatrienoic acid, ethyl ester, (Z,Z,Z)-
##MOLFORM=C20H34O2
##CAS REGISTRY NO=1191-41-9
##MP= -300
##BP= -300
##MW= 306
##$RETENTION INDEX=2171
##$CONDENSED SPECTRUM=NO
##NPOINTS= 230
##XYDATA=(XY..XY) 1 
    14          1
    15          2
    16          1
    26          6
    27         89
    28         17
    29        256
    30          6
    31          9
    32          2
    34          1
    37          1
    38          2
    39        108
    40         20
    41        590
    42         49
    43        214
    44          9
    45         43
    46          1
    47          1
    50          4
    51         17
    52         14
    53        113
    54        127
    55        556
    56         38
    57         84
    58          6
    59         17
    60         49
    61         29
    62          2
    63          6
    64          3
    65         69
    66        110
    67        793
    68        187
    69        264
    70         34
    71         42
    72          3
    73         59
    74          8
    75          3
    76          1
    77        198
    78        151
    79        999
    80        559
    81        618
    82        156
    83        128
    84         25
    85         32
    86          3
    87         19
    88         99
    89         12
    90          1
    91        269
    92         73
    93        634
    94        366
    95        862
    96        140
    97         89
    98         22
    99         20
   100          2
   101        184
   102         16
   103         12
   104         10
   105        114
   106         53
   107        343
   108        657
   109        235
   110         44
   111         40
   112          7
   113         11
   114          2
   115         47
   116          7
   117         35
   118          9
   119        100
   120         43
   121        306
   122        194
   123         85
   124         15
   125         19
   126          3
   127          9
   128          6
   129         31
   130          7
   131         39
   132          9
   133         58
   134         28
   135        228
   136        147
   137         41
   138          8
   139         12
   140          2
   141          9
   142          4
   143         35
   144          6
   145         24
   146          6
   147         50
   148         19
   149        189
   150         85
   151         20
   152          4
   153          6
   154          4
   155         12
   156          2
   157         24
   158          5
   159         16
   160          6
   161         26
   162         19
   163         78
   164         49
   165         14
   166          3
   167          4
   168          5
   169          5
   170          1
   171         10
   172          3
   173         56
   174          9
   175         22
   176          9
   177         26
   178         26
   179          7
   180          2
   181          5
   182          5
   183          3
   185          9
   186          3
   187          7
   188          2
   189         12
   190          5
   191         55
   192         19
   193          6
   194          2
   195          7
   196          3
   197          2
   199          6
   200          1
   201          2
   203          9
   204         10
   205          7
   206          7
   207          4
   208          2
   209          4
   210          3
   211          1
   213          4
   214          1
   215          1
   216          1
   217         10
   218          5
   219          3
   220          1
   221          7
   222          3
   223          4
   224          4
   225          1
   227          2
   228          1
   230          1
   231          8
   232          6
   233          2
   234          1
   235          5
   236          6
   237         25
   238          9
   239          2
   241          1
   243          6
   244          1
   245          2
   249          8
   250         66
   251         15
   252          6
   258          1
   259          3
   260          5
   261         84
   262         17
   263         17
   264          7
   265          4
   277         30
   278          8
   279          1
   291          1
   304          3
   306        156
   307         33
   308          5