##TITLE=Library Entry 15592
##JCAMP-DX=Revision 4.10 
##DATA TYPE=MASS SPECTRUM
##SAMPLE DESCRIPTION=Chemical Concepts
##NAMES=HP
##CAS NAME=Propanediamide, N,N''-1,8-octanediylbis[N'-heptyl-N'-methyl-
##MOLFORM=C30H58N4O4
##CAS REGISTRY NO=119110-38-2
##MP= -300
##BP= -300
##MW= 538
##$RETENTION INDEX=0
##$CONDENSED SPECTRUM=NO
##NPOINTS= 264
##XYDATA=(XY..XY) 1 
    26          3
    27         61
    29        121
    30        143
    31         12
    33          2
    39         45
    40          8
    41        243
    42        155
    43        374
    44        999
    45         65
    46          3
    51          3
    52          2
    53         16
    54         23
    55        275
    56        123
    57        764
    58        210
    59         19
    60         22
    63          2
    64         21
    65          3
    66          3
    67         39
    68         22
    69        162
    70        105
    71         32
    72         77
    73         95
    74         25
    75          2
    76          1
    77          2
    78          2
    79          5
    80          6
    81         18
    82         13
    83         19
    84         48
    85         21
    86         92
    87         89
    88          9
    91          3
    93          3
    94          3
    95          9
    96         12
    97         18
    98         38
    99         30
   100         63
   101         25
   102          5
   103          3
   108          3
   109          9
   110          8
   111          9
   112         42
   113         26
   114         65
   115         12
   116          5
   117         16
   118          2
   119          2
   120          4
   123          4
   124          9
   125          6
   126         39
   127         19
   128        698
   129         91
   130        139
   131         16
   138          4
   139          3
   140         16
   141         10
   142         26
   143         27
   144         23
   145         20
   146          3
   147          2
   149          7
   150          3
   151          3
   152          4
   153          4
   154         39
   155         10
   156        237
   157         40
   158         23
   159          9
   165          3
   166          4
   167          4
   168          9
   169         11
   170         17
   171         30
   172         20
   173          5
   181          4
   182          9
   183          6
   184          7
   185         48
   186         26
   187         11
   194          5
   195          9
   196         31
   197         45
   198        139
   199         46
   200         20
   201         10
   209          4
   210          3
   211         28
   212         11
   213         93
   214         36
   215         21
   216          5
   223          3
   224          3
   225          9
   226          5
   227         51
   228         89
   229         14
   230          4
   237          7
   238          4
   239         31
   240          8
   241         83
   242         31
   243          7
   244          9
   252          6
   253          9
   254          9
   255         76
   256         34
   257         13
   258          7
   264          3
   265          4
   266          3
   267          6
   268          4
   269         71
   270         37
   271          8
   279          4
   280          4
   281         31
   282          8
   283         99
   284         35
   285         14
   286          4
   294          2
   295          3
   296          4
   297         92
   298         40
   299         25
   300          5
   308          3
   309          5
   311        246
   312         69
   313         13
   314          3
   322          3
   323          4
   324          6
   325         52
   326         22
   327          6
   328          3
   338          7
   339          3
   340         56
   341         21
   342         30
   343          5
   352          5
   353          2
   354          5
   355          2
   356          3
   357          2
   360          5
   361          3
   362         70
   363         18
   364          8
   365          2
   377          4
   379          3
   381          5
   383         70
   384         23
   385          5
   397          4
   398          2
   408          4
   409         11
   410         83
   411         24
   412          5
   425          3
   426          2
   427          1
   437          2
   438          3
   439          3
   440          4
   441          3
   442          2
   453         13
   454         31
   455          8
   456          3
   467         31
   468         11
   469          3
   481          2
   487         17
   488          8
   489          3
   495         16
   496          6
   497          1
   506          2
   508          2
   509         17
   510          5
   511          1
   520          2
   521          1
   523          4
   524          2
   537          5
   538        173
   539         60
   540         13
   541          2