##TITLE=Library Entry 2887
##JCAMP-DX=Revision 4.10 
##DATA TYPE=MASS SPECTRUM
##SAMPLE DESCRIPTION=NIST Mass Spectrometry Data Center
##NAMES=HP
##CAS NAME=1,10-Decanedithiol
##MOLFORM=C10H22S2
##CAS REGISTRY NO=1191-67-9
##MP= -300
##BP= -300
##MW= 206
##$RETENTION INDEX=0
##$CONDENSED SPECTRUM=NO
##NPOINTS= 121
##XYDATA=(XY..XY) 1 
    15          9
    17          1
    18          6
    26         12
    27        262
    28         80
    29        325
    30          7
    31          1
    32          7
    33          7
    34         11
    35         86
    36         20
    37          4
    38         12
    39        243
    40         47
    41        999
    42        155
    43        224
    44         11
    45        162
    46         55
    47        577
    48         22
    49         28
    50          3
    51         12
    52          9
    53        111
    54        268
    55        974
    56        121
    57        146
    58         28
    59         69
    60        181
    61        273
    62         21
    63         16
    64          2
    65         23
    66         48
    67        504
    68        349
    69        412
    70         51
    71         67
    72          9
    73         50
    74         45
    75         22
    76          3
    77         16
    78          4
    79         43
    80         17
    81        308
    82        242
    83        241
    84         24
    85         54
    87        886
    88        141
    89        225
    90         15
    91         14
    93          8
    94          9
    95        196
    96        117
    97         95
    98         13
    99          6
   101        702
   102         85
   103         62
   104          7
   105          2
   107          1
   109         59
   110         39
   111         13
   112          6
   113          2
   115        274
   116         23
   117         20
   118          3
   119          1
   120          1
   121          1
   123          3
   125          1
   126          1
   127          1
   128          3
   129        175
   130         19
   131         12
   135          1
   137          1
   138          8
   139          2
   143         75
   144          9
   145          4
   151          1
   157          9
   171        335
   172        101
   173        104
   174         14
   175          4
   202          1
   204          3
   206        457
   207         69
   208         49
   209          4