##TITLE=Library Entry 57238
##JCAMP-DX=Revision 4.10 
##DATA TYPE=MASS SPECTRUM
##SAMPLE DESCRIPTION=Japan AIST/NIMC Database- Spectrum MS-NW-3799
##NAMES=HP
##CAS NAME=1,6-Hexanedithiol
##MOLFORM=C6H14S2
##CAS REGISTRY NO=1191-43-1
##MP= -300
##BP= -300
##MW= 150
##$RETENTION INDEX=1270
##$CONDENSED SPECTRUM=NO
##NPOINTS= 96
##XYDATA=(XY..XY) 1 
    14          6
    15          1
    17          2
    18         10
    26         12
    27        180
    28         21
    29        112
    30          2
    32          8
    33         11
    34         21
    35         55
    36          2
    37          4
    38          8
    39        144
    40         21
    41        607
    42         80
    43         72
    44         14
    45        136
    46         85
    47        507
    48         18
    49         23
    50          6
    51          9
    52          4
    53         54
    54        312
    55        647
    56         56
    57         23
    58         20
    59         55
    60        268
    61        275
    62         23
    63         13
    64          2
    65          8
    66          5
    67        422
    68         48
    69        148
    70         26
    71          9
    72          6
    73         85
    74         48
    75         38
    76          8
    77          4
    78          1
    79         11
    80          3
    81         54
    82        269
    83        262
    84         19
    85          9
    86         10
    87        999
    88         99
    89         57
    90          6
    91          1
    93          1
    95          3
    96          1
    97          1
    99          2
   101        103
   102          7
   103         10
   104          1
   109          1
   110          1
   113          1
   114          1
   115         18
   116        417
   117         62
   118         23
   119          3
   129          2
   130          1
   131          1
   143          1
   148          8
   149          1
   150         71
   151          6
   152          7