##TITLE=Library Entry 50118
##JCAMP-DX=Revision 4.10 
##DATA TYPE=MASS SPECTRUM
##SAMPLE DESCRIPTION=Japan AIST/NIMC Database- Spectrum MS-NW-3425
##NAMES=HP
##CAS NAME=Cyclohexane, methylene-
##MOLFORM=C7H12
##CAS REGISTRY NO=1192-37-6
##MP= -300
##BP= -300
##MW= 96
##$RETENTION INDEX=740
##$CONDENSED SPECTRUM=NO
##NPOINTS= 57
##XYDATA=(XY..XY) 1 
    14          1
    15         12
    16          1
    26         21
    27        173
    28         29
    29         79
    30          2
    37         11
    38         30
    39        349
    40         93
    41        235
    42         44
    43          8
    44          3
    45          3
    46          5
    47          1
    49          4
    50         29
    51         55
    52         31
    53        214
    54        469
    55        410
    56         30
    57          3
    61          6
    62          9
    63         18
    64          4
    65         48
    66         66
    67        743
    68        529
    69         31
    70          2
    74          3
    75          1
    76          1
    77         47
    78         11
    79        102
    80         18
    81        999
    82         65
    83         12
    84          1
    91         16
    92          3
    93         10
    94          2
    95         84
    96        462
    97         36
    98          1