##TITLE=Library Entry 29654
##JCAMP-DX=Revision 4.10 
##DATA TYPE=MASS SPECTRUM
##SAMPLE DESCRIPTION=SHELL RESEARCH LIMITED THORNTON RESEARCH CENTRE
##NAMES=HP
##CAS NAME=Oxirane, 3-ethyl-2,2-dimethyl-
##MOLFORM=C6H12O
##CAS REGISTRY NO=1192-22-9
##MP= -300
##BP= -300
##MW= 100
##$RETENTION INDEX=701
##$CONDENSED SPECTRUM=NO
##NPOINTS= 32
##XYDATA=(XY..XY) 1 
    26         35
    27        200
    28         61
    29        244
    30         45
    31        389
    37         20
    38         37
    39        243
    40        126
    41        754
    42        595
    43        592
    44         28
    45         15
    53         23
    54         14
    55         30
    56         14
    57        270
    58        633
    59        999
    60         72
    67         22
    69         28
    70         11
    71         72
    72         20
    85        218
    86         18
    99         12
   100         22