##TITLE=Library Entry 25411
##JCAMP-DX=Revision 4.10 
##DATA TYPE=MASS SPECTRUM
##SAMPLE DESCRIPTION=Chemical Concepts
##NAMES=HP
##CAS NAME=Decane, 5,6-dipropyl-
##MOLFORM=C16H34
##CAS REGISTRY NO=119209-20-0
##MP= -300
##BP= -300
##MW= 226
##$RETENTION INDEX=1386
##$CONDENSED SPECTRUM=NO
##NPOINTS= 75
##XYDATA=(XY..XY) 1 
    24          0
    26          3
    27         56
    29        141
    30          3
    36          0
    37          0
    38          0
    39         29
    40          0
    41        272
    42         55
    43        498
    44         16
    45          1
    50          0
    51          1
    52          0
    53         16
    54         13
    55        179
    56        144
    57        999
    58         43
    59          0
    60          0
    63          1
    65          3
    66          1
    67         16
    68         15
    69         89
    70        206
    71        704
    72         38
    73          0
    77          2
    78          0
    79          3
    80          0
    81          6
    82         41
    83        156
    84        100
    85        102
    86          5
    91          1
    93          0
    95          1
    96          1
    97         20
    98          3
    99         28
   100          2
   110          0
   111          3
   112        371
   113         66
   114          4
   125          1
   126          4
   127         12
   128          1
   139          0
   140          1
   141          3
   155          0
   168          2
   169         20
   170          2
   182          1
   183         19
   184          2
   197          0
   226          0