##TITLE=Library Entry 58277
##JCAMP-DX=Revision 4.10 
##DATA TYPE=MASS SPECTRUM
##SAMPLE DESCRIPTION=Japan AIST/NIMC Database- Spectrum MS-IW-3376
##NAMES=HP
##CAS NAME=2,3-Dihydrothiophene 1,1-dioxide
##MOLFORM=C4H6O2S
##CAS REGISTRY NO=1192-16-1
##MP= -300
##BP= -300
##MW= 118
##$RETENTION INDEX=0
##$CONDENSED SPECTRUM=NO
##NPOINTS= 73
##XYDATA=(XY..XY) 1 
    13          1
    14          3
    15          6
    25          5
    26        102
    27        314
    28        525
    29         33
    30          1
    31          3
    32         15
    33          5
    34         13
    35         17
    36          2
    37         20
    38         47
    39        676
    40         37
    41        232
    42         70
    43         40
    44         24
    45         95
    46         52
    47         29
    48         60
    49         20
    50         89
    51         96
    52         55
    53        454
    54        178
    55         73
    56         16
    57         86
    58         24
    59         22
    60          7
    61        201
    62        146
    63         45
    64         27
    65         10
    66          6
    68         31
    69        121
    70        146
    71         18
    72         72
    73         61
    74          6
    75          5
    76          4
    78          5
    81          3
    82          2
    83          4
    84          4
    85         25
    86         10
    87         18
    88          2
    89        999
    90         64
    91         55
    92          3
   101          4
   103          1
   118        292
   119         20
   120         14
   121          1