##TITLE=Library Entry 85156
##JCAMP-DX=Revision 4.10 
##DATA TYPE=MASS SPECTRUM
##SAMPLE DESCRIPTION=GEORGE R. WALLER AND BOBBY R. JOHNSON, OKLAHOMA STATE U
NIV, USA
##NAMES=HP
##CAS NAME=1H-Pyrrole-2-carboxaldehyde, 5-methyl-
##MOLFORM=C6H7NO
##CAS REGISTRY NO=1192-79-6
##MP= -300
##BP= -300
##MW= 109
##$RETENTION INDEX=1099
##$CONDENSED SPECTRUM=NO
##NPOINTS= 41
##XYDATA=(XY..XY) 1 
    27        150
    30         30
    31         30
    35         60
    36         30
    37         30
    38         30
    39         90
    40         60
    41        150
    42        240
    46         30
    48         30
    49         60
    50         90
    51        120
    52        210
    53        530
    54         90
    56        120
    57         30
    61         30
    64         60
    66         30
    68         30
    69         30
    70         90
    72         60
    76         60
    77         30
    78         60
    79         30
    80        470
    81         30
    83         30
    92         30
    93         30
    94         90
   108        999
   109        970
   110        120