##TITLE=Library Entry 56032
##JCAMP-DX=Revision 4.10 
##DATA TYPE=MASS SPECTRUM
##SAMPLE DESCRIPTION=TNO Volatile Compounds in Food - Chemical Concepts
##NAMES=HP
##CAS NAME=Benzeneethanamine, N-ethyl-N,.alpha.-dimethyl-
##MOLFORM=C12H19N
##CAS REGISTRY NO=119290-77-6
##MP= -300
##BP= -300
##MW= 177
##$RETENTION INDEX=1320
##$CONDENSED SPECTRUM=NO
##NPOINTS= 76
##XYDATA=(XY..XY) 1 
    32          2
    34         28
    35        216
    36         13
    37         68
    39         63
    40          8
    41         46
    42        154
    43         18
    44         54
    45          3
    50         14
    51         34
    52         11
    53          4
    54          9
    55          8
    56         84
    57         17
    58        544
    59         12
    61          2
    62          8
    63         20
    64          6
    65         51
    66          7
    67          2
    69          4
    70         34
    71         10
    72         19
    74         12
    75          2
    76          2
    77         25
    78         14
    79          7
    81          5
    83          2
    84         24
    85         17
    86        999
    87        183
    88          2
    89          8
    90          4
    91        182
    92         14
    93          2
   103          9
   104          6
   105         10
   115         18
   116          7
   117         29
   118         14
   119         12
   130          3
   131          2
   132          7
   133          8
   134          4
   144          2
   145          2
   146          4
   158          1
   160          5
   161          2
   162         30
   163          3
   174          7
   175          6
   176          7
   177          7