##TITLE=Library Entry 35991
##JCAMP-DX=Revision 4.10 
##DATA TYPE=MASS SPECTRUM
##SAMPLE DESCRIPTION=J.G. Morse, Dep. Chem. Biochem., Utah State Univ., Loga
n, USA
##NAMES=HP
##CAS NAME=1-Propene, 1,2-bis(difluorophosphino)-
##MOLFORM=C3H4F4P2
##CAS REGISTRY NO=119280-18-1
##MP= -300
##BP= -300
##MW= 178
##$RETENTION INDEX=0
##$CONDENSED SPECTRUM=NO
##NPOINTS= 15
##XYDATA=(XY..XY) 1 
    38        150
    39        480
    41        150
    43        470
    50        120
    58        110
    68         90
    69        999
    72        230
    76        100
    89        180
   109        990
   159        110
   178        500
   179         16