##TITLE=Library Entry 65005
##JCAMP-DX=Revision 4.10 
##DATA TYPE=MASS SPECTRUM
##SAMPLE DESCRIPTION=A.A.Kutin, Moscow, Russia
##NAMES=HP
##CAS NAME=5-Diazo-1,3-cyclopentadiene
##MOLFORM=C5H4N2
##CAS REGISTRY NO=1192-27-4
##MP= -300
##BP= -300
##MW= 92
##$RETENTION INDEX=0
##$CONDENSED SPECTRUM=NO
##NPOINTS= 16
##XYDATA=(XY..XY) 1 
    26         24
    28         43
    31         41
    32         37
    37         96
    38        233
    39         21
    46         74
    50         22
    60         26
    61         89
    62        135
    63        890
    64        368
    92        999
    93         60