##TITLE=Library Entry 38303
##JCAMP-DX=Revision 4.10 
##DATA TYPE=MASS SPECTRUM
##SAMPLE DESCRIPTION=Japan AIST/NIMC Database- Spectrum MS-NW-3436
##NAMES=HP
##CAS NAME=Tetrahydrofurfuryl bromide
##MOLFORM=C5H9BrO
##CAS REGISTRY NO=1192-30-9
##MP= -300
##BP= -300
##MW= 164
##$RETENTION INDEX=0
##$CONDENSED SPECTRUM=NO
##NPOINTS= 82
##XYDATA=(XY..XY) 1 
    12          1
    13          3
    14         16
    15         45
    16          1
    25          6
    26         63
    27        320
    28         63
    29        118
    30         10
    31         29
    36          2
    37         16
    38         36
    39        238
    40         46
    41        364
    42        152
    43        541
    44         19
    45          7
    49          6
    50         24
    51         25
    52         11
    53         66
    54         40
    55        175
    56         14
    57         12
    58          3
    59          1
    61          2
    62          1
    63          1
    65          3
    66          2
    67         13
    68          3
    69         12
    70          9
    71        999
    72         47
    73          5
    79         12
    80         10
    81         14
    82         11
    83          9
    84         19
    85         30
    86          2
    91          2
    92          3
    93         33
    94         10
    95         30
    96          6
   104          1
   105          4
   106         13
   107          8
   108         13
   109          4
   117          1
   119          7
   120          2
   121         20
   122          3
   123         20
   124          1
   125          5
   133          1
   135          1
   147          3
   149          4
   151          1
   163          3
   164          6
   165          4
   166          5