##TITLE=Library Entry 70987
##JCAMP-DX=Revision 4.10 
##DATA TYPE=MASS SPECTRUM
##SAMPLE DESCRIPTION=RADIAN CORP
##NAMES=HP
##CAS NAME=1-Pyrrolidinecarbonyl chloride
##MOLFORM=C5H8ClNO
##CAS REGISTRY NO=1192-63-8
##MP= -300
##BP= -300
##MW= 133
##$RETENTION INDEX=0
##$CONDENSED SPECTRUM=NO
##NPOINTS= 71
##XYDATA=(XY..XY) 1 
    14          2
    15         41
    25          2
    26         48
    27        158
    28         75
    29         57
    30         67
    34          1
    35         21
    36          6
    37         26
    38         45
    39        232
    40         96
    41        335
    42        406
    43         83
    44         29
    45          1
    47          3
    48          1
    49          7
    50          9
    51         15
    52         15
    53         61
    54         27
    55        568
    56        464
    57         13
    58          2
    61          1
    62          9
    63        202
    64         16
    65         68
    66          7
    67         10
    68         67
    69         71
    70        126
    71          9
    75          3
    77         29
    78          8
    79         11
    80          3
    81          2
    82          5
    89          6
    90          0
    91          2
    92          0
    94          0
    96          4
    97          1
    98        999
    99         60
   100          3
   104          8
   105         86
   106          5
   107         30
   109          1
   125          1
   132         55
   133        301
   134         37
   135         99
   136          6