##TITLE=Library Entry 68438
##JCAMP-DX=Revision 4.10 
##DATA TYPE=MASS SPECTRUM
##SAMPLE DESCRIPTION=Japan AIST/NIMC Database- Spectrum MS-NW-1322
##NAMES=HP
##CAS NAME=Ethanone, 1-(2-furanyl)-
##MOLFORM=C6H6O2
##CAS REGISTRY NO=1192-62-7
##MP= -300
##BP= -300
##MW= 110
##$RETENTION INDEX=911
##$CONDENSED SPECTRUM=NO
##NPOINTS= 52
##XYDATA=(XY..XY) 1 
    12          1
    13          3
    14         11
    15         52
    17          1
    18          7
    25          4
    26         13
    27         35
    28         20
    29         22
    31          2
    32          4
    33          1
    36          4
    37         27
    38         60
    39        235
    40         35
    41          9
    42         28
    43        168
    44          4
    45          1
    49          6
    50         15
    51         33
    52          8
    53         17
    54          3
    55          4
    57          1
    60          1
    61          4
    62          3
    63          4
    64          1
    65          2
    66          6
    67         49
    68         36
    69          2
    77          1
    79          1
    81          6
    82          1
    95        999
    96         52
    97          6
   110        435
   111         31
   112          3