##TITLE=Library Entry 47494
##JCAMP-DX=Revision 4.10 
##DATA TYPE=MASS SPECTRUM
##SAMPLE DESCRIPTION=A.Mazepa, Phys.-Chem.Institute, Odessa, Ukraine
##NAMES=HP
##CAS NAME=Urea, N-(5-chloro-2,6-dimethyl-4-pyrimidinyl)-N'-(phenylsulfonyl)
-
##MOLFORM=C13H13ClN4O3S
##CAS REGISTRY NO=119271-20-4
##MP= -300
##BP= -300
##MW= 340
##$RETENTION INDEX=0
##$CONDENSED SPECTRUM=NO
##NPOINTS= 79
##XYDATA=(XY..XY) 1 
    50        104
    51        337
    52         50
    53         25
    54         30
    55          9
    56          1
    57         21
    58          1
    62          7
    63         11
    64         58
    65         42
    66         37
    67         13
    68          2
    69         21
    73         59
    74         55
    75        153
    76         47
    77        999
    78         75
    79         12
    80          7
    81         27
    82          3
    83          5
    90          4
    91         19
    92          5
    93        119
    94         54
    95         15
    96          3
    97          2
    99         25
   100         16
   101         95
   102          6
   103         35
   105          4
   114          7
   115          6
   116         19
   117        140
   118          9
   119         43
   120          3
   121          6
   122         35
   123         48
   124          1
   129          2
   130         30
   131          2
   132          6
   140          5
   141        356
   142         42
   143         48
   144          5
   145          4
   156          1
   157        558
   158         42
   159        151
   160          7
   183        469
   184         37
   185        103
   186          5
   213          3
   214          2
   231          2
   255          2
   256          8
   269          2
   281          2