##TITLE=Library Entry 36216
##JCAMP-DX=Revision 4.10 
##DATA TYPE=MASS SPECTRUM
##SAMPLE DESCRIPTION=J.G. Morse, Dep. Chem. Biochem., Utah State Univ., Loga
n, USA
##NAMES=HP
##CAS NAME=2-Butene, 1,1,1,4,4,4-hexafluoro-2,3-bis(difluorophosphino)-
##MOLFORM=C4F10P2
##CAS REGISTRY NO=119255-00-4
##MP= -300
##BP= -300
##MW= 300
##$RETENTION INDEX=0
##$CONDENSED SPECTRUM=NO
##NPOINTS= 14
##XYDATA=(XY..XY) 1 
    50         60
    69        999
    81        100
    93        300
   105        250
   124        560
   143        460
   155         60
   193        160
   212         40
   231        160
   281         40
   300         40
   301          1