##TITLE=Library Entry 21937
##JCAMP-DX=Revision 4.10 
##DATA TYPE=MASS SPECTRUM
##SAMPLE DESCRIPTION=Exported from NIST MS Search
##NAMES=HP
##CAS NAME=2,4(3H,5H)-Furandione, 3-methyl-
##MOLFORM=C5H6O3
##CAS REGISTRY NO=1192-51-4
##MP= -300
##BP= -300
##MW= 114
##$RETENTION INDEX=0
##$CONDENSED SPECTRUM=NO
##NPOINTS= 26
##XYDATA=(XY..XY) 1 
    25         20
    26        120
    27        220
    28        940
    29        210
    30         20
    31         30
    32         10
    38         10
    39         40
    40         30
    41         70
    42        180
    43         30
    44         40
    53         10
    54         20
    55        140
    56        999
    57         80
    83         50
    85        170
    86         70
    96         30
   114        730
   115         60