##TITLE=Library Entry 21218
##JCAMP-DX=Revision 4.10 
##DATA TYPE=MASS SPECTRUM
##SAMPLE DESCRIPTION=Japan AIST/NIMC Database- Spectrum MS-NW-7654
##NAMES=HP
##CAS NAME=Cyclopentanone, oxime
##MOLFORM=C5H9NO
##CAS REGISTRY NO=1192-28-5
##MP= -300
##BP= -300
##MW= 99
##$RETENTION INDEX=972
##$CONDENSED SPECTRUM=NO
##NPOINTS= 68
##XYDATA=(XY..XY) 1 
    14          3
    15         18
    16          2
    18          1
    25          3
    26         54
    27        200
    28        162
    29        157
    30         15
    31         19
    32          2
    33          1
    36          1
    37         14
    38         33
    39        235
    40         56
    41        368
    42         87
    43         26
    44         64
    45         14
    46          5
    47          2
    48          2
    49          4
    50         16
    51         29
    52         47
    53        107
    54        497
    55        999
    56         58
    57         48
    58          9
    59         17
    60          6
    61          3
    62          4
    63          6
    64          5
    65         21
    66         30
    67        292
    68         37
    69          9
    70         60
    71         28
    72         14
    73          3
    75          2
    76          3
    77          1
    78          4
    79          6
    80         75
    81         14
    82        399
    83         57
    84         51
    85          3
    96          6
    97          3
    98         62
    99        524
   100         36
   101          3