##TITLE=Library Entry 69402
##JCAMP-DX=Revision 4.10 
##DATA TYPE=MASS SPECTRUM
##SAMPLE DESCRIPTION=Div. of Experiment Therapeutics WRAIR, WRAMC, Washingto
n DC 20307
##NAMES=HP
##CAS NAME=Bis[1-methylimidazole-2-yl methyl]amine
##MOLFORM=C10H15N5
##CAS REGISTRY NO=119260-53-6
##MP= -300
##BP= -300
##MW= 205
##$RETENTION INDEX=0
##$CONDENSED SPECTRUM=NO
##NPOINTS= 49
##XYDATA=(XY..XY) 1 
    42        229
    43         10
    47          2
    52         24
    53         18
    54        148
    55         67
    56         22
    57          3
    65          3
    66          6
    67         12
    68         19
    69         17
    77          5
    78          3
    79          5
    80          5
    81        144
    82         30
    83         82
    84         12
    91         16
    92         13
    93          8
    94         13
    95        518
    96        999
    97         62
   103          9
   104          4
   105          1
   107          4
   108         16
   109         11
   110        446
   111         30
   121          3
   122         10
   123          3
   124          5
   134          3
   135          5
   138          2
   175          1
   176          6
   204          1
   205         14
   206          1