##TITLE=Library Entry 86108
##JCAMP-DX=Revision 4.10 
##DATA TYPE=MASS SPECTRUM
##SAMPLE DESCRIPTION=Japan AIST/NIMC Database- Spectrum MS-IW-1183
##NAMES=HP
##CAS NAME=1H-Pyrrole-2-carboxaldehyde, 1-methyl-
##MOLFORM=C6H7NO
##CAS REGISTRY NO=1192-58-1
##MP= -300
##BP= -300
##MW= 109
##$RETENTION INDEX=1016
##$CONDENSED SPECTRUM=NO
##NPOINTS= 57
##XYDATA=(XY..XY) 1 
    14          1
    15         18
    25          2
    26         12
    27         51
    28         39
    29         15
    30          3
    31          1
    36          1
    37         20
    38         43
    39        198
    40         20
    41         23
    42         50
    43          5
    44         11
    45          2
    48          1
    49          9
    50         36
    51         49
    52         47
    53        363
    54         40
    55         23
    56          2
    61          2
    62          3
    63          8
    64         19
    65         14
    66         10
    67         10
    68          2
    72          6
    73          1
    75          3
    76          4
    77          2
    78         68
    79         20
    80        319
    81         31
    82          4
    87          5
    91          2
    92          4
    93          3
    94          3
   106         18
   107          3
   108        843
   109        999
   110         71
   111          4