##TITLE=Library Entry 21482
##JCAMP-DX=Revision 4.10 
##DATA TYPE=MASS SPECTRUM
##SAMPLE DESCRIPTION=Japan AIST/NIMC Database- Spectrum MS-NW-7241
##NAMES=HP
##CAS NAME=1,3-Cyclohexanedione, 2-methyl-
##MOLFORM=C7H10O2
##CAS REGISTRY NO=1193-55-1
##MP= -300
##BP= -300
##MW= 126
##$RETENTION INDEX=1006
##$CONDENSED SPECTRUM=NO
##NPOINTS= 82
##XYDATA=(XY..XY) 1 
    13          2
    15         31
    17          2
    25          6
    26         66
    27        340
    28        329
    29         52
    30          2
    31         17
    32          7
    34          7
    35         15
    36          2
    37         16
    38         32
    39        217
    40         51
    41        185
    42        448
    43        165
    44         11
    45          5
    47          8
    48          9
    49         10
    50         19
    51         30
    52         16
    53         56
    54         24
    55        999
    56        408
    57         74
    58          4
    60          1
    61          5
    62          6
    63          6
    64          2
    65          9
    66          6
    67          9
    68         12
    69         72
    70        657
    71         80
    72          6
    73          3
    74          3
    75          1
    76          2
    77         10
    78          3
    79         13
    80         10
    81          7
    82          3
    83        346
    84         31
    85         21
    86          1
    91          1
    93          1
    94          1
    95          6
    96          3
    97        139
    98        674
    99         41
   100          5
   107          2
   108          2
   109          3
   110          1
   111         12
   112          2
   124          1
   125          6
   126        685
   127         59
   128          5