##TITLE=Library Entry 67404
##JCAMP-DX=Revision 4.10 
##DATA TYPE=MASS SPECTRUM
##SAMPLE DESCRIPTION=W.V. BROWN, CSIRO, BLACK MOUNTAIN, CANBERRA CITY, AUSTR
ALIA
##NAMES=HP
##CAS NAME=Methyl pyrrole-2-carboxylate
##MOLFORM=C6H7NO2
##CAS REGISTRY NO=1193-62-0
##MP= -300
##BP= -300
##MW= 125
##$RETENTION INDEX=2058
##$CONDENSED SPECTRUM=NO
##NPOINTS= 33
##XYDATA=(XY..XY) 1 
    37         43
    38        126
    39        354
    40         65
    41         20
    42         10
    45          5
    50          5
    51          7
    52         10
    53         20
    54          5
    55         17
    59         10
    63          7
    64         32
    65        124
    66        379
    67         50
    68          7
    69          5
    77          5
    80         15
    81          5
    82          5
    93        379
    94        999
    95         68
    96         10
    97          5
   125        670
   126         48
   127          5