##TITLE=Library Entry 10714
##JCAMP-DX=Revision 4.10 
##DATA TYPE=MASS SPECTRUM
##SAMPLE DESCRIPTION=Exported from NIST MS Search
##NAMES=HP
##CAS NAME=1,3-Dioxolane, 2,2,4-trimethyl-
##MOLFORM=C6H12O2
##CAS REGISTRY NO=1193-11-9
##MP= -300
##BP= -300
##MW= 116
##$RETENTION INDEX=0
##$CONDENSED SPECTRUM=NO
##NPOINTS= 40
##XYDATA=(XY..XY) 1 
    15         28
    17          1
    18          5
    26          7
    27         38
    28         31
    29         45
    30          3
    31         45
    32          4
    38          3
    39         45
    40         14
    41        161
    42        204
    43        999
    44         27
    45         41
    55          6
    56          2
    57         36
    58         93
    59        102
    60          5
    61         30
    71          2
    72        200
    73         19
    74          2
    75          1
    83          4
    85          2
    86          9
    91          3
    92          1
    97          2
   101        461
   102         27
   103          3
   115          2