##TITLE=Library Entry 71859
##JCAMP-DX=Revision 4.10 
##DATA TYPE=MASS SPECTRUM
##SAMPLE DESCRIPTION=A.A.Kutin, Moscow, Russia
##NAMES=HP
##CAS NAME=Acethydrazide, N2-(1,2-dimethylpropylideno)-
##MOLFORM=C7H14N2O
##CAS REGISTRY NO=119393-09-8
##MP= -300
##BP= -300
##MW= 142
##$RETENTION INDEX=0
##$CONDENSED SPECTRUM=NO
##NPOINTS= 93
##XYDATA=(XY..XY) 1 
    33         41
    34         11
    35          3
    36         12
    37          6
    39        211
    40        168
    41        368
    42        481
    43        701
    44        102
    45          7
    48          0
    50         15
    51         24
    52         12
    53         46
    55        163
    57        544
    58         39
    59         20
    60         21
    61          1
    62          4
    63          8
    64          5
    65         10
    66          7
    68        106
    69         81
    70         28
    72        286
    74         30
    75          4
    76          6
    77         12
    78          5
    79          5
    80          4
    82         42
    83         44
    84         59
    85        181
    86         12
    87          2
    89          1
    91         22
    92          7
    93          3
    95          4
    97         15
    99        999
   100         40
   101          4
   103          2
   104          4
   105          4
   106          0
   107          7
   108          1
   109          2
   110          1
   111          1
   112          4
   113          2
   114          7
   115          4
   116          2
   117          1
   118          0
   119          1
   120          2
   121          1
   122          1
   123          2
   124          1
   125          1
   127         38
   128          2
   129          1
   130          0
   131          0
   132          0
   133          1
   135         18
   136          3
   137          1
   138          1
   140          0
   141          3
   142         21
   143          1
   144          1