##TITLE=Library Entry 17001
##JCAMP-DX=Revision 4.10 
##DATA TYPE=MASS SPECTRUM
##SAMPLE DESCRIPTION=NIST Mass Spectrometry Data Center, 1992
##NAMES=HP
##CAS NAME=1-Cyclohexylethanol
##MOLFORM=C8H16O
##CAS REGISTRY NO=1193-81-3
##MP= -300
##BP= -300
##MW= 128
##$RETENTION INDEX=0
##$CONDENSED SPECTRUM=NO
##NPOINTS= 74
##XYDATA=(XY..XY) 1 
    14          3
    15         41
    16          1
    17          4
    18         19
    19         32
    26         18
    27        216
    28         77
    29        181
    30          5
    31         27
    37          3
    39        229
    40         44
    41        431
    42         97
    43        207
    44        175
    45        999
    46         24
    47         17
    48          2
    50         13
    51         30
    52         14
    53         78
    54        130
    55        663
    56        210
    57         34
    58          5
    59          3
    60          1
    61          1
    62          2
    63          4
    65         23
    67        426
    68         64
    69        101
    70          8
    71         19
    72          1
    74          0
    75          0
    77         20
    78          3
    79         34
    80         16
    81        131
    82        569
    83        199
    84        130
    85          9
    89          0
    91          5
    92          1
    93         11
    94          0
    95        188
    96         13
    97          2
    98          0
   103          0
   105          0
   107          1
   110        158
   111         16
   113         62
   114          5
   126          7
   127          2
   128          0