##TITLE=Library Entry 51712
##JCAMP-DX=Revision 4.10 
##DATA TYPE=MASS SPECTRUM
##SAMPLE DESCRIPTION=Chemical Concepts
##NAMES=HP
##CAS NAME=Cyclohexanone, 2,2-dimethyl-
##MOLFORM=C8H14O
##CAS REGISTRY NO=1193-47-1
##MP= -300
##BP= -300
##MW= 126
##$RETENTION INDEX=0
##$CONDENSED SPECTRUM=NO
##NPOINTS= 66
##XYDATA=(XY..XY) 1 
    26          6
    27         36
    30          1
    31          2
    33          3
    37          1
    38          8
    39         90
    40         19
    41        191
    42         67
    43         48
    44          5
    45          1
    50          6
    51         12
    52          3
    53         34
    54         19
    55        289
    56        232
    57         28
    58          0
    59          0
    61          1
    63          2
    65          5
    66          3
    67        133
    68         23
    69        311
    70         87
    71          7
    73          0
    74          1
    77         10
    78          4
    79          5
    80          3
    81         19
    82        999
    83        172
    84         44
    85          6
    91          5
    93         21
    94          1
    95         11
    96          2
    97         18
    98          9
   103          0
   106          0
   107          2
   108         10
   109          5
   110          2
   111         24
   112          1
   117          1
   120          1
   121          0
   123          0
   126        384
   127         35
   128          5