##TITLE=Library Entry 51561
##JCAMP-DX=Revision 4.10 
##DATA TYPE=MASS SPECTRUM
##SAMPLE DESCRIPTION=Chemical Concepts
##NAMES=HP
##CAS NAME=Cyclohexanol, 2,2-dimethyl-
##MOLFORM=C8H16O
##CAS REGISTRY NO=1193-46-0
##MP= -300
##BP= -300
##MW= 128
##$RETENTION INDEX=0
##$CONDENSED SPECTRUM=NO
##NPOINTS= 97
##XYDATA=(XY..XY) 1 
    26          7
    27        169
    28         24
    29        198
    30         14
    31         52
    36          1
    37          4
    38          6
    39        172
    40         38
    41        310
    42        100
    43        305
    44        180
    45        138
    46          5
    47          4
    48          4
    49         10
    50          5
    51         19
    52          8
    53         89
    54         78
    55        198
    56        280
    57        392
    58         68
    59         50
    60          8
    61          3
    62          4
    63          5
    64          3
    65         22
    66         99
    67        218
    68        142
    69        385
    70         77
    71        102
    72         53
    73         20
    74          3
    75          2
    76          3
    77         24
    78          8
    79         25
    80         16
    81        115
    82        999
    83        190
    84         86
    85        163
    86         32
    87         15
    88          3
    89          2
    90          2
    91         12
    92          3
    93         19
    95        456
    96         77
    97         26
    98          7
    99         12
   100         55
   101          3
   102          5
   103          2
   104          3
   105          4
   106          3
   107          4
   108          3
   109         27
   110        208
   111         48
   112          5
   113         91
   114          9
   115          2
   117          1
   119          1
   121          3
   122          2
   123          2
   124          2
   125          2
   126          7
   127          8
   128        358
   129         36
   130          4