##TITLE=Library Entry 109217
##JCAMP-DX=Revision 4.10 
##DATA TYPE=MASS SPECTRUM
##SAMPLE DESCRIPTION=J. MADSEN,DEP. ORG. CHEM.,TECH. UNIV. DENMARK,LYNGBY,DE
NMARK
##NAMES=HP
##CAS NAME=4-Aminothiophenol
##MOLFORM=C6H7NS
##CAS REGISTRY NO=1193-02-8
##MP= -300
##BP= -300
##MW= 125
##$RETENTION INDEX=0
##$CONDENSED SPECTRUM=NO
##NPOINTS= 52
##XYDATA=(XY..XY) 1 
    37          7
    38         17
    39         50
    40         34
    41         26
    42          9
    44          8
    45         47
    47          4
    50         11
    51         15
    52         37
    53         60
    54         29
    57          5
    58         10
    60         17
    61          9
    62         31
    63         81
    64         20
    65         63
    66         30
    67         11
    69         47
    70         26
    71         18
    72          6
    78          9
    79          9
    80        253
    81        140
    82          8
    84         21
    90          9
    91         22
    92         26
    93        208
    94         14
    95          8
    96         20
    97        110
    98         69
    99         23
   108         17
   110          5
   122          6
   123         16
   124        230
   125        999
   126         86
   127         45