##TITLE=Library Entry 59136
##JCAMP-DX=Revision 4.10 
##DATA TYPE=MASS SPECTRUM
##SAMPLE DESCRIPTION=E. Dziwinski, Inst. Heavy Org. Synth. Blachownia, Kedzi
erzyn-Kozle, Poland
##NAMES=HP
##CAS NAME=Butanedioic acid, decyl phenylmethyl ester
##MOLFORM=C21H32O4
##CAS REGISTRY NO=119450-18-9
##MP= -300
##BP= -300
##MW= 348
##$RETENTION INDEX=2550
##$CONDENSED SPECTRUM=NO
##NPOINTS= 53
##XYDATA=(XY..XY) 1 
    39        130
    41        470
    42        170
    43        790
    51         40
    55        500
    56        370
    57        740
    58        100
    63         20
    65        140
    67         70
    69        270
    70        170
    71        440
    72         70
    74        100
    75        100
    77         70
    79         70
    81         40
    82         70
    83        240
    84        100
    85        400
    89         30
    90         40
    91        999
    92        170
    97        130
    98         70
    99        100
   101        770
   102         70
   107        470
   108        200
   119        300
   120         20
   134         40
   140         40
   141        200
   154         40
   155         40
   156         40
   162        140
   180         10
   190         50
   191         10
   214         20
   241         80
   242         10
   320         10
   348         20