##TITLE=Library Entry 31776
##JCAMP-DX=Revision 4.10 
##DATA TYPE=MASS SPECTRUM
##SAMPLE DESCRIPTION=Chemical Concepts
##NAMES=HP
##CAS NAME=9-Nitro-1,2,7,8-tetrahydro-1,8-dioxa-2,7-dithia-3,6-diazabenzo[e]
pyrene-2,2,7,7-tetroxide
##MOLFORM=C14H5N3O8S2
##CAS REGISTRY NO=119428-87-4
##MP= -300
##BP= -300
##MW= 407
##$RETENTION INDEX=0
##$CONDENSED SPECTRUM=NO
##NPOINTS= 110
##XYDATA=(XY..XY) 1 
    36         14
    37         25
    38         53
    40        563
    41         60
    42         41
    44        710
    45         28
    46         62
    48        801
    50        152
    51        104
    52        158
    53         51
    54         12
    55         44
    56         11
    57         37
    61         28
    62         77
    64        999
    65         28
    66         37
    69         28
    70         24
    71         14
    74        362
    75        936
    76        177
    77        171
    78         62
    80        138
    81         11
    82         13
    83         13
    85         15
    86         37
    87         78
    89        384
    90         44
    91         69
    93         33
    97         25
    98        118
    99        298
   100        105
   101         84
   102         60
   103        201
   104         48
   105         35
   110         22
   111         20
   112         19
   113         24
   114         30
   115         19
   117        168
   118         16
   119         28
   123         34
   124         76
   125        149
   126         69
   127         74
   128         22
   129         81
   133         38
   138         29
   139         35
   140         15
   149         16
   150        123
   151        106
   152         45
   153         87
   154         15
   161        366
   162         25
   165         82
   166         20
   169         28
   171         18
   176         17
   177         97
   178         54
   179         33
   182         18
   193         28
   195         13
   197         25
   205         19
   221         38
   222          9
   223         10
   233         17
   234         44
   235         12
   249         32
   279        208
   280         26
   281         14
   283         12
   298          9
   343        112
   344         13
   362         10
   407        189
   408         28
   409          9