##TITLE=Library Entry 60792
##JCAMP-DX=Revision 4.10 
##DATA TYPE=MASS SPECTRUM
##SAMPLE DESCRIPTION=E. Dziwinski, Inst. Heavy Org. Synth. Blachownia, Kedzi
erzyn-Kozle, Poland
##NAMES=HP
##CAS NAME=Butanedioic acid, octyl phenylmethyl ester
##MOLFORM=C19H28O4
##CAS REGISTRY NO=119450-16-7
##MP= -300
##BP= -300
##MW= 320
##$RETENTION INDEX=2344
##$CONDENSED SPECTRUM=NO
##NPOINTS= 45
##XYDATA=(XY..XY) 1 
    39         80
    41        260
    42         90
    43        350
    51         40
    55        210
    56        200
    57        470
    58         30
    63         20
    65        100
    69        160
    70         60
    71        350
    73         40
    74        120
    75         90
    77         60
    78         30
    79         70
    82         20
    83         40
    84         30
    89         40
    90         60
    91        999
    92        120
   101        570
   102         40
   105         50
   107        530
   108        240
   112         50
   113        100
   118         20
   119         20
   162        100
   163         20
   186         30
   190         50
   191         10
   213         60
   214         10
   292         10
   320         20