##TITLE=Library Entry 61150
##JCAMP-DX=Revision 4.10 
##DATA TYPE=MASS SPECTRUM
##SAMPLE DESCRIPTION=E. Dziwinski, Inst. Heavy Org. Synth. Blachownia, Kedzi
erzyn-Kozle, Poland
##NAMES=HP
##CAS NAME=Butanedioic acid, methyl phenylmethyl ester
##MOLFORM=C12H14O4
##CAS REGISTRY NO=119450-11-2
##MP= -300
##BP= -300
##MW= 222
##$RETENTION INDEX=1636
##$CONDENSED SPECTRUM=NO
##NPOINTS= 33
##XYDATA=(XY..XY) 1 
    39         70
    41         30
    50         20
    51         40
    55        200
    56         90
    57         30
    59         80
    63         30
    65        140
    77         70
    78         60
    79         70
    87         40
    88         70
    89         50
    90         70
    91        999
    92        200
   107        400
   108         50
   115         50
   116         30
   121         10
   122         10
   148         30
   162         30
   163         30
   177         10
   190         10
   191         10
   194         40
   222         20