##TITLE=Library Entry 60789
##JCAMP-DX=Revision 4.10 
##DATA TYPE=MASS SPECTRUM
##SAMPLE DESCRIPTION=E. Dziwinski, Inst. Heavy Org. Synth. Blachownia, Kedzi
erzyn-Kozle, Poland
##NAMES=HP
##CAS NAME=Butanedioic acid, phenylmethyl propyl ester
##MOLFORM=C14H18O4
##CAS REGISTRY NO=119450-12-3
##MP= -300
##BP= -300
##MW= 250
##$RETENTION INDEX=1842
##$CONDENSED SPECTRUM=NO
##NPOINTS= 31
##XYDATA=(XY..XY) 1 
    39         50
    41        100
    42         30
    43        150
    51         50
    55         70
    56        130
    63         20
    65        120
    74        120
    75        110
    77         60
    79         60
    89         50
    90         80
    91        999
    92        100
   101        610
   102         30
   105         50
   106         30
   107        390
   108        100
   116         80
   143        260
   144         40
   162         80
   190         40
   191         20
   222         50
   250         50