##TITLE=Library Entry 15827
##JCAMP-DX=Revision 4.10 
##DATA TYPE=MASS SPECTRUM
##SAMPLE DESCRIPTION=ROCHAC, 51( ),711(1977); T. PLUCINSKI, ACADEMY OF SCIEN
CES OFTHE LATVIAN SSR, RIGA, USSR
##NAMES=HP
##CAS NAME=Ethanone, 1-(4-pyridinyl)-, oxime
##MOLFORM=C7H8N2O
##CAS REGISTRY NO=1194-99-6
##MP= -300
##BP= -300
##MW= 136
##$RETENTION INDEX=0
##$CONDENSED SPECTRUM=NO
##NPOINTS= 54
##XYDATA=(XY..XY) 1 
    40        480
    41         90
    42        100
    43         70
    44        999
    45         20
    49         30
    50        140
    51        240
    52        220
    53         40
    54         20
    55         20
    56         10
    57         20
    58         30
    63         10
    64         30
    65         60
    66         10
    67         40
    68         20
    69         20
    71         20
    75         40
    76         70
    77        170
    78        410
    79        540
    80         50
    81         10
    82         10
    83         10
    85         10
    91         30
    92         60
    93         40
    94         10
    95         40
   103         10
   104        270
   105        170
   106         40
   107         10
   108         30
   109         10
   118         20
   119        130
   120         70
   121         40
   122         20
   123         10
   136        300
   137         40