##TITLE=Library Entry 50194
##JCAMP-DX=Revision 4.10 
##DATA TYPE=MASS SPECTRUM
##SAMPLE DESCRIPTION=NIST Mass Spectrometry Data Center, 1990.
##NAMES=HP
##CAS NAME=Fenchone
##MOLFORM=C10H16O
##CAS REGISTRY NO=1195-79-5
##MP= -300
##BP= -300
##MW= 152
##$RETENTION INDEX=1096
##$CONDENSED SPECTRUM=NO
##NPOINTS= 44
##XYDATA=(XY..XY) 1 
    15          5
    26          5
    27         53
    28          9
    29         29
    32          1
    39        130
    40         30
    41        264
    42         36
    43         26
    50         11
    51         26
    52         15
    53         80
    54         15
    55         52
    56          6
    57          5
    63          8
    65         29
    66         12
    67        111
    68         61
    69        530
    70         42
    72         18
    77         39
    78         10
    79         79
    80        164
    81        999
    82         85
    83          6
    91         21
    93          8
    95         16
    96          3
   109         59
   110          5
   123          4
   137         19
   152        130
   153         13