##TITLE=Library Entry 52494
##JCAMP-DX=Revision 4.10 
##DATA TYPE=MASS SPECTRUM
##SAMPLE DESCRIPTION=Chemical Concepts
##NAMES=HP
##CAS NAME=Phosphine, dibromo-L-menthyl-
##MOLFORM=C10H19Br2P
##CAS REGISTRY NO=119512-37-7
##MP= -300
##BP= -300
##MW= 328
##$RETENTION INDEX=0
##$CONDENSED SPECTRUM=NO
##NPOINTS= 109
##XYDATA=(XY..XY) 1 
    26          1
    27         48
    28          6
    29         51
    30          1
    31          0
    36          1
    38          0
    39         40
    40         23
    41        183
    42          8
    43        128
    44          3
    45          3
    47          0
    50          1
    51          5
    52          3
    53         27
    54         17
    55        420
    56         19
    57        335
    58         13
    59          1
    61          0
    62          1
    63          1
    64          0
    65          9
    66          3
    67         58
    68         13
    69        294
    70         16
    71         41
    72          2
    73          1
    74          0
    75          0
    77         12
    78          2
    79         20
    80          6
    81        118
    82         14
    83        999
    84         67
    85          6
    86          0
    87          1
    89          0
    91          7
    92          1
    93          9
    94          4
    95         65
    96         10
    97        137
    98          9
    99          3
   100          0
   103          0
   105          0
   107          1
   109          3
   110          0
   111          1
   112          1
   113          3
   114          0
   115          0
   121          1
   122          0
   123          9
   124          1
   125          1
   127          1
   128          0
   137          6
   138          6
   139        376
   140         37
   141          1
   151          0
   153          1
   163          0
   165          0
   169          0
   170          0
   189          2
   191          5
   193          2
   195          0
   207          0
   217          0
   219          0
   249          0
   251          0
   315          0
   317          0
   327          0
   328         22
   329          3
   330         49
   331          5
   332         23
   333          2