##TITLE=Library Entry 3897
##JCAMP-DX=Revision 4.10 
##DATA TYPE=MASS SPECTRUM
##SAMPLE DESCRIPTION=D.HENNEBERG, MAX-PLANCK INSTITUTE, MULHEIM, WEST GERMAN
Y
##NAMES=HP
##CAS NAME=1,1-Cyclopropanedicarbonitrile, 2,2,3,3-tetramethyl-
##MOLFORM=C9H12N2
##CAS REGISTRY NO=1195-70-6
##MP= -300
##BP= -300
##MW= 148
##$RETENTION INDEX=0
##$CONDENSED SPECTRUM=NO
##NPOINTS= 103
##XYDATA=(XY..XY) 1 
    21          0
    23          1
    24          2
    25          3
    26         45
    27        383
    28        202
    29        123
    30        134
    31          2
    32          1
    33          2
    34          2
    35          6
    36          3
    37         48
    38         87
    39        783
    40        184
    41        999
    42        617
    43        602
    44         16
    45          0
    46          1
    47          1
    48          1
    49          5
    50         34
    51         78
    52         75
    53        144
    54         30
    55        127
    56        290
    57         57
    58          4
    59         10
    60          2
    61          3
    62         11
    63         40
    64         62
    65         59
    66        105
    67         50
    68         15
    69         89
    70          8
    73          0
    74          1
    75         23
    76         23
    77         99
    78         53
    79        359
    80         53
    81         28
    82         10
    83         44
    84         32
    85          8
    86          1
    87          1
    88          2
    89         10
    90         12
    91         24
    92         31
    93         30
    94          9
    95          0
    99          0
   100          1
   102          2
   103          5
   104         58
   105         56
   106        785
   107        265
   108         22
   109          0
   112          0
   115          1
   116         37
   117         15
   118        306
   119         37
   120         16
   121         21
   122          2
   124          0
   128          1
   129          1
   130          3
   131         23
   132         34
   133        702
   134         62
   135          2
   147          8
   148         81
   149          9