##TITLE=Library Entry 68067
##JCAMP-DX=Revision 4.10 
##DATA TYPE=MASS SPECTRUM
##SAMPLE DESCRIPTION=G.VON BUNAU MAX-PLANCK-INST., MULHEIM-RHUR, GERMANY, FR
G
##NAMES=HP
##CAS NAME=Cyclohexene, 1-methyl-4-(1-methylethyl)-, (R)-
##MOLFORM=C10H18
##CAS REGISTRY NO=1195-31-9
##MP= -300
##BP= -300
##MW= 138
##$RETENTION INDEX=0
##$CONDENSED SPECTRUM=NO
##NPOINTS= 49
##XYDATA=(XY..XY) 1 
    27        127
    29         76
    39        125
    40         34
    41        245
    42         34
    43         76
    51         36
    52         24
    53        117
    54         22
    55        248
    56         24
    57         24
    63         17
    65         44
    66         66
    67        378
    68        606
    69        176
    70         44
    77         88
    78         27
    79        130
    80         56
    81        287
    82        176
    83         56
    91         66
    92         34
    93        125
    94        125
    95        999
    96        216
    97         63
   105         17
   107         31
   109         44
   110         24
   111         17
   119         14
   121         34
   123        164
   124         24
   136         54
   137         14
   138        366
   139         44
   140         24