##TITLE=Library Entry 8366
##JCAMP-DX=Revision 4.10 
##DATA TYPE=MASS SPECTRUM
##SAMPLE DESCRIPTION=Chemical Concepts
##NAMES=HP
##CAS NAME=7-Oxabicyclo[4.1.0]heptane, 1-methyl-4-(1-methylethenyl)-
##MOLFORM=C10H16O
##CAS REGISTRY NO=1195-92-2
##MP= -300
##BP= -300
##MW= 152
##$RETENTION INDEX=1133
##$CONDENSED SPECTRUM=NO
##NPOINTS= 86
##XYDATA=(XY..XY) 1 
    26          7
    27        185
    28         41
    29        108
    30          4
    31         11
    38          9
    39        246
    40         57
    41        434
    42         42
    43        999
    44        150
    45         28
    50          8
    51         37
    52         14
    53        135
    54         43
    55        208
    56         30
    57         20
    58         19
    59         15
    62          2
    63         10
    64          1
    65         41
    66         28
    67        578
    68        116
    69         82
    70         14
    71        251
    72         14
    73          1
    74          1
    77         77
    78         23
    79        271
    80         40
    81        220
    82        209
    83         73
    84         83
    85         10
    89          1
    90          1
    91         96
    92         36
    93        287
    94        116
    95        128
    96         31
    97         31
    98          4
   103          5
   104          1
   105         36
   106         14
   107         52
   108        171
   109        281
   110         71
   111         17
   112          1
   115          3
   116          1
   117          6
   119         92
   120         10
   121         44
   122          3
   123         92
   124         32
   125          2
   133          2
   134         28
   135          7
   136          4
   137        222
   138         24
   139          4
   151          3
   152         38
   153          5