##TITLE=Library Entry 65031
##JCAMP-DX=Revision 4.10 
##DATA TYPE=MASS SPECTRUM
##SAMPLE DESCRIPTION=Humboldt-Universitat zu Berlin, Department of Chemistry
, Analytical Group
##NAMES=HP
##CAS NAME=Benzenecarbohydrazonic acid, N-phenyl-, 3-methylphenyl ester
##MOLFORM=C20H18N2O
##CAS REGISTRY NO=119553-08-1
##MP= -300
##BP= -300
##MW= 302
##$RETENTION INDEX=0
##$CONDENSED SPECTRUM=NO
##NPOINTS= 147
##XYDATA=(XY..XY) 1 
    12          1
    13          0
    14          1
    15          3
    16          1
    17          1
    18          4
    25          0
    26          7
    27         49
    28         16
    29          4
    30          0
    31          0
    37          7
    38         33
    39        250
    40         23
    41         40
    42          3
    43          2
    44          0
    45          0
    50         40
    51        134
    52         57
    53         38
    54          4
    55          4
    56          0
    57          1
    61          2
    62         12
    63         75
    64        123
    65        529
    66         40
    67          5
    68          1
    69          1
    70          0
    71          0
    74          6
    75         10
    76         36
    77        303
    78         55
    79         56
    80         19
    81          2
    82          0
    84          0
    85          0
    86          1
    87          1
    88          2
    89         15
    91        306
    92        999
    93         83
    94          5
    95          1
    96          5
    97          0
    99          0
   100          0
   101          0
   102          2
   103         16
   104         21
   105         78
   106          9
   107         58
   108         49
   109          4
   110          0
   113          0
   114          0
   115          3
   116          1
   117          1
   118          1
   119          1
   120          0
   121          0
   126          0
   127          1
   128          3
   129          3
   130          3
   131          0
   133          0
   138          0
   139          1
   140          1
   141          1
   142          0
   143          1
   144          0
   149          0
   150          0
   151          2
   152          3
   153          1
   154          2
   155          1
   156          5
   157          0
   163          0
   164          0
   165          4
   166          3
   167          7
   168          3
   169          1
   170          8
   171          2
   172          0
   177          0
   178          0
   179          0
   180          2
   181          1
   182          1
   183          2
   184          1
   185          0
   190          0
   191          0
   192          0
   193          5
   194         39
   195         84
   196         12
   197         28
   198          5
   199          0
   207          0
   208          1
   209          2
   210          2
   211          2
   212          0
   302         47
   303         11
   304          1
   305          0