##TITLE=Library Entry 7994
##JCAMP-DX=Revision 4.10 
##DATA TYPE=MASS SPECTRUM
##SAMPLE DESCRIPTION=S K.-T. Yu et al. RI and mass spectra of PFP and HFB es
ters of carboxylic acid, Nat Inst for Petroleum and Energy Research, 1990
##NAMES=HP
##CAS NAME=Hexadecanoic acid, 2,2,2-trifluoroethyl ester
##MOLFORM=C18H33F3O2
##CAS REGISTRY NO=119596-14-4
##MP= -300
##BP= -300
##MW= 338
##$RETENTION INDEX=0
##$CONDENSED SPECTRUM=NO
##NPOINTS= 107
##XYDATA=(XY..XY) 1 
    36         12
    39         80
    40         23
    41        576
    42        155
    43        999
    44         44
    45         13
    47         13
    50         10
    52         36
    53         19
    54         51
    55        593
    56        139
    57        648
    58         39
    59         11
    61         11
    63         10
    64         11
    65         10
    66         10
    67         59
    68         59
    69        324
    70         76
    71        300
    72         20
    77         19
    79         19
    80         18
    81         51
    82         46
    83        286
    84         95
    85        176
    86         18
    91         10
    93         14
    95         38
    97        134
    98         71
    99         53
   100         10
   107         12
   109         19
   110         20
   111         55
   112         24
   113         44
   121         15
   122         39
   123         19
   124         15
   125         27
   126         13
   127         77
   135         61
   136         12
   137         10
   138         13
   139         19
   140         12
   141         39
   142        638
   143        166
   144         15
   149         11
   152         13
   153         15
   155        470
   156         53
   157          9
   166         12
   168         10
   169         73
   170         16
   183         34
   184         19
   194         33
   195         11
   196         10
   197         62
   198         37
   211        140
   212         21
   220         10
   225         19
   226         10
   239         94
   240         24
   253         37
   254          7
   267         28
   268          6
   281         15
   282          5
   295         70
   296         13
   309         16
   310          5
   319         20
   320          5
   338        209
   339         57
   340          9