##TITLE=Library Entry 18263
##JCAMP-DX=Revision 4.10 
##DATA TYPE=MASS SPECTRUM
##SAMPLE DESCRIPTION=Chemical Concepts
##NAMES=HP
##CAS NAME=Chromium, tetracarbonylbis(.eta.2-ethene)-
##MOLFORM=C8H8CrO4
##CAS REGISTRY NO=119565-13-8
##MP= -300
##BP= -300
##MW= 220
##$RETENTION INDEX=0
##$CONDENSED SPECTRUM=NO
##NPOINTS= 105
##XYDATA=(XY..XY) 1 
    26        398
    27        404
    28        980
    29         17
    30          2
    36          0
    37          1
    38          1
    39          6
    40         21
    41          8
    42          6
    43          9
    44          1
    46          0
    49          0
    50         46
    51          3
    52        999
    53        173
    54         46
    55          2
    56          0
    57          1
    58          0
    61          0
    62          1
    63          0
    64         20
    65         23
    66         16
    67          4
    68         22
    69          1
    70          1
    71          0
    72          2
    74          0
    75          6
    76         14
    77        100
    78         98
    79         69
    80        943
    81        125
    82         31
    83          1
    84          0
    88          0
    89          2
    90          1
    91          1
    92          5
    93          2
    94          0
    95          0
    96          0
    98          1
    99          0
   103          0
   104          0
   105          1
   106         24
   107          8
   108        392
   109         73
   110         17
   111          0
   112          0
   123          0
   126          0
   128          0
   132          0
   133          0
   134         15
   136        256
   137         43
   138          9
   139          0
   140          0
   150          0
   154          0
   160          0
   161          0
   162          6
   164        108
   165         23
   166          5
   167          0
   182          0
   187          0
   188          0
   189          0
   190          6
   192        107
   193         17
   194          3
   195          0
   207          0
   216          1
   218          6
   220        102
   221         26
   222          6
   223          0