##TITLE=Library Entry 11995
##JCAMP-DX=Revision 4.10 
##DATA TYPE=MASS SPECTRUM
##SAMPLE DESCRIPTION=MASS SPECTROMETRY CENTER, UNIV. OF UTAH ALDRICH A01660-
2
##NAMES=HP
##CAS NAME=Citiolone
##MOLFORM=C6H9NO2S
##CAS REGISTRY NO=1195-16-0
##MP= -300
##BP= -300
##MW= 159
##$RETENTION INDEX=0
##$CONDENSED SPECTRUM=NO
##NPOINTS= 67
##XYDATA=(XY..XY) 1 
    12          1
    13          8
    14          4
    15        202
    25          4
    26         33
    27        115
    28        170
    29         53
    30         62
    33         14
    34         11
    35         12
    37          9
    38         17
    39         44
    40         13
    41         59
    42        117
    43        999
    44        113
    45         96
    46         29
    47         30
    50          0
    52         13
    53          6
    54         34
    55         33
    56        548
    57        185
    58         32
    59         27
    60         36
    61        396
    62         13
    63         22
    69          6
    70          1
    71         14
    72         23
    73         13
    74          1
    75         11
    76          4
    84          5
    85         30
    86          8
    88        288
    89        126
    90         22
    91          9
    98         40
    99         15
   100          5
   101          3
   103        122
   104          7
   105          7
   112         13
   116         10
   117          5
   131        564
   132         59
   133         40
   159         26
   160          1