##TITLE=Library Entry 22592
##JCAMP-DX=Revision 4.10 
##DATA TYPE=MASS SPECTRUM
##SAMPLE DESCRIPTION=NIST Mass Spectrometry Data Center, 1990.
##NAMES=HP
##CAS NAME=2,2,6,6,-Tetramethylcyclohexanone
##MOLFORM=C10H18O
##CAS REGISTRY NO=1195-93-3
##MP= -300
##BP= -300
##MW= 154
##$RETENTION INDEX=0
##$CONDENSED SPECTRUM=NO
##NPOINTS= 40
##XYDATA=(XY..XY) 1 
    15         13
    27        138
    28         55
    29        122
    32          4
    39        316
    40         91
    41        785
    42        210
    43        117
    50         15
    51         31
    52         19
    53        124
    54         15
    55        785
    56        999
    57        213
    63         10
    65         26
    67        159
    69        724
    70        463
    71         62
    72        464
    73         20
    77         21
    79         23
    82        873
    83        870
    84         81
    85         10
    91         11
    95          9
    97         12
    98         25
   111         42
   136         11
   154        245
   155         27