##TITLE=Library Entry 61164
##JCAMP-DX=Revision 4.10 
##DATA TYPE=MASS SPECTRUM
##SAMPLE DESCRIPTION=LAC, NIDDK, NIH, Bethesda, MD 20892
##NAMES=HP
##CAS NAME=Propanedioic iacid, 2-(N-benzylamino)-, dimethyl ester
##MOLFORM=C12H15NO4
##CAS REGISTRY NO=119506-92-2
##MP= -300
##BP= -300
##MW= 237
##$RETENTION INDEX=0
##$CONDENSED SPECTRUM=NO
##NPOINTS= 78
##XYDATA=(XY..XY) 1 
    41         30
    42         38
    43          9
    44         15
    45         24
    47          4
    49         12
    50         13
    51         43
    52         12
    53          5
    54          1
    55          6
    56          4
    57          4
    59         84
    60         14
    62          6
    63         30
    65        164
    66          7
    67          0
    69         13
    70          5
    71          0
    72          0
    74         12
    75          3
    77         52
    78          9
    79         69
    80          6
    82          0
    83          6
    84          2
    86          5
    87          4
    88         44
    89         38
    91        999
    92         72
    93          2
   100         15
   101          3
   102          4
   103          1
   104          1
   105         10
   106         78
   107        405
   108         28
   109          2
   110          1
   114          3
   115         17
   116          2
   117          3
   118          3
   119          0
   121          1
   122          0
   132         15
   133          1
   146         17
   147          1
   148          0
   160          0
   162          0
   174          1
   178          6
   179          1
   180          1
   181          3
   207          1
   222          2
   223          1
   237          3
   238          0