##TITLE=Library Entry 70912
##JCAMP-DX=Revision 4.10 
##DATA TYPE=MASS SPECTRUM
##SAMPLE DESCRIPTION=Japan AIST/NIMC Database- Spectrum MS-NW-8585
##NAMES=HP
##CAS NAME=N-Isopropylcyclohexylamine
##MOLFORM=C9H19N
##CAS REGISTRY NO=1195-42-2
##MP= -300
##BP= -300
##MW= 141
##$RETENTION INDEX=1022
##$CONDENSED SPECTRUM=NO
##NPOINTS= 66
##XYDATA=(XY..XY) 1 
    15          8
    26          2
    27         57
    28         61
    29         35
    30         52
    31          1
    38          1
    39         46
    40          7
    41        141
    42         54
    43         97
    44        510
    45         13
    50          1
    51          3
    52          3
    53         18
    54         23
    55        119
    56        364
    57         24
    58         59
    59          3
    60          2
    63          1
    65          3
    66          2
    67         13
    68         12
    69          9
    70        167
    71         12
    72         18
    73          3
    77          5
    78          1
    79         10
    80          4
    81         23
    82         17
    83         31
    84         37
    85         59
    86          3
    91          1
    94          2
    96          9
    97          3
    98        999
    99         73
   100          3
   110          3
   111          1
   112         32
   113          4
   124          3
   125          1
   126        321
   127         29
   128          1
   140         15
   141        147
   142         20
   143          1