##TITLE=Library Entry 84200
##JCAMP-DX=Revision 4.10 
##DATA TYPE=MASS SPECTRUM
##SAMPLE DESCRIPTION=NIST Mass Spectrometry Data Center, 1998.
##NAMES=HP
##CAS NAME=Bicyclo[3.1.1]hept-3-en-2-one, 4,6,6-trimethyl-, (1S)-
##MOLFORM=C10H14O
##CAS REGISTRY NO=1196-01-6
##MP= -300
##BP= -300
##MW= 150
##$RETENTION INDEX=1204
##$CONDENSED SPECTRUM=NO
##NPOINTS= 102
##XYDATA=(XY..XY) 1 
    14          1
    15          6
    26          9
    27        136
    28         14
    29         61
    30          1
    37          7
    38         29
    39        323
    40         57
    41        272
    42         28
    43         71
    44          2
    45          3
    46          3
    49          2
    50         46
    51        119
    52         59
    53        163
    54         44
    55        180
    56         17
    57          6
    58          4
    59          5
    60          2
    61          4
    62         15
    63         46
    64         11
    65        139
    66         63
    67        181
    68         18
    69         57
    70         76
    71          7
    72          1
    73          1
    74          8
    75          6
    76          5
    77        231
    78         53
    79        404
    80        416
    81         79
    82        121
    83         34
    84          2
    85          1
    86          2
    87          2
    89          9
    90         14
    91        629
    92         90
    93         98
    94         71
    95        138
    96         42
    97          3
    98          1
   102          3
   103         22
   104          6
   105        216
   106         37
   107        999
   108        268
   109        137
   110         13
   111          1
   115         47
   116         13
   117         39
   118          5
   119         11
   120          9
   121         69
   122        154
   123         30
   124          2
   128          1
   129          2
   131          5
   132          5
   133          9
   134          1
   135        650
   136         64
   137          4
   145          1
   146          1
   148          1
   149         28
   150        348
   151         38
   152          3