##TITLE=Library Entry 98572
##JCAMP-DX=Revision 4.10 
##DATA TYPE=MASS SPECTRUM
##SAMPLE DESCRIPTION=Japan AIST/NIMC Database- Spectrum MS-NW-8283
##NAMES=HP
##CAS NAME=2(1H)-Quinoxalinone
##MOLFORM=C8H6N2O
##CAS REGISTRY NO=1196-57-2
##MP= -300
##BP= -300
##MW= 146
##$RETENTION INDEX=0
##$CONDENSED SPECTRUM=NO
##NPOINTS= 76
##XYDATA=(XY..XY) 1 
    14          2
    15          1
    16          1
    25          1
    26         10
    27         16
    28         53
    29          4
    31          4
    32          3
    36          3
    37         54
    38         89
    39        100
    40         23
    41         47
    42          4
    43          2
    44         16
    45         30
    46          2
    48          1
    49          9
    50         82
    51         49
    52         89
    53          8
    54          4
    55          1
    56          2
    58          4
    59         62
    60          4
    61         29
    62         65
    63        226
    64        242
    65         58
    66          9
    67          6
    68          2
    73          9
    74         22
    75         27
    76         51
    77         11
    78         16
    79          2
    80          1
    86          3
    87          7
    88         12
    89         11
    90        137
    91        462
    92         45
    93          2
    96          2
    99          1
   100          1
   101          1
   102          4
   103          4
   104          2
   105          2
   108          1
   116          3
   117         42
   118        999
   119         89
   120          4
   131          3
   145          9
   146        871
   147         85
   148          8