##TITLE=Library Entry 34312
##JCAMP-DX=Revision 4.10 
##DATA TYPE=MASS SPECTRUM
##SAMPLE DESCRIPTION=Chemical Concepts
##NAMES=HP
##CAS NAME=1,3-Dioxan-4-one, 2-(1,1-dimethylethyl)-5-(1-hydroxyethyl)-6-meth
yl-, [2R-[2.alpha.,5.alpha.(S*),6.alpha.]]-
##MOLFORM=C11H20O4
##CAS REGISTRY NO=119620-06-3
##MP= -300
##BP= -300
##MW= 216
##$RETENTION INDEX=0
##$CONDENSED SPECTRUM=NO
##NPOINTS= 46
##XYDATA=(XY..XY) 1 
    26         20
    27        247
    28         24
    29        260
    31         36
    37         12
    38         28
    39        371
    40         58
    41        830
    42         82
    43        427
    44         25
    45        556
    46         10
    50          8
    51         17
    53         69
    55         54
    56         16
    57        399
    59         13
    67         66
    68         62
    69        999
    70         60
    71        793
    72         39
    73         13
    85         61
    86        304
    87        360
    88         17
    95        105
   100         13
   111         12
   113        668
   114         41
   115         15
   131          3
   141         20
   159        154
   160         10
   201          4
   215          1
   217          1