##TITLE=Library Entry 114101
##JCAMP-DX=Revision 4.10 
##DATA TYPE=MASS SPECTRUM
##SAMPLE DESCRIPTION=Richard Turcotte. Direction des laboratoires d'expertis
es et d'analyses alimentaires, Quebec, Canada.
##NAMES=HP
##CAS NAME=FENBUCONAZOLE
##MOLFORM=C19H17ClN4
##CAS REGISTRY NO=119611-00-6
##MP= -300
##BP= -300
##MW= 336
##$RETENTION INDEX=0
##$CONDENSED SPECTRUM=NO
##NPOINTS= 107
##XYDATA=(XY..XY) 1 
    41          7
    42          4
    43         79
    50          7
    51         32
    52          4
    53         10
    54          4
    55         82
    56         10
    57          4
    58         38
    62          7
    63         23
    64          9
    65          4
    70          4
    73          9
    74          9
    75         10
    76          6
    77         67
    78         18
    79          3
    81          3
    82         73
    83         12
    87          4
    88          9
    89         70
    90         32
    91         23
    92          3
    98          3
    99         21
   101         22
   102         49
   103        112
   104         17
   111          5
   112          4
   114          4
   115         18
   116         22
   117         11
   118          3
   125        341
   126         32
   127        112
   128         44
   129        999
   130        100
   131          6
   133          6
   135          5
   136          6
   137          6
   138         59
   139         15
   140         42
   141          5
   142          9
   143          4
   145          7
   146          4
   147          8
   148          4
   149          7
   153          3
   156          7
   157          3
   158          3
   161          3
   164          3
   165          7
   166          3
   176          4
   177          6
   184          4
   186          9
   189          7
   190          4
   191          7
   192          4
   193          6
   195          3
   198        407
   199         52
   200          5
   202          6
   203          8
   205          4
   206          3
   208          5
   209         10
   211         48
   212          9
   217          6
   221          3
   249          4
   253         11
   255          9
   267          5
   268          4
   269         21
   270          6
   271          6