##TITLE=Library Entry 17278
##JCAMP-DX=Revision 4.10 
##DATA TYPE=MASS SPECTRUM
##SAMPLE DESCRIPTION=Chemical Concepts
##NAMES=HP
##CAS NAME=2,3-Butanediol, 1,4-dimethoxy-
##MOLFORM=C6H14O4
##CAS REGISTRY NO=119613-19-3
##MP= -300
##BP= -300
##MW= 150
##$RETENTION INDEX=0
##$CONDENSED SPECTRUM=NO
##NPOINTS= 78
##XYDATA=(XY..XY) 1 
    25          1
    26         13
    27         48
    28         30
    29        123
    30         14
    31        101
    32         17
    33         99
    34          0
    37          1
    38          2
    39         22
    40          3
    41         27
    42         26
    43        174
    44        194
    45        999
    46         24
    47         13
    49          0
    50          3
    51          3
    52          2
    53          8
    54          9
    55         18
    56         14
    57         35
    58         17
    59         37
    60         26
    61         11
    62          0
    63          0
    65          0
    67          1
    68          1
    69         10
    70          5
    71         21
    72          8
    73         25
    74         46
    75        393
    76         48
    77          4
    78          0
    79          0
    80          1
    81          1
    82          1
    83          3
    84          4
    85          6
    86          8
    87        138
    88         33
    89         77
    90          4
    91          2
    95          1
    97          0
    99          0
   100          2
   101          1
   103          0
   105        142
   106          7
   107         14
   108          1
   109          1
   111          1
   115          3
   116          1
   118         23
   119          2