##TITLE=Library Entry 61665
##JCAMP-DX=Revision 4.10 
##DATA TYPE=MASS SPECTRUM
##SAMPLE DESCRIPTION=Japan AIST/NIMC Database- Spectrum MS-NW-5190
##NAMES=HP
##CAS NAME=Benzene, (1-ethylpropyl)-
##MOLFORM=C11H16
##CAS REGISTRY NO=1196-58-3
##MP= -300
##BP= -300
##MW= 148
##$RETENTION INDEX=1076
##$CONDENSED SPECTRUM=NO
##NPOINTS= 73
##XYDATA=(XY..XY) 1 
    15          2
    26          3
    27         36
    28          3
    29         21
    37          1
    38          4
    39         59
    40          5
    41        125
    42          6
    43          4
    49          1
    50         14
    51         46
    52         12
    53         10
    54          1
    55          7
    56          1
    57          3
    58          1
    61          2
    62          6
    63         19
    64          6
    65         43
    66          3
    67          2
    69          2
    70          1
    73          1
    74          5
    75          6
    76          7
    77         58
    78         32
    79         29
    80          2
    86          1
    87          3
    88          1
    89         12
    90          5
    91        999
    92         79
    93          3
   101          2
   102          9
   103         30
   104         29
   105         18
   106          2
   113          1
   114          1
   115         44
   116         11
   117         64
   118         21
   119        550
   120         55
   121          3
   127          1
   128          3
   129          2
   131          3
   132          1
   145          1
   146          9
   147          2
   148        211
   149         27
   150          2