##TITLE=Library Entry 48919
##JCAMP-DX=Revision 4.10 
##DATA TYPE=MASS SPECTRUM
##SAMPLE DESCRIPTION=V.Zaikin,Topchiev Inst.Petrochem.Synth.,Moscow
##NAMES=HP
##CAS NAME=Bicyclo[6.1.0]nonane, 9,9-dibromo-,
##MOLFORM=C9H14Br2
##CAS REGISTRY NO=1196-95-8
##MP= -300
##BP= -300
##MW= 280
##$RETENTION INDEX=0
##$CONDENSED SPECTRUM=NO
##NPOINTS= 163
##XYDATA=(XY..XY) 1 
    24          2
    25          7
    26         41
    27        165
    28         49
    29         84
    30          2
    35          2
    36          7
    37         17
    38         50
    39        459
    40         81
    41        474
    42         63
    43         49
    44          2
    45          6
    46          2
    48          2
    49         12
    50         93
    51        243
    52        122
    53        253
    54        274
    55        439
    56         29
    57         13
    58          8
    59          2
    60          1
    61          9
    62         28
    63         85
    64         24
    65        383
    66        227
    67        653
    68        221
    69         70
    70         10
    73          3
    74         15
    75         10
    76         10
    77        429
    78        150
    79        999
    80        279
    81        795
    82        138
    83         51
    84          3
    85          3
    86          4
    87          5
    89         19
    90          8
    91        353
    92        114
    93        572
    94         90
    95        148
    96        604
    97         51
    98          3
   101          1
   102          4
   103         17
   104         18
   105         99
   106         32
   107         71
   108          8
   109         42
   110          5
   115         15
   116          5
   117         63
   118         12
   119        126
   120         26
   121        646
   122         86
   123         15
   128          1
   129          5
   130          7
   131        133
   132         26
   133        156
   134         23
   135         29
   136          2
   143         20
   144         39
   145         70
   146         46
   147         52
   148         10
   149          5
   156          2
   157         13
   158         10
   159         79
   160         13
   161         65
   162          8
   166          2
   168          3
   169          2
   170          5
   171         17
   172         16
   173         28
   174         13
   175         13
   176          3
   184         13
   185          3
   186         29
   187          4
   188         13
   195          1
   197         80
   198          7
   199        149
   200         10
   201        120
   202         11
   203         41
   204          4
   210        322
   211         21
   212        630
   213         40
   214        307
   215         20
   223          6
   224          6
   225         13
   226         12
   227          7
   228          7
   237          4
   238          3
   239          7
   240          5
   241          4
   242          2
   251          5
   252          2
   253         10
   254          2
   255          4
   256          2
   280         95
   281         10
   282        179
   283         19
   284         88
   285          8