##TITLE=Library Entry 90283
##JCAMP-DX=Revision 4.10 
##DATA TYPE=MASS SPECTRUM
##SAMPLE DESCRIPTION=Chemical Concepts
##NAMES=HP
##CAS NAME=1,3-Dioxacyclohex-4-en-6-one, 2-t-butyl-5-(1-hydroxyethyl)-4-meth
yl-
##MOLFORM=C11H18O4
##CAS REGISTRY NO=119619-88-4
##MP= -300
##BP= -300
##MW= 214
##$RETENTION INDEX=0
##$CONDENSED SPECTRUM=NO
##NPOINTS= 87
##XYDATA=(XY..XY) 1 
    26         13
    27        163
    28         21
    29        195
    30          4
    31         26
    37          6
    38         21
    39        233
    40         52
    41        373
    42         47
    43        991
    44         31
    45        199
    46          4
    50          7
    51         12
    52          2
    53         31
    54         11
    55         45
    56         11
    57        240
    58         11
    59          3
    61          2
    62          1
    63          2
    64          1
    65          7
    66          9
    67        163
    68         94
    69        397
    70         29
    71        363
    72         16
    73          3
    79          1
    80          0
    81          2
    82        206
    83         22
    84        131
    85        268
    86         40
    87        186
    88          9
    95          3
    96          2
    97          3
    98          3
    99          7
   100        991
   101         63
   102          5
   104          1
   109          1
   110        124
   111        856
   112         64
   113        999
   114         59
   115          9
   124          2
   127         46
   128        196
   129        256
   130         18
   131          4
   139          2
   140          0
   141          3
   142          1
   143          0
   155          4
   157        142
   158         10
   159          4
   181          3
   197          2
   199        231
   200         26
   201          3
   214          5
   215          0