##TITLE=Library Entry 68768
##JCAMP-DX=Revision 4.10 
##DATA TYPE=MASS SPECTRUM
##SAMPLE DESCRIPTION=Chemical Concepts
##NAMES=HP
##CAS NAME=2-Pyridinecarboxamide, 3-hydroxy-N-methyl-
##MOLFORM=C7H8N2O2
##CAS REGISTRY NO=1196-30-1
##MP= -300
##BP= -300
##MW= 152
##$RETENTION INDEX=0
##$CONDENSED SPECTRUM=NO
##NPOINTS= 124
##XYDATA=(XY..XY) 1 
    25          1
    26         10
    27         20
    28         60
    29         13
    30        101
    31          7
    33          0
    36          1
    37         24
    38         78
    39        283
    40         49
    41         55
    42         13
    43         20
    44         26
    45          1
    49          3
    50         12
    51         15
    52         17
    53         12
    54         20
    55         19
    56          9
    57         27
    58         96
    59          5
    60          1
    61          1
    62          1
    63          6
    64         29
    65         47
    66        125
    67        244
    68         24
    69         12
    70          6
    71         12
    72          1
    73          0
    74          1
    75          4
    76         11
    77          7
    78         12
    79         14
    80          4
    81          7
    82          4
    83          9
    84          4
    85          8
    86          1
    87          0
    88          1
    89          0
    90          0
    91          4
    92          4
    93        102
    94        307
    95        999
    96         69
    97          9
    98          2
    99          2
   100          0
   101          0
   102          0
   103          1
   104          1
   105          2
   106          9
   107          2
   108          1
   109         58
   110          6
   111          5
   112          1
   113          1
   115          3
   116          0
   117          1
   118          1
   119          1
   120          5
   121          6
   122         60
   123        321
   124         36
   125          3
   126          0
   127          1
   128          1
   129          1
   130          0
   131          0
   132          1
   133          1
   134          3
   135        271
   136         23
   137          2
   138          3
   139          1
   140          1
   141          5
   142          1
   143          0
   144          1
   145          1
   146          0
   147          1
   148          0
   149          3
   150          0
   151          1
   152        499
   153         53
   154          4
   155          2