##TITLE=Library Entry 54269
##JCAMP-DX=Revision 4.10 
##DATA TYPE=MASS SPECTRUM
##SAMPLE DESCRIPTION=N.W. Davies, Centr. Sci. Lab., Univ. Tasmania, Hobart,
 Australia
##NAMES=HP
##CAS NAME=2-Cyclohexen-1-ol, 2-methyl-5-(1-methylethenyl)-, cis-
##MOLFORM=C10H16O
##CAS REGISTRY NO=1197-06-4
##MP= -300
##BP= -300
##MW= 152
##$RETENTION INDEX=1229
##$CONDENSED SPECTRUM=NO
##NPOINTS= 83
##XYDATA=(XY..XY) 1 
    26         11
    27        232
    29        131
    31         36
    33         15
    36         14
    38         29
    39        370
    40        105
    41        502
    42         33
    43        282
    44         72
    45         73
    50         51
    51        159
    52         58
    53        204
    54         68
    55        385
    56        132
    57         24
    58         36
    59         39
    61         30
    62         24
    63         64
    64         24
    65        111
    66         61
    67        160
    68         76
    69        264
    70         33
    71         25
    72         41
    73         29
    74         27
    76         18
    77        336
    78         81
    79        474
    80        269
    81        210
    82        142
    83        354
    84        999
    85         41
    86         14
    87         19
    89         41
    90         40
    91        370
    92        213
    93        281
    94        196
    95        163
    96         51
    97         69
   103         44
   104         26
   105        131
   106         61
   107        257
   108        348
   109        474
   110         61
   111         24
   115         26
   117         66
   118         14
   119        395
   120         47
   121         18
   122         18
   123        102
   124         19
   132         27
   133         26
   134        652
   135         74
   137         94
   152         49