##TITLE=Library Entry 62377
##JCAMP-DX=Revision 4.10 
##DATA TYPE=MASS SPECTRUM
##SAMPLE DESCRIPTION=Exported from NIST MS Search
##NAMES=HP
##CAS NAME=Furan, 2,2'-methylenebis-
##MOLFORM=C9H8O2
##CAS REGISTRY NO=1197-40-6
##MP= -300
##BP= -300
##MW= 148
##$RETENTION INDEX=1088
##$CONDENSED SPECTRUM=NO
##NPOINTS= 56
##XYDATA=(XY..XY) 1 
    15         16
    25         16
    26         63
    27        311
    28         33
    29        166
    36         27
    37        133
    38        236
    39        461
    40         50
    41         55
    42         27
    43         16
    45         16
    46         27
    49         22
    50        130
    51        216
    52        122
    53        230
    54         22
    55         55
    61         16
    62         22
    63         55
    64        133
    65         36
    66        216
    67         69
    68         22
    69         69
    74         33
    75         19
    77         27
    78         27
    79         27
    80         16
    81        150
    82         22
    89         61
    90         55
    91        999
    92        150
    93         16
    94        172
    95         19
   105         27
   118         27
   119        155
   120        194
   121         22
   131         22
   147        166
   148        683
   149         72