##TITLE=Library Entry 87018
##JCAMP-DX=Revision 4.10 
##DATA TYPE=MASS SPECTRUM
##SAMPLE DESCRIPTION=D.HENNEBERG, MAX-PLANCK INSTITUTE, MULHEIM, WEST GERMAN
Y
##NAMES=HP
##CAS NAME=Cyclohexanamine, N-butylidene-
##MOLFORM=C10H19N
##CAS REGISTRY NO=1197-52-0
##MP= -300
##BP= -300
##MW= 153
##$RETENTION INDEX=0
##$CONDENSED SPECTRUM=NO
##NPOINTS= 85
##XYDATA=(XY..XY) 1 
    27         66
    28        113
    29        105
    30        244
    31          5
    33          0
    34          1
    36          0
    38          2
    39         53
    40          9
    41        377
    42         70
    43        139
    44        952
    45         22
    48          0
    50          1
    51          3
    52          1
    53         45
    54        169
    55        759
    56        246
    57         25
    58          4
    59          1
    65          8
    66          6
    67        163
    68        136
    69         80
    70        204
    71         21
    72        205
    73         10
    74          2
    75          1
    77          8
    78          2
    79         38
    80         26
    81         79
    82        405
    83        380
    84         52
    85          4
    86          1
    91          6
    93         17
    94         13
    95         10
    96        117
    97         25
    98         48
    99          6
   100          1
   101          0
   105          1
   106          1
   107          4
   108         12
   109          4
   110        999
   111        101
   112         29
   113          2
   119          0
   121          0
   122          5
   123          1
   124        187
   125        613
   126         48
   127          2
   131          0
   136          2
   138        128
   139         15
   140          1
   150          0
   152         25
   153         26
   154          6
   155          0