##TITLE=Library Entry 83054
##JCAMP-DX=Revision 4.10 
##DATA TYPE=MASS SPECTRUM
##SAMPLE DESCRIPTION=Japan AIST/NIMC Database- Spectrum MS-NW-2460
##NAMES=HP
##CAS NAME=Benzeneacetic acid, 4-amino-
##MOLFORM=C8H9NO2
##CAS REGISTRY NO=1197-55-3
##MP= -300
##BP= -300
##MW= 151
##$RETENTION INDEX=0
##$CONDENSED SPECTRUM=NO
##NPOINTS= 64
##XYDATA=(XY..XY) 1 
    14          2
    16          2
    18          2
    26          2
    27          9
    28         14
    29          2
    30          5
    37          2
    38          5
    39         20
    40          3
    41          8
    42          4
    43          2
    44          9
    45          8
    49          1
    50         12
    51         27
    52         25
    53         30
    54         10
    55          1
    57          1
    61          2
    62          5
    63          9
    64          3
    65          9
    66          7
    67          5
    71          1
    74          3
    75          3
    76          5
    77         82
    78         38
    79         41
    80         12
    81          2
    87          1
    89          8
    90          2
    91          3
    92          1
    93          3
    94          3
   102          1
   103          1
   104         25
   105         10
   106        999
   107         80
   108         13
   109          1
   120          2
   121          1
   122          3
   133          3
   150          3
   151        321
   152         29
   153          2