##TITLE=Library Entry 85978
##JCAMP-DX=Revision 4.10 
##DATA TYPE=MASS SPECTRUM
##SAMPLE DESCRIPTION=N.W. Davies, Centr. Sci. Lab., Univ. Tasmania, Hobart,
 Australia
##NAMES=HP
##CAS NAME=trans-Carveol
##MOLFORM=C10H16O
##CAS REGISTRY NO=1197-07-5
##MP= -300
##BP= -300
##MW= 152
##$RETENTION INDEX=1217
##$CONDENSED SPECTRUM=NO
##NPOINTS= 75
##XYDATA=(XY..XY) 1 
    26         15
    27        201
    29         56
    31         30
    38         19
    39        285
    40         19
    41        460
    42         28
    43        144
    44         26
    45         26
    50         27
    51         87
    52         36
    53        153
    54         22
    55        366
    56        120
    57         33
    58         16
    59         15
    60         12
    61         25
    62         10
    63         34
    64         18
    65         88
    66         33
    67        126
    68         47
    69        239
    70         13
    71         21
    72         27
    73         12
    77        184
    78         56
    79        138
    80        132
    81        134
    83        329
    84        847
    89         15
    91        327
    92        146
    93        223
    94         56
    95        123
    96         83
    97         60
   103         25
   104         21
   105        106
   106         33
   107         46
   108        111
   109        999
   110         99
   111         21
   115         31
   116         12
   117         50
   118         11
   119        345
   120         35
   121         10
   123         56
   124         20
   132         28
   133         21
   134        192
   137        111
   152        262
   153         25