##TITLE=Library Entry 41155
##JCAMP-DX=Revision 4.10 
##DATA TYPE=MASS SPECTRUM
##SAMPLE DESCRIPTION=LAC, NIDDK, NIH, Bethesda, MD 20892
##NAMES=HP
##CAS NAME=D-Gluconic acid, .gamma.-lactone
##MOLFORM=C6H10O6
##CAS REGISTRY NO=1198-69-2
##MP= -300
##BP= -300
##MW= 178
##$RETENTION INDEX=0
##$CONDENSED SPECTRUM=NO
##NPOINTS= 77
##XYDATA=(XY..XY) 1 
    42        585
    43        725
    44        336
    45        295
    47         45
    49          5
    50          7
    51         11
    53         28
    54         62
    55        165
    56         99
    57        275
    58        157
    59         55
    60        604
    61        889
    62         23
    63          6
    65          4
    67          2
    68         13
    69         86
    70         16
    71        482
    72        278
    73        999
    74         91
    76        159
    77          8
    78          2
    79          9
    80          4
    81          6
    82          3
    83         48
    84         13
    85        275
    86         63
    87         22
    88          6
    89         63
    90         27
    91         56
    92          2
    95          1
    96          2
    97         31
    98          8
   100        196
   101         37
   103        197
   104          7
   105         18
   107          1
   113          6
   114         57
   115          7
   116          2
   118         48
   119         39
   120          4
   121          5
   122          1
   125          3
   129          2
   131          2
   132         10
   133         26
   134          1
   142         41
   143          4
   147         56
   149          5
   160         91
   161          6
   178         12