##TITLE=Library Entry 56812
##JCAMP-DX=Revision 4.10 
##DATA TYPE=MASS SPECTRUM
##SAMPLE DESCRIPTION=LAC, NIDDK, NIH, Bethesda, MD 20892
##NAMES=HP
##CAS NAME=4-Quinolinamine, 7-chloro-
##MOLFORM=C9H7ClN2
##CAS REGISTRY NO=1198-40-9
##MP= -300
##BP= -300
##MW= 178
##$RETENTION INDEX=0
##$CONDENSED SPECTRUM=NO
##NPOINTS= 64
##XYDATA=(XY..XY) 1 
    41        104
    42         65
    43         27
    44         32
    45          7
    51          7
    52         13
    53         17
    54          8
    55         40
    56         53
    57         10
    58        227
    59          4
    63         13
    65          7
    67         13
    68          6
    69         74
    70         17
    71          9
    72         51
    73         53
    74         13
    75         12
    76          7
    81          5
    82          4
    84         19
    86        999
    87         67
    88          5
    89         31
    90          9
    96          4
    98         18
    99         15
   110          5
   111          5
   112         22
   113         13
   114         11
   115          4
   116         32
   123         15
   124         15
   126         96
   127          9
   138         15
   140         15
   141         37
   142         17
   143         28
   144         18
   150         18
   151         35
   152         11
   153         13
   176          9
   177          7
   178        299
   179         46
   180         94
   181         14