##TITLE=Library Entry 64572
##JCAMP-DX=Revision 4.10 
##DATA TYPE=MASS SPECTRUM
##SAMPLE DESCRIPTION=Chemical Concepts
##NAMES=HP
##CAS NAME=1-Imidazolidinecarboxylic acid, 2-(1,1-dimethylethyl)-4-oxo-3-(ph
enylmethyl)-, phenylmethyl ester, (s)-
##MOLFORM=C22H26N2O3
##CAS REGISTRY NO=119838-42-5
##MP= -300
##BP= -300
##MW= 366
##$RETENTION INDEX=0
##$CONDENSED SPECTRUM=NO
##NPOINTS= 82
##XYDATA=(XY..XY) 1 
    27          7
    28          6
    29         26
    30         17
    31          1
    36          1
    38          1
    39         25
    40          3
    41         58
    42         11
    43          2
    44          2
    50          3
    51         13
    52          4
    53          2
    54          1
    55          5
    56          8
    57         55
    58          2
    62          2
    63         11
    64          4
    65         77
    66          4
    67          0
    68          1
    69          4
    70          3
    71          0
    75          1
    76          2
    77         10
    78          3
    79          3
    82          1
    83          6
    84          1
    89         11
    90         14
    91        999
    92         81
    93          3
    97          0
    98          1
   104          6
   105          3
   106          3
   107          1
   115          1
   116          0
   117          2
   118          2
   119          1
   120          1
   127          1
   128          0
   132          1
   141          1
   143          3
   146          4
   147          6
   148          0
   149         14
   150          1
   174          4
   175          2
   181          1
   204          0
   222          0
   264         72
   265         14
   266          2
   279          1
   283          0
   306          1
   308        114
   309         26
   310          3
   311          0