##TITLE=Library Entry 77716
##JCAMP-DX=Revision 4.10 
##DATA TYPE=MASS SPECTRUM
##SAMPLE DESCRIPTION=Japan AIST/NIMC Database- Spectrum MS-IW- 957
##NAMES=HP
##CAS NAME=2-Pyrrolidinone, 4-phenyl-
##MOLFORM=C10H11NO
##CAS REGISTRY NO=1198-97-6
##MP= -300
##BP= -300
##MW= 161
##$RETENTION INDEX=0
##$CONDENSED SPECTRUM=NO
##NPOINTS= 60
##XYDATA=(XY..XY) 1 
    27          5
    28         12
    29          2
    30        139
    31          2
    38          1
    39         12
    40          1
    41          3
    42          1
    43          1
    50          8
    51         31
    52         10
    53          2
    54          2
    55          4
    56          5
    57          6
    58         11
    59          1
    62          2
    63          9
    64          2
    65         12
    66          2
    74          3
    75          3
    76          5
    77         45
    78         69
    79          8
    80          3
    83         14
    84          1
    89          8
    90          4
    91         37
    92          5
   101          1
   102         11
   103         82
   104        999
   105         94
   106          4
   115         21
   116          6
   117         44
   118         13
   119          2
   130          7
   131         74
   132         62
   133         55
   134          5
   159          2
   160          3
   161        901
   162        116
   163          9