##TITLE=Library Entry 84347
##JCAMP-DX=Revision 4.10 
##DATA TYPE=MASS SPECTRUM
##SAMPLE DESCRIPTION=Exported from NIST MS Search
##NAMES=HP
##CAS NAME=2H-1-Benzopyran, 3,4-dihydro-2,2-dimethyl-
##MOLFORM=C11H14O
##CAS REGISTRY NO=1198-96-5
##MP= -300
##BP= -300
##MW= 162
##$RETENTION INDEX=0
##$CONDENSED SPECTRUM=NO
##NPOINTS= 59
##XYDATA=(XY..XY) 1 
    41         40
    43         30
    44         30
    52         10
    53         50
    54         40
    55         30
    57         20
    58         20
    62         20
    63         30
    64         20
    65         30
    66         20
    72         20
    73         20
    74         20
    75         10
    76         10
    77         80
    78         70
    79         40
    81         20
    89         20
    90         20
    91         80
    92         20
    94         30
   102         20
   103         30
   104         20
   105         30
   106         30
   107        999
   108         80
   109         20
   115         30
   116         20
   117         20
   118         30
   119         70
   120         30
   121         20
   127         20
   128         20
   129         20
   131         20
   132         30
   133         80
   134         20
   145         40
   146         20
   147        400
   148         50
   160         20
   161         10
   162        550
   163         70
   164         20