##TITLE=Library Entry 93716
##JCAMP-DX=Revision 4.10 
##DATA TYPE=MASS SPECTRUM
##SAMPLE DESCRIPTION=NIST Mass Spectrometry Data Center, 1994
##NAMES=HP
##CAS NAME=.alpha.-Methylcinnamic acid
##MOLFORM=C10H10O2
##CAS REGISTRY NO=1199-77-5
##MP= -300
##BP= -300
##MW= 162
##$RETENTION INDEX=1460
##$CONDENSED SPECTRUM=NO
##NPOINTS= 94
##XYDATA=(XY..XY) 1 
    26         59
    27        128
    29         31
    30          1
    31         13
    37         25
    38         84
    39        314
    40         28
    41         25
    42          1
    43         34
    44          1
    45        370
    46         16
    47          2
    50        154
    51        251
    52         47
    53         24
    54          4
    55         24
    56         30
    57          2
    58         65
    61         28
    62         99
    63        203
    64         43
    65        153
    66         18
    67          5
    68          4
    69          7
    71          8
    72          4
    74         58
    75         53
    76         47
    77        117
    78         62
    79         88
    80         14
    82          0
    83          3
    84          3
    85         17
    86         33
    87         36
    88          0
    89        153
    90          0
    91        373
    92         33
    93          2
    94          8
    96          0
    97          2
    98          5
    99          2
   100          4
   101          8
   102         47
   103         24
   104          0
   105         59
   106         20
   107         59
   108          7
   110          3
   111          1
   113         21
   115        999
   116        812
   117        482
   118         45
   119         21
   120          5
   126          5
   127          2
   129         10
   131          5
   133         23
   134         12
   143         29
   144         42
   145         39
   146          5
   147         38
   148          2
   161        413
   162        672
   163         68
   164          4