##TITLE=Library Entry 31192
##JCAMP-DX=Revision 4.10 
##DATA TYPE=MASS SPECTRUM
##SAMPLE DESCRIPTION=V.G.Zaikin, TIPS RAS, Moscow, Russia
##NAMES=HP
##CAS NAME=2-Diisopropylsilyloxypropane
##MOLFORM=C9H22OSi
##CAS REGISTRY NO=119968-53-5
##MP= -300
##BP= -300
##MW= 174
##$RETENTION INDEX=0
##$CONDENSED SPECTRUM=NO
##NPOINTS= 74
##XYDATA=(XY..XY) 1 
    25          5
    26         34
    27        176
    28          6
    29         27
    31         19
    37         11
    38         21
    39        122
    40         24
    41        176
    42         43
    43        239
    44         59
    45        421
    46         49
    47        118
    48          9
    49          7
    50         21
    51         29
    52         49
    53         19
    54          3
    55         27
    56          9
    57         13
    58          7
    59         95
    60         36
    61        999
    62         75
    63         41
    66          3
    67          9
    69          9
    70         16
    71         31
    72         22
    73         88
    74         13
    75         51
    76          4
    77          4
    78          7
    79         42
    81          7
    85         19
    87         61
    88         28
    89        211
    90         21
    91         15
    93          4
    99          4
   101          7
   103        149
   104         18
   105          9
   113          7
   115          7
   117         25
   119          3
   130          8
   131        365
   132         59
   133         22
   159         13
   160          2
   161          1
   173          4
   174         25
   175          4
   176          2