##TITLE=Library Entry 57719
##JCAMP-DX=Revision 4.10 
##DATA TYPE=MASS SPECTRUM
##SAMPLE DESCRIPTION=Japan AIST/NIMC Database- Spectrum MS-IW- 426
##NAMES=HP
##CAS NAME=Butanamide, N-cyclohexyl-
##MOLFORM=C10H19NO
##CAS REGISTRY NO=1199-87-7
##MP= -300
##BP= -300
##MW= 169
##$RETENTION INDEX=1459
##$CONDENSED SPECTRUM=NO
##NPOINTS= 67
##XYDATA=(XY..XY) 1 
    15          2
    17          3
    18         19
    27         23
    28         19
    29         12
    30         15
    39         15
    40          2
    41         63
    42         12
    43        151
    44         14
    46          1
    51          1
    53          7
    54         15
    55         69
    56        395
    57         24
    58          4
    59          5
    60         59
    61          1
    65          1
    66          1
    67         42
    68          5
    69          8
    70         68
    71         81
    72         16
    73          3
    77          2
    79          5
    80          1
    81         14
    82         37
    83         54
    84          8
    85          2
    86          3
    87          2
    88        999
    89         49
    90          3
    96          3
    97          5
    98         41
    99         73
   100          8
   101          2
   112          4
   113          2
   114          1
   126         34
   127          5
   128          2
   140          6
   141         67
   142          6
   154         14
   155          1
   168          2
   169        308
   170         52
   171          4