##TITLE=Library Entry 44551
##JCAMP-DX=Revision 4.10 
##DATA TYPE=MASS SPECTRUM
##SAMPLE DESCRIPTION=Chemical Concepts
##NAMES=HP
##CAS NAME=Dodecanamide, N,N-bis(2-hydroxyethyl)-
##MOLFORM=C16H33NO3
##CAS REGISTRY NO=120-40-1
##MP= -300
##BP= -300
##MW= 287
##$RETENTION INDEX=2448
##$CONDENSED SPECTRUM=NO
##NPOINTS= 192
##XYDATA=(XY..XY) 1 
    25          0
    26          1
    27         35
    28         14
    29         78
    30         27
    31          9
    33          0
    35          0
    36          0
    37          0
    38          0
    39         15
    40          3
    41        123
    42         55
    43        197
    44         45
    45         42
    46          1
    47          0
    50          0
    51          0
    52          0
    53          6
    54          8
    55        107
    56         78
    57        139
    58         11
    59          1
    60          9
    61          1
    62         26
    63          0
    65          1
    66          0
    67         13
    68          6
    69         36
    70         26
    71         47
    72         12
    73          6
    74        999
    75         38
    76          4
    77          1
    78          0
    79          2
    80          1
    81         10
    82          3
    83         16
    84          7
    85         26
    86         13
    87         30
    88         32
    89          1
    90          0
    91          2
    92          0
    93          1
    94          0
    95         12
    96          1
    97          6
    98          7
    99         16
   100          2
   101          0
   102          1
   103         24
   104        105
   105          6
   106         28
   107          2
   108          0
   109          6
   110          1
   111          1
   112         11
   113          3
   114         71
   115          5
   116          6
   117          4
   118          0
   121          0
   122          0
   123          1
   124          0
   125          0
   126          5
   127          1
   128          1
   129          6
   130          5
   131          0
   132          0
   135          0
   138          0
   139          0
   140          1
   141          0
   142          7
   143          1
   144          1
   145          0
   146          0
   147         32
   148          2
   149          0
   152          0
   153          0
   154          2
   155          0
   156          2
   157          0
   158          1
   159          0
   160         10
   161          1
   162          0
   165          0
   166          0
   168          2
   169          0
   170          1
   171          0
   172          0
   174          1
   175          0
   181          0
   182          2
   183         17
   184          3
   185          0
   186          0
   188          1
   189          0
   194          0
   195          0
   196          1
   197          0
   198          0
   199          0
   200          1
   201          0
   202          1
   203          0
   210          0
   211          0
   212          2
   213          0
   214          0
   215          0
   216          0
   217          0
   224          1
   225          0
   226          5
   227         11
   228          2
   229          0
   230          0
   231          0
   238          1
   239          0
   240          0
   241          0
   242          0
   243          0
   244         53
   245          7
   246          0
   253          0
   254          0
   256         73
   257         12
   258          1
   259          0
   268          2
   269          2
   270          1
   271          0
   272          0
   286          1
   287          2
   288          3
   289          0