##TITLE=Library Entry 1366
##JCAMP-DX=Revision 4.10 
##DATA TYPE=MASS SPECTRUM
##SAMPLE DESCRIPTION=NIST Mass Spectrometry Data Center, 1994
##NAMES=HP
##CAS NAME=Benzeneethanamine, 3,4-dimethoxy-
##MOLFORM=C10H15NO2
##CAS REGISTRY NO=120-20-7
##MP= -300
##BP= -300
##MW= 181
##$RETENTION INDEX=1561
##$CONDENSED SPECTRUM=NO
##NPOINTS= 96
##XYDATA=(XY..XY) 1 
    13          2
    14          8
    15         82
    16          2
    17          3
    18          2
    26          4
    27         21
    28         90
    29          2
    30        999
    31         14
    32          1
    37          4
    38         18
    39        109
    40         14
    41         20
    42         16
    43         13
    44          3
    45          3
    47          3
    50         31
    51         90
    52         32
    53         28
    54          7
    55         14
    56          1
    57          2
    61          3
    62         12
    63         36
    64         21
    65         97
    66         28
    67         18
    68          4
    69          3
    73          1
    74          3
    75          6
    76          1
    77         78
    78         80
    79         54
    80         22
    81         19
    82          2
    87          1
    89         33
    90         40
    91         82
    92         18
    93         17
    94         31
    95          9
   102          1
   103          3
   104          6
   105         51
   106         70
   107        124
   108         47
   109         53
   110          4
   116          1
   117          4
   118         12
   119          7
   120          5
   121         37
   122         21
   123          7
   132          2
   133          4
   134          9
   135         31
   136          2
   137        175
   138         16
   147          1
   148          4
   149          8
   150          1
   151        334
   152        657
   153         65
   154          5
   163          1
   164          7
   165          3
   179          2
   181         61
   182          6