##TITLE=Library Entry 18892
##JCAMP-DX=Revision 4.10 
##DATA TYPE=MASS SPECTRUM
##SAMPLE DESCRIPTION=D.HENNEBERG, MAX-PLANCK INSTITUTE, MULHEIM, WEST GERMAN
Y
##NAMES=HP
##CAS NAME=Cyclopentanone
##MOLFORM=C5H8O
##CAS REGISTRY NO=120-92-3
##MP= -300
##BP= -300
##MW= 84
##$RETENTION INDEX=791
##$CONDENSED SPECTRUM=NO
##NPOINTS= 44
##XYDATA=(XY..XY) 1 
    24          2
    25          7
    26         89
    27        241
    28        500
    29         69
    30          2
    31          1
    36          3
    37         22
    38         34
    39        187
    40         40
    41        377
    42        151
    43         28
    44          1
    48          1
    49          8
    50         28
    51         26
    52          9
    53         34
    54         16
    55        999
    56        289
    57         17
    58          1
    61          2
    62          2
    63          2
    64          0
    65          3
    66          7
    67         10
    68          2
    69          4
    80          0
    81          0
    82          3
    83         16
    84        420
    85         27
    86          1