##TITLE=Library Entry 15542
##JCAMP-DX=Revision 4.10 
##DATA TYPE=MASS SPECTRUM
##SAMPLE DESCRIPTION=Japan AIST/NIMC Database- Spectrum MS-NW-5492
##NAMES=HP
##CAS NAME=1-Piperazinecarboxylic acid, ethyl ester
##MOLFORM=C7H14N2O2
##CAS REGISTRY NO=120-43-4
##MP= -300
##BP= -300
##MW= 158
##$RETENTION INDEX=0
##$CONDENSED SPECTRUM=NO
##NPOINTS= 75
##XYDATA=(XY..XY) 1 
    14          3
    15         40
    25          1
    26         18
    27        108
    28        177
    29        350
    30        131
    31          5
    32          1
    39          2
    40          6
    41         35
    42        189
    43        101
    44        999
    45         30
    52          2
    53          3
    54         25
    55        147
    56        661
    57        225
    58         49
    59          6
    60          3
    62          3
    67          1
    68         17
    69        223
    70         61
    71         15
    72        152
    73          8
    74         20
    75         11
    76         10
    80          3
    81          4
    82          4
    83         37
    84         18
    85        119
    86         13
    87          3
    88         26
    89          2
    90         17
    91          1
    97          1
    98          1
    99          2
   100         19
   101          7
   102         11
   103          7
   104          6
   109          1
   111          7
   112          2
   113        111
   114         10
   115         53
   116        406
   117         25
   118          3
   128         10
   129         22
   130          2
   143          4
   156          5
   157          4
   158        198
   159         18
   160          2