##TITLE=Library Entry 95525
##JCAMP-DX=Revision 4.10 
##DATA TYPE=MASS SPECTRUM
##SAMPLE DESCRIPTION=RADIAN CORP
##NAMES=HP
##CAS NAME=Acetic acid, (2-naphthalenyloxy)-
##MOLFORM=C12H10O3
##CAS REGISTRY NO=120-23-0
##MP= -300
##BP= -300
##MW= 202
##$RETENTION INDEX=0
##$CONDENSED SPECTRUM=NO
##NPOINTS= 49
##XYDATA=(XY..XY) 1 
    28         14
    29         10
    31         22
    32          7
    39         28
    42          7
    44          8
    45         27
    50         29
    51         42
    58          3
    62         33
    63        102
    65         36
    73         16
    74         42
    75         62
    76         30
    77         97
    78          2
    86         17
    87         30
    88         25
    89         66
    98          7
    99          2
   100          2
   101         52
   102         13
   113         36
   114         58
   115        999
   116        121
   125         12
   126        135
   127        542
   128        130
   129        127
   130         12
   142          2
   143        198
   144        269
   145         44
   155          4
   157        127
   158         16
   202        956
   203        136
   204         12