##TITLE=Library Entry 76912
##JCAMP-DX=Revision 4.10 
##DATA TYPE=MASS SPECTRUM
##SAMPLE DESCRIPTION=Japan AIST/NIMC Database- Spectrum MS-IW-6074
##NAMES=HP
##CAS NAME=Sydnone, 3-phenyl-
##MOLFORM=C8H6N2O2
##CAS REGISTRY NO=120-06-9
##MP= -300
##BP= -300
##MW= 162
##$RETENTION INDEX=0
##$CONDENSED SPECTRUM=NO
##NPOINTS= 52
##XYDATA=(XY..XY) 1 
    13          2
    26          6
    27         20
    28         27
    29          2
    30          9
    32          3
    36          1
    37         16
    38         34
    39         32
    40          3
    41          5
    44         12
    48          1
    49         11
    50        154
    51        339
    52         97
    53          1
    60          1
    61          7
    62         11
    63         22
    64         21
    65          6
    66          1
    73          9
    74         47
    75         35
    76         71
    77        960
    78         68
    79          2
    87          1
    88          1
    89          2
    90          1
    91          7
    92          1
    93          5
    99          1
   102          1
   103         23
   104        999
   105         85
   106          3
   132        100
   133          8
   162        301
   163         35
   164          3