##TITLE=Library Entry 44881
##JCAMP-DX=Revision 4.10 
##DATA TYPE=MASS SPECTRUM
##SAMPLE DESCRIPTION=CARL DJERASSI DEPT OF CHEM STANFORD UNIV STANFORD CALIF
 94305
##NAMES=HP
##CAS NAME=Ethanedithioamide, N,N'-dimethyl-
##MOLFORM=C4H8N2S2
##CAS REGISTRY NO=120-79-6
##MP= -300
##BP= -300
##MW= 148
##$RETENTION INDEX=0
##$CONDENSED SPECTRUM=NO
##NPOINTS= 54
##XYDATA=(XY..XY) 1 
    41         89
    42        396
    43         19
    44         49
    45        198
    46         39
    47        128
    48          9
    49          9
    51          9
    52          9
    53         19
    54          9
    55          9
    56          9
    57         19
    58         19
    59         89
    60        148
    61          9
    62          9
    64         19
    66          9
    67         19
    69         29
    70         69
    71         49
    72         99
    73         89
    74        999
    75        277
    76         79
    77         19
    78          9
    79          9
    83          9
    84         19
    85         19
    86         39
    88         69
    89          9
    90         19
   101          9
   106          9
   107          9
   115          9
   118          9
   119         39
   121          9
   133          9
   147          9
   148        495
   149         39
   150         49