##TITLE=Library Entry 81271
##JCAMP-DX=Revision 4.10 
##DATA TYPE=MASS SPECTRUM
##SAMPLE DESCRIPTION=Japan AIST/NIMC Database- Spectrum MS-NW-5390
##NAMES=HP
##CAS NAME=Diethylene glycol dibenzoate
##MOLFORM=C18H18O5
##CAS REGISTRY NO=120-55-8
##MP= -300
##BP= -300
##MW= 314
##$RETENTION INDEX=0
##$CONDENSED SPECTRUM=NO
##NPOINTS= 34
##XYDATA=(XY..XY) 1 
    17          1
    18          2
    27         12
    28          9
    29          6
    31          8
    32          1
    39          7
    42         11
    43          5
    44          4
    45          7
    50         22
    51         92
    52          6
    70         61
    74          6
    75          7
    76         21
    77        356
    78         28
    79          3
   104          6
   105        999
   106         81
   107          5
   120          3
   122         12
   123          3
   149        899
   150         93
   151          9
   179         10
   192          2