##TITLE=Library Entry 82125
##JCAMP-DX=Revision 4.10 
##DATA TYPE=MASS SPECTRUM
##SAMPLE DESCRIPTION=Japan AIST/NIMC Database- Spectrum MS-NW-7805
##NAMES=HP
##CAS NAME=2-Amino-5-benzoylaminohydroquinone diethyl ether
##MOLFORM=C17H20N2O3
##CAS REGISTRY NO=120-00-3
##MP= -300
##BP= -300
##MW= 300
##$RETENTION INDEX=0
##$CONDENSED SPECTRUM=NO
##NPOINTS= 154
##XYDATA=(XY..XY) 1 
    14          1
    15          7
    25          1
    26          9
    27         57
    28         22
    29         70
    30          4
    38          4
    39         23
    40         11
    41         45
    42         57
    43         13
    44          9
    45          1
    50         28
    51        101
    52         24
    53         11
    54         21
    55          8
    56          3
    57          1
    62          2
    63          3
    64          4
    65         13
    66         24
    67         29
    68         66
    69         11
    70         29
    71          2
    73          1
    74          4
    75          9
    76         24
    77        429
    78         37
    79          8
    80          6
    81          6
    82         10
    83         10
    84          2
    89          3
    90          2
    91          3
    92          4
    93         12
    94         46
    95         14
    96         13
    97          2
    98          2
   102          2
   103          3
   104          9
   105        999
   106         79
   107          7
   108          5
   109         11
   110         15
   111        116
   112          9
   113          1
   114          1
   115          3
   116          2
   117          1
   118          1
   119          1
   120          2
   121          8
   122         16
   123         48
   124         14
   125          7
   126          3
   127          1
   128          2
   129          1
   130          1
   132          1
   133          2
   135          2
   136          2
   137         17
   138          6
   139         66
   140         10
   141          2
   142          1
   144          2
   148          1
   149          2
   150          3
   151         14
   152         12
   153         17
   154          5
   155          1
   156          1
   165         15
   166          6
   167         38
   168         20
   169          6
   170          1
   171          1
   172          1
   177          1
   179          3
   180          4
   181          1
   182          1
   193          2
   194          5
   195         51
   196          8
   197          9
   198          3
   199          2
   200          1
   209          1
   210          1
   213          1
   225         17
   226          9
   227          3
   241          3
   242          2
   243         11
   244          4
   245          1
   246          1
   254          2
   255          2
   256          2
   257          1
   270          1
   271        228
   272         47
   273          7
   274          1
   285          2
   298          1
   299          9
   300        435
   301         92
   302         11
   303          1