##TITLE=Library Entry 6768
##JCAMP-DX=Revision 4.10 
##DATA TYPE=MASS SPECTRUM
##SAMPLE DESCRIPTION=Japan AIST/NIMC Database- Spectrum MS-NW-1175
##NAMES=HP
##CAS NAME=2,4,5-Trioxoimidazolidine
##MOLFORM=C3H2N2O3
##CAS REGISTRY NO=120-89-8
##MP= -300
##BP= -300
##MW= 114
##$RETENTION INDEX=0
##$CONDENSED SPECTRUM=NO
##NPOINTS= 45
##XYDATA=(XY..XY) 1 
    12          7
    13          5
    14          8
    15         17
    16          9
    26         11
    27         41
    28         52
    29         61
    30         10
    31          1
    35          1
    36          5
    38          3
    39          1
    40          3
    41         10
    42        108
    43        999
    44        671
    45         11
    46          1
    52          1
    53          1
    54          9
    55          4
    56          4
    57          5
    67          2
    68          1
    69          4
    70         77
    71         40
    72          1
    73          1
    84          1
    85          2
    86        302
    87          9
    88          1
    97          2
    98          1
   114        319
   115         13
   116          2