##TITLE=Library Entry 81833
##JCAMP-DX=Revision 4.10 
##DATA TYPE=MASS SPECTRUM
##SAMPLE DESCRIPTION=Japan AIST/NIMC Database- Spectrum MS-NW-2252
##NAMES=HP
##CAS NAME=Dibenzoylmethane
##MOLFORM=C15H12O2
##CAS REGISTRY NO=120-46-7
##MP= -300
##BP= -300
##MW= 224
##$RETENTION INDEX=0
##$CONDENSED SPECTRUM=NO
##NPOINTS= 129
##XYDATA=(XY..XY) 1 
    14          2
    15          2
    17          6
    18         28
    26          2
    27         12
    28          4
    29          5
    30          1
    31          7
    37          2
    38          6
    39         30
    40          2
    41          6
    42          3
    43          2
    44          4
    45          1
    49          1
    50         43
    51        164
    52         16
    53          5
    55          2
    57          1
    61          2
    62          8
    63         20
    64          6
    65         35
    66          3
    69        401
    70         13
    71          2
    73          2
    74         15
    75         18
    76         33
    77        524
    78         73
    79         10
    80          1
    82          3
    83          5
    84          4
    86          2
    87          2
    88          3
    89         29
    90         15
    91         38
    92          5
    93          1
    94          3
    97          6
    98         13
    99          1
   101          5
   102         20
   103         23
   104          6
   105        999
   106         77
   107          6
   108          1
   111          5
   112          6
   115          3
   117          1
   118         19
   119          4
   120          7
   121          6
   122          2
   126          1
   127          2
   128          2
   129          7
   130          2
   131          5
   132          1
   133          7
   134          2
   135          1
   139          2
   141          1
   143          1
   145          3
   146          9
   147        436
   148         45
   149          5
   150          1
   151          2
   152          7
   153          3
   154          1
   155          2
   161          2
   162          2
   163          1
   164          1
   165          9
   166          3
   167          6
   168          1
   176          5
   177          5
   178         14
   179          7
   180          1
   181          5
   182          1
   194          4
   195          9
   196         13
   197          2
   205          5
   206          7
   207         16
   208          9
   209          1
   221          2
   222         13
   223        582
   224        627
   225         97
   226          9