##TITLE=Library Entry 55657
##JCAMP-DX=Revision 4.10 
##DATA TYPE=MASS SPECTRUM
##SAMPLE DESCRIPTION=Japan AIST/NIMC Database- Spectrum MS-NW- 489
##NAMES=HP
##CAS NAME=2-Imidazolidinone
##MOLFORM=C3H6N2O
##CAS REGISTRY NO=120-93-4
##MP= -300
##BP= -300
##MW= 86
##$RETENTION INDEX=0
##$CONDENSED SPECTRUM=NO
##NPOINTS= 28
##XYDATA=(XY..XY) 1 
    14          5
    15         46
    16          1
    18          2
    26          5
    27         23
    28        220
    29        146
    30        620
    31          9
    38          4
    39          6
    40         21
    41         31
    42        161
    43         16
    44         18
    53          3
    54          3
    55          3
    56         19
    57         15
    58         43
    84         15
    85        123
    86        999
    87         43
    88          3