##TITLE=Library Entry 16284
##JCAMP-DX=Revision 4.10 
##DATA TYPE=MASS SPECTRUM
##SAMPLE DESCRIPTION=Patti Price, Georgia Bureau of Investigation, Decatur,
 Georgia
##NAMES=HP
##CAS NAME=Benzenethanamine, 3,4-dimethoxy-.alpha.-methyl-
##MOLFORM=C11H17NO2
##CAS REGISTRY NO=120-26-3
##MP= -300
##BP= -300
##MW= 195
##$RETENTION INDEX=1537
##$CONDENSED SPECTRUM=NO
##NPOINTS= 87
##XYDATA=(XY..XY) 1 
    41          2
    44        999
    45         25
    49          1
    50          7
    51         26
    52         14
    53         10
    54          1
    55          8
    56          2
    57          2
    58          1
    60          1
    61          1
    62          4
    63         19
    64          8
    65         51
    66         12
    67          8
    68          3
    69          1
    71          1
    74          2
    76          2
    77         40
    78         43
    79         27
    80          9
    81          7
    82          1
    83          2
    89         19
    90         25
    91         37
    92          9
    93          7
    94         18
    95          7
   102          1
   103          4
   104          3
   105         30
   106         32
   107         58
   108         11
   109         18
   110          1
   115          3
   116          1
   117          2
   118          7
   119          3
   120          2
   121         15
   122          8
   128          1
   130          1
   131          2
   132          2
   133          5
   134          3
   135         15
   136          8
   137         60
   138          9
   146          2
   147          2
   148          5
   149          3
   150          1
   151         89
   152        511
   153         45
   154          4
   160          1
   161          1
   163          2
   177          1
   178          4
   179          3
   180          2
   194          1
   195         10
   196          1
   197          1