##TITLE=Library Entry 31971
##JCAMP-DX=Revision 4.10 
##DATA TYPE=MASS SPECTRUM
##SAMPLE DESCRIPTION=NIST Mass Spectrometry Data Center, 1994
##NAMES=HP
##CAS NAME=Bicyclo[2.2.1]hept-5-ene-2-carboxylic acid
##MOLFORM=C8H10O2
##CAS REGISTRY NO=120-74-1
##MP= -300
##BP= -300
##MW= 138
##$RETENTION INDEX=0
##$CONDENSED SPECTRUM=NO
##NPOINTS= 78
##XYDATA=(XY..XY) 1 
    15          5
    17          0
    18          0
    24          0
    26         19
    27         88
    28         10
    29         14
    30          0
    31          3
    32          1
    35          0
    37          8
    38         31
    39        184
    40         54
    41         44
    42          5
    43          8
    44          4
    45         50
    46          2
    47          1
    49          4
    50         28
    51         51
    52         17
    53         27
    54          1
    55         33
    56          1
    57          1
    58          0
    59          1
    60          3
    61          4
    62         13
    63         27
    66        999
    67         66
    68          3
    69          2
    70          1
    71          0
    73         27
    74          3
    75          2
    76          0
    77         69
    78         23
    79         18
    80          1
    81          3
    82          2
    83          2
    84          3
    85          1
    86          1
    87          0
    89          4
    91         82
    92         15
    93         26
    94          2
    95          3
    97          6
    98          1
   104          0
   105          1
   109          0
   110          1
   117          0
   119          1
   120          1
   121          1
   123          1
   138         23
   139          2