##TITLE=Library Entry 62860
##JCAMP-DX=Revision 4.10 
##DATA TYPE=MASS SPECTRUM
##SAMPLE DESCRIPTION=RADIAN CORP
##NAMES=HP
##CAS NAME=Isoeugenol, benzyl ether
##MOLFORM=C17H18O2
##CAS REGISTRY NO=120-11-6
##MP= -300
##BP= -300
##MW= 254
##$RETENTION INDEX=2078
##$CONDENSED SPECTRUM=NO
##NPOINTS= 68
##XYDATA=(XY..XY) 1 
    39         23
    41         25
    45          2
    50          4
    51         18
    52          4
    53         12
    55         22
    62          4
    63         15
    64          2
    65        127
    66         15
    67          3
    68          1
    74          2
    76          7
    77         69
    79         57
    80          4
    89         29
    90         12
    91        999
    92         86
    93          6
    94         10
    95         13
    96          3
    99          1
   102          6
   103         85
   104         17
   105         42
   106         11
   107        278
   108         22
   115         47
   116         11
   117         31
   118         21
   119         11
   120         12
   121          4
   125          1
   126          8
   128          2
   131         17
   132          4
   133         16
   134          3
   135         28
   136          3
   137          4
   145          2
   147          2
   149          1
   152          1
   161          7
   162          7
   163        805
   164         95
   165         10
   178          3
   179          2
   221          1
   254        279
   255         50
   256          5