##TITLE=Library Entry 4945
##JCAMP-DX=Revision 4.10 
##DATA TYPE=MASS SPECTRUM
##SAMPLE DESCRIPTION=Japan AIST/NIMC Database- Spectrum MS-NW-3530
##NAMES=HP
##CAS NAME=Pyrrolidine, 1-methyl-
##MOLFORM=C5H11N
##CAS REGISTRY NO=120-94-5
##MP= -300
##BP= -300
##MW= 85
##$RETENTION INDEX=673
##$CONDENSED SPECTRUM=NO
##NPOINTS= 46
##XYDATA=(XY..XY) 1 
    13          1
    14          7
    15        127
    16          2
    25          1
    26         20
    27         85
    28         29
    29         35
    30         41
    31          1
    36          1
    37          5
    38          9
    39         66
    40         18
    41        106
    42        999
    43         93
    44         36
    45          1
    49          1
    50          5
    51          5
    52          6
    53         10
    54         23
    55         65
    56         32
    57        896
    58         41
    59          1
    65          2
    66          2
    67         18
    68         14
    69          9
    70         14
    71          2
    80          9
    81          9
    82         93
    83         19
    84        971
    85        557
    86         33