##TITLE=Library Entry 99190
##JCAMP-DX=Revision 4.10 
##DATA TYPE=MASS SPECTRUM
##SAMPLE DESCRIPTION=NIST Mass Spectrometry Data Center
##NAMES=HP
##CAS NAME=Ethyl m-methylbenzoate
##MOLFORM=C10H12O2
##CAS REGISTRY NO=120-33-2
##MP= -300
##BP= -300
##MW= 164
##$RETENTION INDEX=1294
##$CONDENSED SPECTRUM=NO
##NPOINTS= 67
##XYDATA=(XY..XY) 1 
    13          1
    14          2
    15         24
    18          3
    19          1
    26         27
    27        113
    28         31
    29        128
    30         21
    31          1
    37          5
    38         21
    39        132
    40         10
    41         30
    42          6
    43         20
    44          5
    45         21
    50         38
    51         54
    52         17
    53         11
    55          1
    59          5
    61          7
    62         36
    63        101
    64         32
    65        270
    66         15
    72          2
    73          1
    74          9
    75          7
    76          7
    77         23
    78          4
    79          7
    85          3
    86          6
    87          5
    89         81
    91        608
    92         71
    93          6
   103          1
   105         14
   106          1
   107          3
   108          1
   119        999
   120        114
   121          8
   131          2
   133          2
   136        265
   137         23
   138          1
   146         14
   147          4
   149         35
   150          3
   164        188
   165         22
   166          1