##TITLE=Library Entry 27776
##JCAMP-DX=Revision 4.10 
##DATA TYPE=MASS SPECTRUM
##SAMPLE DESCRIPTION=NIST Mass Spectrometry Data Center, 1994
##NAMES=HP
##CAS NAME=1-(4-Fluorophenyl)-2-methyl-2-propylamine
##MOLFORM=C10H14FN
##CAS REGISTRY NO=1200-27-7
##MP= -300
##BP= -300
##MW= 167
##$RETENTION INDEX=0
##$CONDENSED SPECTRUM=NO
##NPOINTS= 58
##XYDATA=(XY..XY) 1 
    15         23
    16          1
    17          3
    18         52
    26          4
    27          7
    28          6
    29          1
    30         66
    37          1
    38          4
    39         35
    40          8
    41         95
    42        116
    43         23
    44          5
    50          7
    51         10
    52          4
    53          3
    54          4
    55          3
    56         14
    57          3
    58        999
    59         40
    62          6
    63         17
    64          3
    65          4
    68          3
    69          3
    70          4
    75          8
    76          7
    77          4
    81          8
    83         57
    84          4
    89          7
    91          2
    96          3
   107         15
   108          8
   109         95
   110         14
   115          7
   122          3
   133         11
   134          3
   135         20
   136          5
   137          5
   150          3
   151          3
   152         39
   153          4