##TITLE=Library Entry 62814
##JCAMP-DX=Revision 4.10 
##DATA TYPE=MASS SPECTRUM
##SAMPLE DESCRIPTION=Japan AIST/NIMC Database- Spectrum MS-NW-4889
##NAMES=HP
##CAS NAME=Benzaldehyde, 4-butyl-
##MOLFORM=C11H14O
##CAS REGISTRY NO=1200-14-2
##MP= -300
##BP= -300
##MW= 162
##$RETENTION INDEX=0
##$CONDENSED SPECTRUM=NO
##NPOINTS= 106
##XYDATA=(XY..XY) 1 
    14          1
    15          5
    18          1
    26          7
    27        110
    28          7
    29         35
    30          1
    37          3
    38         10
    39         87
    40          9
    41        113
    42          7
    43        156
    44          6
    45          1
    49          2
    50         30
    51         75
    52         14
    53         15
    54          2
    55         16
    56         10
    57          4
    58          4
    59          1
    61          4
    62         13
    63         47
    64         15
    65        106
    66          9
    67          2
    69          1
    70          1
    71          3
    72          3
    73          2
    74         10
    75         12
    76         13
    77        107
    78         36
    79         48
    80          5
    81          1
    85          1
    86          3
    87          4
    88          2
    89         53
    90         74
    91        999
    92        605
    93         50
    94          2
    98          1
    99          1
   101          3
   102         11
   103         46
   104         21
   105        104
   106         12
   107         25
   108          3
   109          1
   110          1
   113          1
   114          1
   115         24
   116          8
   117         13
   118         29
   119        544
   120        487
   121         44
   122          3
   126          1
   127          2
   128          5
   129          8
   130          1
   131         24
   132          6
   133         58
   134          9
   135         27
   136         20
   137          2
   138          1
   139          1
   141          1
   143          1
   144          3
   145          3
   147          9
   148          2
   159          1
   160          1
   161        205
   162        607
   163         74
   164          6