##TITLE=Library Entry 68272
##JCAMP-DX=Revision 4.10 
##DATA TYPE=MASS SPECTRUM
##SAMPLE DESCRIPTION=NIST Mass Spectrometry Data Center, 1994
##NAMES=HP
##CAS NAME=Isobornyl formate
##MOLFORM=C11H18O2
##CAS REGISTRY NO=1200-67-5
##MP= -300
##BP= -300
##MW= 182
##$RETENTION INDEX=1232
##$CONDENSED SPECTRUM=NO
##NPOINTS= 72
##XYDATA=(XY..XY) 1 
    14          1
    15         21
    27        156
    28         55
    29        297
    30          9
    31         21
    32          2
    39        236
    40         55
    41        517
    42         54
    43        271
    44         18
    45         14
    46          2
    47          3
    50         10
    51         45
    52         21
    53        136
    54         30
    55        250
    56         31
    57         53
    58          5
    59         20
    63         11
    65         60
    67        231
    68         59
    69        143
    70         30
    71        108
    72         14
    77        119
    78         29
    79        154
    80         93
    81        136
    82         88
    83         60
    84         25
    85         10
    89          2
    91        117
    92        156
    93        576
    94        120
    95        999
    96         84
    97         16
    98          8
    99          9
   103          6
   105         41
   107         95
   108        133
   109         49
   110        155
   111         37
   112          6
   113          5
   119          8
   121        571
   122         50
   123         11
   136        343
   137         62
   138          6
   139         21
   167         31