##TITLE=Library Entry 67423
##JCAMP-DX=Revision 4.10 
##DATA TYPE=MASS SPECTRUM
##SAMPLE DESCRIPTION=Chuck Anderson, Aldrich Chemical Co.
##NAMES=HP
##CAS NAME=Benzene, (4-bromobutoxy)-
##MOLFORM=C10H13BrO
##CAS REGISTRY NO=1200-03-9
##MP= -300
##BP= -300
##MW= 228
##$RETENTION INDEX=0
##$CONDENSED SPECTRUM=NO
##NPOINTS= 110
##XYDATA=(XY..XY) 1 
    15          1
    25          0
    26          8
    27         97
    28         22
    29        107
    30          2
    31          1
    36          0
    37          4
    38         21
    39        169
    40         24
    41         41
    42          4
    43          4
    44          0
    45          0
    47          0
    49          1
    50         20
    51         64
    52          7
    53         23
    54          5
    55        327
    56         14
    57          0
    58          0
    60          0
    61          2
    62          6
    63         23
    64         11
    65        107
    66         84
    67          5
    68          1
    69          0
    71          0
    72          0
    73          1
    74          6
    75          5
    76          6
    77        126
    78         12
    79         19
    80          2
    81          1
    82          1
    83          0
    88          0
    89          1
    90          0
    91         27
    92          6
    93          9
    94        999
    95         71
    96          4
    97          0
   102          0
   103          1
   104          0
   105          2
   106          2
   107         58
   108          5
   109         17
   110          0
   115          1
   116          0
   117          0
   118          0
   119          4
   120         10
   121          2
   122          0
   124          0
   128          0
   129          0
   131          0
   132          0
   133          1
   135        398
   136         14
   137        381
   138         15
   139          0
   145          0
   146          0
   147          0
   148          1
   149          2
   150          0
   155          0
   156          0
   157          0
   159          0
   184          0
   185          0
   187          0
   199          0
   201          0
   228         51
   229          5
   230         51
   231          5
   232          0