##TITLE=Library Entry 63239
##JCAMP-DX=Revision 4.10 
##DATA TYPE=MASS SPECTRUM
##SAMPLE DESCRIPTION=Chemical Concepts
##NAMES=HP
##CAS NAME=Tetracyclo[6.2.1.1(3,6).0(2,7)]dodeca-4,9-diene, 11-isopropyliden
e-
##MOLFORM=C15H18
##CAS REGISTRY NO=120158-65-8
##MP= -300
##BP= -300
##MW= 198
##$RETENTION INDEX=0
##$CONDENSED SPECTRUM=NO
##NPOINTS= 148
##XYDATA=(XY..XY) 1 
    34          0
    36          0
    37          3
    38         12
    39        292
    40         64
    41        285
    42         14
    43         48
    44          2
    45          2
    49          0
    50         23
    51        127
    52         56
    53        106
    54         14
    55         58
    56          2
    57          5
    58         13
    59         34
    60          1
    61          1
    62          9
    63         74
    64         37
    65        252
    66        183
    67         62
    68          3
    69         20
    70          5
    71          8
    72          0
    73          2
    74          4
    75         19
    76         36
    77        276
    78        159
    79        197
    80         24
    81          9
    82         15
    83         17
    84         11
    85         15
    86          2
    87          5
    88          6
    89         68
    90         66
    91        999
    92        180
    93         51
    94          9
    95         11
    96          2
    97          3
    98          2
    99          1
   100          1
   101          9
   102         34
   103         85
   104         64
   105        344
   106        511
   107        196
   108         22
   109          5
   110          2
   111          2
   113         14
   114         12
   115        268
   116        124
   117        464
   118         62
   119        177
   120         65
   121         12
   122          6
   123          3
   124          1
   125          2
   126          8
   127         57
   128        162
   129        260
   130         62
   131        118
   132        227
   133         57
   134          8
   135          2
   136          0
   137          1
   138          2
   139         16
   140         11
   141        149
   142        149
   143         72
   144         32
   145          6
   146          1
   147          1
   148          1
   149          1
   150          3
   151         14
   152         48
   153         93
   154         69
   155        543
   156        103
   157        101
   158         11
   159          1
   163         21
   164         13
   165         42
   166         23
   167         47
   168        127
   169         65
   170         24
   171          9
   172          2
   174          2
   175          1
   176          1
   178          7
   179          7
   180          2
   181         17
   182         14
   183        636
   184         99
   185          8
   190          1
   194          1
   195          1
   197         17
   198        335
   199         51