##TITLE=Library Entry 11581
##JCAMP-DX=Revision 4.10 
##DATA TYPE=MASS SPECTRUM
##SAMPLE DESCRIPTION=G. Lange, Inst. Org. Chem., Univ. Wurzburg, Wurzburg, G
ermany
##NAMES=HP
##CAS NAME=7-Oxatetracyclo[4.2.0.0(2,4).0(3,5)]octane, 8-acetyl-8-methyl-
##MOLFORM=C10H12O2
##CAS REGISTRY NO=120229-54-1
##MP= -300
##BP= -300
##MW= 164
##$RETENTION INDEX=0
##$CONDENSED SPECTRUM=NO
##NPOINTS= 59
##XYDATA=(XY..XY) 1 
    37          2
    38          9
    39         79
    40          8
    41         22
    42         11
    43        999
    44         23
    45          7
    50         33
    51         81
    52         45
    53         24
    54          2
    55         28
    57          2
    62          4
    63         16
    64          3
    65         27
    66         15
    67          6
    74          6
    75          5
    76          7
    77        198
    78        114
    79        104
    80         10
    81          7
    82          5
    86          7
    89          3
    91         65
    92         10
    93         39
    94          6
    95         11
    96          7
    99          3
   103         12
   104          3
   105         92
   106         10
   107        114
   108          9
   109          3
   115          2
   117          2
   119          5
   120         31
   121        198
   122        102
   123         10
   135          5
   146          2
   149          2
   164          7
   165          0