##TITLE=Library Entry 52590
##JCAMP-DX=Revision 4.10 
##DATA TYPE=MASS SPECTRUM
##SAMPLE DESCRIPTION=Japan AIST/NIMC Database- Spectrum MS-IW-2918
##NAMES=HP
##CAS NAME=1-(tert-Butyl)-3-cyclohexylcarbodiimide
##MOLFORM=C11H20N2
##CAS REGISTRY NO=1202-53-5
##MP= -300
##BP= -300
##MW= 180
##$RETENTION INDEX=0
##$CONDENSED SPECTRUM=NO
##NPOINTS= 72
##XYDATA=(XY..XY) 1 
    15          8
    26          4
    27         56
    28         30
    29        136
    30          7
    37          1
    38          3
    39         87
    40         16
    41        327
    42         33
    43        436
    44          9
    45          1
    50          3
    51          7
    52          6
    53         39
    54         53
    55        319
    56        136
    57        771
    58         47
    59          1
    61          1
    65          4
    66          6
    67         90
    68         38
    69         25
    70          9
    71          1
    77          6
    78          3
    79         13
    80          7
    81        194
    82        123
    83        999
    84         62
    85          2
    94          2
    95         62
    96         57
    97         25
    98          7
    99         17
   100          1
   106          1
   107          2
   108          1
   109         19
   110          2
   111          5
   112          1
   122          1
   123         59
   124         50
   125         76
   126          8
   137          4
   138          4
   139          1
   151          4
   152          1
   165        417
   166         50
   167          2
   179          4
   180         11
   181          1