##TITLE=Library Entry 3743
##JCAMP-DX=Revision 4.10 
##DATA TYPE=MASS SPECTRUM
##SAMPLE DESCRIPTION=G. Wolber, Eastman Kodak Company, Rochester, NY
##NAMES=HP
##CAS NAME=Azacyclododecan-2-one
##MOLFORM=C11H21NO
##CAS REGISTRY NO=1202-71-7
##MP= -300
##BP= -300
##MW= 183
##$RETENTION INDEX=0
##$CONDENSED SPECTRUM=NO
##NPOINTS= 119
##XYDATA=(XY..XY) 1 
    26         12
    27        232
    28        232
    29        313
    30        893
    31         27
    32          3
    37          2
    38          8
    39        360
    40         94
    41        999
    42        376
    43        350
    44        302
    45        146
    46         15
    48          2
    49          2
    50          7
    51         28
    52         17
    53        146
    54        197
    55        965
    56        524
    57        177
    58        145
    59        206
    60        203
    61          3
    63          2
    64          2
    65         42
    66         29
    67        239
    68        166
    69        334
    70        275
    71         69
    72        370
    73        408
    74         43
    75          4
    77         41
    78         14
    79         96
    80         59
    81        181
    82        181
    83        239
    84        486
    85        183
    86        994
    87        288
    88         22
    91         24
    92          6
    93         47
    94         59
    95        137
    96        130
    97        249
    98        696
    99        330
   100        506
   101        125
   102         11
   105          5
   106          4
   107         29
   108         36
   109         53
   110         81
   111        260
   112        509
   113        189
   114        184
   115         48
   116          2
   119         12
   120         10
   121         12
   122         70
   123         59
   124        101
   125         56
   126        608
   127        114
   128         91
   129         18
   133          9
   134          8
   135          7
   136         58
   137         46
   138         26
   140        733
   141        110
   142        195
   143         17
   148         14
   150         13
   151         13
   152          8
   153          3
   154        247
   155         48
   156          7
   164         23
   165         18
   166         50
   167          2
   168         86
   169          9
   182         51
   183        698
   184         80
   185          5