##TITLE=Library Entry 80221
##JCAMP-DX=Revision 4.10 
##DATA TYPE=MASS SPECTRUM
##SAMPLE DESCRIPTION=Chemical Concepts
##NAMES=HP
##CAS NAME=(4-Chloro-3-nitrophenyl)phenylmethanol
##MOLFORM=C13H10ClNO3
##CAS REGISTRY NO=120322-85-2
##MP= -300
##BP= -300
##MW= 263
##$RETENTION INDEX=0
##$CONDENSED SPECTRUM=NO
##NPOINTS= 79
##XYDATA=(XY..XY) 1 
    30         33
    32         18
    36         36
    38         16
    39         43
    44         38
    50         58
    51        170
    52         35
    53         26
    62         16
    63         50
    64         16
    65         18
    73         13
    74         39
    75        132
    76         67
    77        475
    78        226
    79        655
    80         43
    82         23
    84         11
    86         11
    87         16
    89         15
    90         10
    91         12
    99         12
   102         10
   103         11
   105        999
   108         16
   110         55
   111         80
   112         41
   113         33
   114         12
   115         21
   126         17
   127         15
   128         16
   137        105
   139         74
   140         86
   141        210
   142         30
   143         59
   150         30
   151         31
   152         89
   153         41
   154         17
   163         41
   164         31
   165         55
   166         12
   168         99
   169         17
   170         33
   181         17
   184        164
   185         61
   186        105
   187         26
   188         31
   199         39
   200         17
   201         16
   216         32
   217         12
   218         17
   229         11
   246         17
   263        214
   264         21
   265         70
   266          8