##TITLE=Library Entry 58611
##JCAMP-DX=Revision 4.10 
##DATA TYPE=MASS SPECTRUM
##SAMPLE DESCRIPTION=Institute of Organic Chemistry, USSR, 1990
##NAMES=HP
##CAS NAME=3,3'-Hexamethylenbis(1,5,8,11-tetraoxacyclotridecane)
##MOLFORM=C24H46O8
##CAS REGISTRY NO=120343-87-5
##MP= -300
##BP= -300
##MW= 462
##$RETENTION INDEX=0
##$CONDENSED SPECTRUM=NO
##NPOINTS= 125
##XYDATA=(XY..XY) 1 
    54         42
    55        211
    56         37
    57        158
    58        132
    59        232
    60         14
    67        200
    68         68
    69        137
    70         42
    71        111
    72        100
    73        300
    74         11
    75         63
    76         11
    77         38
    78          9
    79         63
    80         79
    81        274
    82         74
    83        105
    84         29
    85        126
    86         42
    87        316
    88         90
    89        999
    90         63
    91        121
    92         29
    93         95
    94         90
    95        211
    96         79
    97         90
    98         32
    99         39
   100         27
   101        100
   102         16
   103         84
   104         14
   105         53
   106         37
   107        137
   108         63
   109         90
   110         37
   111         41
   117         68
   118         18
   119         68
   120         53
   121         74
   122         45
   123         45
   124         26
   131         43
   132         13
   133        684
   134         90
   135         84
   136         30
   145         42
   146         17
   147         90
   148         29
   149         63
   150         25
   151        163
   152         18
   155         79
   156          8
   160         74
   161         84
   162        179
   163        147
   164         26
   165         27
   175         29
   176         11
   177         32
   178         41
   179         90
   180         18
   181         20
   199         74
   200          8
   201          8
   206         19
   207         13
   223         18
   224          9
   225         17
   239         20
   240          7
   241         18
   242          5
   243         12
   261          8
   269         13
   283          8
   284         12
   285          9
   287          8
   299          7
   300         11
   301         17
   311          8
   312         68
   313         25
   314          7
   329        195
   330         53
   331         20
   345         11
   356         11
   375          9
   419         11
   462         30
   463         17
   464          4