##TITLE=Library Entry 87276
##JCAMP-DX=Revision 4.10 
##DATA TYPE=MASS SPECTRUM
##SAMPLE DESCRIPTION=G. Lange, Inst. Org. Chem., Univ. Wurzburg, Wurzburg, G
ermany
##NAMES=HP
##CAS NAME=2H-1-Benzopyran-2-one, 3,5,6,7,8,8a-hexahydro-8a-(4-hydroxyphenox
y)-
##MOLFORM=C15H16O4
##CAS REGISTRY NO=120317-68-2
##MP= -300
##BP= -300
##MW= 260
##$RETENTION INDEX=0
##$CONDENSED SPECTRUM=NO
##NPOINTS= 80
##XYDATA=(XY..XY) 1 
    36          2
    37         22
    38         91
    39        432
    40         95
    41        112
    42         78
    43        153
    44         18
    45         30
    46         23
    47          8
    49          8
    50         87
    51        189
    52        220
    53        366
    54        182
    55        297
    56         19
    57         18
    58          1
    59          2
    60         30
    61         51
    62         46
    63         99
    64         60
    65        133
    66        251
    67         48
    68         31
    69         37
    70         13
    71         11
    72         20
    73         10
    74          9
    75          6
    76          3
    77        101
    78         61
    79        176
    80        133
    81        343
    82        159
    83         12
    84          4
    88          4
    89          7
    90          3
    91         78
    92         21
    93         89
    94        759
    95         72
    96          6
    99         10
   100          5
   103         13
   104         23
   105          8
   107         31
   108         11
   109         61
   110        999
   111         68
   112          6
   119          3
   120          8
   121         56
   122        729
   123         90
   124          7
   149         10
   150        393
   151         89
   152          8
   216          2
   260          0