##TITLE=Library Entry 100223
##JCAMP-DX=Revision 4.10 
##DATA TYPE=MASS SPECTRUM
##SAMPLE DESCRIPTION=NIST Mass Spectrometry Data Center, 1994
##NAMES=HP
##CAS NAME=2-Amino-N-t-butylbenzamide
##MOLFORM=C11H16N2O
##CAS REGISTRY NO=1203-89-0
##MP= -300
##BP= -300
##MW= 192
##$RETENTION INDEX=0
##$CONDENSED SPECTRUM=NO
##NPOINTS= 71
##XYDATA=(XY..XY) 1 
    14          7
    15         49
    18         10
    26          8
    27         55
    28         52
    29        104
    30         16
    37          7
    38         34
    39        193
    40         31
    41        191
    42        161
    43         13
    44         10
    45          2
    46          3
    50         13
    51         21
    52         52
    53         20
    54         17
    55         15
    56         17
    57         86
    58         68
    59          4
    61          3
    62         17
    63         61
    64         77
    65        371
    66         57
    67          4
    72          3
    74          7
    75          8
    76         10
    77          7
    78          4
    79          5
    80         19
    81         14
    87          2
    89         24
    90         22
    91         84
    92        407
    93         34
    94          2
   102          2
   104          1
   105          3
   106          4
   107         25
   108          2
   119        999
   120        829
   121         64
   122          3
   136        264
   137         26
   160          8
   161         13
   162          2
   177         24
   178          2
   192        322
   193         41
   194          2