##TITLE=Library Entry 58613
##JCAMP-DX=Revision 4.10 
##DATA TYPE=MASS SPECTRUM
##SAMPLE DESCRIPTION=Institute of Organic Chemistry, USSR, 1990
##NAMES=HP
##CAS NAME=3,3'-Trimethylenebis(1,5,8,11-tetraoxacyclotridecane)
##MOLFORM=C21H40O8
##CAS REGISTRY NO=120343-86-4
##MP= -300
##BP= -300
##MW= 420
##$RETENTION INDEX=0
##$CONDENSED SPECTRUM=NO
##NPOINTS= 121
##XYDATA=(XY..XY) 1 
    54         93
    55        285
    56         70
    57        148
    58        133
    59        289
    60         24
    67        300
    68         89
    69        137
    70         56
    71        122
    72         93
    73        370
    74         16
    79        211
    80        104
    81        196
    82         67
    83         74
    84         41
    85         37
    86         52
    87        315
    88        107
    89        999
    90         70
    91        111
    92         85
    93        170
    94        122
    95        148
    96         56
    97         63
    99         52
   100         44
   101         67
   103         85
   104         19
   105         74
   106         59
   107        122
   108        130
   109        159
   110         48
   111         26
   117         67
   118         82
   119         89
   120        407
   121        219
   122         85
   123         67
   124         38
   125         33
   131         41
   132         15
   133        593
   134         82
   135         52
   136        104
   138         93
   139         56
   149         41
   150         12
   151        130
   152         23
   153         26
   161         20
   162         11
   163         30
   164         52
   165         23
   166         13
   167         21
   180         16
   181         24
   182         17
   183         19
   194          6
   195         19
   196          8
   197         11
   198          9
   199         12
   208         10
   209          6
   210          5
   211         13
   212          5
   213          7
   224          8
   225          8
   226          7
   227         13
   228          4
   229          5
   230          5
   231          7
   239          7
   240          6
   241          7
   242         20
   243          8
   244          5
   255         41
   257          9
   258          3
   259          9
   268         19
   269          9
   270        156
   271         37
   272          7
   287         44
   288          9
   289          5
   301          4
   303          9
   420         12
   421          6