##TITLE=Library Entry 15484
##JCAMP-DX=Revision 4.10 
##DATA TYPE=MASS SPECTRUM
##SAMPLE DESCRIPTION=B. Derendyaev, Novosibirsk Institute of Organic Chemist
ry
##NAMES=HP
##CAS NAME=1,5,6,7-Tetramethylbicyclo[3.2.0]hept-6-en-3-ylideneemicarbazide
##MOLFORM=C12H19N3O
##CAS REGISTRY NO=120345-90-6
##MP= -300
##BP= -300
##MW= 221
##$RETENTION INDEX=0
##$CONDENSED SPECTRUM=NO
##NPOINTS= 114
##XYDATA=(XY..XY) 1 
    40          9
    41        147
    42         45
    43        154
    44        999
    45        262
    46        123
    47          5
    51         16
    52          8
    53         39
    54         12
    55         75
    56         30
    57        111
    58         94
    59          5
    65         26
    66         14
    67         44
    68         14
    69         50
    70         22
    71         56
    72         26
    73         10
    77         62
    78         16
    79         78
    80         21
    81         91
    82         20
    83         95
    84          9
    85         57
    86         16
    91         93
    92         17
    93         67
    94         27
    95         37
    96         21
    97         40
    98         10
    99         18
   100         82
   102          5
   103         18
   104         22
   105        106
   106         75
   107         94
   108         58
   109         30
   110         13
   111         22
   112          9
   113         10
   115         12
   116         19
   117         27
   118         16
   119         61
   120         87
   121        181
   122        109
   123        131
   124         26
   125         17
   126          9
   127          8
   129         64
   130         51
   131         42
   132         33
   133         62
   134         40
   135         26
   136         37
   137         22
   138          7
   139          8
   141          9
   144          9
   145         37
   146        125
   147         64
   148         22
   149         58
   150         55
   151          9
   153          5
   155          6
   160         20
   161         54
   162         88
   163         98
   164         14
   165         27
   166          8
   167         13
   175          6
   177         14
   178         24
   179          7
   189         48
   204         13
   206         84
   207          9
   209          5
   221        170
   222         27
   223          7
   224          6