##TITLE=Library Entry 33708
##JCAMP-DX=Revision 4.10 
##DATA TYPE=MASS SPECTRUM
##SAMPLE DESCRIPTION=G. Lange, Inst. Org. Chem., Univ. Wurzburg, Germany
##NAMES=HP
##CAS NAME=Propanoic acid, 3-(2-oxo-3-cyclohexen-1-yl)-
##MOLFORM=C9H12O3
##CAS REGISTRY NO=120317-65-9
##MP= -300
##BP= -300
##MW= 168
##$RETENTION INDEX=0
##$CONDENSED SPECTRUM=NO
##NPOINTS= 47
##XYDATA=(XY..XY) 1 
    38          5
    39        124
    40        112
    41         76
    42         47
    43         23
    44         11
    45         24
    51         15
    52          9
    53         52
    54         17
    55         97
    56          7
    57         12
    60          8
    65         18
    66         19
    67         40
    68        999
    69         50
    70          6
    71          4
    77         33
    78         12
    79         39
    80         17
    81         41
    82          9
    83         16
    91         14
    93          5
    94         22
    95         69
    96        352
    97         27
   107         12
   108         11
   109         53
   110          5
   121          4
   122         72
   123         12
   150         84
   151         13
   168         31
   169          4