##TITLE=Library Entry 13120
##JCAMP-DX=Revision 4.10 
##DATA TYPE=MASS SPECTRUM
##SAMPLE DESCRIPTION=Chemical Concepts
##NAMES=HP
##CAS NAME=4-(2,6,6-Trimethylcyclohexa-1,3-dienyl)but-3-en-2-one
##MOLFORM=C13H18O
##CAS REGISTRY NO=1203-08-3
##MP= -300
##BP= -300
##MW= 190
##$RETENTION INDEX=1485
##$CONDENSED SPECTRUM=NO
##NPOINTS= 120
##XYDATA=(XY..XY) 1 
    38          3
    39         79
    40         26
    41         92
    42          7
    43        999
    44         24
    45         15
    50          8
    51         40
    52         14
    53         39
    54          3
    55         49
    56          2
    57          5
    58          7
    59          1
    60          0
    61          0
    62          3
    63         21
    64         24
    65         53
    66         10
    67         13
    68          1
    69         20
    70          1
    71          7
    72          2
    73          0
    74          2
    75          4
    76          4
    77         69
    78         19
    79         69
    80         10
    81          7
    82          1
    83          2
    84          0
    85          0
    86          0
    87          1
    88          0
    89         11
    90          2
    91        121
    92         12
    93         19
    94          9
    95          8
    96          5
    97          1
    98          0
   101          1
   102          6
   103         19
   104          6
   105        100
   106         13
   107         16
   108          4
   109          6
   110          0
   113          1
   114          1
   115         69
   116         32
   117         50
   118          8
   119         57
   120         15
   121          9
   122          6
   123          3
   126          1
   127          8
   128         21
   129         24
   130          8
   131        107
   132         23
   133         57
   134         11
   135          4
   136          1
   139          0
   140          0
   141         11
   142         47
   143          8
   144          3
   145         30
   146          9
   147        107
   148         29
   149          5
   150          0
   155          1
   156          2
   157         57
   158          8
   159         11
   160         11
   161          5
   162          1
   163          0
   172          2
   173          3
   174          1
   175        289
   176         37
   177          6
   178          0
   189          1
   190         83
   191         14