##TITLE=Library Entry 73173
##JCAMP-DX=Revision 4.10 
##DATA TYPE=MASS SPECTRUM
##SAMPLE DESCRIPTION=Institute of Organic Chemistry, Novosibirsk, USSR 1988
##NAMES=HP
##CAS NAME=Divinylmethyl(N-methylcarbamoyloxymethyl)silane
##MOLFORM=C8H15NO2Si
##CAS REGISTRY NO=120491-42-1
##MP= -300
##BP= -300
##MW= 185
##$RETENTION INDEX=0
##$CONDENSED SPECTRUM=NO
##NPOINTS= 20
##XYDATA=(XY..XY) 1 
    57         17
    58         40
    71        346
    72         57
    73         28
    74        145
    75          8
    83         37
    84         20
    85         31
    86         18
    87         29
    97         32
    98         90
   100        999
   101        118
   102         47
   112         61
   126         20
   158         12