##TITLE=Library Entry 53028
##JCAMP-DX=Revision 4.10 
##DATA TYPE=MASS SPECTRUM
##SAMPLE DESCRIPTION=Institute of Organic Chemistry, Novosibirsk, USSR 1988
##NAMES=HP
##CAS NAME=(Carbomethoxyaminomethyl)trivinylsilane
##MOLFORM=C9H15NO2Si
##CAS REGISTRY NO=120491-48-7
##MP= -300
##BP= -300
##MW= 197
##$RETENTION INDEX=0
##$CONDENSED SPECTRUM=NO
##NPOINTS= 21
##XYDATA=(XY..XY) 1 
    55        455
    56         17
    57        367
    58         21
    59        228
    60         20
    81         76
    82          8
    83        999
    84         68
    85         22
   109        527
   110         68
   111          8
   113        278
   114         32
   115          6
   133         31
   134          3
   170        118
   171         20