##TITLE=Library Entry 11781
##JCAMP-DX=Revision 4.10 
##DATA TYPE=MASS SPECTRUM
##SAMPLE DESCRIPTION=H. Fales, LC, NHLBI, NIH, Bethesda, MD 20892
##NAMES=HP
##CAS NAME=5,1-Benzothiazepine-2-one, 3-acetylamino-
##MOLFORM=C11H12N2O2S
##CAS REGISTRY NO=120425-71-0
##MP= -300
##BP= -300
##MW= 236
##$RETENTION INDEX=0
##$CONDENSED SPECTRUM=NO
##NPOINTS= 144
##XYDATA=(XY..XY) 1 
    41         16
    42        243
    43        999
    44        217
    45        103
    46         12
    47         19
    48          7
    49         40
    50         23
    51         56
    52         39
    53         24
    54         12
    55         48
    56         12
    57         16
    58         15
    59         10
    60         13
    61          5
    62         11
    63         40
    64         26
    65         73
    66         19
    67          8
    68         37
    69         48
    70        213
    71         19
    72          5
    73          9
    74         15
    75         11
    76         12
    77         46
    78         38
    79         11
    80         67
    81         14
    82         12
    83          7
    84         98
    85         22
    86         31
    87          2
    88          5
    89          8
    90         14
    91         21
    92         19
    93         49
    94         55
    95         26
    96        116
    97         27
    98         10
    99          4
   100          2
   101          0
   102          3
   103          4
   104         21
   105          9
   106         51
   107          7
   108         16
   109         47
   110          7
   111          6
   112        784
   113         44
   114          5
   115          2
   116         11
   117         34
   118          7
   119         30
   120         12
   121         17
   122         29
   123        137
   124         82
   125        827
   126         62
   127         39
   128          3
   129          3
   131          7
   132         20
   133         41
   134         12
   135          8
   136        160
   137         23
   138         24
   139          6
   140          1
   141          3
   143          2
   144          2
   145          5
   146          4
   147         26
   148         47
   149        214
   150         56
   151        215
   152         51
   153         13
   154          3
   159         22
   160          8
   161         32
   162          4
   163          2
   164          5
   165         10
   166          6
   167          2
   168          0
   171          0
   175          2
   176         18
   177        450
   178         54
   179         25
   180          3
   183          0
   185          2
   193          6
   194          3
   195          0
   203          4
   207          2
   208          2
   218          2
   221          0
   222          0
   236        211
   237         31
   238         13
   239          2