##TITLE=Library Entry 30239
##JCAMP-DX=Revision 4.10 
##DATA TYPE=MASS SPECTRUM
##SAMPLE DESCRIPTION=B. Derendyaev, Novosibirsk Institute of Organic Chemist
ry
##NAMES=HP
##CAS NAME=Vinyldimethyl(hydroxymethyl)silane
##MOLFORM=C5H12OSi
##CAS REGISTRY NO=120491-40-9
##MP= -300
##BP= -300
##MW= 116
##$RETENTION INDEX=0
##$CONDENSED SPECTRUM=NO
##NPOINTS= 31
##XYDATA=(XY..XY) 1 
    43        225
    44        150
    45        240
    46         18
    47         97
    55         91
    56          9
    57         42
    58         86
    59        999
    60        102
    61        395
    62         30
    63         18
    67          8
    69         22
    70         31
    71         33
    72          9
    73         99
    74         21
    75        330
    76         29
    77         15
    83         21
    84         19
    85        611
    86         58
    87         38
   107         10
   109         62