##TITLE=Library Entry 8261
##JCAMP-DX=Revision 4.10 
##DATA TYPE=MASS SPECTRUM
##SAMPLE DESCRIPTION=Chemical Concepts
##NAMES=HP
##CAS NAME=1-Phenazinecarboxylic acid, 6-[1-[(1-oxohexadecyl)oxy]ethyl]-
##MOLFORM=C31H42N2O4
##CAS REGISTRY NO=120464-92-8
##MP= -300
##BP= -300
##MW= 506
##$RETENTION INDEX=0
##$CONDENSED SPECTRUM=NO
##NPOINTS= 93
##XYDATA=(XY..XY) 1 
    27        191
    28        157
    29        371
    39        121
    41        840
    43        999
    44         59
    45         71
    50         37
    51         53
    53         44
    54         49
    55        590
    56        152
    57        776
    60        855
    61        224
    63         43
    67         64
    68         52
    69        349
    70         93
    71        370
    73        850
    74         94
    75         55
    76         49
    77         51
    81         44
    82         48
    83        207
    84         93
    85        238
    86        158
    87         29
    89         50
    94         35
    95         45
    97        177
    98        114
    99         85
   101        109
   102         96
   103         88
   111         85
   112         44
   113         62
   115        142
   116         66
   125         53
   126         29
   127         55
   129        398
   130         39
   138         28
   141         39
   143         48
   149         48
   150         27
   151         28
   152         27
   157         89
   171         80
   177         22
   178         24
   179         30
   185         68
   194         29
   196         28
   197         24
   199         24
   203         24
   205        326
   206        377
   207        127
   208        211
   209         33
   213        169
   214         24
   221         24
   223         37
   224         23
   227         36
   250        263
   251        155
   252        148
   256        735
   257        123
   267         93
   268        271
   269         42
   463          0
   507          0