##TITLE=Library Entry 79385
##JCAMP-DX=Revision 4.10 
##DATA TYPE=MASS SPECTRUM
##SAMPLE DESCRIPTION=Japan AIST/NIMC Database- Spectrum MS-NW-8504
##NAMES=HP
##CAS NAME=N-Benzoyl-dl-alanine
##MOLFORM=C10H11NO3
##CAS REGISTRY NO=1205-02-3
##MP= -300
##BP= -300
##MW= 193
##$RETENTION INDEX=0
##$CONDENSED SPECTRUM=NO
##NPOINTS= 62
##XYDATA=(XY..XY) 1 
    15          7
    17          2
    18          7
    26          2
    27         17
    28         20
    29          4
    37          1
    38          3
    39          9
    40          1
    41          3
    42         25
    43          7
    44         18
    45          9
    49          1
    50         37
    51        131
    52         10
    53          2
    55          2
    62          1
    63          2
    64          1
    65          2
    70          2
    71         11
    73          2
    74         14
    75          9
    76         20
    77        384
    78         32
    79          2
    88          5
    91          1
    92          1
   103          4
   104          7
   105        999
   106         82
   107          5
   118          1
   119          1
   120          1
   121          2
   130          3
   131          4
   132          1
   134          2
   139          1
   146          2
   147          5
   148        333
   149        103
   150          9
   175         11
   176          3
   192          1
   193         46
   194          6