##TITLE=Library Entry 79311
##JCAMP-DX=Revision 4.10 
##DATA TYPE=MASS SPECTRUM
##SAMPLE DESCRIPTION=NIST Mass Spectrometry Data Center
##NAMES=HP
##CAS NAME=Hippuric acid, methyl ester
##MOLFORM=C10H11NO3
##CAS REGISTRY NO=1205-08-9
##MP= -300
##BP= -300
##MW= 193
##$RETENTION INDEX=1721
##$CONDENSED SPECTRUM=NO
##NPOINTS= 69
##XYDATA=(XY..XY) 1 
    14          1
    15         11
    26          1
    27          6
    28         14
    29         11
    30          4
    31          3
    33          2
    37          1
    38          4
    39          9
    40          1
    41          1
    42          5
    43          3
    44          4
    45          6
    49          3
    50         62
    51        195
    52         15
    53          4
    54          1
    55          1
    56         13
    57          3
    59         18
    60          1
    61          1
    62          3
    63          4
    64          2
    65          3
    66          1
    67          1
    73          3
    74         20
    75         18
    76         37
    77        519
    78         43
    79          3
    88          3
    89          1
    90          1
    91          4
    92          1
   103          5
   105        999
   106        102
   107          7
   116          1
   117          4
   118          1
   119          1
   132          3
   134        251
   135         24
   136          2
   148          1
   161         94
   162         23
   163          2
   175          3
   176          3
   193         92
   194         11
   195          1