##TITLE=Library Entry 109873
##JCAMP-DX=Revision 4.10 
##DATA TYPE=MASS SPECTRUM
##SAMPLE DESCRIPTION=TNO Volatile Compounds in Food - Chemical Concepts
##NAMES=HP
##CAS NAME=Thiophene, 3,4-bis(ethoxymethyl)-
##MOLFORM=C10H16O2S
##CAS REGISTRY NO=120551-34-0
##MP= -300
##BP= -300
##MW= 200
##$RETENTION INDEX=0
##$CONDENSED SPECTRUM=NO
##NPOINTS= 87
##XYDATA=(XY..XY) 1 
    26          5
    27         38
    29          8
    30          4
    31         68
    33          5
    36          1
    37          4
    38          1
    39         30
    40         11
    41         11
    42          2
    43          3
    44          2
    45        121
    46          9
    47         17
    50          8
    51         18
    52          7
    53         72
    54          6
    55         40
    58          8
    59         30
    60          4
    61          1
    62         12
    63          9
    64          5
    65         39
    66         32
    67         34
    68          1
    69         26
    70         33
    71         23
    72          7
    75          1
    77         35
    78         15
    79          2
    81          2
    82         10
    83          6
    84         29
    85         48
    86          6
    87          6
    91          8
    93          6
    94          7
    95         13
    96         27
    97        234
    98         28
    99         26
   100          5
   101          5
   109         32
   110        341
   111        712
   112        121
   113         47
   114          6
   115          5
   121          9
   123          3
   124          7
   125        999
   126        215
   127         68
   128         19
   135         10
   137          6
   139        353
   140         28
   141         38
   142          8
   143         12
   151          3
   153         16
   154        930
   155        100
   156         50
   157          9