##TITLE=Library Entry 100116
##JCAMP-DX=Revision 4.10 
##DATA TYPE=MASS SPECTRUM
##SAMPLE DESCRIPTION=NIST Mass Spectrometry Data Center, 1998.
##NAMES=HP
##CAS NAME=2-Cyclohexen-1-ol, 2-methyl-5-(1-methylethenyl)-, acetate, cis-
##MOLFORM=C12H18O2
##CAS REGISTRY NO=1205-42-1
##MP= -300
##BP= -300
##MW= 194
##$RETENTION INDEX=1362
##$CONDENSED SPECTRUM=NO
##NPOINTS= 106
##XYDATA=(XY..XY) 1 
    14          1
    15         17
    26          3
    27         68
    29         56
    30          2
    31          3
    37          1
    38          9
    39        224
    40         41
    41        297
    42         38
    43        788
    44         23
    45         13
    50         19
    51         78
    52         38
    53        179
    54         42
    55        242
    56         49
    57         15
    58          8
    59          7
    60          3
    61         10
    62          7
    63         30
    64          9
    65        115
    66         40
    67        131
    68         53
    69         72
    70          5
    71         15
    72          8
    73          1
    74          3
    75          5
    76          5
    77        284
    78         79
    79        264
    80        112
    81        108
    82         74
    83         99
    84        816
    85         45
    86          4
    87          2
    89         13
    91        649
    92        344
    93        375
    94         66
    95         71
    96         64
    97         39
    98          4
   101          1
   102          7
   103         44
   104         23
   105        327
   106        141
   107        190
   108        170
   109        976
   110         93
   111         14
   112          1
   113          2
   114          1
   115         40
   116         11
   117         96
   118         20
   119        999
   120        106
   121         16
   122         10
   123         48
   124         27
   125          6
   126         29
   127          3
   128          3
   129          2
   131          7
   132          7
   133         43
   134        306
   135         60
   136          7
   137         81
   138          9
   150         19
   151         96
   152        731
   153         94
   154          7
   194          5