##TITLE=Library Entry 27208
##JCAMP-DX=Revision 4.10 
##DATA TYPE=MASS SPECTRUM
##SAMPLE DESCRIPTION=Chemical Concepts
##NAMES=HP
##CAS NAME=Boron, [.mu.-(3,5-dimethyl-1H-pyrazolato-N1:N2)]tetraethyl-.mu.-h
ydroxydi-
##MOLFORM=C13H28B2N2O
##CAS REGISTRY NO=120610-79-9
##MP= -300
##BP= -300
##MW= 250
##$RETENTION INDEX=0
##$CONDENSED SPECTRUM=NO
##NPOINTS= 126
##XYDATA=(XY..XY) 1 
    27        305
    28        185
    29        576
    30         24
    31         25
    36         17
    37         82
    38        107
    39        325
    40        208
    41        540
    42        172
    43         35
    44          5
    45          1
    47          0
    48          0
    49          8
    50         39
    51        112
    52        169
    53        175
    54        155
    55         92
    56        236
    57        999
    58         38
    59         75
    60          2
    61          6
    62         11
    63         26
    64         52
    65        194
    66        450
    67        166
    68        111
    69        332
    70         15
    74          0
    75          4
    76         10
    77         24
    78         60
    79         59
    80         93
    81         51
    82         25
    83          0
    85          8
    86         35
    87          4
    88          8
    89          2
    90          8
    91         24
    92         53
    93         84
    94        205
    95        127
    96        164
    97        118
    98          5
   104          4
   105         13
   106         70
   107        212
   108        217
   109        676
   110         40
   111          0
   117          1
   118          6
   119         15
   120         24
   121         78
   122         24
   123         18
   124         79
   125        179
   126         12
   131          4
   132         15
   133         66
   134        238
   135        765
   136        139
   137        249
   138         20
   144          0
   145          5
   146          6
   147         14
   148         67
   149        215
   150         21
   158          3
   159         11
   160         32
   161         83
   162        153
   163        338
   164        218
   165        202
   166         20
   172          0
   173          4
   174         10
   175         20
   176         15
   177         19
   178          0
   187          1
   188          8
   189         84
   190        488
   191        974
   192        112
   193          8
   204          0
   205          4
   219         46
   220        322
   221        704
   222         98
   223          7