##TITLE=Library Entry 3483
##JCAMP-DX=Revision 4.10 
##DATA TYPE=MASS SPECTRUM
##SAMPLE DESCRIPTION=Chemical Concepts
##NAMES=HP
##CAS NAME=Boron, tetraethyl-.mu.-hydroxy[.mu.-(3-methyl-5-phenyl-1H-pyrazol
ato-N1:N2)]di-
##MOLFORM=C18H30B2N2O
##CAS REGISTRY NO=120610-80-2
##MP= -300
##BP= -300
##MW= 312
##$RETENTION INDEX=0
##$CONDENSED SPECTRUM=NO
##NPOINTS= 162
##XYDATA=(XY..XY) 1 
    26         81
    27        291
    28        119
    29        329
    30          7
    31          4
    36         18
    37         79
    38         80
    39        303
    40        359
    41        999
    42        100
    43         18
    44          0
    46          0
    49          6
    50         59
    51        157
    52         89
    53        134
    54         65
    55         60
    56        123
    57        411
    58         13
    59         14
    60          2
    61         10
    62         22
    63         61
    64         28
    65         47
    66         75
    67         67
    68        212
    69        717
    70         32
    71          0
    73          2
    74         26
    75         30
    76         38
    77        157
    78         40
    79         21
    80          8
    81         16
    82          6
    83          2
    84          3
    85          4
    86         14
    87         14
    88         11
    89         53
    90         38
    91         26
    92          6
    93          6
    94         13
    95         14
    96         59
    97        126
    98          7
    99          6
   100         15
   101         37
   102         48
   103         36
   104         34
   105          7
   106          0
   108          0
   109          0
   110          0
   111          2
   112          4
   113         13
   114         17
   115         48
   116         34
   117         34
   118          8
   119          5
   120          0
   121          2
   123         40
   124        267
   125        542
   126         48
   127         73
   128        150
   129         71
   130         51
   131          8
   132          0
   138          0
   139          2
   140          7
   141          5
   142          9
   143         33
   144          4
   148          3
   149         12
   150          1
   151          1
   152          3
   153          6
   154          8
   155          9
   156         15
   157        106
   158        330
   159         49
   160          3
   166          2
   167          6
   168         45
   169        175
   170         38
   171         56
   172          6
   180          2
   181          7
   182         10
   183         20
   184          4
   185          1
   194          6
   195         28
   196         65
   197        189
   198         29
   199          7
   200          0
   208          1
   209          3
   210         10
   211         37
   212          6
   221          0
   222          2
   223          6
   224         29
   225        110
   226         82
   227         17
   228          1
   237          0
   238          0
   239          0
   251          6
   252         40
   253         85
   254         13
   255          0
   281          3
   282         26
   283         56
   284          9