##TITLE=Library Entry 66879
##JCAMP-DX=Revision 4.10 
##DATA TYPE=MASS SPECTRUM
##SAMPLE DESCRIPTION=Institute of Organic Chemistry, USSR, 1990
##NAMES=HP
##CAS NAME=1-Butyl-2-pentafluorophenyl-3-phenylguanidine
##MOLFORM=C17H16F5N3
##CAS REGISTRY NO=120672-81-3
##MP= -300
##BP= -300
##MW= 357
##$RETENTION INDEX=0
##$CONDENSED SPECTRUM=NO
##NPOINTS= 78
##XYDATA=(XY..XY) 1 
    41        147
    42          9
    43         15
    44         62
    51         41
    52          6
    55         23
    56          9
    57         99
    58          8
    63          5
    64          9
    65         87
    66         51
    67          6
    72         26
    77        138
    78         18
    91         33
    92         89
    93        999
    94         77
   104         10
   106         16
   117         10
   118         92
   119        104
   120         14
   131          9
   132         11
   133          8
   134         43
   135         19
   148         12
   149         28
   155          6
   162          8
   167          8
   174         12
   175         45
   176          6
   181         18
   182         17
   183         45
   194         11
   208         54
   209         60
   210         10
   218          6
   221         11
   238         10
   239          9
   258         12
   259         17
   265         12
   280          6
   281         17
   282         42
   283         18
   284         24
   285         17
   294         66
   295         37
   296         24
   299         75
   300         44
   313         50
   314         43
   327         24
   328          5
   337          9
   338         36
   339          7
   342         21
   356         31
   357        322
   358         66
   359          5