##TITLE=Library Entry 84894
##JCAMP-DX=Revision 4.10 
##DATA TYPE=MASS SPECTRUM
##SAMPLE DESCRIPTION=D.HENNEBERG, MAX-PLANCK INSTITUTE, MULHEIM, WEST GERMAN
Y
##NAMES=HP
##CAS NAME=Iron, tricarbonyl(.eta.4-1,3-cyclobutadiene)-
##MOLFORM=C7H4FeO3
##CAS REGISTRY NO=12078-17-0
##MP= -300
##BP= -300
##MW= 192
##$RETENTION INDEX=0
##$CONDENSED SPECTRUM=NO
##NPOINTS= 97
##XYDATA=(XY..XY) 1 
    27          6
    28         98
    29          2
    37          2
    38          1
    39          4
    40          7
    41         19
    42          7
    43          3
    44          1
    45          0
    49          3
    50         12
    51         14
    52          8
    53          4
    54         57
    55         18
    56        708
    57         40
    58          2
    61          1
    63          0
    65          1
    66          1
    67          1
    68         42
    69         10
    70          3
    72          1
    73          1
    77          1
    78          3
    79         12
    80         75
    81        199
    82        929
    83         41
    84        225
    85         11
    86          2
    87          2
    89          0
    91          2
    92          1
    93          8
    94          5
    96          1
    99          0
   104          3
   105         13
   106         79
   107         26
   108        999
   109         69
   110         26
   111          1
   112         31
   113          2
   114          0
   116          2
   118          0
   119          0
   120          0
   121          1
   122          1
   123          1
   124          0
   133          1
   134          5
   135          5
   136         86
   137          7
   138          2
   139          0
   140          7
   141          1
   142          6
   143          0
   144          2
   147          2
   149          1
   161          1
   162         28
   163          2
   164        451
   165         38
   166          5
   168          7
   170          2
   172          0
   190         23
   191          2
   192        376
   193         38
   194          5