##TITLE=Library Entry 23326
##JCAMP-DX=Revision 4.10 
##DATA TYPE=MASS SPECTRUM
##SAMPLE DESCRIPTION=Humboldt-Universitat zu Berlin, Department of Chemistry
, Analytical Group
##NAMES=HP
##CAS NAME=5-Tert.butyloxycarboxamido-3,3-dimethyl-2-methylene-2,3-dihydro-i
ndol-1-carboxylic acid, tert-butyl ester
##MOLFORM=C21H30N2O4
##CAS REGISTRY NO=120724-93-8
##MP= -300
##BP= -300
##MW= 374
##$RETENTION INDEX=0
##$CONDENSED SPECTRUM=NO
##NPOINTS= 235
##XYDATA=(XY..XY) 1 
    12          3
    13          4
    14          2
    15         26
    16          3
    17         14
    18         54
    19          0
    26          4
    27         47
    28         25
    29        242
    30          7
    31         20
    32          1
    33          0
    35          8
    36          2
    37          3
    38          3
    39         62
    40         13
    41        369
    42         23
    43         67
    44         18
    45          6
    47         13
    48          6
    49          4
    50          4
    51          5
    52          3
    53          7
    54          2
    55         21
    56         30
    57        999
    58         46
    59         36
    60          1
    61          0
    62          0
    63          2
    64          1
    65          4
    66          1
    67          2
    68          0
    69          3
    70          2
    71          3
    72          0
    73          1
    74          0
    75          0
    76          1
    77          9
    78          3
    79          3
    80          0
    81          1
    82          2
    83         31
    84          2
    85         20
    86          0
    87          3
    88          0
    89          4
    90          2
    91          4
    92          1
    93          2
    94          5
    95          1
    96          0
    97          1
    98          0
    99          0
   101          1
   102          2
   103          7
   104          3
   105          2
   106          1
   107          1
   108          2
   109          1
   110          0
   111          1
   112          0
   113          0
   114          1
   115          5
   116          4
   117          4
   118          4
   119          2
   120          1
   121          2
   122          1
   123          0
   124          0
   125          0
   126          0
   127          1
   128          3
   129          3
   130         17
   131         13
   132          7
   133          2
   134          0
   135          0
   137          0
   138          1
   139          0
   140          1
   141          1
   142          3
   143          5
   144          5
   145          6
   146          2
   147          1
   148          0
   149          5
   150          0
   151          0
   152          0
   153          0
   154          0
   155          2
   156          4
   157         16
   158         26
   159         24
   160          3
   161          0
   162          8
   163          1
   164          0
   165          0
   166          0
   167          1
   168          0
   169          0
   170          0
   171          6
   172          8
   173         27
   174         18
   175          3
   176          0
   177          0
   178          0
   179          0
   181          0
   183          0
   184          2
   185          9
   186          2
   187          0
   188          0
   189          0
   190          0
   191          0
   192          0
   193          1
   194          0
   197          0
   198          0
   199          2
   200          2
   201          4
   202          5
   203         56
   204          7
   205          1
   206          0
   208          0
   213          0
   214          0
   215          1
   216          0
   217         26
   218        101
   219         16
   220          3
   221          0
   227          0
   229          0
   230          0
   231          0
   235          0
   236          0
   237          0
   238          0
   243          0
   244          0
   245          5
   247         30
   248          4
   249          1
   250          0
   252          0
   259          0
   262        114
   263         17
   264          6
   265          0
   266          0
   273          1
   274          1
   275          0
   276          0
   279          0
   280          2
   281          0
   296          0
   300          0
   301          1
   302          0
   303          0
   318         26
   319          6
   320          1
   321          0
   336          0
   337          0
   374         11
   375          2
   376          0
   377          0