##TITLE=Library Entry 53511
##JCAMP-DX=Revision 4.10 
##DATA TYPE=MASS SPECTRUM
##SAMPLE DESCRIPTION=A. Brossi, LC, NIDDK, NIH, Bethesda, MD 20892
##NAMES=HP
##CAS NAME=.alpha.-Pyrrolidone, 5-[3-hydroxy-1-hexyl]-
##MOLFORM=C10H19NO2
##CAS REGISTRY NO=120782-01-6
##MP= -300
##BP= -300
##MW= 185
##$RETENTION INDEX=0
##$CONDENSED SPECTRUM=NO
##NPOINTS= 148
##XYDATA=(XY..XY) 1 
    41        567
    42         39
    43        289
    44        128
    45         88
    46         10
    47          7
    48         14
    49         18
    50         16
    51         26
    52         20
    53         81
    54        101
    55        310
    56        463
    57        118
    58         88
    59         32
    60         12
    61          3
    62          4
    63         10
    64         10
    65         36
    66         20
    67         89
    68         80
    69        150
    70         76
    71         59
    72         16
    73         19
    74         10
    75          5
    76          3
    77         21
    78         13
    79         55
    80         62
    81         64
    82        108
    83         40
    84        999
    85         27
    86        166
    87         11
    88          4
    89          2
    90          2
    91         17
    92          4
    93         18
    94         17
    95         52
    96         52
    97         98
    98         46
    99         23
   100         20
   101         37
   102        365
   103         17
   104          3
   105          4
   106          6
   107         11
   108         16
   109         14
   110         74
   111         31
   112        129
   113         43
   114         12
   115         13
   116        145
   117         15
   118          2
   119          1
   120          9
   121          5
   122         10
   123          7
   124        137
   125         33
   126         17
   127          4
   128         14
   129         18
   130         23
   131          4
   132          1
   133          2
   134          2
   135          2
   136          4
   137          4
   138         20
   139         16
   140         22
   141          8
   142         44
   143          7
   144          3
   145          1
   146          1
   147          0
   148          0
   149          1
   150          0
   151          7
   152          6
   153          2
   154          7
   155         12
   156         19
   157         35
   158         14
   159          2
   160          2
   161          1
   162          2
   163          1
   164          3
   165          4
   166         25
   167         42
   168        135
   169         19
   170         11
   171          1
   172          4
   173          1
   174          0
   175          2
   176          3
   177          2
   178          2
   179          2
   180          6
   181          2
   182          6
   183          3
   184         25
   185         83
   186         44
   187         27
   188          2