##TITLE=Library Entry 3167
##JCAMP-DX=Revision 4.10 
##DATA TYPE=MASS SPECTRUM
##SAMPLE DESCRIPTION=D.HENNEBERG, MAX-PLANCK INSTITUTE, MULHEIM, WEST GERMAN
Y
##NAMES=HP
##CAS NAME=Nickel, bis(.eta.3-2-propenyl)-
##MOLFORM=C6H10Ni
##CAS REGISTRY NO=12077-85-9
##MP= -300
##BP= -300
##MW= 140
##$RETENTION INDEX=0
##$CONDENSED SPECTRUM=NO
##NPOINTS= 102
##XYDATA=(XY..XY) 1 
    26         14
    27        141
    28         40
    29         56
    30          1
    32          0
    36          2
    37          6
    38         19
    39        559
    40         81
    41        999
    42         94
    43         13
    44          0
    49          0
    50          6
    51         21
    52         19
    53         90
    54        561
    55         55
    56          6
    57          3
    58        347
    60        132
    61          8
    62         19
    63          3
    64          4
    65         30
    66         17
    67        991
    68         56
    69          2
    70          1
    71          1
    72          8
    73          9
    75          3
    76          0
    77         23
    78          6
    79         32
    80          6
    81         84
    82         20
    83          2
    84        110
    85         13
    86         47
    87          6
    88          7
    89          0
    90          1
    91          0
    92          0
    93          0
    95          4
    96         11
    97        113
    98        242
    99        218
   100        227
   101         82
   102         69
   103         14
   104         10
   105          2
   106          2
   107          0
   108          0
   109          1
   110          3
   111          3
   112         40
   113          6
   114         47
   115          4
   116         14
   117          1
   118          2
   120          0
   121          0
   123          9
   124          5
   125          5
   126          2
   127          1
   128          0
   135          0
   136          8
   137          1
   138          9
   139          1
   140        351
   141         24
   142        137
   143         15
   144         19
   145          1
   146          4