##TITLE=Library Entry 18312
##JCAMP-DX=Revision 4.10 
##DATA TYPE=MASS SPECTRUM
##SAMPLE DESCRIPTION=Chemical Concepts
##NAMES=HP
##CAS NAME=Chromium, tris-.eta.<3>-allyl-
##MOLFORM=C9H15Cr
##CAS REGISTRY NO=12082-46-1
##MP= -300
##BP= -300
##MW= 175
##$RETENTION INDEX=0
##$CONDENSED SPECTRUM=NO
##NPOINTS= 88
##XYDATA=(XY..XY) 1 
    27         60
    28         15
    29          2
    31          0
    36         16
    37         81
    38        122
    39        726
    40        253
    41        376
    42         81
    43          3
    44          2
    50         52
    51          2
    52        999
    53        118
    54         30
    55          3
    56          1
    57          0
    58          1
    62          0
    63          1
    64          1
    65          4
    66         19
    67         18
    68          2
    69          1
    72          0
    74          0
    75          1
    76          1
    77         26
    78         11
    79         26
    80          6
    81          4
    82          4
    83          1
    84          0
    88          0
    89          5
    90         12
    91         82
    92         44
    93        750
    94        122
    95         27
    96          1
   101          1
   103          2
   104          1
   105          7
   106          8
   107         18
   108          3
   109          0
   115          0
   117          3
   118          1
   119          1
   120          0
   129          1
   130          1
   131         28
   132         28
   133        168
   134        351
   135         80
   136         13
   137          1
   141          0
   142          0
   143          1
   144          0
   145          1
   146          0
   147          3
   148          1
   149          0
   171          0
   173         28
   175        439
   176        128
   177         22
   178          1