##TITLE=Library Entry 18334
##JCAMP-DX=Revision 4.10 
##DATA TYPE=MASS SPECTRUM
##SAMPLE DESCRIPTION=Japan AIST/NIMC Database- Spectrum MS-IW-1111
##NAMES=HP
##CAS NAME=(Methylbenzene)tricarbonylchromium
##MOLFORM=C10H8CrO3
##CAS REGISTRY NO=12083-24-8
##MP= -300
##BP= -300
##MW= 228
##$RETENTION INDEX=0
##$CONDENSED SPECTRUM=NO
##NPOINTS= 79
##XYDATA=(XY..XY) 1 
    27          3
    28         50
    29          5
    38          1
    39         10
    40          1
    41          9
    42          1
    43          1
    44          1
    45          3
    46          1
    50         71
    51          5
    52        999
    53        158
    54         38
    55          1
    56          6
    57         37
    58          1
    62          2
    63          5
    64          1
    65         13
    66          3
    67          1
    71          2
    72         32
    73          2
    75          1
    76          1
    77         25
    78          8
    79          2
    80         29
    81          4
    82          1
    85          1
    86         16
    87          6
    89          4
    90         12
    91         79
    92         51
    93          4
   100          9
   101          3
   102          1
   103          4
   104          1
   108          3
   115          1
   116          2
   117          1
   141          1
   142         38
   143         21
   144        702
   145        132
   146         27
   147          1
   170          6
   171          6
   172         92
   173         18
   174          4
   198          3
   200         54
   201         11
   202          2
   224          3
   225          1
   226         16
   227          2
   228        326
   229         73
   230         16
   231          1