##TITLE=Library Entry 109399
##JCAMP-DX=Revision 4.10 
##DATA TYPE=MASS SPECTRUM
##SAMPLE DESCRIPTION=ASES Database, Dalian Institute, P.R. China
##NAMES=HP
##CAS NAME=Benzenesulfinothioic acid, S-phenyl ester
##MOLFORM=C12H10OS2
##CAS REGISTRY NO=1208-20-4
##MP= -300
##BP= -300
##MW= 234
##$RETENTION INDEX=0
##$CONDENSED SPECTRUM=NO
##NPOINTS= 16
##XYDATA=(XY..XY) 1 
    45          9
    50         88
    51        291
    53         70
    65        319
    69        110
    77        290
    97        209
   109        380
   110         90
   125        999
   126         90
   186        260
   234         49
   235         10
   236          5