##TITLE=Library Entry 18323
##JCAMP-DX=Revision 4.10 
##DATA TYPE=MASS SPECTRUM
##SAMPLE DESCRIPTION=Chemical Concepts
##NAMES=HP
##CAS NAME=Benzenechromiumtricarbonyl
##MOLFORM=C9H6CrO3
##CAS REGISTRY NO=12082-08-5
##MP= -300
##BP= -300
##MW= 214
##$RETENTION INDEX=0
##$CONDENSED SPECTRUM=NO
##NPOINTS= 45
##XYDATA=(XY..XY) 1 
    27          4
    28         75
    29          1
    37          3
    38          5
    39         14
    40          1
    44          1
    49          4
    50         53
    51         26
    52        999
    53        123
    54         27
    62          1
    63          4
    64          6
    65         24
    68          2
    74          5
    75          4
    76          3
    77         51
    78         44
    79         10
    80         46
    81          7
    90          4
    93          4
   101          7
   103          9
   104          1
   108          3
   128         13
   129          5
   130        198
   131         38
   132          7
   158         16
   159          2
   186         12
   212          4
   214         91
   215         22
   216          5