##TITLE=Library Entry 18378
##JCAMP-DX=Revision 4.10 
##DATA TYPE=MASS SPECTRUM
##SAMPLE DESCRIPTION=D.HENNEBERG, MAX-PLANCK INSTITUTE, MULHEIM, WEST GERMAN
Y
##NAMES=HP
##CAS NAME=Chromium, tricarbonyl[(1,2,3,4,5,6-.eta.)-hexamethylbenzene]-
##MOLFORM=C15H18CrO3
##CAS REGISTRY NO=12088-11-8
##MP= -300
##BP= -300
##MW= 298
##$RETENTION INDEX=0
##$CONDENSED SPECTRUM=NO
##NPOINTS= 176
##XYDATA=(XY..XY) 1 
    26         10
    27         16
    28        174
    29         11
    30          0
    31          1
    32          9
    36          0
    37          0
    38          1
    39         18
    40          3
    41         32
    42          5
    43          8
    44          7
    45          0
    49          0
    50         50
    51          6
    52        999
    53        116
    54         27
    55         12
    56          2
    57          1
    58          0
    62          0
    63          3
    65          8
    66          1
    67          3
    68          0
    69          2
    70          0
    71          0
    73          0
    75          1
    76          0
    77         17
    78          6
    79         10
    80          9
    81          2
    82          0
    83          0
    87          0
    88          0
    89          1
    90          1
    91         30
    92          4
    93          4
    94          0
    95          0
    97          0
    98          0
   101          1
   102          1
   103          6
   104          2
   105         22
   106          4
   107         20
   108          2
   110          0
   112          0
   115         13
   116          7
   117         10
   118          3
   119         16
   120          3
   121          8
   122          0
   123          0
   124          0
   126          0
   127          2
   128          8
   129         11
   130          5
   131         13
   132          5
   133         14
   134          2
   135          3
   136          0
   139          0
   141          2
   142          2
   143          3
   144          6
   145          4
   146          4
   147         69
   148          9
   149          2
   151          0
   152          0
   154          0
   155          1
   156          1
   157          2
   158          1
   159          2
   160          1
   161         19
   162         33
   163          4
   164          0
   165          0
   166          0
   167          1
   168          1
   169          2
   170          3
   171          6
   172          1
   173          1
   174          0
   179          0
   180          0
   181          2
   182          2
   183          2
   184          4
   185          6
   186          1
   187          2
   193          0
   194          0
   195          3
   196          1
   197          1
   198          4
   199          4
   200          1
   201          1
   202          1
   203          0
   204          0
   205          0
   207          1
   208          0
   209          5
   210          3
   211          2
   212         46
   213         26
   214        681
   215        173
   216         32
   217          3
   218          0
   220          0
   222          0
   223          0
   227          0
   228          1
   230          0
   240          4
   241          5
   242         57
   243         16
   244          4
   245          0
   269          0
   270          0
   294          0
   296          3
   297          1
   298         77
   299         22
   300          4
   301          0