##TITLE=Library Entry 32572
##JCAMP-DX=Revision 4.10 
##DATA TYPE=MASS SPECTRUM
##SAMPLE DESCRIPTION=Japan AIST/NIMC Database- Spectrum MS-IW-1341
##NAMES=HP
##CAS NAME=(Cyclocta-1,5-diene)platinum(II)chloride
##MOLFORM=C8H12Cl2Pt
##CAS REGISTRY NO=12080-32-9
##MP= -300
##BP= -300
##MW= 373
##$RETENTION INDEX=0
##$CONDENSED SPECTRUM=NO
##NPOINTS= 195
##XYDATA=(XY..XY) 1 
    15          2
    26          9
    27         99
    28         35
    29         17
    35         34
    36        286
    37         12
    38        101
    39        361
    40         29
    41        182
    42          9
    43          3
    44          3
    45          2
    49          4
    50         46
    51        102
    52         55
    53        130
    54        938
    55         59
    56          2
    57          3
    61          4
    62         11
    63         31
    64          5
    65        142
    66        235
    67        999
    68         63
    69          3
    71          1
    73          2
    74         12
    75          9
    76          9
    77        245
    78        171
    79        581
    80        675
    81         50
    82          2
    83          1
    85          1
    86          1
    87          1
    88          1
    89          8
    90          1
    91        215
    92         23
    93        209
    94         16
    95          1
    97          1
    98          3
    99          1
   101          2
   102         18
   103         45
   104         29
   105         80
   106         27
   107         29
   108        107
   109         10
   110          1
   115          1
   135          1
   147          1
   148         16
   149         37
   150         28
   151         10
   152          1
   167          1
   168          1
   194          7
   195          9
   196          7
   197          1
   198          2
   206          2
   207          4
   208          4
   209          2
   210          1
   211          1
   219          3
   220         21
   221         34
   222         26
   223         10
   224          5
   225          3
   229          2
   230          3
   231         15
   232         26
   233         38
   234         28
   235         20
   236          7
   237          5
   242          1
   243          9
   244         24
   245         42
   246         48
   247         45
   248         30
   249         17
   250          7
   251          3
   255          5
   256          8
   257          9
   258         10
   259         20
   260         20
   261         13
   262          5
   263          3
   264          1
   265          1
   266          1
   267          5
   268          8
   269         19
   270         50
   271         72
   272        108
   273         98
   274         70
   275         24
   276         15
   277          6
   278          1
   279          1
   281          1
   282          2
   283         11
   284         23
   285         26
   286         16
   287          8
   288          3
   289          1
   293          2
   294          5
   295         51
   296        157
   297        235
   298        321
   299        324
   300        415
   301        478
   302        394
   303        190
   304         57
   305         44
   306          4
   307          1
   308          3
   309          2
   310          2
   311          1
   312          1
   332          6
   333          7
   334         16
   335         13
   336        132
   337        302
   338        330
   339        245
   340        132
   341         87
   342         15
   343         12
   344          1
   370          7
   371          1
   372        292
   373        324
   374        436
   375        230
   376        255
   377         53
   378         68
   379          6
   380          7