##TITLE=Library Entry 48600
##JCAMP-DX=Revision 4.10 
##DATA TYPE=MASS SPECTRUM
##SAMPLE DESCRIPTION=D.HENNEBERG, MAX-PLANCK INSTITUTE, MULHEIM, WEST GERMAN
Y
##NAMES=HP
##CAS NAME=Rhodium, di-.mu.-bromobis[(1,2,5,6-.eta.)-1,5-cyclooctadiene]di-
##MOLFORM=C16H24Br2Rh2
##CAS REGISTRY NO=12092-45-4
##MP= -300
##BP= -300
##MW= 580
##$RETENTION INDEX=0
##$CONDENSED SPECTRUM=NO
##NPOINTS= 304
##XYDATA=(XY..XY) 1 
    27        150
    28         50
    29         20
    30          0
    35         15
    36         10
    37          4
    38         17
    39        292
    40         29
    41        148
    42          7
    44          0
    46          0
    49          2
    50         29
    51         62
    52         34
    53         82
    54        589
    55         33
    56          1
    60          0
    61          1
    62          5
    63         16
    64          3
    65         52
    66         98
    67        491
    68         33
    73          0
    74          4
    75          3
    76          2
    77         86
    78         47
    79        999
    80        249
    81         20
    82         37
    86          1
    87          0
    89          3
    90          1
    91         65
    92         23
    93        100
    94          7
    95          1
    98          0
   101          0
   102          1
   103          5
   104          2
   105          9
   106          5
   107         11
   108         57
   109          9
   110          8
   112          0
   114          3
   115          0
   116          0
   117          1
   118          0
   119          1
   120          0
   121          0
   122          0
   124          3
   128          0
   129          0
   130          0
   131          0
   133          0
   134          0
   135          1
   136          0
   138          0
   141          0
   142          1
   143          2
   144          0
   145          2
   147          1
   148          0
   149          0
   151          0
   153          0
   154          1
   155          1
   156          1
   157          3
   158          0
   159          0
   161          0
   162          0
   163          0
   165          0
   168          6
   169          1
   170          0
   171          0
   173          0
   174          0
   175          0
   176          0
   178          0
   180          2
   181          8
   182          5
   183          1
   184          0
   185          0
   187          0
   188          0
   191          0
   192          0
   193          0
   194          0
   195          0
   197          0
   203          0
   204          1
   205          7
   206          3
   207          5
   208          3
   209          4
   210          2
   211          3
   212          0
   215          0
   218          6
   219          0
   221          0
   222         11
   224         27
   225          0
   226         28
   227          1
   228         14
   229          1
   230          5
   231          1
   232          7
   233          0
   243          0
   244          1
   245          1
   246          0
   247          0
   255          0
   256          1
   257          1
   258          3
   259          0
   268          0
   269          1
   270          1
   271          0
   272          0
   273          0
   279          0
   280          0
   281          1
   282          9
   283          3
   284          5
   285          2
   286          0
   287          1
   288          0
   289          1
   290          1
   291          1
   292          0
   294          0
   295          0
   296          0
   297          0
   298          0
   299          0
   304          0
   305          0
   306          3
   307          8
   308         31
   309          6
   310         39
   311          4
   312          1
   319          0
   320          0
   322          0
   324          0
   331          0
   332          0
   333          0
   334          1
   335          0
   336          2
   337          0
   338          0
   339          0
   344          0
   345          0
   346          0
   347          0
   348          1
   349          1
   350          2
   351          1
   352          1
   353          0
   356          0
   358          0
   359          0
   360          0
   361          0
   362          1
   363          1
   364          2
   365          1
   366          1
   368          0
   370          0
   372          1
   373          0
   374          1
   375          0
   376          0
   377          0
   378          0
   380          0
   381          0
   382          0
   383          0
   384          0
   385          0
   386          4
   387          4
   388          5
   389          5
   390         21
   391          4
   392         21
   393          2
   394          1
   397          0
   399          0
   400          0
   401          0
   402          0
   404          0
   405          0
   406          1
   407          0
   408          1
   409          1
   410          7
   411          2
   412         15
   413          4
   414         12
   415          3
   416         28
   417          5
   418         10
   419          1
   420          4
   421          1
   428          0
   429          0
   432          0
   433          0
   470          0
   494          3
   495          1
   496         11
   497          3
   498         27
   499          5
   500         21
   501          4
   502          3
   503          0
   538          0
   550          1
   551          0
   552          2
   553          0
   554          1
   555          0
   578          1
   580         27
   581          5
   582         50
   583          9
   584         25
   585          4
   586          0