##TITLE=Library Entry 89788
##JCAMP-DX=Revision 4.10 
##DATA TYPE=MASS SPECTRUM
##SAMPLE DESCRIPTION=Chemical Concepts
##NAMES=HP
##CAS NAME=Nickel, [(1,2,3,6,7,10,11,12-.eta.)-2,6,10-dodecatriene-1,12-diyl
]-
##MOLFORM=C12H18Ni
##CAS REGISTRY NO=12090-21-0
##MP= -300
##BP= -300
##MW= 220
##$RETENTION INDEX=0
##$CONDENSED SPECTRUM=NO
##NPOINTS= 159
##XYDATA=(XY..XY) 1 
    26          9
    27         92
    28          3
    29         28
    37          1
    38          2
    39        120
    41        107
    42          8
    43          7
    45          3
    50          5
    51         23
    52          9
    53         42
    54        147
    55         26
    56          2
    57          2
    58        459
    59          5
    60        177
    61          9
    62         21
    63          6
    64          6
    65         27
    66         18
    67         68
    68          9
    69          3
    70          1
    72          3
    73          2
    74          2
    77         43
    78         15
    79         84
    80         47
    81         10
    82          1
    83          7
    84         68
    85         60
    86         35
    87         24
    88          8
    89          9
    90          0
    91         67
    92         17
    93         50
    94         12
    95         12
    96         10
    97         51
    98         43
    99         48
   100         39
   101         18
   102         12
   103          6
   104          3
   105         28
   106         12
   107         10
   108          9
   109         16
   110         50
   111         47
   112        999
   113         99
   114        357
   115         52
   116         53
   117          7
   118         17
   119         23
   120         12
   121         11
   122          3
   123        121
   124        177
   125         76
   126        116
   127         27
   128         31
   129          6
   130          6
   131          1
   132          1
   133         29
   134         14
   135         16
   136        401
   137        129
   138        253
   139         80
   140        121
   141         24
   142         32
   143          6
   144          6
   147          5
   148          1
   149         43
   150        164
   151         42
   152        163
   153         46
   154         59
   155         14
   156         11
   157          2
   158          2
   159          1
   160          4
   161         15
   162         95
   163         80
   164        224
   165         90
   166        577
   167         76
   168        209
   169         30
   170         33
   171          5
   172          8
   173          3
   174          7
   175          3
   176         19
   177         11
   178         26
   179         32
   180         13
   181         12
   182          2
   183          1
   188          4
   189          1
   190          5
   191          4
   192          9
   194          3
   203          2
   204          1
   205          3
   216          1
   218          9
   219          2
   220        876
   221        110
   222        339
   223         55
   224         49
   225          4
   226          9