##TITLE=Library Entry 18698
##JCAMP-DX=Revision 4.10 
##DATA TYPE=MASS SPECTRUM
##SAMPLE DESCRIPTION=D.HENNEBERG, MAX-PLANCK INSTITUTE, MULHEIM, WEST GERMAN
Y
##NAMES=HP
##CAS NAME=Rhodium 1,5-cyclooctadiene chloride dimer
##MOLFORM=C16H24Cl2Rh2
##CAS REGISTRY NO=12092-47-6
##MP= -300
##BP= -300
##MW= 492
##$RETENTION INDEX=0
##$CONDENSED SPECTRUM=NO
##NPOINTS= 325
##XYDATA=(XY..XY) 1 
    26         31
    27        261
    28         88
    29         34
    30          0
    31          0
    32          0
    35         40
    36        240
    37         13
    38         77
    39        504
    40         45
    41        240
    42         11
    43          2
    44          7
    45          2
    46          0
    47          0
    48          0
    49          4
    50         51
    51        106
    52         58
    53        136
    54        999
    55         54
    56          1
    57          1
    58          0
    60          0
    61          3
    62         10
    63         29
    64          6
    65         87
    66        155
    67        787
    68         45
    69          1
    70          0
    71          0
    73          2
    74          9
    75          8
    76          4
    77        138
    78         84
    79        348
    80        392
    81         29
    82          5
    83          0
    85          1
    86          0
    87          1
    88          2
    89          4
    90          2
    91         95
    92         12
    93        124
    94         10
    95          0
    96          0
    97          0
    98          1
    99          0
   101          9
   102          3
   103         11
   104          5
   105         14
   106          7
   107         15
   108         63
   109          5
   110          0
   112          2
   113          0
   114          1
   115          1
   116          0
   121          0
   122          0
   123          0
   127          0
   128          0
   129          2
   130          1
   131          0
   134          0
   136          1
   138          0
   140          0
   141          0
   142          2
   143          1
   144          1
   153          0
   154          2
   155          3
   156          3
   157          6
   158          1
   164          0
   166          1
   167          0
   168         11
   169          3
   170          0
   171          0
   179          0
   180          4
   181         13
   182          9
   183          1
   184          0
   192          3
   193          0
   194          1
   195          0
   203          1
   204          2
   205         11
   206          5
   207          9
   208          5
   209          5
   210          3
   211          5
   212          0
   218         11
   219          1
   225          0
   226          0
   230          1
   231          3
   232         18
   233          1
   241          2
   242          0
   243          2
   244          2
   245          2
   246          1
   247          1
   248          0
   253          0
   255          1
   256          3
   257          4
   258          6
   259          1
   266          0
   267          0
   268          0
   269          1
   270          2
   271          1
   272          0
   273          0
   274          0
   275          0
   276          0
   277          0
   278          0
   279          0
   280          1
   281          4
   282         18
   283          8
   284          9
   285          1
   286          0
   293          1
   294          0
   295          1
   296          1
   297          0
   303          0
   304          0
   305          1
   306          6
   307         18
   308         49
   309         13
   310         52
   311          7
   312          4
   313          0
   318          0
   319          2
   320          2
   321          1
   322          0
   323          0
   330          0
   331          0
   332          2
   333          1
   334          3
   335          1
   336          4
   337          0
   338          0
   342          1
   343          3
   344          5
   345          4
   346         29
   347          4
   348         14
   349          2
   350          2
   351          0
   355          0
   356          0
   357          0
   358          1
   359          1
   360          1
   361          0
   362          1
   363          0
   364          0
   365          0
   368          0
   369          0
   370          0
   371          0
   372          5
   373          2
   374          2
   375          1
   376          0
   377          0
   378          0
   379          0
   380          0
   381          1
   382          2
   383          2
   384          2
   385          4
   386         12
   387          4
   388          6
   389          1
   390          3
   391          0
   392          0
   393          0
   394          0
   395          0
   396          0
   397          1
   398          0
   399          0
   400          0
   401          0
   402          0
   403          0
   404          0
   405          1
   406          3
   407          1
   408          3
   409          2
   410         18
   411          6
   412         40
   413          9
   414         26
   415          8
   416         72
   417         15
   418         29
   419          6
   420         30
   421          6
   422          0
   423          1
   424          1
   425          0
   426          0
   427          0
   428          0
   429          0
   430          0
   434          0
   436          0
   438          0
   440          0
   441          0
   443          0
   445          0
   447          0
   448          0
   449          0
   450          4
   451          1
   452         16
   453          3
   454         51
   455          9
   456         20
   457          4
   458          2
   459          0
   462          1
   463          0
   464          0
   466          0
   489          0
   490          1
   491          0
   492        101
   493         18
   494         65
   495         11
   496         11
   497          2
   498          0