##TITLE=Library Entry 22800
##JCAMP-DX=Revision 4.10 
##DATA TYPE=MASS SPECTRUM
##SAMPLE DESCRIPTION=Japan AIST/NIMC Database- Spectrum MS-NW-7757
##NAMES=HP
##CAS NAME=Iron, tricarbonyl[(1,2,3,4-.eta.<4>)-1,3,5,7-cyclooctatetraene]-
##MOLFORM=C11H8FeO3
##CAS REGISTRY NO=12093-05-9
##MP= -300
##BP= -300
##MW= 244
##$RETENTION INDEX=0
##$CONDENSED SPECTRUM=NO
##NPOINTS= 116
##XYDATA=(XY..XY) 1 
    12          1
    16          1
    17          4
    18         14
    26          6
    27         21
    28         60
    29          3
    37          4
    38          9
    39         62
    40          3
    41          8
    42          2
    43          6
    49          2
    50         36
    51         63
    52         30
    53          7
    54         66
    55          5
    56        999
    57         60
    58          4
    61          2
    62          9
    63         21
    64          3
    65          8
    66          2
    67         23
    68          8
    69          4
    70          3
    71          2
    73          2
    74         11
    75          9
    76         14
    77         55
    78         71
    79         11
    80         32
    81        138
    82        151
    83         13
    84         81
    85          4
    86          1
    87          1
    89          9
    90          1
    91          7
    92          5
    93         10
    94         53
    95         20
    96          2
    98          2
   101          1
   102         64
   103         53
   104         34
   105         17
   106         16
   107         25
   108         13
   109          1
   110          1
   112         15
   113          1
   115          3
   116          1
   117          2
   118          3
   119          5
   120          3
   121         31
   122          3
   128          1
   129          1
   130          2
   131          7
   132         71
   133         21
   134        874
   135         80
   136          8
   137          1
   145          2
   156          1
   157          3
   158         66
   159         11
   160        703
   161         76
   162          8
   163          1
   184          1
   186          9
   187          2
   188        103
   189         14
   190          2
   191          1
   214         24
   215          4
   216        342
   217         48
   218          6
   242          5
   243          1
   244         56
   245          9
   246          1