##TITLE=Library Entry 1709
##JCAMP-DX=Revision 4.10 
##DATA TYPE=MASS SPECTRUM
##SAMPLE DESCRIPTION=D.HENNEBERG, MAX-PLANCK INSTITUTE, MULHEIM, WEST GERMAN
Y
##NAMES=HP
##CAS NAME=Rhodium, di-.mu.-chlorotetrakis(.eta.3-2-propenyl)di-
##MOLFORM=C12H20Cl2Rh2
##CAS REGISTRY NO=12090-11-8
##MP= -300
##BP= -300
##MW= 440
##$RETENTION INDEX=0
##$CONDENSED SPECTRUM=NO
##NPOINTS= 225
##XYDATA=(XY..XY) 1 
    26         66
    27        105
    28          5
    29          6
    31          0
    34          0
    35         16
    36         80
    37        122
    38        185
    39        999
    40        217
    41        541
    42         80
    43          3
    44          1
    45          1
    47          0
    48          0
    49          2
    50          6
    51         10
    52          4
    53         13
    54         43
    55          7
    56          0
    57          0
    58          0
    61          0
    62          1
    63          2
    64          1
    65          6
    66          3
    67         79
    68          5
    69          0
    70          0
    71          0
    72          0
    73          0
    74          1
    75          2
    76          5
    77          6
    78          4
    79          8
    80          2
    81          8
    82          5
    83          0
    90          0
    91          2
    92          0
    93          1
    94          0
    95          0
    97          0
    98          0
   103        234
   104          4
   105          2
   106          0
   113          0
   115         86
   116         16
   117         16
   118          3
   119          1
   120          1
   121          0
   122          0
   123          0
   127          6
   128          7
   129         15
   130          8
   131          1
   132          0
   133          0
   134          0
   136          0
   138         17
   139          6
   140         70
   141         42
   142        225
   143        138
   144        368
   145         22
   146          0
   147          0
   150          2
   151          2
   152          5
   153          4
   154         11
   155          6
   156         15
   157         11
   158         45
   159          4
   164          0
   165          0
   168         24
   169          2
   170          0
   171          0
   176          0
   177          1
   178         27
   179          9
   180         26
   181         36
   182         72
   183         52
   184        314
   185        218
   186         12
   187          0
   192          2
   193          0
   194          0
   203          0
   205          1
   206          1
   218         34
   219          9
   220         69
   221          4
   222         22
   223          2
   224          0
   225          2
   226          1
   230          2
   231          3
   232          4
   233          1
   241         12
   242          1
   243         16
   244         30
   245         56
   246         27
   247          1
   253          6
   254          2
   255          3
   256          2
   257          4
   258          8
   259          4
   260          0
   264          1
   266          2
   267          0
   268          0
   269          0
   270          0
   271          0
   276          1
   278          1
   279          2
   280          9
   281          4
   282         12
   283         12
   284         25
   285          7
   286         20
   287         16
   288          1
   293          0
   294          0
   295          1
   296          0
   297          0
   306          1
   308          0
   312          3
   313          0
   316          0
   317          0
   318          0
   319          6
   320          4
   321         11
   322         37
   323         10
   324         12
   325          3
   326          1
   327          2
   328          3
   329          0
   330          0
   336          0
   357          3
   358          4
   359          2
   360          3
   361          2
   362          4
   363          5
   364         55
   365          6
   366         19
   367          2
   368          0
   372          0
   398          0
   399          1
   400          0
   401          0
   402          0
   404          1
   405          0
   440         24
   441          3
   442         16
   443          2
   444          2
   445          0