##TITLE=Library Entry 47660
##JCAMP-DX=Revision 4.10 
##DATA TYPE=MASS SPECTRUM
##SAMPLE DESCRIPTION=A.A.Kutin, Moscow, Russia
##NAMES=HP
##CAS NAME=5-Nitro-2-phenyl-2H-[1,2,4]triazol-3-ylamine
##MOLFORM=C8H7N5O2
##CAS REGISTRY NO=120952-33-2
##MP= -300
##BP= -300
##MW= 205
##$RETENTION INDEX=0
##$CONDENSED SPECTRUM=NO
##NPOINTS= 111
##XYDATA=(XY..XY) 1 
    33          0
    34          0
    37          7
    38         21
    39         74
    40         14
    41         13
    42         12
    43         10
    44         22
    45          3
    46         14
    48          0
    49          1
    50         29
    51        125
    52         16
    53         18
    54          5
    55          2
    56          1
    57          1
    59          0
    60          0
    61          2
    62          7
    63         41
    64         57
    65        169
    66         14
    67          3
    68         31
    69          3
    70          1
    71          4
    72          0
    73          2
    74          6
    75          7
    77        999
    78         66
    79          4
    80          1
    81          1
    82          1
    83          0
    84          1
    85          0
    86          0
    87          0
    88          2
    89          3
    90         44
    91         69
    92         13
    93          3
    94          0
    95          0
    97          0
    98          0
    99          0
   103          4
   104          7
   105         98
   106          8
   107          0
   109          0
   110          0
   112          0
   116          2
   117         63
   118         23
   119         20
   120          1
   121          0
   123          0
   129          1
   130          0
   131          2
   132          5
   133          4
   134          0
   135          0
   136          0
   143          0
   144          0
   149          0
   152          0
   153          0
   156          4
   157          1
   158          3
   159          3
   160          3
   161          1
   169          0
   171          0
   175          4
   176          0
   180          0
   182          0
   189          3
   190          2
   191          0
   198          0
   201          0
   202          1
   205        408
   206         42
   207          3
   208          0