##TITLE=Library Entry 79291
##JCAMP-DX=Revision 4.10 
##DATA TYPE=MASS SPECTRUM
##SAMPLE DESCRIPTION=LAC, NIDDK, NIH, Bethesda, MD 20892
##NAMES=HP
##CAS NAME=Dihydro-tigogenin dibenzoate
##MOLFORM=C41H54O5
##CAS REGISTRY NO=120928-64-5
##MP= -300
##BP= -300
##MW= 626
##$RETENTION INDEX=0
##$CONDENSED SPECTRUM=NO
##NPOINTS= 111
##XYDATA=(XY..XY) 1 
    41         60
    43         60
    49         27
    50          3
    51         52
    53          7
    55        110
    56         11
    57         22
    67         93
    68         21
    69         78
    70         18
    71          6
    77        250
    78         18
    79        113
    80          9
    81        194
    82         20
    83         58
    84         26
    85         11
    86         13
    91         86
    92         15
    93        155
    94         31
    95        145
    96         15
    97         31
    99         47
   105        999
   106        125
   107        213
   108         58
   109        112
   110         25
   111         13
   113          6
   115          6
   117         18
   119         68
   120         29
   121        100
   122        159
   123        177
   124         12
   126        227
   127         20
   129          3
   131         34
   133         70
   134         21
   135         67
   136         12
   137          2
   139         40
   142          3
   143         10
   145         53
   146         13
   147         90
   148         17
   149         35
   151          9
   157          6
   159         46
   160         16
   161        108
   162         21
   163         16
   165         25
   166         13
   173         25
   175         25
   176         33
   177         16
   187         14
   189          9
   199         10
   201         27
   215         21
   216         13
   219          2
   227          2
   229          6
   231         12
   248         75
   249          6
   255        109
   256         21
   257         10
   269         48
   285         37
   286          8
   377        197
   378         54
   379         52
   380         10
   435         29
   448          6
   461         78
   462         23
   475         44
   476         12
   489          6
   504         52
   505         18
   611          6
   626          3