##TITLE=Library Entry 107905
##JCAMP-DX=Revision 4.10 
##DATA TYPE=MASS SPECTRUM
##SAMPLE DESCRIPTION=Chemical Concepts
##NAMES=HP
##CAS NAME=Cobalt, [(1,4,5-.eta.)-4-cycloocten-1-yl](.eta.6-fluorobenzene)-
##MOLFORM=C14H18CoF
##CAS REGISTRY NO=120967-20-6
##MP= -300
##BP= -300
##MW= 264
##$RETENTION INDEX=0
##$CONDENSED SPECTRUM=NO
##NPOINTS= 139
##XYDATA=(XY..XY) 1 
    26         26
    27        149
    28         57
    29         69
    30          3
    31          6
    37         15
    38         24
    39        195
    40        109
    41        182
    42         15
    43         10
    44          6
    45          3
    48         13
    49          9
    50         71
    51        122
    52         32
    53         68
    54        125
    55         62
    56          8
    57         27
    58          4
    59        891
    60         77
    61          4
    62          8
    63         32
    64          3
    65         55
    66         50
    67        251
    68         39
    69         20
    70        111
    71         11
    73         18
    74         63
    75         41
    76         21
    77        135
    78         48
    79        212
    80        115
    81         43
    82         24
    83          8
    84         44
    85        114
    86        204
    87         18
    88          7
    89          4
    91         76
    92         11
    93         69
    94         15
    95         39
    96        426
    97         41
    98        143
    99         70
   100        148
   101         55
   102          6
   103         16
   104         11
   105         59
   106          7
   107          7
   108         46
   109         22
   110         21
   111         43
   112        136
   113        182
   114        410
   115         25
   122          3
   123          3
   124        999
   125        114
   126        399
   127         38
   128          9
   132          3
   133          6
   134         21
   135         15
   136         32
   137        282
   138        676
   139         52
   140         70
   141          9
   142          3
   143          3
   150         68
   151         44
   152          6
   153          5
   154          6
   155        230
   156         60
   157          3
   161          7
   162        184
   163         50
   164        633
   165         79
   166        398
   167         47
   168        245
   169         23
   174          3
   181          6
   184         16
   185          3
   187          3
   196          5
   197          3
   220          7
   221          3
   222          3
   233          3
   234          7
   242         25
   243          6
   244         13
   260        118
   261         19
   262        186
   263         40
   264        672
   265        113
   266          9