##TITLE=Library Entry 88751
##JCAMP-DX=Revision 4.10 
##DATA TYPE=MASS SPECTRUM
##SAMPLE DESCRIPTION=Japan AIST/NIMC Database- Spectrum MS-NW-8777
##NAMES=HP
##CAS NAME=Benzene, 1-chloro-3-nitro-
##MOLFORM=C6H4ClNO2
##CAS REGISTRY NO=121-73-3
##MP= -300
##BP= -300
##MW= 157
##$RETENTION INDEX=1224
##$CONDENSED SPECTRUM=NO
##NPOINTS= 66
##XYDATA=(XY..XY) 1 
    26          3
    27          6
    30        149
    31          1
    35          1
    36          9
    37         19
    38         22
    39         15
    40          1
    46          3
    47          2
    48          1
    49         14
    50        158
    51         77
    52          4
    53          1
    60          4
    61         22
    62         11
    63         27
    64          9
    65          2
    72          4
    73         43
    74         98
    75        615
    76         85
    77          7
    84         14
    85         55
    86          8
    87         18
    88          2
    89          1
    90          4
    91          1
    92          3
    98          1
    99        169
   100          9
   101         53
   102          3
   108          2
   109          3
   110          9
   111        999
   112         69
   113        318
   114         20
   123          1
   125          1
   126          1
   127         63
   128          4
   129         19
   130          1
   141         15
   142          1
   143          5
   157        625
   158         45
   159        202
   160         14
   161          1