##TITLE=Library Entry 81838
##JCAMP-DX=Revision 4.10 
##DATA TYPE=MASS SPECTRUM
##SAMPLE DESCRIPTION=Japan AIST/NIMC Database- Spectrum MS-NW-9011
##NAMES=HP
##CAS NAME=Benzamide, N-(4-amino-2-chloro-5-methylphenyl)-
##MOLFORM=C14H13ClN2O
##CAS REGISTRY NO=121-22-2
##MP= -300
##BP= -300
##MW= 260
##$RETENTION INDEX=0
##$CONDENSED SPECTRUM=NO
##NPOINTS= 150
##XYDATA=(XY..XY) 1 
    15          1
    16          1
    17         28
    18          1
    27          6
    28         16
    29          2
    30          2
    36          4
    38          3
    39         15
    40          2
    41          8
    42          7
    43          5
    44          4
    45          5
    50         12
    51         69
    52         16
    53          6
    54          5
    55          3
    56          1
    57          4
    62          2
    63          6
    64          4
    65         38
    66         15
    67          6
    68          2
    69          2
    70          1
    71          2
    73          1
    74          4
    75          8
    76         15
    77        455
    78         36
    79          4
    80          2
    81          2
    82          1
    83          1
    85          1
    86          1
    87          3
    88          2
    89          2
    90          3
    91          6
    92         50
    93         59
    94         18
    95          2
    97          2
    98          1
    99          1
   100          3
   101          2
   102          5
   103          3
   104          8
   105        999
   106         78
   107          5
   109          1
   111          2
   112          3
   113          2
   114          1
   115          2
   116          1
   117          1
   118          4
   119         16
   120         57
   121         32
   122         10
   123          9
   124          1
   126          1
   127         10
   128         48
   129          7
   130         15
   131          1
   132          2
   133          1
   138          1
   139          2
   140          2
   141          1
   142          1
   145          1
   147          2
   149          1
   151          1
   152          1
   153          1
   154          2
   155        202
   156         25
   157         94
   158          9
   159          9
   160          4
   165          1
   166          1
   167          2
   168          2
   169          1
   171          1
   173          1
   178          1
   179          1
   180          2
   181          3
   182          3
   183          1
   184          7
   185          1
   194          1
   195          6
   196          7
   197          2
   201         12
   202          2
   207          1
   208          1
   210          1
   212          1
   213          1
   222          1
   223         12
   224         35
   225        585
   226        117
   227         11
   228          1
   229          4
   258          1
   259          2
   260        346
   261         56
   262        114
   263         17
   264          1