##TITLE=Library Entry 12700
##JCAMP-DX=Revision 4.10 
##DATA TYPE=MASS SPECTRUM
##SAMPLE DESCRIPTION=Humboldt-Universitat zu Berlin, Department of Chemistry
, Analytical Group
##NAMES=HP
##CAS NAME=N-Acetylsulfanilyl chloride
##MOLFORM=C8H8ClNO3S
##CAS REGISTRY NO=121-60-8
##MP= -300
##BP= -300
##MW= 233
##$RETENTION INDEX=0
##$CONDENSED SPECTRUM=NO
##NPOINTS= 143
##XYDATA=(XY..XY) 1 
    12          2
    13          4
    14         28
    15        188
    16          6
    17          6
    18         21
    25          1
    26         10
    27         16
    28         35
    29         12
    30          2
    31          1
    32          4
    35         17
    36         18
    37         27
    38         82
    39        118
    40         20
    41         44
    42         71
    43        999
    44         34
    45         21
    47          1
    48         21
    49          5
    50         53
    51         39
    52         62
    53         26
    54         10
    55          2
    56          1
    57          4
    58          8
    59          1
    60          2
    61         17
    62         52
    63        181
    64        174
    65        338
    66         35
    67          4
    68          4
    69         26
    70         15
    71          3
    72          1
    73          7
    74         19
    75         23
    76         21
    77         21
    78         19
    79         25
    80         20
    81          6
    82          3
    83         12
    84          6
    85          7
    86          2
    87          3
    88          5
    89          6
    90         42
    91         92
    92        343
    93         86
    94          8
    95          6
    96          9
    97          5
    98          2
    99         27
   100          5
   101          9
   102          3
   103          1
   104         12
   105         15
   106         13
   107          5
   108        216
   109         15
   110          2
   111          3
   112          5
   113          1
   116          2
   117          1
   118          5
   119          2
   121          3
   122          3
   123          8
   124         10
   125          7
   126         19
   127         52
   128         10
   129         16
   130          2
   132          1
   133         17
   134         96
   135         10
   138          1
   139          3
   140         45
   141          6
   142          3
   150         13
   151          1
   156        480
   157         39
   158         24
   159          2
   167          2
   169          1
   182          5
   183          2
   191        422
   192         34
   193        145
   194         12
   195          8
   198        158
   199         16
   200          8
   201          1
   204          2
   218          4
   220          2
   233        164
   234         20
   235         60
   236          7
   237          3