##TITLE=Library Entry 84090
##JCAMP-DX=Revision 4.10 
##DATA TYPE=MASS SPECTRUM
##SAMPLE DESCRIPTION=Y.KAWANO, COLL. TROP. AGRIC., UNIV. OF HAWAII, HAWAII
##NAMES=HP
##CAS NAME=Cyclopropanecarboxylic acid, 3-(3-methoxy-2-methyl-3-oxo-1-propen
yl)-2,2-dimethyl-, 3-(2-butenyl)-2-methyl-4-oxo-2-cyclopenten-1-yl ester, [1
R-[1.alpha.[S*(Z)],3.beta.(E)]]-
##MOLFORM=C21H28O5
##CAS REGISTRY NO=121-20-0
##MP= -300
##BP= -300
##MW= 360
##$RETENTION INDEX=0
##$CONDENSED SPECTRUM=NO
##NPOINTS= 89
##XYDATA=(XY..XY) 1 
    27        133
    29        317
    39        198
    41        302
    42         24
    43        330
    50         21
    51         62
    52         35
    53        155
    54         24
    55        320
    56         22
    57         25
    58          2
    59        109
    65        119
    66         40
    67         97
    68         18
    69         93
    70          7
    71         14
    72          1
    73         31
    77        284
    78         64
    79        328
    80         48
    81         71
    82         20
    83         42
    84          5
    85         19
    91        398
    92         73
    93        610
    94         70
    95         29
    96         12
    97         20
   103         40
   104         13
   105        200
   106         42
   107        999
   108        135
   109         52
   110         11
   111         15
   112         55
   115         19
   116          7
   117         19
   118          7
   119         47
   120         17
   121        618
   122         71
   123         42
   124         10
   125         63
   129          8
   130          8
   131         33
   132          8
   133        116
   134         25
   135         83
   136         32
   137         13
   139         47
   147         20
   148         88
   149        313
   150        163
   151         27
   152          6
   153         20
   161         11
   162         13
   163         15
   167        277
   168         40
   169         12
   211         11
   212         11
   329          7
   330          2