##TITLE=Library Entry 28967
##JCAMP-DX=Revision 4.10 
##DATA TYPE=MASS SPECTRUM
##SAMPLE DESCRIPTION=Patti Price, Georgia Bureau of Investigation, Decatur,
 Georgia
##NAMES=HP
##CAS NAME=Benzethonium Chloride
##MOLFORM=C27H42ClNO2
##CAS REGISTRY NO=121-54-0
##MP= -300
##BP= -300
##MW= 447
##$RETENTION INDEX=0
##$CONDENSED SPECTRUM=NO
##NPOINTS= 103
##XYDATA=(XY..XY) 1 
    43         12
    44         15
    51          1
    53          2
    54          1
    55          6
    56         12
    57         51
    58        999
    59         41
    60          1
    63          1
    64          1
    65          4
    66          1
    67          1
    69          1
    70         15
    71          9
    72         91
    73          5
    74          1
    76          1
    77          9
    78          6
    79          5
    80          1
    81          1
    83          1
    84          2
    85          1
    86          6
    87          1
    88          1
    89         22
    90          5
    91         38
    92          4
    93          1
    94          1
    95          2
    96          1
    97          1
   101          2
   102          2
   103          9
   104          1
   105          9
   106         18
   107         12
   108          1
   111          3
   114          1
   115         11
   116        258
   117         27
   118         10
   119         11
   120          2
   125          3
   127          1
   128          1
   131          1
   132          1
   133          5
   134         46
   135         17
   136          1
   145          1
   147          5
   148          2
   149          1
   151          1
   160          1
   161         17
   162          2
   176          1
   177          6
   191          1
   192          1
   205          4
   206          1
   208          1
   209          1
   230          1
   232          6
   235          1
   236          1
   250         34
   251          7
   252          1
   258          1
   264          2
   265          1
   274          1
   278          1
   279          1
   306          2
   319          1
   320          4
   321          1
   322          1
   405          1