##TITLE=Library Entry 44634
##JCAMP-DX=Revision 4.10 
##DATA TYPE=MASS SPECTRUM
##SAMPLE DESCRIPTION=RADIAN CORP
##NAMES=HP
##CAS NAME=Ethanol, 2,2'-[(1-methylethyl)imino]bis-
##MOLFORM=C7H17NO2
##CAS REGISTRY NO=121-93-7
##MP= -300
##BP= -300
##MW= 147
##$RETENTION INDEX=0
##$CONDENSED SPECTRUM=NO
##NPOINTS= 48
##XYDATA=(XY..XY) 1 
    15         23
    18         16
    19         17
    26          3
    27        118
    28        137
    29         76
    30        245
    31         71
    32         11
    39         40
    40          8
    41        167
    42        210
    43        247
    44        115
    45        167
    46          2
    54         20
    55         19
    56        638
    57         43
    58         77
    59          5
    60         11
    68          8
    69          2
    70        122
    71         13
    72         82
    73         10
    74        999
    75         38
    76          1
    84         17
    85          4
    86         32
    88         51
   100         12
   102         29
   104          6
   114         12
   116        585
   117         41
   132         53
   133          3
   146          3
   147          9