##TITLE=Library Entry 17876
##JCAMP-DX=Revision 4.10 
##DATA TYPE=MASS SPECTRUM
##SAMPLE DESCRIPTION=N.D.Kagramanov, Moscow, Russia
##NAMES=HP
##CAS NAME=Cyclonite
##MOLFORM=C3H6N6O6
##CAS REGISTRY NO=121-82-4
##MP= -300
##BP= -300
##MW= 222
##$RETENTION INDEX=1881
##$CONDENSED SPECTRUM=NO
##NPOINTS= 86
##XYDATA=(XY..XY) 1 
    29        441
    30        668
    31         12
    32         20
    34          2
    38          4
    39          6
    40         30
    41        157
    42        936
    43         52
    44         88
    46        999
    47          7
    48         16
    51          1
    53         29
    54         64
    55        106
    56        289
    57         36
    58         21
    59          4
    60         18
    66          1
    67          2
    68         29
    69          9
    71        189
    72         18
    73         78
    74         61
    75        450
    76         15
    77          3
    78          1
    80         63
    81         91
    82         87
    83         54
    84          5
    85         10
    87          3
    91          1
    95          2
    96          1
    98         60
    99          3
   100          2
   101         32
   102         66
   104         19
   105          2
   107          1
   109          1
   111          1
   112         10
   113          1
   118          2
   120        279
   121          7
   122          2
   123          1
   127         13
   128        246
   129         13
   130          9
   131          4
   132         15
   133          1
   135          1
   145          4
   147          4
   148         53
   149         10
   150          1
   158          3
   159          4
   167          2
   174          2
   175          1
   194          1
   205         14
   206          1
   207          1
   221          1