##TITLE=Library Entry 31944
##JCAMP-DX=Revision 4.10 
##DATA TYPE=MASS SPECTRUM
##SAMPLE DESCRIPTION=NIST Mass Spectrometry Data Center, 1998.
##NAMES=HP
##CAS NAME=Benzoic acid, 3-nitro-
##MOLFORM=C7H5NO4
##CAS REGISTRY NO=121-92-6
##MP= -300
##BP= -300
##MW= 167
##$RETENTION INDEX=0
##$CONDENSED SPECTRUM=NO
##NPOINTS= 59
##XYDATA=(XY..XY) 1 
    18          6
    27         22
    29          9
    30        101
    37         30
    38         53
    39        214
    40          9
    41          7
    44         10
    45         61
    46         26
    49         22
    50        345
    51        216
    52         26
    53         89
    54          6
    55          8
    60          8
    61         24
    62         37
    63         81
    64         47
    65        999
    66         66
    67          8
    73         37
    74        196
    75        241
    76        236
    77         38
    79          7
    81        103
    82         11
    89          4
    90          3
    91         12
    92         79
    93         82
   102          2
   103         56
   104         80
   105         12
   106          6
   109         65
   110         10
   119         11
   120         93
   121        457
   122         47
   137        246
   138         19
   139          3
   150         38
   151         30
   167        726
   168         63
   169         11