##TITLE=Library Entry 18335
##JCAMP-DX=Revision 4.10 
##DATA TYPE=MASS SPECTRUM
##SAMPLE DESCRIPTION=Japan AIST/NIMC Database- Spectrum MS-IW- 12
##NAMES=HP
##CAS NAME=Aniline chromium tricarbonyl
##MOLFORM=C9H7CrNO3
##CAS REGISTRY NO=12108-11-1
##MP= -300
##BP= -300
##MW= 229
##$RETENTION INDEX=0
##$CONDENSED SPECTRUM=NO
##NPOINTS= 89
##XYDATA=(XY..XY) 1 
    26          1
    27          2
    28         54
    29          1
    31          1
    37          1
    38          4
    39         15
    40          5
    41          6
    42          2
    43          1
    44          1
    45          1
    46          4
    50         55
    51          5
    52        999
    53        127
    54         30
    57          3
    59          1
    61          1
    62          2
    63          5
    64          3
    65         18
    66         33
    67         12
    68         42
    69          6
    70          1
    72          1
    74          2
    75          1
    76          1
    77         20
    78          9
    79         10
    80         33
    81          5
    82          1
    85          1
    86         17
    87          4
    88          1
    89          4
    90         13
    91         12
    92         17
    93         94
    94          7
   100          9
   101          5
   102          1
   103          3
   104          1
   105          1
   108          2
   115          1
   116          3
   117          8
   118          2
   127          3
   128          1
   142          4
   143         50
   144         65
   145        902
   146        165
   147         34
   148          2
   171         12
   172          8
   173        234
   174         44
   175          9
   176          1
   199          1
   201         28
   202          6
   203          1
   225          1
   227         25
   228          3
   229        484
   230        105
   231         24
   232          2