##TITLE=Library Entry 48915
##JCAMP-DX=Revision 4.10 
##DATA TYPE=MASS SPECTRUM
##SAMPLE DESCRIPTION=G. Lange, Inst. Org. Chem., Univ. Wurzburg, Wurzburg, G
ermany
##NAMES=HP
##CAS NAME=Spiro[cyclopropane-1,2'-[6.7]diazabicyclo[3.2.2]non-6-ene]
##MOLFORM=C9H14N2
##CAS REGISTRY NO=121080-73-7
##MP= -300
##BP= -300
##MW= 150
##$RETENTION INDEX=0
##$CONDENSED SPECTRUM=NO
##NPOINTS= 64
##XYDATA=(XY..XY) 1 
    38         22
    39        393
    40         89
    41        441
    42         41
    43         17
    44          2
    45          4
    50         31
    51         89
    52         68
    53        366
    54        120
    55        171
    56         10
    57          2
    58          6
    59          4
    62          4
    63         24
    64          8
    65        128
    66        160
    67        353
    68        159
    69         12
    70          2
    71          8
    74          1
    75          9
    76          2
    77        291
    78         85
    79        999
    80        315
    81        467
    82         34
    83         44
    85         27
    87          6
    89          7
    90          4
    91        185
    92         30
    93        279
    94        329
    95         30
    96          2
    97          1
   103          5
   104          1
   105         22
   106          3
   107        116
   108         10
   109          1
   115          1
   119          1
   120          1
   121          7
   122         26
   123          2
   150          5
   151          4