##TITLE=Library Entry 79398
##JCAMP-DX=Revision 4.10 
##DATA TYPE=MASS SPECTRUM
##SAMPLE DESCRIPTION=Chemical Concepts
##NAMES=HP
##CAS NAME=3-Benzoylamino-2-(hydroxyphenylmethyl)butyric acid
##MOLFORM=C18H19NO4
##CAS REGISTRY NO=121006-10-8
##MP= -300
##BP= -300
##MW= 313
##$RETENTION INDEX=0
##$CONDENSED SPECTRUM=NO
##NPOINTS= 130
##XYDATA=(XY..XY) 1 
    26          6
    27         18
    28          7
    29         10
    30          1
    31          1
    36          1
    37         10
    38         14
    39         45
    40          8
    41         36
    42         18
    43         52
    44         28
    45         10
    49          5
    50         60
    51        153
    52         22
    53          7
    54          2
    55          8
    56          3
    57          6
    58         16
    59          2
    60          1
    61          2
    62          4
    63          8
    64          1
    65          8
    66          1
    67          2
    68         12
    69         23
    70         12
    71          4
    72          0
    73          3
    74         19
    75         13
    76         21
    77        483
    78         58
    79         54
    80          2
    81          1
    82          0
    83          3
    84         21
    85          2
    86         29
    87         10
    88          0
    89          2
    90          0
    91         16
    92          3
    93          0
    94          0
    95          0
    96          0
    97          1
    98          0
   101          0
   102         32
   103         11
   104         15
   105        999
   106        149
   107         31
   108          4
   109          0
   110          0
   111          0
   115          4
   116          1
   117          0
   118          0
   119          1
   120          2
   121         96
   122         31
   123          2
   127          0
   128          2
   129          4
   130          5
   131          7
   132          0
   133          0
   134          2
   135          0
   136          0
   137          0
   138          0
   139          0
   140          0
   143          2
   144          0
   146         12
   147         11
   148        111
   149        289
   150         21
   160         42
   161         17
   162          8
   163          0
   174          0
   175          0
   176          0
   188          1
   190         10
   191          0
   192          2
   204          0
   206          5
   207         46
   208          5
   225          0
   250          0
   251          3
   252          0
   262          0
   278          1
   279          0
   295          0