##TITLE=Library Entry 81253
##JCAMP-DX=Revision 4.10 
##DATA TYPE=MASS SPECTRUM
##SAMPLE DESCRIPTION=Chemical Concepts
##NAMES=HP
##CAS NAME=2-(1-Benzoylaminoethyl)-3-methyl-4-nitrobutyric acid, methyl este
r
##MOLFORM=C15H20N2O5
##CAS REGISTRY NO=121006-06-2
##MP= -300
##BP= -300
##MW= 308
##$RETENTION INDEX=0
##$CONDENSED SPECTRUM=NO
##NPOINTS= 131
##XYDATA=(XY..XY) 1 
    26          1
    27          9
    28          3
    29          9
    30          4
    31          2
    33          1
    38          1
    39         15
    40          3
    41         21
    42         12
    43          5
    44          7
    45          2
    46          0
    50          9
    51         40
    52          4
    53          7
    54          3
    55         13
    56          2
    57          3
    58          0
    59         10
    63          1
    64          0
    65          2
    66          1
    67          7
    68          3
    69          8
    70          3
    71          3
    72          0
    73          2
    74          2
    75          4
    76         12
    77        227
    78         18
    79          4
    80          1
    81          7
    82          7
    83         10
    84          8
    85          2
    91          2
    92          0
    94          0
    95          1
    96          2
    97          1
    98          0
    99          2
   100          1
   101          2
   102          0
   103          1
   104          9
   105        999
   106         80
   107          4
   109          6
   110          1
   112          0
   113          1
   114          1
   115          7
   116          3
   117          1
   118          0
   119          0
   120          0
   121          5
   122         36
   123          3
   124          1
   125          1
   128          1
   131          2
   141          8
   142          2
   144          2
   146          5
   147          2
   148        269
   149         32
   150          2
   154          1
   155          2
   156         16
   157         11
   158          1
   159          1
   160          5
   161          3
   162          1
   164          4
   169          3
   170          1
   171          1
   172          3
   174          0
   176          1
   187          0
   188          3
   202          2
   203          2
   204          0
   218          0
   219          0
   220          1
   221          3
   230          6
   231          1
   232          1
   260          4
   261         11
   262         63
   263         10
   264          1
   276          1
   277         19
   278          8
   279          1
   293          3
   294          0
   308          0