##TITLE=Library Entry 61344
##JCAMP-DX=Revision 4.10 
##DATA TYPE=MASS SPECTRUM
##SAMPLE DESCRIPTION=Chemical Concepts
##NAMES=HP
##CAS NAME=Carbamic acid, N-(3-methoxycarbonyl-4-methyl-5-nitropent-2-yl)-,
 benzyl ester
##MOLFORM=C16H22N2O6
##CAS REGISTRY NO=121006-07-3
##MP= -300
##BP= -300
##MW= 338
##$RETENTION INDEX=0
##$CONDENSED SPECTRUM=NO
##NPOINTS= 127
##XYDATA=(XY..XY) 1 
    27         57
    28          7
    29          8
    30          4
    31          2
    33          1
    37          0
    38          2
    39         22
    40          4
    41         26
    42         20
    43         12
    44         22
    45          3
    49          0
    50          5
    51         13
    52          4
    53          9
    54          4
    55         21
    56          3
    57         18
    58          1
    59         18
    60          1
    61          1
    62          2
    63          9
    64          3
    65         42
    66          3
    67          7
    68          4
    69         15
    70         64
    71         10
    72          1
    73          6
    74          1
    75          1
    76          1
    77         28
    78          7
    79         40
    80          5
    81         14
    82         11
    83         18
    84          4
    85          6
    86          3
    87          1
    88          4
    89         14
    90         15
    91        999
    92         67
    93          2
    94          1
    95          1
    96          5
    97          2
    98          0
    99          6
   100          4
   101         16
   102         18
   103          1
   104          0
   105          5
   106          3
   107         83
   108        274
   109         25
   110          7
   111          2
   112          1
   113          5
   114          3
   115         29
   116          2
   117          1
   122          1
   124         10
   125          2
   126          1
   127          1
   128          3
   131          1
   134         63
   135          7
   136          1
   139          0
   140          1
   141         10
   142          5
   143          1
   149          2
   150          1
   152          8
   153          1
   154          1
   155          1
   156         10
   157          2
   170          1
   171          3
   178         14
   179          1
   183          0
   184         63
   185          7
   186          1
   199          3
   203          2
   215          2
   218          1
   231          1
   246          1
   247          1
   248          1
   279          1
   307          2
   338          3
   339          1