##TITLE=Library Entry 18344
##JCAMP-DX=Revision 4.10 
##DATA TYPE=MASS SPECTRUM
##SAMPLE DESCRIPTION=Japan AIST/NIMC Database- Spectrum MS-NW-9308
##NAMES=HP
##CAS NAME=(.eta.<6>-Methoxybenzene) chromium tricarbonyl
##MOLFORM=C10H8CrO4
##CAS REGISTRY NO=12116-44-8
##MP= -300
##BP= -300
##MW= 244
##$RETENTION INDEX=0
##$CONDENSED SPECTRUM=NO
##NPOINTS= 98
##XYDATA=(XY..XY) 1 
    14          1
    15          3
    26          2
    27          9
    28        129
    29         18
    30          1
    31          2
    37          2
    38          6
    39         38
    40          3
    41         28
    42         10
    43          7
    44          2
    45          2
    50         61
    51         17
    52        999
    53        147
    54         34
    55          5
    56         19
    57        105
    58          4
    61          1
    62          2
    63          9
    64          6
    65         72
    66          5
    67          1
    68          3
    69          3
    71          3
    72          3
    73          2
    74          3
    75          2
    76          2
    77         29
    78         81
    79         17
    80         33
    81          8
    82          9
    83          6
    87         17
    88          1
    89          4
    90         12
    91         11
    92          4
    93         20
    94         15
   101          5
   103          7
   104          1
   105          1
   107          4
   108        143
   109         10
   116          2
   117          1
   127          1
   129          9
   130          2
   143          4
   144          2
   145         78
   146         14
   147          3
   157          5
   158         38
   159         11
   160        712
   161        134
   162         28
   163          2
   174          1
   186          6
   187          2
   188        123
   189         24
   190          6
   207          2
   214          1
   216         25
   217          6
   218          1
   240          1
   242         17
   243          2
   244        338
   245         77
   246         17
   247          2