##TITLE=Library Entry 51953
##JCAMP-DX=Revision 4.10 
##DATA TYPE=MASS SPECTRUM
##SAMPLE DESCRIPTION=N.W. Davies, Centr. Sci. Lab., Univ. Tasmania, Hobart,
 Australia
##NAMES=HP
##CAS NAME=Methyl jasmonate
##MOLFORM=C13H20O3
##CAS REGISTRY NO=1211-29-6
##MP= -300
##BP= -300
##MW= 224
##$RETENTION INDEX=1638
##$CONDENSED SPECTRUM=NO
##NPOINTS= 122
##XYDATA=(XY..XY) 1 
    24          6
    26         36
    27        143
    29         88
    31         65
    33          6
    34          8
    39        128
    40        118
    41        534
    42         83
    43        115
    44         27
    45          9
    50          6
    51         44
    52         30
    53        171
    54         62
    55        294
    56         50
    57         34
    58          9
    59        159
    60         30
    61          5
    63         29
    64         23
    65         79
    66         68
    67        330
    68        110
    69        147
    70         17
    71          6
    73          1
    74         62
    75         70
    76         23
    77         95
    78         47
    79        274
    80         77
    81        181
    82        245
    83        999
    84         54
    85         45
    86         17
    90          5
    91        151
    92         34
    93        283
    94        106
    95        318
    96        121
    97         55
    99         19
   100         10
   103         10
   105         64
   106         38
   107         97
   108        114
   109        280
   110         28
   111         36
   113         19
   115          5
   117         60
   119         16
   120         20
   121        122
   122         26
   123         72
   124         55
   125         20
   127          9
   131         27
   132         83
   133         81
   134         19
   135        106
   136         30
   137         29
   138         13
   139          6
   141         14
   145         19
   146         33
   147         28
   148          9
   149         62
   150        111
   151        456
   152         65
   153         15
   154         16
   155         43
   156        200
   157         22
   159          4
   162          7
   163         24
   164          9
   165         10
   167         28
   168          4
   169         12
   177         48
   179         14
   181         10
   191          8
   192         10
   193        133
   194         20
   195         40
   200          4
   206         58
   207          8
   224        234
   225         57