##TITLE=Library Entry 27492
##JCAMP-DX=Revision 4.10 
##DATA TYPE=MASS SPECTRUM
##SAMPLE DESCRIPTION=Chemical Concepts
##NAMES=HP
##CAS NAME=Phosphine, 1,3-propanediylbis[bis(1,1-dimethylethyl)-
##MOLFORM=C19H42P2
##CAS REGISTRY NO=121115-33-1
##MP= -300
##BP= -300
##MW= 332
##$RETENTION INDEX=0
##$CONDENSED SPECTRUM=NO
##NPOINTS= 199
##XYDATA=(XY..XY) 1 
    26          2
    27         64
    28          8
    29        489
    30         11
    31          1
    34          0
    35          1
    36          0
    37          2
    38          4
    39         81
    40         15
    41        637
    42         33
    43         46
    44          1
    45         27
    46          4
    47         11
    48          4
    49          1
    50          2
    51          2
    52          1
    53          8
    54          2
    55         44
    56         18
    57        999
    58         47
    59         20
    60          6
    61         37
    62         10
    63          5
    64          1
    65          4
    66          0
    67          2
    68          1
    69          5
    70          1
    71         15
    72          5
    73         73
    74          8
    75         21
    76          2
    77         20
    78          7
    79         16
    80          1
    81          2
    82          0
    83          3
    84          0
    85          7
    86          1
    87         13
    88          4
    89         16
    90          2
    91          1
    92          1
    93          2
    94          0
    95          1
    96          0
    97          1
    99          4
   100          1
   101          3
   102          2
   103         12
   104          6
   105        122
   106        122
   107        257
   108          9
   109          0
   111          1
   113          5
   114          2
   115          6
   116          1
   117          5
   118          2
   119          9
   120         15
   121         11
   122          1
   123          1
   124          0
   125          0
   126          0
   127          1
   128          1
   129         16
   130          2
   131          4
   132          1
   133          1
   135          0
   137          0
   138          0
   139          1
   141          0
   144          0
   145          2
   146          1
   147         19
   148          4
   149          5
   150          1
   151          0
   155          0
   156          0
   159          2
   160          1
   161         37
   162         83
   163        497
   164         40
   165          1
   166          0
   168          0
   171          1
   172          0
   173          1
   174          0
   175          1
   177          1
   178          1
   179          1
   180          0
   183          0
   184          0
   185          1
   187          1
   188          0
   189          0
   193          1
   195          1
   197          0
   201          0
   203          4
   204          2
   205          1
   207          0
   211          1
   217          7
   218         12
   219        757
   220        103
   221          6
   222          0
   227          1
   228          1
   229          1
   230          0
   231          1
   233          0
   235          1
   236          0
   237          0
   245          0
   247          0
   251          1
   252          1
   259          1
   261          5
   262          1
   263          0
   267          0
   269          0
   273          1
   275        984
   276        149
   277         15
   278          1
   279          0
   285          0
   287          1
   288          0
   289          0
   290          0
   291          2
   292          1
   293          0
   303          0
   307          1
   310          0
   317          9
   318          1
   331          4
   332          1
   333          1
   334          0