##TITLE=Library Entry 32588
##JCAMP-DX=Revision 4.10 
##DATA TYPE=MASS SPECTRUM
##SAMPLE DESCRIPTION=Japan AIST/NIMC Database- Spectrum MS-IW- 47
##NAMES=HP
##CAS NAME=Chloro-1,5-(cyclooctadiene)iridium(I) dimer
##MOLFORM=C16H24Cl2Ir2
##CAS REGISTRY NO=12112-67-3
##MP= -300
##BP= -300
##MW= 672
##$RETENTION INDEX=0
##$CONDENSED SPECTRUM=NO
##NPOINTS= 387
##XYDATA=(XY..XY) 1 
    15          4
    26         12
    27        108
    28         52
    29         29
    35         39
    36        628
    37         14
    38        208
    39        307
    40         31
    41        202
    42         12
    43         16
    44         28
    45          5
    49          3
    50         34
    51         87
    52         53
    53        101
    54        906
    55         69
    56          9
    57         13
    60          3
    61          3
    62          7
    63         21
    64          5
    65        108
    66        239
    67        999
    68         70
    69         12
    70          6
    71          8
    73          4
    74          9
    75          6
    76          8
    77        200
    78        211
    79        467
    80        516
    81         52
    82         12
    83          9
    84          4
    85          6
    89          6
    91        209
    92         28
    93        177
    94         21
    95          9
    96          7
    97          7
    98          4
    99          2
   102          9
   103         42
   104         56
   105         70
   106         53
   107         28
   108        136
   109         16
   110          7
   111          5
   115          2
   120          2
   122          4
   124          3
   125          3
   127          2
   128          2
   141          3
   149          4
   217          2
   218          2
   219          3
   220          2
   229          2
   230          5
   231          4
   232          4
   241          2
   242          5
   243         10
   244         10
   245          9
   246          7
   254          3
   255          6
   256          6
   257          8
   258          6
   266          5
   267         19
   268         18
   269         35
   270         19
   271         18
   272          6
   273          2
   275          2
   276          3
   278          8
   279          5
   280          9
   281         11
   282         17
   283          9
   284          4
   291          9
   292         19
   293         54
   294         69
   295        114
   296         76
   297         86
   298         28
   299         29
   300          6
   301          8
   304          4
   305          2
   306          6
   307          4
   308          2
   315          3
   316          5
   317          5
   318          2
   319          3
   321          3
   323          4
   330          2
   331          5
   332          3
   333         11
   334         15
   335         33
   336         17
   337         10
   354          3
   359          2
   361         13
   362          2
   363         27
   364          4
   365         17
   366          2
   375          2
   377          2
   396          3
   397          2
   398          3
   399          4
   401          9
   403         10
   404          2
   405          5
   406          3
   408          8
   409          4
   410          9
   411          3
   421          5
   422          4
   423          4
   424          4
   431          4
   432          5
   433         13
   434         15
   435         16
   436         13
   437          5
   438          2
   444          3
   445          9
   446          7
   447         14
   448          8
   449         10
   450          3
   456          3
   457          8
   458         17
   459         23
   460         38
   461         26
   462         36
   463         10
   464          9
   469          4
   470          8
   471         10
   472         18
   473         12
   474         18
   475          7
   476          7
   477          2
   480          2
   481          3
   482         23
   483         19
   484         86
   485         46
   486        135
   487         47
   488         94
   489         18
   490         26
   491          3
   493          2
   494          5
   495          9
   496         14
   497         19
   498         22
   499         18
   500         16
   501          8
   502          6
   503          2
   504          3
   506          5
   507          6
   508         13
   509         17
   510         30
   511         23
   512         47
   513         16
   514         39
   515          8
   516         15
   517          4
   518          6
   519         10
   520         30
   521         28
   522         87
   523         36
   524        114
   525         27
   526         66
   527         12
   528         16
   529          3
   530          4
   531          3
   532          9
   533          8
   534         26
   535         12
   536         38
   537         14
   538         38
   539         13
   540         23
   541          6
   542          8
   543          2
   544          5
   545          5
   546         13
   547          9
   548         29
   549         17
   550         65
   551         28
   552         72
   553         23
   554         41
   555         11
   556         20
   557          7
   558         24
   559         14
   560         43
   561         23
   562         73
   563         26
   564        102
   565         25
   566         88
   567         20
   568         48
   569         10
   570         14
   571          5
   572          8
   573          6
   574         15
   575         10
   576         27
   577         13
   578         33
   579         12
   580         22
   581         10
   582         23
   583         15
   584         45
   585         24
   586        113
   587         50
   588        247
   589         93
   590        364
   591        111
   592        378
   593         94
   594        315
   595         68
   596        186
   597         36
   598         67
   599         11
   600         24
   601          6
   602         48
   603          9
   604         50
   605         10
   606         26
   607          6
   608          7
   609          2
   610          2
   614          3
   615          4
   616          5
   617          5
   618          5
   619          4
   620          5
   622          6
   624         11
   625          4
   626         28
   627         10
   628         75
   629         22
   630        182
   631         41
   632        265
   633         55
   634        198
   635         35
   636         54
   637         10
   638         19
   639          5
   640         44
   641         11
   642         52
   643         12
   644         23
   645          5
   646          5
   653          2
   655          5
   656          2
   657          4
   658          2
   659          2
   662          2
   664         14
   666         85
   667         10
   668        359
   669         71
   670        808
   671        147
   672        825
   673        145
   674        333
   675         58
   676         48
   677          8
   678          4