##TITLE=Library Entry 4208
##JCAMP-DX=Revision 4.10 
##DATA TYPE=MASS SPECTRUM
##SAMPLE DESCRIPTION=Chemical Concepts
##NAMES=HP
##CAS NAME=9-Borabicyclo[3.3.1]nonane, 9-(1-methylbutyl)-
##MOLFORM=C13H25B
##CAS REGISTRY NO=121194-78-3
##MP= -300
##BP= -300
##MW= 192
##$RETENTION INDEX=0
##$CONDENSED SPECTRUM=NO
##NPOINTS= 154
##XYDATA=(XY..XY) 1 
    25          4
    26         80
    27        394
    28        361
    29        308
    30         31
    31          1
    33          0
    36         12
    37         69
    38         74
    39        416
    40        282
    41        999
    42        268
    43        224
    44         43
    45          1
    46          2
    47          2
    49         12
    50         66
    51        167
    52        202
    53        708
    54        298
    55        796
    56         70
    57         53
    58         14
    59          0
    60          5
    61         12
    62         13
    63         44
    64         91
    65        271
    66        219
    67        526
    68        143
    69        199
    70        332
    71         64
    72          8
    73          0
    74          3
    75          8
    76         34
    77        141
    78        159
    79        471
    80        285
    81        368
    82        372
    83        122
    84         36
    85         18
    86          7
    87          7
    88          6
    89         29
    90         53
    91        228
    92        335
    93        773
    94        592
    95        298
    96         59
    97         20
    98         42
    99          9
   100          3
   101          3
   102          0
   103          5
   104          8
   105         38
   106         43
   107        171
   108        242
   109        158
   110         62
   111         68
   112         10
   113          8
   114          2
   115          6
   116          3
   117          6
   118         15
   119         56
   120        177
   121        529
   122        552
   123         54
   124         13
   125          9
   126         15
   127          4
   128          5
   129          0
   131          1
   132          0
   133          3
   134         16
   135         84
   136        151
   137         59
   138          0
   139          0
   141          1
   143          1
   145          0
   146          1
   147          4
   148         25
   149         91
   150         42
   151         25
   152         13
   153          3
   154          3
   155          3
   156          1
   159          0
   160          0
   161          1
   162         11
   163         35
   164         18
   165          3
   166          5
   167          1
   168          3
   169          0
   175          1
   176          1
   177          4
   178          1
   179          1
   180          6
   181          2
   182          0
   183          0
   186          0
   187          0
   188          0
   189          0
   190          1
   191        203
   192        873
   193        122
   194          9
   195          0