##TITLE=Library Entry 65877
##JCAMP-DX=Revision 4.10 
##DATA TYPE=MASS SPECTRUM
##SAMPLE DESCRIPTION=Chemical Concepts
##NAMES=HP
##CAS NAME=4-Pentenamide, 3-methyl-N-phenyl-
##MOLFORM=C12H15NO
##CAS REGISTRY NO=121190-27-0
##MP= -300
##BP= -300
##MW= 189
##$RETENTION INDEX=0
##$CONDENSED SPECTRUM=NO
##NPOINTS= 100
##XYDATA=(XY..XY) 1 
    27         33
    29         33
    30          1
    36          0
    37          1
    38          5
    39         57
    40          5
    41        120
    42          8
    43          8
    44          1
    45          0
    46          1
    47          1
    50          5
    51         26
    52          7
    53         20
    54          5
    55        150
    56          8
    57          0
    59          0
    61          0
    62          1
    63          7
    64         10
    65         43
    66         27
    67         11
    68          4
    69         88
    70         22
    71          3
    73          0
    74          1
    75          1
    76          2
    77         63
    78          7
    79          1
    80          0
    81          3
    82          0
    87          0
    89          0
    90          1
    91         12
    92         30
    93        999
    94         77
    95          5
    96         15
    97         14
    98          1
   103          1
   104          3
   105          2
   106          6
   107          0
   115          1
   116          0
   117          3
   118          3
   119         16
   120         19
   121          2
   128          0
   129          0
   130          2
   131          1
   132          3
   133          2
   134          4
   135          9
   136          0
   143          0
   144          2
   145          0
   146          1
   147          0
   148          1
   149          0
   156          0
   158          1
   160          1
   161          0
   163          0
   170          1
   171          0
   172          0
   173          1
   174          4
   175          0
   187          1
   188          3
   189        104
   190         14
   191          1