##TITLE=Library Entry 59353
##JCAMP-DX=Revision 4.10 
##DATA TYPE=MASS SPECTRUM
##SAMPLE DESCRIPTION=ASES Database, Dalian Institute, P.R. China
##NAMES=HP
##CAS NAME=1-(tert-Butyl)-3-chloro-3-methoxycarbonyl-4-benzylthio-azetidin-2
-one
##MOLFORM=C16H20ClNO3S
##CAS REGISTRY NO=121191-07-9
##MP= -300
##BP= -300
##MW= 341
##$RETENTION INDEX=0
##$CONDENSED SPECTRUM=NO
##NPOINTS= 24
##XYDATA=(XY..XY) 1 
    39        100
    41        288
    43        159
    51         29
    56         50
    57        839
    58         51
    65        120
    69         50
    77         49
    91        999
    92         70
   119         59
   120         49
   162        169
   163         49
   194         29
   218        129
   220         39
   242         49
   244         19
   285         20
   306         29
   341         20