##TITLE=Library Entry 66180
##JCAMP-DX=Revision 4.10 
##DATA TYPE=MASS SPECTRUM
##SAMPLE DESCRIPTION=Chemical Concepts
##NAMES=HP
##CAS NAME=Ether, p-menth-6-en-2-yl methyl
##MOLFORM=C11H20O
##CAS REGISTRY NO=121209-92-5
##MP= -300
##BP= -300
##MW= 168
##$RETENTION INDEX=0
##$CONDENSED SPECTRUM=NO
##NPOINTS= 99
##XYDATA=(XY..XY) 1 
    26         11
    27        246
    28         13
    29        158
    30          2
    31         18
    33          6
    38          8
    39        211
    40        120
    41        390
    42         35
    43        169
    44          6
    45        134
    46          0
    50         13
    51         55
    52         26
    53        163
    54         30
    55        279
    56         26
    57         28
    58         68
    59        141
    60          3
    62          1
    63         16
    64          3
    65         95
    66         35
    67        252
    68         68
    69        204
    70         16
    71         73
    72         56
    73         43
    77        256
    78         52
    79        277
    80         44
    81        326
    82         69
    83        402
    84         30
    85        181
    86        971
    87         65
    88          2
    89          3
    91        261
    92        195
    93        999
    94        107
    95        263
    96         38
    97        169
    98        612
    99        111
   100        103
   101          7
   103         10
   104          0
   105         58
   106         11
   107         99
   108         26
   109         61
   110         27
   111        395
   112         68
   113         26
   115          5
   117          5
   119         15
   120          2
   121        158
   122         19
   123         27
   124         11
   125        307
   126         35
   127          1
   135         20
   136         68
   137         31
   138          5
   139        172
   140         21
   152          4
   153        641
   154         67
   155          5
   167         55
   168        679
   169         95
   170          6