##TITLE=Library Entry 80923
##JCAMP-DX=Revision 4.10 
##DATA TYPE=MASS SPECTRUM
##SAMPLE DESCRIPTION=R.B.KING UNIVERSITY OF GEORGIA, ATHENS, GEORGIA, USA
##NAMES=HP
##CAS NAME=Tungsten, tricarbonyl[(1,2,3,4,5,6-.eta.)-1,3,5-trimethylbenzene]
-
##MOLFORM=C12H12O3W
##CAS REGISTRY NO=12129-69-0
##MP= -300
##BP= -300
##MW= 388
##$RETENTION INDEX=0
##$CONDENSED SPECTRUM=NO
##NPOINTS= 41
##XYDATA=(XY..XY) 1 
    39        128
    41        128
    50         40
    51         88
    53         60
    55         68
    63         40
    65         60
    67         40
    69         40
    77        148
    78         60
    79        108
    91        116
   105        999
   119        176
   120        610
   130         20
   136         48
   142         28
   143         28
   148         48
   149        164
   150         88
   151         88
   165         48
   166         28
   180         28
   194         28
   210         20
   222         48
   234         40
   247         68
   260         48
   274        108
   300        236
   302        176
   304        401
   332        441
   360        184
   388        253