##TITLE=Library Entry 18341
##JCAMP-DX=Revision 4.10 
##DATA TYPE=MASS SPECTRUM
##SAMPLE DESCRIPTION=Chemical Concepts
##NAMES=HP
##CAS NAME=Chromium, tricarbonyl[(1,2,3,4,5,6-.eta.)-1,4-dimethylbenzene]-
##MOLFORM=C11H10CrO3
##CAS REGISTRY NO=12129-27-0
##MP= -300
##BP= -300
##MW= 242
##$RETENTION INDEX=0
##$CONDENSED SPECTRUM=NO
##NPOINTS= 94
##XYDATA=(XY..XY) 1 
    27         13
    28         86
    29          1
    37          0
    38          1
    39         15
    40          4
    41          1
    45          0
    49          0
    50         63
    51         14
    52        999
    53        142
    54         34
    61          0
    62          1
    63          5
    64          1
    65          8
    66          2
    67          1
    68          0
    69          0
    74          1
    75          1
    76          0
    77         19
    78          8
    79         26
    80         18
    81          2
    82          0
    86          0
    87          0
    88          0
    89          2
    90          7
    91         92
    92          7
    93         14
    94          0
   101          2
   102          1
   103          8
   104          2
   105         25
   106         44
   107         10
   108          1
   114          0
   115          0
   116          0
   117          0
   127          0
   128          0
   129          1
   130          0
   131          0
   141          0
   142          0
   143          0
   154          0
   155          1
   156         32
   157         21
   158        654
   159        127
   160         26
   161          1
   174          0
   183          0
   184          5
   185          6
   186         79
   187         16
   188          3
   189          0
   198          0
   200          0
   202          0
   204          0
   212          0
   213          0
   214         13
   215          3
   216          0
   238          0
   240         11
   241          1
   242        229
   243         51
   244         11
   245          1