##TITLE=Library Entry 18355
##JCAMP-DX=Revision 4.10 
##DATA TYPE=MASS SPECTRUM
##SAMPLE DESCRIPTION=Chemical Concepts
##NAMES=HP
##CAS NAME=Chromium, tricarbonyl[.eta.<6>-1,3,5-trimethylbenzene]
##MOLFORM=C12H12CrO3
##CAS REGISTRY NO=12129-67-8
##MP= -300
##BP= -300
##MW= 256
##$RETENTION INDEX=0
##$CONDENSED SPECTRUM=NO
##NPOINTS= 160
##XYDATA=(XY..XY) 1 
    26          2
    27         16
    28         19
    29          1
    37          0
    38          1
    39         23
    40          3
    41         12
    42          0
    43          1
    44          0
    50         49
    51         12
    52        999
    53        109
    54         27
    55          0
    57          0
    58          0
    59          0
    60          0
    61          0
    62          1
    63          5
    64          1
    65          8
    66          2
    67          2
    68          0
    69          0
    71          0
    73          1
    74          1
    75          2
    76          1
    77         23
    78          7
    79          9
    80         27
    81          4
    82          1
    83          0
    85          2
    86         24
    87          1
    88          0
    89          3
    90          9
    91         21
    92          4
    93          1
    94          0
    96          0
    97          0
    99          0
   100         12
   101          2
   102          1
   103          8
   104          4
   105         39
   106          3
   107          0
   108          1
   109          0
   111          0
   113          0
   114          6
   115          6
   116          1
   117          4
   118          1
   119         18
   120         25
   121          2
   123          0
   125          0
   126          0
   127          1
   128          0
   129          1
   130          1
   131          0
   132          0
   133          0
   135          0
   136          0
   137          0
   139          0
   141          0
   142          0
   143          2
   144          1
   145          1
   146          0
   147          0
   148          1
   149          1
   150          0
   151          0
   152          0
   153          0
   154          0
   155          0
   156          0
   157          0
   158          0
   164          0
   166          0
   167          0
   168          0
   169          1
   170         36
   171         25
   172        695
   173        141
   174         28
   175          2
   177          0
   178          0
   180          0
   181          0
   183          0
   185          0
   187          0
   190          0
   191          0
   193          0
   194          0
   197          0
   198          4
   199          6
   200         63
   201         15
   202          3
   203          0
   204          0
   205          0
   207          0
   208          0
   212          0
   214          0
   219          0
   220          0
   221          0
   227          0
   228          2
   229          0
   236          0
   237          0
   245          0
   246          0
   249          0
   252          0
   254          9
   256        166
   257         41
   258         11
   259          1