##TITLE=Library Entry 10306
##JCAMP-DX=Revision 4.10 
##DATA TYPE=MASS SPECTRUM
##SAMPLE DESCRIPTION=NIST Mass Spectrometry Data Center, 2010
##NAMES=HP
##CAS NAME=1,1,4,7-Tetramethyldecahydro-1H-cyclopropa[e]azulene-4,7-diol
##MOLFORM=C15H26O2
##CAS REGISTRY NO=1212211-43-2
##MP= -300
##BP= -300
##MW= 238
##$RETENTION INDEX=0
##$CONDENSED SPECTRUM=NO
##NPOINTS= 80
##XYDATA=(XY..XY) 1 
    27         32
    39        101
    41        338
    43        999
    53        150
    55        221
    57         36
    58         86
    59         51
    61         13
    65        101
    66         39
    67        324
    69        267
    72         22
    77        243
    78         59
    79        388
    81        328
    82        205
    83        135
    85         74
    91        412
    92         66
    93        501
    94        155
    95        321
    96         93
    97         96
    98         26
   101         21
   103         37
   104         26
   105        391
   106        173
   107        489
   108        207
   109        252
   110         58
   115         66
   116         25
   117        147
   118         61
   119        458
   120        212
   121        472
   122        114
   123        193
   125         80
   129         49
   130         30
   131        265
   132         63
   133        209
   134        198
   135        188
   136         86
   138         44
   145        203
   146         91
   147        290
   148         46
   149        158
   159        334
   160         89
   162        344
   163         88
   177        160
   178         52
   187        194
   188         33
   192         18
   202        184
   203         27
   205        169
   206         25
   220        168
   221         32
   223          8
   238         10