##TITLE=Library Entry 67063
##JCAMP-DX=Revision 4.10 
##DATA TYPE=MASS SPECTRUM
##SAMPLE DESCRIPTION=A.A.Kutin, Moscow, Russia
##NAMES=HP
##CAS NAME=Di-2-pyridylthiourea
##MOLFORM=C11H10N4S
##CAS REGISTRY NO=1212-30-2
##MP= -300
##BP= -300
##MW= 230
##$RETENTION INDEX=0
##$CONDENSED SPECTRUM=NO
##NPOINTS= 88
##XYDATA=(XY..XY) 1 
    33         13
    34          8
    35          1
    38        127
    39        309
    40         48
    41        109
    42         18
    43         24
    44         25
    45         29
    50        167
    51        543
    52        158
    53         31
    58         12
    59         14
    60         10
    63         66
    64         71
    65        169
    66         17
    67        706
    68         31
    69         28
    77        348
    78        592
    79         60
    80         17
    81          7
    82         10
    83         13
    84          9
    85          4
    93        486
    94        999
    95         63
    96         10
    97          8
    98         17
    99          2
   100          1
   105         11
   106          3
   108         21
   109         51
   110         16
   111          7
   115         31
   116          2
   117          6
   118         11
   119         22
   120         56
   121          5
   122          4
   123          7
   124         41
   125         10
   126          3
   136         55
   137        145
   138         13
   139          6
   140          1
   150          7
   151         19
   152          5
   153          2
   168          9
   169         16
   170          2
   171          3
   172          0
   179          7
   180          1
   181          0
   195         45
   196        109
   197         16
   198          1
   201          2
   202          0
   228         67
   229        373
   230         54
   231         19
   232          2