##TITLE=Library Entry 1627
##JCAMP-DX=Revision 4.10 
##DATA TYPE=MASS SPECTRUM
##SAMPLE DESCRIPTION=Japan AIST/NIMC Database- Spectrum MS-NW-9217
##NAMES=HP
##CAS NAME=Ammonium Chloride
##MOLFORM=ClH4N
##CAS REGISTRY NO=12125-02-9
##MP= -300
##BP= -300
##MW= 53
##$RETENTION INDEX=0
##$CONDENSED SPECTRUM=NO
##NPOINTS= 12
##XYDATA=(XY..XY) 1 
    14          4
    15         12
    16        439
    17        653
    18         28
    19          1
    28          4
    35        125
    36        999
    37         45
    38        339
    39          1