##TITLE=Library Entry 48190
##JCAMP-DX=Revision 4.10 
##DATA TYPE=MASS SPECTRUM
##SAMPLE DESCRIPTION=R.B.KING UNIVERSITY OF GEORGIA, ATHENS, GEORGIA, USA
##NAMES=HP
##CAS NAME=Tungsten, tricarbonyl(1,3,5-cyclooctatriene)-
##MOLFORM=C11H10O3W
##CAS REGISTRY NO=12129-34-9
##MP= -300
##BP= -300
##MW= 374
##$RETENTION INDEX=0
##$CONDENSED SPECTRUM=NO
##NPOINTS= 35
##XYDATA=(XY..XY) 1 
    39        258
    41        105
    50         96
    51        201
    52        105
    53         44
    63         56
    65        136
    66         56
    77        258
    78        999
    79        323
    91        588
   103         88
   104         27
   105        201
   106        357
   130         27
   143         48
   144         37
   158         10
   172          4
   184          4
   210         25
   222         25
   234         48
   247         10
   260         96
   272          4
   286        178
   288        210
   316        178
   344         73
   346         48
   374         96