##TITLE=Library Entry 18264
##JCAMP-DX=Revision 4.10 
##DATA TYPE=MASS SPECTRUM
##SAMPLE DESCRIPTION=D.HENNEBERG, MAX-PLANCK INSTITUTE, MULHEIM, WEST GERMAN
Y
##NAMES=HP
##CAS NAME=Chromium, tricarbonyl[(1,2,3,4,5,6-.eta.)-1,3,5-cycloheptatriene]
-
##MOLFORM=C10H8CrO3
##CAS REGISTRY NO=12125-72-3
##MP= -300
##BP= -300
##MW= 228
##$RETENTION INDEX=0
##$CONDENSED SPECTRUM=NO
##NPOINTS= 101
##XYDATA=(XY..XY) 1 
    26         20
    27         14
    28        961
    29         11
    30          2
    31          0
    32          8
    37          0
    38          3
    39         57
    40         10
    41          9
    42          1
    43          2
    44         15
    45          3
    46          2
    48          0
    49          0
    50         52
    51         26
    52        999
    53        113
    54         25
    55          0
    57          1
    61          0
    62          4
    63         26
    64          8
    65        126
    66        135
    67         16
    68          5
    72          1
    74          1
    75          1
    76          2
    77         13
    78         37
    79          4
    80         19
    81          3
    82          0
    84          0
    85          1
    86          8
    87          0
    88          1
    89         22
    90         22
    91        513
    92        223
    93         17
    94          1
    95          0
   100          3
   103          2
   104          1
   108          1
   111          0
   114          0
   115          1
   116          7
   117         14
   118         92
   119         15
   120          3
   128          1
   129          8
   130          2
   131          1
   141          1
   142         38
   143         12
   144        570
   145        105
   146         21
   147          1
   170          6
   171          1
   172        132
   173         25
   174          4
   175          0
   196          0
   198          4
   199          0
   200        111
   201         22
   202          4
   203          0
   207          0
   224          1
   225          0
   226          7
   227          0
   228        129
   229         28
   230          6
   231          1