##TITLE=Library Entry 71181
##JCAMP-DX=Revision 4.10 
##DATA TYPE=MASS SPECTRUM
##SAMPLE DESCRIPTION=Japan AIST/NIMC Database- Spectrum MS-NW-4471
##NAMES=HP
##CAS NAME=Thiourea, N,N'-dicyclohexyl-
##MOLFORM=C13H24N2S
##CAS REGISTRY NO=1212-29-9
##MP= -300
##BP= -300
##MW= 240
##$RETENTION INDEX=0
##$CONDENSED SPECTRUM=NO
##NPOINTS= 171
##XYDATA=(XY..XY) 1 
    15          9
    16          2
    17         19
    18        104
    26          7
    27        102
    28        100
    29        122
    30        132
    31          2
    32          9
    33          6
    34         12
    36          1
    37          1
    38          4
    39        125
    40         18
    41        449
    42         62
    43        240
    44         59
    45         36
    46          1
    47          4
    48          1
    50          5
    51         13
    52          9
    53         80
    54         92
    55        524
    56        262
    57         26
    58         10
    59         15
    60         76
    61          7
    62         15
    63          2
    64          3
    65         12
    66          9
    67        107
    68         28
    69         37
    70         35
    71          9
    72         10
    73          5
    74          4
    75         14
    76         15
    77        725
    78         24
    79         61
    80         15
    81        217
    82         91
    83        246
    84         21
    85          4
    86          9
    87          2
    88          4
    89          2
    90          9
    91          5
    92          2
    93          3
    94          5
    95         15
    96         27
    97         21
    98        999
    99         79
   100         15
   101         51
   102          6
   103          7
   104          2
   105          2
   106          1
   107          2
   108          4
   109          8
   110         50
   111          5
   112          4
   113          3
   114          3
   115         23
   116          6
   117          6
   118          1
   119          1
   121          2
   122          2
   123         10
   124         40
   125        150
   126         15
   127         20
   128          3
   129         11
   130          5
   131          1
   135          1
   136          2
   137          2
   138          3
   139          2
   140          2
   141          9
   142          8
   143          7
   144          2
   149          4
   150          4
   151          9
   152          7
   153          4
   154          1
   155          2
   156          5
   157        143
   158         45
   159        239
   160         24
   161         11
   162          1
   163         40
   164         24
   165          9
   166          2
   167          1
   169          4
   170          2
   171          4
   172          2
   177         14
   178          7
   179          2
   180          1
   183         37
   184         10
   185          6
   186          1
   191          6
   192          1
   193          1
   197         39
   198         10
   199          5
   200          1
   205          7
   206         20
   207         94
   208         17
   209          2
   211         21
   212          4
   213          1
   225          5
   226          1
   238          5
   239        292
   240        517
   241         91
   242         28
   243          4