##TITLE=Library Entry 7691
##JCAMP-DX=Revision 4.10 
##DATA TYPE=MASS SPECTRUM
##SAMPLE DESCRIPTION=Div. of Experiment Therapeutics WRAIR, WRAMC, Washingto
n DC 20307
##NAMES=HP
##CAS NAME=2-Carbamyl-9-[.beta.-d-ribofuranosyl]hypoxanthine
##MOLFORM=C11H13N5O5
##CAS REGISTRY NO=121358-21-2
##MP= -300
##BP= -300
##MW= 295
##$RETENTION INDEX=0
##$CONDENSED SPECTRUM=NO
##NPOINTS= 92
##XYDATA=(XY..XY) 1 
    42        693
    43        999
    44        718
    45        489
    46         38
    47        295
    52         57
    53         78
    55        562
    56        143
    57        828
    58         75
    60        311
    61         87
    63         30
    65         61
    66         47
    67         25
    68        194
    69        276
    70         81
    71        323
    73        338
    74         97
    75          8
    76          6
    77         58
    78         69
    79         41
    81         64
    82        113
    83        109
    86        110
    88         83
    89         14
    91         37
    92         27
    93         42
    94          6
    95         58
    96         62
    97        154
    98         62
    99         31
   101         70
   102         14
   103         27
   105         41
   106         41
   107         34
   109         29
   110         16
   111         96
   112         78
   114         85
   115         40
   119         59
   120         70
   121         33
   122         22
   123          7
   124         50
   125         42
   126          7
   127         26
   129         31
   133         27
   135         22
   138         31
   139         27
   140          9
   141          8
   143         24
   145         73
   147         46
   149         40
   150         36
   151          6
   152          9
   153         26
   157          6
   161         25
   163         25
   164         38
   168          7
   177         13
   179         16
   184          8
   185          7
   192         42
   206         43
   217          7