##TITLE=Library Entry 64760
##JCAMP-DX=Revision 4.10 
##DATA TYPE=MASS SPECTRUM
##SAMPLE DESCRIPTION=Chemical Concepts
##NAMES=HP
##CAS NAME=1,3-Di(4-bromophenyl)propane
##MOLFORM=C15H14Br2
##CAS REGISTRY NO=121392-37-8
##MP= -300
##BP= -300
##MW= 352
##$RETENTION INDEX=0
##$CONDENSED SPECTRUM=NO
##NPOINTS= 77
##XYDATA=(XY..XY) 1 
    38          3
    39         41
    41         13
    50         18
    51         37
    52          9
    53          4
    55          4
    57          5
    62          5
    63         45
    64         13
    65         61
    74          7
    75         17
    76         39
    77        147
    78        101
    79          7
    88          6
    89        156
    90        255
    91        999
    92         87
    93          4
   102         55
   103        179
   104        427
   105         43
   115         29
   116         23
   117         88
   118          5
   119          3
   141          2
   152          7
   153          6
   155          4
   164          4
   165         48
   166         37
   167          8
   168          8
   169        482
   170        379
   171        456
   172        390
   173         26
   178         24
   179         54
   180          6
   181          1
   182         51
   183        278
   184         78
   185        297
   186         23
   189          6
   190          2
   191          7
   192         10
   193         23
   194         14
   196         85
   197         13
   198         79
   199          6
   245          7
   247          3
   274          4
   276          6
   352        319
   353         56
   354        621
   355         95
   356        312
   357         54