##TITLE=Library Entry 18699
##JCAMP-DX=Revision 4.10 
##DATA TYPE=MASS SPECTRUM
##SAMPLE DESCRIPTION=Chemical Concepts
##NAMES=HP
##CAS NAME=Platinum, bis[(1,2,5,6-.eta.)-1,5-cyclooctadiene]-
##MOLFORM=C16H24Pt
##CAS REGISTRY NO=12130-66-4
##MP= -300
##BP= -300
##MW= 411
##$RETENTION INDEX=0
##$CONDENSED SPECTRUM=NO
##NPOINTS= 231
##XYDATA=(XY..XY) 1 
    26         15
    27        164
    29         36
    31          4
    37          3
    38         16
    39        396
    40          8
    41        222
    42         11
    43         20
    44          5
    45          4
    49          1
    50         26
    51         71
    52         37
    53        104
    54        999
    55         69
    56          7
    57         30
    58          1
    59          3
    61          1
    62          6
    63         17
    64          3
    65         83
    66        180
    67        862
    68         53
    69         20
    70          6
    71         18
    73          2
    74          4
    75          4
    76          3
    77        142
    78         56
    79        343
    80        384
    81         47
    82         13
    83         17
    84          3
    85         12
    89          3
    91         96
    92         11
    93        119
    94         10
    95         17
    96          5
    97         16
    98          3
    99          6
   102          8
   103         16
   104          6
   105         54
   106          8
   107         15
   108         65
   109         15
   110          7
   111         13
   112          3
   113          3
   115          1
   117          0
   119          1
   121          1
   122          0
   123          6
   124          2
   125          7
   126          1
   127          2
   128          0
   133          1
   135          2
   137          4
   138          0
   139          4
   140          0
   141          2
   147          0
   149          2
   150          0
   151          3
   152          0
   153          2
   155          1
   163          1
   165          3
   166          0
   167          0
   177          1
   179          1
   180          0
   181          1
   185          0
   188          0
   191          1
   193          0
   195          0
   197          0
   203          0
   205          2
   206          0
   207          0
   220          3
   221          5
   222          6
   223          2
   232          2
   233          4
   234          5
   235          4
   236          2
   237          2
   244          1
   245          5
   246          9
   247         12
   248         23
   249         19
   250         13
   251          2
   252          3
   257          0
   258          2
   259          7
   260         10
   261         10
   262          5
   263          2
   264          1
   269          2
   270          9
   271         15
   272         26
   273         25
   274         18
   275          7
   276          6
   277          2
   278          1
   281          2
   282          0
   283          3
   284          6
   285          6
   286          4
   287          2
   288          2
   289          0
   295         14
   296         34
   297         46
   298         56
   299         49
   300         80
   301         69
   302        159
   303        136
   304        106
   305         17
   306         25
   307          4
   310          1
   311          1
   312          2
   313          2
   314          5
   315          4
   316          8
   317          6
   318          5
   320          0
   327          0
   328          1
   329          1
   330          1
   333          1
   342          0
   354          1
   355          1
   356          7
   357          7
   358          5
   359          0
   360          1
   365          1
   366          1
   367          2
   368          2
   369          2
   370          1
   371          0
   376          0
   378          3
   379          3
   380          8
   381          8
   382          7
   383          3
   384          2
   393          1
   394          0
   395          3
   396          2
   397          1
   400          1
   401          2
   402          4
   403          4
   404          9
   405         10
   406         16
   407         13
   408         19
   409         12
   410         60
   411         66
   412         51
   413          9
   414         13
   415          2