##TITLE=Library Entry 16894
##JCAMP-DX=Revision 4.10 
##DATA TYPE=MASS SPECTRUM
##SAMPLE DESCRIPTION=R.D.Bowen ET AL, Org. Mass Spectrom., 26,421(1991)
##NAMES=HP
##CAS NAME=E-1-Methoxy-3-hexene
##MOLFORM=C7H14O
##CAS REGISTRY NO=121441-40-5
##MP= -300
##BP= -300
##MW= 114
##$RETENTION INDEX=810
##$CONDENSED SPECTRUM=NO
##NPOINTS= 22
##XYDATA=(XY..XY) 1 
    39         90
    40         20
    41        210
    42         30
    43        250
    45        999
    46         20
    53         40
    54         20
    55         40
    56         10
    57         10
    58        100
    59         50
    67        100
    68         50
    69         50
    71         40
    81         10
    82        250
    83         20
    85          5