##TITLE=Library Entry 18332
##JCAMP-DX=Revision 4.10 
##DATA TYPE=MASS SPECTRUM
##SAMPLE DESCRIPTION=Chemical Concepts
##NAMES=HP
##CAS NAME=Chromium,[(2,3,5,6-.eta.)-bicyclo[2.2.1]hepta-2,5-diene]tetracarb
onyl-
##MOLFORM=C11H8CrO4
##CAS REGISTRY NO=12146-36-0
##MP= -300
##BP= -300
##MW= 256
##$RETENTION INDEX=0
##$CONDENSED SPECTRUM=NO
##NPOINTS= 132
##XYDATA=(XY..XY) 1 
    27         18
    28        140
    29          3
    30          0
    31          0
    33          0
    36          0
    37          4
    38         11
    39         64
    40          1
    41          5
    42          0
    43          1
    44          0
    45          1
    46          0
    49          1
    50         62
    51         17
    52        999
    53        150
    54         31
    55          0
    56          0
    59          1
    60          0
    61          2
    62          6
    63         16
    64          6
    65         33
    66         49
    67          4
    68          2
    69          0
    71          1
    72         27
    73          1
    74          1
    75          2
    76          5
    77         47
    78         46
    79         10
    80         64
    81         10
    82          2
    83          0
    84          0
    85          1
    86         24
    87          1
    88          2
    89          6
    90         26
    91        106
    92         44
    93          3
    94          0
    95          0
    99          0
   100          9
   101          2
   102          0
   103          2
   104          0
   105          0
   106          2
   107          0
   108         10
   109          1
   110          0
   113          0
   114          1
   115          2
   116         23
   117         41
   118        393
   119         64
   120         14
   121          0
   127          0
   128          0
   129          2
   130          0
   131          0
   134          0
   136          0
   140          1
   141          1
   142         63
   143         11
   144        750
   145        160
   146         28
   147          2
   148          0
   158          0
   170         10
   171          1
   172        157
   173         30
   174          6
   175          0
   180          0
   182          0
   183          0
   184          0
   198          3
   199          0
   200         64
   201         17
   202          3
   203          0
   207          0
   224          0
   226          2
   227          0
   228         45
   229         10
   230          2
   231          0
   252          0
   253          0
   254          6
   255          0
   256        104
   257         29
   258          6
   259          0
   260          0