##TITLE=Library Entry 24282
##JCAMP-DX=Revision 4.10 
##DATA TYPE=MASS SPECTRUM
##SAMPLE DESCRIPTION=Chemical Concepts
##NAMES=HP
##CAS NAME=Triacontane, 1,30-dibromo-
##MOLFORM=C30H60Br2
##CAS REGISTRY NO=121473-35-6
##MP= -300
##BP= -300
##MW= 578
##$RETENTION INDEX=0
##$CONDENSED SPECTRUM=NO
##NPOINTS= 351
##XYDATA=(XY..XY) 1 
    26          3
    27         45
    28          3
    29        104
    30          2
    31          0
    35          0
    36          2
    37          0
    38          1
    39         31
    40          0
    41        414
    42         73
    43        638
    44         23
    45          0
    50          1
    51          1
    52          1
    53         18
    54         46
    55        618
    56        172
    57        999
    58         47
    59          0
    60          0
    61          0
    62          0
    63          0
    65          3
    66          4
    67         73
    68         50
    69        575
    70        104
    71        628
    72         42
    73          1
    74          0
    77          2
    78          1
    79          8
    80          9
    81         48
    82         73
    83        409
    84         68
    85        401
    86         28
    87          1
    89          0
    91          3
    92          1
    93          2
    94          1
    95         28
    96         43
    97        259
    98         42
    99        165
   100         14
   101          0
   103          0
   104          0
   105          2
   106          0
   107          7
   108          0
   109         17
   110         16
   111        141
   112         22
   113        110
   114         11
   115          0
   116          0
   117          0
   118          0
   119          1
   120          0
   121          7
   122          1
   123         11
   124         10
   125         58
   126         11
   127         96
   128          9
   129          0
   130          0
   131          0
   132          0
   133          1
   134          0
   135        104
   136          6
   137        104
   138          6
   139         24
   140          7
   141         73
   142          7
   143          0
   145          0
   147          0
   148         11
   149         34
   150         13
   151         30
   152          3
   153         13
   154          4
   155         49
   156          6
   157          0
   161          1
   162          6
   163         26
   164          8
   165         23
   166          2
   167          8
   168          3
   169         44
   170          5
   171          0
   174          0
   175          1
   176          1
   177         23
   178          3
   179         20
   180          2
   181          5
   182          2
   183         32
   184          4
   185          0
   186          0
   188          0
   189          2
   190          1
   191         20
   192          2
   193         19
   194          2
   195          3
   196          1
   197         28
   198          4
   199          0
   202          0
   203          1
   204          1
   205         18
   206          2
   207         17
   208          1
   209          2
   210          1
   211         19
   212          3
   213          0
   216          0
   217          1
   218          1
   219         17
   220          2
   221         15
   222          2
   223          1
   224          1
   225         17
   226          3
   227          0
   230          0
   231          1
   232          1
   233         14
   234          2
   235         12
   236          1
   237          1
   238          0
   239         14
   240          2
   241          0
   244          0
   245          1
   246          1
   247         11
   248          2
   249         11
   250          1
   251          1
   252          0
   253         11
   254          2
   255          0
   258          0
   259          0
   260          1
   261         11
   262          2
   263         10
   264          1
   265          0
   266          0
   267          9
   268          1
   272          0
   273          1
   274          1
   275         10
   276          2
   277          9
   278          1
   279          0
   280          0
   281          7
   282          1
   283          0
   286          0
   287          0
   288          1
   289         10
   290          2
   291          8
   292          1
   293          0
   294          0
   295          5
   296          1
   297          0
   300          0
   301          0
   302          0
   303          7
   304          2
   305          7
   306          1
   307          0
   308          0
   309          3
   310          0
   314          0
   315          0
   316          0
   317          7
   318          1
   319          6
   320          1
   321          0
   322          0
   323          2
   324          0
   328          0
   329          0
   330          0
   331          7
   332          2
   333          6
   334          1
   335          0
   336          0
   337          1
   338          0
   343          0
   344          0
   345          6
   346          1
   347          6
   348          1
   349          0
   351          0
   357          0
   358          0
   359          6
   360          1
   361          5
   362          1
   363          0
   364          0
   365          0
   371          0
   372          0
   373          5
   374          1
   375          5
   376          1
   377          0
   385          0
   386          0
   387          5
   388          1
   389          5
   390          1
   399          0
   400          0
   401          4
   402          1
   403          4
   404          1
   405          0
   413          0
   414          0
   415          4
   416          1
   417          4
   418          1
   419          0
   420          0
   421          1
   422          0
   428          0
   429          3
   430          1
   431          3
   432          0
   442          0
   443          1
   444          0
   445          1
   446          0
   455          0
   456          0
   457          1
   458          0
   459          0
   460          0
   470          0
   471          0
   472          0
   485          0
   487          0
   488          0
   498          1
   499         46
   500         18
   501         47
   502         17
   503          2
   504          0
   505          0
   578          0
   579          0
   580          0
   581          0
   582          0