##TITLE=Library Entry 89531
##JCAMP-DX=Revision 4.10 
##DATA TYPE=MASS SPECTRUM
##SAMPLE DESCRIPTION=Darrick Lee, Cayman Chemical, Ann Arbor, MI
##NAMES=HP
##CAS NAME=4-Methyl-a-pyrrolidinobutiophenone
##MOLFORM=C15H21NO
##CAS REGISTRY NO=1214-15-9
##MP= -300
##BP= -300
##MW= 231
##$RETENTION INDEX=1790
##$CONDENSED SPECTRUM=NO
##NPOINTS= 112
##XYDATA=(XY..XY) 1 
    41         59
    42         42
    43         15
    44          2
    45          1
    50          3
    51          7
    52          3
    53          7
    54         20
    55         50
    56         14
    57          1
    58         11
    59          1
    61          1
    62          3
    63         12
    64          4
    65         48
    66          4
    67          3
    68         15
    69         17
    70         60
    71          4
    72          1
    74          1
    75          1
    76          1
    77          5
    78          2
    79          2
    80          3
    81          2
    82          6
    83          3
    84          5
    85          1
    86          1
    87          1
    89         14
    90          8
    91         81
    92          7
    93          2
    94          3
    96         27
    97         16
    98          1
   101          1
   102          1
   103          2
   104          1
   105          6
   106          1
   108          3
   110         34
   112        999
   113         81
   114          3
   115          4
   116          1
   117          2
   119         36
   120          3
   127          1
   128          2
   129          1
   130          1
   131          2
   132          1
   141          1
   142          1
   143          1
   144          1
   145          2
   146          1
   147          2
   148          1
   154          1
   156          1
   157          1
   158          1
   159          1
   160          1
   161          1
   162          1
   168          1
   170          1
   172          1
   173          1
   174          2
   175          1
   182          1
   184          1
   186          2
   187          1
   198          1
   200          1
   201          1
   202          5
   203          1
   211          1
   214          1
   215          1
   216          1
   227          1
   228          1
   229          1
   230          1
   231          1