##TITLE=Library Entry 42419
##JCAMP-DX=Revision 4.10 
##DATA TYPE=MASS SPECTRUM
##SAMPLE DESCRIPTION=Chemical Concepts
##NAMES=HP
##CAS NAME=Ethanone, 1-[4-methyl-2-[(trimethylsilyl)oxy]-3-cyclohexen-1-yl]-
, cis-(.+-.)-
##MOLFORM=C12H22O2Si
##CAS REGISTRY NO=121401-48-7
##MP= -300
##BP= -300
##MW= 226
##$RETENTION INDEX=0
##$CONDENSED SPECTRUM=NO
##NPOINTS= 148
##XYDATA=(XY..XY) 1 
    27         32
    28          5
    29         14
    31          8
    39         47
    40          9
    41         55
    42          5
    43        481
    44         32
    45        157
    46         11
    47        105
    48          5
    49          6
    50          4
    51         20
    52          9
    53         33
    54          6
    55         25
    56          3
    57         16
    58         15
    59         70
    60         15
    61         72
    62          6
    63         11
    64          6
    65         34
    66          9
    67         23
    68          3
    69         10
    70         15
    71         12
    72         14
    73        999
    74         96
    75        729
    76         57
    77        153
    78         28
    79        140
    80         12
    81        314
    82         35
    83         19
    84         15
    85         26
    86          5
    87          6
    89         11
    90         16
    91        130
    92        271
    93        497
    94         73
    95         34
    96          5
    97         18
    98         92
    99         30
   100          3
   101         50
   102          5
   103         16
   104          3
   105         25
   106          4
   107          6
   108         22
   109         16
   110          5
   111         14
   112          5
   113         82
   114         10
   115         17
   116          5
   117        194
   118         23
   119         61
   120          4
   121        265
   122         23
   123          7
   125         24
   126          4
   127         20
   128          9
   129          9
   130          4
   131          9
   135         11
   136        249
   137         37
   138          3
   140          3
   141        836
   142        114
   143        113
   144         13
   145          6
   146          2
   147         10
   149         11
   151         16
   152          3
   153         17
   154          3
   155         27
   156        516
   157         74
   158         22
   159          3
   165         50
   166         10
   167        192
   168         33
   169         68
   170         11
   171          3
   179          3
   180          6
   181         44
   182         93
   183        222
   184         52
   185         13
   191          3
   193         11
   194          3
   195         41
   196          8
   197         34
   198         53
   199          9
   208          4
   209         22
   210          5
   211        415
   212         69
   213         20
   225          8
   226         63
   227         11