##TITLE=Library Entry 22407
##JCAMP-DX=Revision 4.10 
##DATA TYPE=MASS SPECTRUM
##SAMPLE DESCRIPTION=NIST Mass Spectrometry Data Center
##NAMES=HP
##CAS NAME=Isobutyl 8-methylnonanoate
##MOLFORM=C14H28O2
##CAS REGISTRY NO=1215127-94-8
##MP= -300
##BP= -300
##MW= 228
##$RETENTION INDEX=1511
##$CONDENSED SPECTRUM=NO
##NPOINTS= 70
##XYDATA=(XY..XY) 1 
    27         51
    29        125
    31          5
    39         52
    40         10
    41        423
    42        102
    43        575
    44         18
    45         15
    55        200
    56        999
    57        843
    58         38
    60        183
    61         54
    68         29
    69        217
    70         87
    71        168
    72         18
    73        178
    74         21
    81         91
    82         32
    83         31
    84        168
    85         97
    86         12
    87         50
    90          2
    95         40
    96         11
    97         64
    98         20
    99         17
   101         22
   109         41
   110         14
   111         32
   112         13
   113         18
   114          7
   115         23
   116         50
   117         17
   124          7
   125          7
   127         24
   129        190
   130         14
   136         11
   137         63
   138          6
   139         23
   143         10
   145         62
   153         26
   154          4
   155        208
   156         22
   157         13
   171         10
   172         47
   173        177
   174         19
   185         22
   186          4
   213          2
   228          2