##TITLE=Library Entry 32627
##JCAMP-DX=Revision 4.10 
##DATA TYPE=MASS SPECTRUM
##SAMPLE DESCRIPTION=J. Barluenga, Dep. Org. Chem., Univ. Oviedo, Oviedo, Sp
ain
##NAMES=HP
##CAS NAME=Oxirane, 2-(chloromethyl)-2-cyclopropyl-
##MOLFORM=C6H9ClO
##CAS REGISTRY NO=121505-35-9
##MP= -300
##BP= -300
##MW= 132
##$RETENTION INDEX=0
##$CONDENSED SPECTRUM=NO
##NPOINTS= 15
##XYDATA=(XY..XY) 1 
    39        460
    40        120
    41        320
    49        110
    51        140
    53        220
    55        670
    65        330
    66        170
    67        999
    68        110
    83        510
    97        150
   131        140
   133         40