##TITLE=Library Entry 25105
##JCAMP-DX=Revision 4.10 
##DATA TYPE=MASS SPECTRUM
##SAMPLE DESCRIPTION=NIST Mass Spectrometry Data Center
##NAMES=HP
##CAS NAME=Isobutyl 8-methylnon-6-enoate
##MOLFORM=C14H26O2
##CAS REGISTRY NO=1215128-15-6
##MP= -300
##BP= -300
##MW= 226
##$RETENTION INDEX=1496
##$CONDENSED SPECTRUM=NO
##NPOINTS= 105
##XYDATA=(XY..XY) 1 
    26          3
    27         71
    28         20
    29        170
    30          5
    31          8
    37          1
    38          4
    39        149
    40         31
    41        741
    42         84
    43        195
    44          5
    45         15
    46          1
    47          1
    48          1
    50          4
    51         15
    52         10
    53         89
    54         48
    55        504
    56        436
    57        999
    60         43
    61          9
    62          2
    63          3
    65         28
    67        205
    68        112
    69        959
    70        126
    71         83
    72          4
    73         65
    74          7
    76          1
    77         30
    79         90
    80         11
    81        151
    83        100
    84        102
    85         54
    86          8
    87         26
    88          4
    91         14
    93         70
    94         17
    96         71
    97        176
    98         35
    99         17
   100          8
   102          8
   106          4
   107         70
   108        162
   109        310
   110        112
   111         60
   112          8
   113         79
   114        172
   115        186
   116         15
   119          9
   123         95
   124         31
   125         17
   126          2
   127         61
   128         13
   129          5
   133         88
   134         17
   135        126
   136         11
   137        241
   138         15
   139          2
   141          7
   142          7
   143          1
   151         78
   152        192
   153        279
   154         30
   155         15
   156          2
   157          1
   168          3
   169         26
   170         32
   171          9
   172          1
   183          1
   197          1
   211          2
   226         18
   227          3