##TITLE=Library Entry 68089
##JCAMP-DX=Revision 4.10 
##DATA TYPE=MASS SPECTRUM
##SAMPLE DESCRIPTION=NIST Mass Spectrometry Data Center
##NAMES=HP
##CAS NAME=6-Methylhept-4-en-1-yl 2-methylbutanoate
##MOLFORM=C13H24O2
##CAS REGISTRY NO=1215128-05-4
##MP= -300
##BP= -300
##MW= 212
##$RETENTION INDEX=1383
##$CONDENSED SPECTRUM=NO
##NPOINTS= 72
##XYDATA=(XY..XY) 1 
    26          2
    27         26
    29         76
    30          3
    31          3
    38          2
    39         67
    40         14
    41        295
    42         25
    43         62
    44          4
    45          6
    46          1
    47          2
    50          3
    51          7
    52          5
    53         54
    54         74
    55        226
    56         92
    57        436
    58         18
    59          3
    61          1
    63          2
    64          1
    65         19
    66         96
    67        444
    68        164
    69        513
    70         30
    71         14
    72          1
    73          3
    74          6
    75          1
    77         16
    78          4
    79         38
    80         10
    81        143
    82        398
    83         48
    84          6
    85        100
    86          7
    87          5
    91          7
    93         24
    94          6
    95        999
    96         75
    97          4
    99          1
   100          1
   101          1
   102          1
   103         18
   104          1
   108          2
   109         35
   110        352
   111         36
   112          2
   126          2
   127          5
   128          1
   129          2
   143          1