##TITLE=Library Entry 66604
##JCAMP-DX=Revision 4.10 
##DATA TYPE=MASS SPECTRUM
##SAMPLE DESCRIPTION=Chemical Concepts
##NAMES=HP
##CAS NAME=Propanamide, 3-cyclohexylidene-N-phenyl-
##MOLFORM=C15H19NO
##CAS REGISTRY NO=121598-56-9
##MP= -300
##BP= -300
##MW= 229
##$RETENTION INDEX=0
##$CONDENSED SPECTRUM=NO
##NPOINTS= 122
##XYDATA=(XY..XY) 1 
    26          1
    27         33
    29         31
    30          1
    37          0
    38          3
    39         57
    40         10
    41        131
    42          7
    43         21
    44          1
    50          4
    51         29
    52         10
    53         37
    54         16
    55         96
    56          4
    57          1
    58          0
    62          0
    63          6
    64          9
    65         56
    66         32
    67        279
    68         28
    69         13
    70          1
    71          0
    74          0
    75          0
    76          3
    77        124
    78         15
    79         57
    80         17
    81        122
    82         24
    83          2
    89          0
    91         42
    92        125
    93        999
    94         99
    95         54
    96          4
    97          8
    98          3
    99          2
   103          2
   104          6
   105          4
   106          5
   107         68
   108         22
   109         72
   110         24
   111          2
   115          1
   116          0
   117          4
   118          4
   119         38
   120         58
   121         11
   122          2
   123          0
   124          0
   128          1
   129          1
   130          3
   131          1
   132          5
   133          2
   134         35
   135        453
   136         92
   137         28
   138          6
   139          0
   141          0
   142          0
   143          1
   144          1
   145          0
   146          5
   147          1
   148          5
   149          1
   151          0
   153          1
   155          0
   156          1
   158          2
   159          0
   160          0
   170         10
   171          3
   172          3
   173          2
   174          1
   180          0
   182          0
   184          1
   185          1
   186          7
   187          3
   188          0
   198          1
   200          4
   212          0
   214          2
   224          0
   226          0
   227          2
   228          7
   229        344
   230         54
   231          9
   232          0