##TITLE=Library Entry 36749
##JCAMP-DX=Revision 4.10 
##DATA TYPE=MASS SPECTRUM
##SAMPLE DESCRIPTION=Institute of Organic Chemistry, Novosibirsk, USSR 1988
##NAMES=HP
##CAS NAME=Molybdenum,trifluoromethyltricarbonyl-.pi.-cyclopentadienyl
##MOLFORM=C9H5F3MoO3
##CAS REGISTRY NO=12152-60-2
##MP= -300
##BP= -300
##MW= 316
##$RETENTION INDEX=0
##$CONDENSED SPECTRUM=NO
##NPOINTS= 86
##XYDATA=(XY..XY) 1 
    50         62
    51        174
    65        136
    66        174
    67         74
    69        999
   128         49
   129         74
   130         86
   131        149
   132         99
   133        136
   134        174
   135        174
   136        124
   137        136
   138         49
   139         49
   150        136
   151         62
   152        124
   153        162
   154        174
   155        162
   156        237
   157        124
   158        124
   159         86
   160        124
   161        149
   162         99
   163        174
   164         49
   165         86
   166         37
   167         49
   226        262
   227         37
   228        187
   229        349
   230        362
   231        249
   232        499
   233         49
   234        193
   235         74
   237         49
   238         55
   239         62
   240         49
   241         74
   243         62
   254        149
   255         37
   256        112
   257        162
   258        187
   259        112
   260        247
   261         24
   262        118
   263         18
   282         24
   284         12
   285         24
   286         37
   287         18
   288         49
   290         12
   291         18
   293         12
   294         18
   295         18
   296         12
   297         24
   299         12
   310        112
   311         12
   312         62
   313        112
   314        112
   315         86
   316        162
   317         24
   318         62
   319         12