##TITLE=Library Entry 78612
##JCAMP-DX=Revision 4.10 
##DATA TYPE=MASS SPECTRUM
##SAMPLE DESCRIPTION=John Halket,Royal Holloway, University of London, UK
##NAMES=HP
##CAS NAME=N'-(3-Pyridinylmethylene)benzohydrazide
##MOLFORM=C13H11N3O
##CAS REGISTRY NO=1215-53-8
##MP= -300
##BP= -300
##MW= 225
##$RETENTION INDEX=0
##$CONDENSED SPECTRUM=NO
##NPOINTS= 67
##XYDATA=(XY..XY) 1 
    25          1
    26          7
    27         13
    28         15
    29          4
    36          1
    37          9
    38         40
    39         57
    40          5
    41          5
    42          4
    43          1
    44          2
    49          5
    50         79
    51        210
    52         30
    53          5
    61          5
    62         20
    63         97
    64         57
    65         32
    66         25
    67          2
    73          1
    74         16
    75         17
    76         39
    77        595
    78         57
    79          5
    80          1
    87          1
    88          1
    89          1
    90          2
    91         17
    92         18
    93         11
    94          2
   102          1
   103         13
   105        999
   106         82
   107          5
   108          1
   115          1
   118          1
   119          3
   120         23
   121        186
   122         24
   123          2
   139          1
   147          2
   148          2
   166          1
   167          2
   168          1
   181          1
   196          1
   197          1
   224          9
   225         10
   226          2