##TITLE=Library Entry 8562
##JCAMP-DX=Revision 4.10 
##DATA TYPE=MASS SPECTRUM
##SAMPLE DESCRIPTION=NIST Mass Spectrometry Data Center
##NAMES=HP
##CAS NAME=4-Methylpentyl 8-methylnon-6-enoate
##MOLFORM=C16H30O2
##CAS REGISTRY NO=1215128-18-9
##MP= -300
##BP= -300
##MW= 254
##$RETENTION INDEX=1692
##$CONDENSED SPECTRUM=NO
##NPOINTS= 88
##XYDATA=(XY..XY) 1 
    14          7
    26          7
    27         38
    29         47
    36          7
    39         74
    40         25
    41        583
    42         75
    43        999
    44         60
    45          6
    49         35
    51         11
    53         70
    54         29
    55        440
    56        371
    57        273
    58         17
    60         18
    61          6
    63          9
    65         11
    67        194
    68        100
    69        750
    70         86
    71         59
    72          8
    73         26
    77         39
    79         98
    80         13
    81        129
    82         45
    83        109
    84        255
    85        667
    86         20
    87         20
    88          9
    89          4
    93         70
    94         37
    95         81
    96         89
    97        169
    98         31
    99         19
   100         10
   101         75
   102          8
   106          7
   107         53
   108        199
   109        211
   110        159
   111         72
   113         83
   114        137
   115        176
   116         35
   119         14
   123        126
   124         42
   125         13
   127         44
   133         86
   134         16
   135         82
   136         12
   137        348
   138         45
   142          8
   148          8
   151         91
   152        244
   153        152
   154         19
   155         13
   156         16
   157          7
   169         14
   170         12
   171         23
   211         12
   254         13