##TITLE=Library Entry 18360
##JCAMP-DX=Revision 4.10 
##DATA TYPE=MASS SPECTRUM
##SAMPLE DESCRIPTION=Chemical Concepts
##NAMES=HP
##CAS NAME=1,2,3,4-Tetrahydronaphthalene chromium tricarbonyl
##MOLFORM=C13H12CrO3
##CAS REGISTRY NO=12154-63-1
##MP= -300
##BP= -300
##MW= 268
##$RETENTION INDEX=0
##$CONDENSED SPECTRUM=NO
##NPOINTS= 117
##XYDATA=(XY..XY) 1 
    27         16
    28         34
    29          4
    38          2
    39         26
    40          3
    41         10
    42          0
    43          2
    44          0
    50         50
    51         15
    52        999
    53        118
    54         27
    55          4
    56          0
    58          0
    61          1
    62          2
    63          9
    64          4
    65         13
    66          3
    67         10
    68          4
    69          2
    73          1
    74          3
    75          4
    76          4
    77         17
    78         17
    79          4
    80         28
    81         19
    82          8
    83          3
    86          0
    87          1
    88          0
    89          6
    90          5
    91         36
    92         15
    93          0
    94          0
    95          5
    96          7
    97          2
    99          0
   101          3
   102          5
   103         10
   104         35
   105          5
   106          5
   108          1
   109          1
   110          0
   114          0
   115         16
   116          9
   117          7
   118          0
   120          4
   126          1
   127          9
   128         18
   129          8
   130          3
   131          8
   132         18
   133          1
   137          0
   138         10
   139          1
   145          0
   146          1
   153          2
   154          0
   155          1
   158          1
   160          1
   167          0
   170          1
   177          1
   178          1
   179         11
   180         12
   181         14
   182         34
   183          7
   184        528
   185        115
   186         25
   187          2
   193          0
   198          3
   199          1
   208          0
   210          2
   211          2
   212         35
   213          9
   214          2
   215          0
   240          1
   241          0
   242          0
   264          1
   266          4
   267          0
   268        106
   269         28
   270          6
   271          0