##TITLE=Library Entry 37455
##JCAMP-DX=Revision 4.10 
##DATA TYPE=MASS SPECTRUM
##SAMPLE DESCRIPTION=NIST Mass Spectrometry Data Center
##NAMES=HP
##CAS NAME=4-Methylhexyl 3-methylbutanoate
##MOLFORM=C12H24O2
##CAS REGISTRY NO=1215127-80-2
##MP= -300
##BP= -300
##MW= 200
##$RETENTION INDEX=1312
##$CONDENSED SPECTRUM=NO
##NPOINTS= 34
##XYDATA=(XY..XY) 1 
    27         16
    29         86
    30          2
    31          3
    37          2
    39         37
    40          8
    41        251
    42         91
    43        113
    56        114
    57        854
    58         43
    59         27
    60         22
    61         41
    70        999
    78          3
    83         35
    85        474
    86         25
    87         36
    92          2
    98        340
    99         56
   102         20
   103        679
   104         53
   105          4
   115         12
   129          9
   143         68
   144          9
   158          3