##TITLE=Library Entry 8680
##JCAMP-DX=Revision 4.10 
##DATA TYPE=MASS SPECTRUM
##SAMPLE DESCRIPTION=NIST Mass Spectrometry Data Center
##NAMES=HP
##CAS NAME=4-Methylhexyl isobutyrate
##MOLFORM=C11H22O2
##CAS REGISTRY NO=1215127-77-7
##MP= -300
##BP= -300
##MW= 186
##$RETENTION INDEX=1220
##$CONDENSED SPECTRUM=NO
##NPOINTS= 52
##XYDATA=(XY..XY) 1 
    20          2
    26          9
    27        112
    28         51
    29        164
    31         11
    36          2
    39        131
    40         14
    41        556
    42        187
    43        999
    44         33
    45          8
    50          7
    52          3
    53         23
    54         24
    55        317
    56        394
    57        742
    58         35
    59          9
    61          6
    67         15
    68         32
    69        444
    70        898
    71        588
    72         41
    73         20
    76          2
    83         99
    84         24
    86          8
    87          9
    88         14
    89        524
    90         22
    97         46
    98        208
    99         49
   100         19
   101         19
   104          5
   111          3
   115         20
   116          8
   117          3
   129         57
   130          7
   143          5