##TITLE=Library Entry 37663
##JCAMP-DX=Revision 4.10 
##DATA TYPE=MASS SPECTRUM
##SAMPLE DESCRIPTION=Drug Lab
##NAMES=HP
##CAS NAME=Naratriptan
##MOLFORM=C17H25N3O2S
##CAS REGISTRY NO=121679-13-8
##MP= -300
##BP= -300
##MW= 335
##$RETENTION INDEX=0
##$CONDENSED SPECTRUM=NO
##NPOINTS= 167
##XYDATA=(XY..XY) 1 
    42        123
    43        138
    44        101
    45          3
    48          1
    51          3
    52          1
    53          3
    54          3
    55         12
    56         11
    57         45
    58         37
    59          1
    60          1
    62          1
    63          4
    64          4
    65          3
    66          1
    67          2
    68          7
    70        999
    71        457
    72         29
    73          2
    75          2
    76          2
    77         12
    78          7
    79          2
    81          4
    82         80
    83         22
    84          6
    87          1
    88          2
    89          6
    90          3
    91          7
    92          2
    93          2
    94         11
    96        745
    97        757
    98         76
    99          5
   101          2
   102          4
   103          4
   104          2
   105          2
   106          1
   110          1
   111          1
   112          1
   113          6
   114          6
   115         45
   116         11
   117         12
   118          4
   120        110
   126          3
   127         17
   128         28
   129         13
   130         14
   131          3
   133          1
   135          1
   139          8
   140         10
   141         28
   142         18
   143         43
   144         16
   145          3
   146          1
   147          1
   151          1
   152          9
   153         12
   154         51
   155         28
   156         69
   157         20
   158          6
   159          2
   164          1
   165          4
   166          9
   167         46
   168         69
   169        143
   170        170
   171         26
   172          8
   173          1
   178          3
   179          3
   180         21
   181         14
   182         33
   183         62
   184         22
   185          6
   186          1
   191          1
   192          1
   193          4
   194         10
   195          7
   196         27
   197         11
   198          3
   199          2
   207          7
   208          4
   209          6
   210          3
   211          3
   212          2
   213          1
   221          1
   225          3
   227          2
   234          4
   235          1
   237          1
   238          1
   239          7
   240          3
   241         22
   242          5
   251         18
   252          7
   253          2
   264         15
   265         48
   266          7
   267          3
   277          6
   278         20
   279          3
   280          1
   281          2
   289          1
   291          2
   292         20
   293          3
   294          1
   304          1
   305          3
   306          4
   307          1
   320        151
   321         29
   322          9
   323          2
   332          3
   333          1
   334         60
   335        234
   336         51
   337         15
   338          2