##TITLE=Library Entry 71839
##JCAMP-DX=Revision 4.10 
##DATA TYPE=MASS SPECTRUM
##SAMPLE DESCRIPTION=TNO Volatile Compounds in Food - Chemical Concepts
##NAMES=HP
##CAS NAME=2(3H)-Furanone, 5-hexyldihydro-4-methyl-, (4R-cis)-
##MOLFORM=C11H20O2
##CAS REGISTRY NO=121644-12-0
##MP= -300
##BP= -300
##MW= 184
##$RETENTION INDEX=0
##$CONDENSED SPECTRUM=NO
##NPOINTS= 95
##XYDATA=(XY..XY) 1 
    25         10
    26          3
    27        193
    29        182
    31         13
    32         32
    36          2
    38          7
    39        154
    40          1
    41        429
    42        364
    43        518
    44         35
    45         28
    47          4
    50          9
    51          1
    52          5
    53         23
    54         25
    55        291
    56         77
    57         45
    58         22
    59          8
    60          4
    65          6
    66          3
    67         42
    68         68
    69         98
    70        121
    71        413
    72         22
    73         48
    74          2
    75          3
    76          3
    77         10
    78          6
    81         28
    82         20
    83         27
    84          6
    85         31
    86         29
    87         11
    89          3
    91          3
    92          6
    93          4
    94          9
    95         27
    96         11
    97         92
    98         24
    99        999
   100         73
   101          8
   103          2
   104          1
   105          5
   107          1
   110         10
   112          4
   113         31
   114         28
   115         56
   116          2
   117          4
   119          7
   120          5
   122          1
   123          9
   124         57
   125          4
   126          2
   127          2
   129          3
   133         16
   137          2
   138          7
   140          2
   141          1
   142         97
   143          6
   144          5
   155          6
   165          6
   166          4
   181          2
   182          2
   183          2
   185          2