##TITLE=Library Entry 17664
##JCAMP-DX=Revision 4.10 
##DATA TYPE=MASS SPECTRUM
##SAMPLE DESCRIPTION=NIST Mass Spectrometry Data Center
##NAMES=HP
##CAS NAME=1-((E)-Prop-1-en-1-yl)-2-((Z)-prop-1-en-1-yl)disulfane
##MOLFORM=C6H10S2
##CAS REGISTRY NO=121609-82-3
##MP= -300
##BP= -300
##MW= 146
##$RETENTION INDEX=1124
##$CONDENSED SPECTRUM=NO
##NPOINTS= 68
##XYDATA=(XY..XY) 1 
    25          1
    26          8
    27         35
    29         23
    37         14
    38         41
    39        342
    40         21
    41        248
    42         10
    44          6
    45        999
    46         50
    47        146
    49          6
    53         12
    54          8
    55         20
    57         36
    58        104
    59        172
    60         18
    61         54
    64         46
    65         13
    66         10
    67        189
    68         19
    69        184
    70         20
    71        273
    72        180
    73        363
    74        324
    75         27
    76         15
    77         18
    78         20
    79         56
    80         12
    81         43
    82        227
    83         17
    85         57
    86         17
    87         13
    97         28
    98         23
    99         11
   101         88
   102          5
   103         39
   104          6
   105         22
   106         15
   111         22
   112         10
   113        408
   114         34
   115         16
   117         40
   131         34
   133          4
   145          3
   146        859
   147         69
   148         62
   149          6