##TITLE=Library Entry 60191
##JCAMP-DX=Revision 4.10 
##DATA TYPE=MASS SPECTRUM
##SAMPLE DESCRIPTION=Chemical Concepts
##NAMES=HP
##CAS NAME=(4-[3-(4-Hydroxymethylphenyl)propyl]phenyl)methanol
##MOLFORM=C17H20O2
##CAS REGISTRY NO=121733-11-7
##MP= -300
##BP= -300
##MW= 256
##$RETENTION INDEX=0
##$CONDENSED SPECTRUM=NO
##NPOINTS= 71
##XYDATA=(XY..XY) 1 
    27        224
    28         18
    29        225
    30         21
    31        437
    38         13
    39        257
    40         29
    41        198
    42         31
    43         95
    50         51
    51        204
    52         63
    53         95
    54          3
    55         27
    57          8
    62         20
    63        100
    64         35
    65        208
    66         26
    67         17
    71        235
    72          6
    74         13
    75         14
    76         24
    77        818
    78        254
    79        506
    80         32
    81          4
    87          4
    89         90
    90         49
    91        999
    92        467
    93        204
    94         13
   101          3
   102         30
   103        172
   104        220
   105        510
   106        281
   107        210
   108         12
   115         97
   116         23
   117        189
   118         90
   119        142
   120        150
   121        200
   122         21
   128          4
   129          8
   131         15
   132         11
   133         80
   134         24
   135         36
   145          5
   146         23
   147         12
   165          5
   237         22
   238        198
   239         37