##TITLE=Library Entry 41791
##JCAMP-DX=Revision 4.10 
##DATA TYPE=MASS SPECTRUM
##SAMPLE DESCRIPTION=Chemical Concepts
##NAMES=HP
##CAS NAME=Cyclohexanemethanol, 1,6-dimethyl-2-[(2-trimethylsilyl)ethoxymeth
oxy]-, [1R-(1.alpha.,2.alpha.,6.beta.)-
##MOLFORM=C15H32O3Si
##CAS REGISTRY NO=121772-22-3
##MP= -300
##BP= -300
##MW= 288
##$RETENTION INDEX=0
##$CONDENSED SPECTRUM=NO
##NPOINTS= 189
##XYDATA=(XY..XY) 1 
    25          0
    26          3
    27         43
    28          7
    29         70
    30          8
    31         76
    33          0
    38          1
    39         46
    40         11
    41        233
    42         28
    43        147
    44         39
    45        116
    46          7
    47         18
    48          1
    49          1
    50          1
    51          7
    52          3
    53         44
    54         14
    55        261
    56         31
    57         82
    58        100
    59         86
    60         12
    61         25
    62          1
    63          3
    64          4
    65         12
    66         10
    67        128
    68         51
    69        116
    70        100
    71         57
    72         37
    73        999
    74        120
    75        431
    76         26
    77         33
    78          8
    79         36
    80         14
    81        300
    82         84
    83        111
    84         45
    85         60
    86         11
    87         14
    88         23
    89         18
    90         10
    91         48
    92         11
    93         48
    94         77
    95        123
    96        523
    97         77
    98         49
    99         13
   100          3
   101        184
   102         19
   103        250
   104         21
   105         69
   106          7
   107         94
   108         27
   109        148
   110        435
   111         47
   112          9
   113          7
   114          2
   115         35
   116         20
   117         46
   118         13
   119         52
   120          4
   121         14
   122        310
   123        520
   124         66
   125         37
   126          9
   127          6
   128          1
   129        210
   130         42
   131         28
   132          5
   133         12
   134          4
   135          2
   136          2
   137          2
   138          4
   139         12
   140        136
   141         54
   142         50
   143         28
   144          4
   145         10
   146          1
   147         16
   148          1
   152          5
   153          2
   154          3
   155          5
   156          1
   157         29
   158          3
   159          6
   160          1
   161          0
   165          0
   167          0
   168          0
   169         10
   170         11
   171         13
   172          2
   173          1
   179          1
   180          0
   181          0
   182          2
   183          3
   184          0
   185          3
   186          0
   187          3
   188          0
   189          0
   195          0
   196          0
   197          5
   198          1
   199          9
   200          3
   201          1
   202          0
   210          2
   211          1
   212          3
   213          6
   214          1
   215         14
   216          2
   217          1
   221          0
   222          0
   224          0
   225          0
   226          0
   227          1
   228          2
   229          1
   230          6
   231          1
   232          0
   240          1
   241          0
   242          1
   243          1
   244          0
   245          1
   252          0
   253          0
   254          0
   255          0
   256          0
   257          0
   258          0
   259          0