##TITLE=Library Entry 46960
##JCAMP-DX=Revision 4.10 
##DATA TYPE=MASS SPECTRUM
##SAMPLE DESCRIPTION=A.A.Kutin, Moscow, Russia
##NAMES=HP
##CAS NAME=Penta-2,4-dienecarboxylic acid, 2-benzoyl-4-fluoro-5-dimethylamin
o-, ethyl ester
##MOLFORM=C16H18FNO3
##CAS REGISTRY NO=121722-81-4
##MP= -300
##BP= -300
##MW= 291
##$RETENTION INDEX=0
##$CONDENSED SPECTRUM=NO
##NPOINTS= 190
##XYDATA=(XY..XY) 1 
    33         15
    34          6
    37          1
    38         14
    39         83
    40        139
    41         84
    42        708
    43        123
    44        151
    45          6
    46          1
    47          3
    50         87
    51        337
    52         34
    53         41
    54          7
    55         35
    56         22
    57        149
    58         43
    59         44
    60         14
    61          1
    62         10
    63         25
    64         11
    65         42
    66         15
    67         10
    68         12
    69         32
    70         99
    71         53
    72         43
    73         27
    74         27
    75         89
    76        242
    77        999
    78         89
    79         21
    80         11
    81         13
    82         38
    83         23
    84         20
    85         23
    86         22
    87         10
    88         26
    89         54
    90          7
    91         54
    92         17
    93         11
    94         59
    95         15
    96         33
    97         24
    98         50
    99         60
   100         55
   101         14
   102         41
   103         13
   105        921
   106         69
   107         11
   108          4
   109         11
   110         11
   111         25
   112        356
   113         64
   114         21
   115         55
   116         11
   117         81
   118         17
   119          1
   120         14
   121         11
   122          9
   123          3
   124          5
   125         17
   126         26
   127         57
   128         30
   129         27
   130          5
   131         12
   132         11
   133         58
   134         12
   135         10
   136          1
   138         11
   139          5
   140         20
   141         25
   142         21
   143         10
   144         13
   145         24
   146         88
   147         27
   148          6
   149          4
   150          1
   152          1
   153          1
   154          9
   155          9
   156         27
   157         11
   158         29
   159         14
   160          4
   161          4
   162          4
   164          0
   165          6
   166          4
   167          2
   168         11
   169         11
   170         46
   171         19
   172         14
   173         11
   174         27
   175         81
   176         14
   177          1
   178         11
   182          1
   183          3
   184         18
   185          9
   186         91
   187         13
   188         26
   189         18
   190         10
   191          2
   196          5
   197          5
   198         11
   199          9
   200         13
   201         10
   202         35
   203         20
   204         11
   214         25
   215          3
   216         31
   217         20
   218         67
   219        301
   220         36
   221          1
   228          9
   229          2
   230         17
   231          2
   232          1
   233          1
   234          5
   242          8
   243          3
   244         35
   245         10
   246        101
   247        652
   248         99
   249          8
   256         31
   257          3
   262         16
   263          3
   271          2
   272         32
   273          4
   291        387
   292         61
   293          6