##TITLE=Library Entry 42064
##JCAMP-DX=Revision 4.10 
##DATA TYPE=MASS SPECTRUM
##SAMPLE DESCRIPTION=Chemical Concepts
##NAMES=HP
##CAS NAME=1,2-Dimethyl-6-(2-trimethylsilylethoxymethoxy)cyclohexanecarboxyl
ic acid, methyl ester
##MOLFORM=C16H32O4Si
##CAS REGISTRY NO=121772-21-2
##MP= -300
##BP= -300
##MW= 316
##$RETENTION INDEX=0
##$CONDENSED SPECTRUM=NO
##NPOINTS= 195
##XYDATA=(XY..XY) 1 
    26          3
    27         25
    28         11
    29         34
    30          5
    31         15
    33          1
    37          1
    38          1
    39         28
    40          7
    41         90
    42         14
    43         58
    44         21
    45         65
    46          4
    47          8
    50          1
    51          3
    52          2
    53         24
    54         10
    55         95
    56         12
    57         27
    58         51
    59         80
    60          7
    61         12
    62          1
    63          1
    64          1
    65          7
    66          9
    67         52
    68         16
    69         28
    70         10
    71         19
    72         21
    73        999
    74         67
    75        104
    76          7
    77         14
    78          3
    79         17
    80          5
    81         78
    82         21
    83         87
    84         12
    85         24
    86          5
    87         15
    88         18
    89         34
    90          4
    91         16
    92          3
    93         15
    94          4
    95         35
    96         10
    97         15
    98          7
    99         10
   100          4
   101        103
   102         12
   103        176
   104         14
   105         12
   106          1
   107         17
   108         17
   109        470
   110         47
   111         14
   112          9
   113         17
   114         20
   115         51
   116         17
   117         16
   118          2
   119          8
   120          0
   121          3
   122          1
   123          5
   124          1
   125         17
   126          7
   127         10
   128          1
   129        116
   130         27
   131         10
   132          2
   133          6
   134          1
   135          3
   136          8
   137         25
   138          5
   139         18
   140          4
   141          7
   142         28
   143         23
   144          4
   145          3
   146          2
   147         34
   148          5
   149          9
   151          6
   152          4
   153         21
   154          5
   155          9
   156          2
   157          5
   158          1
   159         16
   160         18
   161          3
   162          0
   163          1
   165          0
   167          1
   168         19
   169        146
   170        208
   171         73
   172         15
   173         14
   174          1
   175          1
   177          2
   182          1
   183          9
   184          3
   185         43
   186          5
   187        134
   188         18
   189          8
   190          1
   191          2
   197          6
   198         11
   199         63
   200         13
   201          4
   202          0
   203          0
   204          2
   205          7
   206          3
   207          1
   211          5
   212          1
   213          2
   214          1
   215         14
   216          2
   217          1
   221          2
   222          1
   226         11
   227         19
   228          5
   229          3
   230         69
   231         13
   232          3
   235          2
   240          1
   241          1
   242          3
   243        112
   244         20
   245          6
   246          1
   254          0
   257          4
   258         19
   259          5
   285          1
   315          1
   316          1
   317          1