##TITLE=Library Entry 7998
##JCAMP-DX=Revision 4.10 
##DATA TYPE=MASS SPECTRUM
##SAMPLE DESCRIPTION=Chemical Concepts
##NAMES=HP
##CAS NAME=1H-1-Inden-1,2,4,5,6,7,7a-hexahydro-7-(1-methylethoxy)
##MOLFORM=C16H28O2
##CAS REGISTRY NO=121747-65-7
##MP= -300
##BP= -300
##MW= 252
##$RETENTION INDEX=0
##$CONDENSED SPECTRUM=NO
##NPOINTS= 148
##XYDATA=(XY..XY) 1 
    26          6
    27        121
    28         16
    29        101
    31         17
    39         93
    40         17
    41        381
    42         30
    43        999
    44         35
    45         60
    51         22
    52         11
    53         86
    54         14
    55        216
    56         23
    57        938
    58         41
    60          6
    62          7
    63          5
    64         53
    65         16
    66        125
    67         20
    68        233
    69         26
    70         62
    71         18
    72         19
    73         12
    74         15
    75         12
    76         12
    77        116
    78         24
    79        138
    80         20
    81        160
    82         25
    83         52
    84         19
    85         45
    86         20
    87         16
    88         14
    89         24
    90         10
    91        170
    92         33
    93        225
    94         77
    95        196
    96         39
    97         69
    98         22
    99        701
   100         65
   101         16
   102         17
   103         28
   104         21
   105        131
   106         30
   107        253
   108         58
   109        147
   110         44
   111        157
   112         32
   113         23
   114         17
   115         53
   116         22
   117         34
   118         23
   119        179
   120         94
   121        331
   122         58
   123        113
   124         38
   125         39
   126         21
   127         14
   128         13
   129         16
   130         12
   131         37
   132         18
   133        126
   134         48
   135        320
   136        548
   137        146
   138         44
   139        132
   140          9
   141         17
   142         17
   143         21
   144         18
   145         24
   146         13
   147         62
   148         20
   149        223
   150         45
   151         37
   152        147
   153        901
   154        136
   155         36
   156         26
   157         24
   158         25
   159         69
   160         22
   161         67
   162         35
   163         31
   164         20
   165         20
   166         18
   167         23
   173         30
   174         23
   175         39
   176        162
   177        366
   178         64
   179         32
   181         17
   191         42
   192         81
   193         22
   194         64
   195         60
   196         22
   209         14
   219          7
   234          9
   237        374
   238         73
   239          7
   252          5