##TITLE=Library Entry 12884
##JCAMP-DX=Revision 4.10 
##DATA TYPE=MASS SPECTRUM
##SAMPLE DESCRIPTION=Chemical Concepts
##NAMES=HP
##CAS NAME=2,2,6,7-Tetramethyl-10-oxatricyclo[4.3.0.1(1,7)]decan-5-one
##MOLFORM=C13H20O2
##CAS REGISTRY NO=121747-63-5
##MP= -300
##BP= -300
##MW= 208
##$RETENTION INDEX=0
##$CONDENSED SPECTRUM=NO
##NPOINTS= 153
##XYDATA=(XY..XY) 1 
    26         11
    27        169
    28         33
    29        130
    30          3
    31         10
    37          2
    38          8
    39        209
    40         50
    41        476
    42         70
    43        999
    44         20
    45         21
    46          2
    47          2
    48          1
    50         12
    51         48
    52         28
    53        172
    54         37
    55        268
    56         57
    57         58
    58         23
    59         26
    60          2
    61          5
    62          3
    63         16
    64          7
    65         72
    66         30
    67        249
    68         38
    69        134
    70        106
    71         89
    72         13
    73          5
    74          3
    75          5
    76          4
    77        112
    78         24
    79        152
    80         24
    81        202
    82         90
    83         56
    84          9
    85         17
    86          7
    87          2
    88          2
    89          4
    90          1
    91        129
    92         21
    93        148
    94         49
    95        190
    96         72
    97         63
    98         34
    99         28
   100          3
   101          2
   102          2
   103          8
   104          5
   105         67
   106         14
   107        263
   108         59
   109        771
   110        399
   111        250
   112         29
   113         17
   114          4
   115         11
   116          3
   117         10
   118          3
   119         56
   120         30
   121         88
   122        152
   123        353
   124        392
   125         44
   126          5
   127          2
   128          2
   129          2
   131          9
   132          7
   133         61
   134         83
   135        263
   136         62
   137        541
   138        141
   139         38
   140          5
   141          4
   142          4
   145          3
   146          2
   147        113
   148         21
   149         33
   150         33
   151        127
   152        210
   153         34
   154          4
   155          3
   157          8
   158          2
   159          3
   160          3
   161          8
   162         14
   163          8
   164          5
   165        944
   166        109
   167         12
   168          2
   169          2
   175         50
   176          8
   177          4
   178          5
   179         17
   180         47
   181          7
   182          2
   189          2
   190         25
   191         15
   192          5
   193        261
   194         34
   195          3
   207          2
   208        121
   209         17
   210          2