##TITLE=Library Entry 87425
##JCAMP-DX=Revision 4.10 
##DATA TYPE=MASS SPECTRUM
##SAMPLE DESCRIPTION=M. NEUENSCHWANDER, INST. ORG. CHEM., UNIV. BERN, BERN,
 SWIT.
##NAMES=HP
##CAS NAME=1-[1-Bromo-2-(phenylthio)cycloprop-1-yl]-2-chlorocyclopentan-1-ol
##MOLFORM=C14H16BrClOS
##CAS REGISTRY NO=121820-14-2
##MP= -300
##BP= -300
##MW= 346
##$RETENTION INDEX=0
##$CONDENSED SPECTRUM=NO
##NPOINTS= 27
##XYDATA=(XY..XY) 1 
    39         50
    41         40
    45         50
    51         40
    53         30
    55         70
    65         60
    67         30
    77         80
    79         30
    91         70
    93         90
   109         60
   110        999
   111         90
   112         40
   115         40
   116         30
   121        150
   135         30
   147         70
   149         80
   217         50
   219         20
   346         20
   348         20
   350         10