##TITLE=Library Entry 93183
##JCAMP-DX=Revision 4.10 
##DATA TYPE=MASS SPECTRUM
##SAMPLE DESCRIPTION=Chemical Concepts
##NAMES=HP
##CAS NAME=Silane, triethyl-2-pentenyl-, (Z)-
##MOLFORM=C11H24Si
##CAS REGISTRY NO=121882-53-9
##MP= -300
##BP= -300
##MW= 184
##$RETENTION INDEX=0
##$CONDENSED SPECTRUM=NO
##NPOINTS= 87
##XYDATA=(XY..XY) 1 
    27         14
    29         27
    30          4
    31         77
    33          3
    38          0
    39         12
    40          6
    41         31
    42          5
    43         80
    44         17
    45         59
    46          4
    47          1
    48          0
    49          1
    50          0
    51          1
    52          1
    53         12
    54          6
    55         44
    56         22
    57        115
    58         85
    59        578
    60         41
    61         19
    62          0
    63          1
    65          1
    66         10
    67         11
    68          4
    69         20
    70         11
    71         44
    72         12
    73         33
    74          3
    75          1
    77          1
    79          1
    80          1
    81          9
    82          4
    83         19
    84          4
    85         38
    86         23
    87        969
    88        149
    89         55
    90          2
    93          2
    95         12
    96          2
    97         23
    98          4
    99         61
   100          7
   101          3
   104          1
   105          0
   109          1
   111          4
   112          0
   113         21
   114          8
   115        999
   116        110
   117         38
   118          2
   125          5
   126          1
   127         53
   128          7
   129          2
   139          0
   153          0
   155         31
   156          5
   157          1
   184         84
   185         16
   186          4