##TITLE=Library Entry 75961
##JCAMP-DX=Revision 4.10 
##DATA TYPE=MASS SPECTRUM
##SAMPLE DESCRIPTION=NIST Mass Spectrometry Data Center, 1994
##NAMES=HP
##CAS NAME=Dimethyl isothiocyanatosuccinate
##MOLFORM=C7H9NO4S
##CAS REGISTRY NO=121928-38-9
##MP= -300
##BP= -300
##MW= 203
##$RETENTION INDEX=0
##$CONDENSED SPECTRUM=NO
##NPOINTS= 76
##XYDATA=(XY..XY) 1 
     4          3
    13          4
    15        596
    16         10
    25          6
    26         76
    27        302
    28         81
    29        116
    30         31
    31         41
    32         35
    33          6
    38          7
    39         27
    40         36
    41         39
    42        138
    43         37
    44         45
    45         59
    46          8
    47         35
    51         10
    52         25
    53         43
    54          7
    55        338
    56         23
    57         60
    58        202
    59        929
    60         38
    61         12
    68         21
    69          9
    70         39
    71         41
    72         41
    73          9
    74        334
    75        157
    76         18
    77          6
    81          4
    82          8
    83         13
    84         92
    85        168
    86         70
    87         12
    88          4
    99          9
   100         37
   102        999
   103         48
   104         45
   112         39
   113        100
   114         17
   115         27
   116          6
   128          4
   130         10
   140          5
   143        552
   144        229
   145         42
   146          9
   171        495
   172         80
   173         30
   174          4
   203         77
   204          7
   205          3