##TITLE=Library Entry 27994
##JCAMP-DX=Revision 4.10 
##DATA TYPE=MASS SPECTRUM
##SAMPLE DESCRIPTION=Chemical Concepts
##NAMES=HP
##CAS NAME=Guanidine, N,N',N''-tris(1-methylethyl)-
##MOLFORM=C10H23N3
##CAS REGISTRY NO=121948-77-4
##MP= -300
##BP= -300
##MW= 185
##$RETENTION INDEX=0
##$CONDENSED SPECTRUM=NO
##NPOINTS= 113
##XYDATA=(XY..XY) 1 
    26          4
    27        108
    28         41
    29         12
    30         21
    31          2
    37          2
    38          4
    39         46
    40         17
    41        192
    42        124
    43        730
    44        330
    45         35
    51          1
    52          2
    53          4
    54          8
    55         19
    56         28
    57         65
    58        999
    59        142
    60         22
    61          1
    63          0
    65          1
    66          1
    67          9
    68          6
    69        236
    70         41
    71        205
    72         12
    73          9
    74          0
    77          1
    78          1
    79          1
    80          0
    81          2
    82          2
    83        107
    84         24
    85        479
    86        146
    87         16
    89          1
    91          2
    93          0
    94          1
    95          1
    96          2
    97          5
    98          5
    99          5
   100         23
   101         43
   102          4
   103          1
   104          1
   105          1
   109          1
   110          2
   111         29
   112         16
   113        251
   114         24
   115          8
   116          1
   117          0
   118          0
   123          0
   124          1
   125          6
   126         16
   127         69
   128        271
   129         39
   130          2
   131          0
   132          1
   134          0
   136          0
   138          0
   140          1
   141          1
   142          7
   143         34
   144          5
   145          0
   146          0
   149          4
   152          0
   154          6
   155          1
   156          0
   160          0
   162          7
   163          1
   169          2
   170        291
   171         38
   172          2
   180          1
   182          7
   183          2
   184         44
   185        354
   186         55
   187          4
   189          0