##TITLE=Library Entry 7365
##JCAMP-DX=Revision 4.10 
##DATA TYPE=MASS SPECTRUM
##SAMPLE DESCRIPTION=Chemical Concepts
##NAMES=HP
##CAS NAME=5-Octen-2-one, 5-methyl-
##MOLFORM=C9H16O
##CAS REGISTRY NO=121986-29-6
##MP= -300
##BP= -300
##MW= 140
##$RETENTION INDEX=0
##$CONDENSED SPECTRUM=NO
##NPOINTS= 92
##XYDATA=(XY..XY) 1 
    26          7
    27        140
    28         10
    29         92
    30          2
    31          4
    36          0
    37          1
    38          6
    39        138
    40         25
    41        277
    42         25
    43        999
    44         20
    45         15
    46          0
    47          0
    50          6
    51         17
    52          9
    53         67
    54         30
    55        592
    56         31
    57         18
    58         43
    59         14
    60          1
    61          0
    62          1
    63          4
    64          0
    65         14
    66          7
    67        311
    68         28
    69         91
    70         15
    71         32
    72          6
    73          1
    74          0
    75          0
    77         14
    78          2
    79         24
    80          4
    81         81
    82        589
    83         97
    84          5
    85         16
    86         10
    87          1
    89          0
    91          9
    92          1
    93         10
    94          1
    95         12
    96         21
    97        117
    98         61
    99          8
   100          1
   101          0
   105          1
   106          0
   107         29
   108          2
   109          4
   110          3
   111         72
   112          9
   113          1
   114          6
   115          1
   116          0
   121          1
   122        210
   123         20
   124          0
   125         21
   126          1
   128          0
   137          0
   138          0
   139          2
   140         52
   141          6
   142          0