##TITLE=Library Entry 34503
##JCAMP-DX=Revision 4.10 
##DATA TYPE=MASS SPECTRUM
##SAMPLE DESCRIPTION=Chemical Concepts
##NAMES=HP
##CAS NAME=Cyclopropanemethanol, .alpha.,2-dimethyl-2-(4-methyl-3-pentenyl)-
, [1.alpha.(R*),2.alpha.]-
##MOLFORM=C12H22O
##CAS REGISTRY NO=121959-70-4
##MP= -300
##BP= -300
##MW= 182
##$RETENTION INDEX=0
##$CONDENSED SPECTRUM=NO
##NPOINTS= 112
##XYDATA=(XY..XY) 1 
    26          6
    27        122
    28         29
    29        138
    30          5
    31         10
    37          2
    38          6
    39        172
    40         33
    41        686
    42         47
    43        379
    44         24
    45        100
    46          2
    50         12
    51         39
    52         20
    53        138
    54         30
    55        342
    56         38
    57         62
    58         23
    59         25
    60          3
    61          2
    62          3
    63         10
    64          4
    65         43
    66         20
    67        316
    68         89
    69        999
    70        106
    71         82
    72          9
    73          5
    74          4
    75          7
    76          7
    77         96
    78         20
    79        138
    80         42
    81        213
    82        171
    83         77
    84         13
    85         20
    86          4
    87          3
    89          4
    91         78
    92         14
    93        213
    94         56
    95        519
    96         89
    97         27
    98          9
    99         11
   100          2
   101          2
   102          3
   103          6
   104          6
   105         51
   106         13
   107        123
   108         90
   109        570
   110         63
   111         30
   112          8
   113          6
   115          8
   116          3
   117          6
   119         10
   120          9
   121        112
   122         50
   123         46
   124         13
   125          9
   126          5
   127         48
   128          7
   129          3
   131          3
   133          5
   134          4
   135         43
   136         11
   141         18
   142          8
   143          2
   145          3
   147          3
   149         71
   150          8
   163          5
   164         79
   165         15
   166          3
   167          5
   181          3
   182          3
   183          6