##TITLE=Library Entry 18319
##JCAMP-DX=Revision 4.10 
##DATA TYPE=MASS SPECTRUM
##SAMPLE DESCRIPTION=R.B.KING UNIVERSITY OF GEORGIA, ATHENS, GEORGIA, USA
##NAMES=HP
##CAS NAME=Chromium, hexacarbonylbis(.eta.5-2,4-cyclopentadien-1-yl)di-, (Cr
-Cr)
##MOLFORM=C16H10Cr2O6
##CAS REGISTRY NO=12194-12-6
##MP= -300
##BP= -300
##MW= 402
##$RETENTION INDEX=0
##$CONDENSED SPECTRUM=NO
##NPOINTS= 18
##XYDATA=(XY..XY) 1 
    52        999
    80         77
    91        113
   117        454
   145        118
   146         77
   173        104
   174         27
   182          4
   201         50
   202         45
   208          4
   234          4
   290          4
   318          4
   346          4
   374          4
   402          4