##TITLE=Library Entry 87900
##JCAMP-DX=Revision 4.10 
##DATA TYPE=MASS SPECTRUM
##SAMPLE DESCRIPTION=Asinex Ltd, Moscow, Russia
##NAMES=HP
##CAS NAME=Pyrazol-4-amine, 1,5-dimethyl-
##MOLFORM=C5H9N3
##CAS REGISTRY NO=121983-36-6
##MP= -300
##BP= -300
##MW= 111
##$RETENTION INDEX=0
##$CONDENSED SPECTRUM=NO
##NPOINTS= 53
##XYDATA=(XY..XY) 1 
    33          4
    34         10
    36          2
    37          9
    38         20
    39         47
    40        191
    41         78
    42        536
    43         40
    44         64
    45          2
    49          0
    50         10
    51         22
    52         57
    53         56
    54         88
    55         94
    56        503
    57        291
    58          9
    63          1
    64          2
    65          5
    66         14
    67         16
    68         11
    69         22
    70          4
    71          1
    77          2
    78          0
    79          1
    80          1
    81          4
    82          6
    83         73
    84        208
    85         10
    91          1
    93          3
    94          4
    95          2
    96         17
    97          1
   105          1
   108          4
   109          4
   110         40
   111        999
   112         63
   113          2