##TITLE=Library Entry 85440
##JCAMP-DX=Revision 4.10 
##DATA TYPE=MASS SPECTRUM
##SAMPLE DESCRIPTION=Chemical Concepts
##NAMES=HP
##CAS NAME=Acetoacet-p-phenetidide
##MOLFORM=C12H15NO3
##CAS REGISTRY NO=122-82-7
##MP= -300
##BP= -300
##MW= 221
##$RETENTION INDEX=0
##$CONDENSED SPECTRUM=NO
##NPOINTS= 91
##XYDATA=(XY..XY) 1 
    26         14
    27         98
    28        151
    29        121
    30          6
    31          9
    38          8
    39         49
    40          8
    41         22
    42         30
    43        749
    44         24
    45          4
    50          8
    51         26
    52         87
    53        127
    54         22
    55         23
    56          3
    57          5
    58         18
    59          4
    62          4
    63         29
    64         33
    65         75
    66         15
    67          9
    68         13
    69         24
    75          3
    76          5
    77         19
    78         23
    79         54
    80        181
    81        219
    82         19
    84          9
    85        109
    86          7
    89          7
    90         15
    91         23
    92         29
    93         23
    94         16
    95          5
   104          6
   105          5
   106         22
   107        107
   108        999
   109        939
   110        114
   111          8
   118          4
   121         23
   122         30
   123          4
   132          8
   133         11
   134         23
   135        739
   136        118
   137        797
   138         97
   139          6
   146          3
   147          4
   148          7
   149         10
   150         37
   151          5
   160          3
   161          4
   163        866
   164        119
   165         11
   178         18
   179         21
   188          3
   192         10
   193          7
   205          3
   206          4
   221        949
   222        204
   223         23