##TITLE=Library Entry 61278
##JCAMP-DX=Revision 4.10 
##DATA TYPE=MASS SPECTRUM
##SAMPLE DESCRIPTION=Exported from NIST MS Search
##NAMES=HP
##CAS NAME=Propanoic acid, phenylmethyl ester
##MOLFORM=C10H12O2
##CAS REGISTRY NO=122-63-4
##MP= -300
##BP= -300
##MW= 164
##$RETENTION INDEX=1262
##$CONDENSED SPECTRUM=NO
##NPOINTS= 75
##XYDATA=(XY..XY) 1 
    14         17
    15         21
    16          3
    17          1
    25          4
    26         53
    27        220
    28         64
    29        428
    30         12
    31          9
    37          8
    38         26
    39        152
    40         12
    41         36
    42          8
    43         10
    44          4
    45          6
    46          2
    49          4
    50         58
    51        152
    52         39
    53         17
    54          2
    55         12
    56         12
    57        462
    58         19
    59          4
    60          1
    61          6
    62         20
    63         67
    64         23
    65        178
    66         11
    67          1
    68          1
    69          1
    71          3
    73          2
    74         11
    75         11
    76         12
    77        147
    78         37
    79        159
    80         14
    81          2
    83          1
    85          2
    86          3
    87          3
    89         82
    90        274
    91        999
    92         76
   100          2
   103         22
   104          4
   105         36
   106         15
   107        114
   108        833
   115          1
   117          1
   119          2
   133          1
   135          1
   164        234
   165         25
   166          1