##TITLE=Library Entry 76816
##JCAMP-DX=Revision 4.10 
##DATA TYPE=MASS SPECTRUM
##SAMPLE DESCRIPTION=Chemical Concepts
##NAMES=HP
##CAS NAME=Propanoic acid, 2-phenylethyl ester
##MOLFORM=C11H14O2
##CAS REGISTRY NO=122-70-3
##MP= -300
##BP= -300
##MW= 178
##$RETENTION INDEX=1350
##$CONDENSED SPECTRUM=NO
##NPOINTS= 79
##XYDATA=(XY..XY) 1 
    25          0
    26          9
    27         79
    28         25
    29        355
    30          7
    31         16
    34          0
    37          1
    38          5
    39         49
    40          2
    41          9
    42          1
    43          2
    44          6
    45          1
    50         15
    51         48
    52          9
    53          6
    54          1
    55          5
    56          7
    57        586
    58         25
    59          3
    60          0
    61          1
    62          4
    63         17
    64          5
    65         56
    66          4
    68          0
    69          1
    70          1
    71          0
    72          0
    73          2
    74          4
    75          3
    76          3
    77         60
    78         38
    79         29
    80          1
    81          0
    82          0
    83          1
    84          1
    85          0
    86          0
    87          2
    88          0
    89         10
    90          5
    91         98
    92         19
    93          0
    95          0
    97          0
    99          0
   101          1
   102          7
   103         41
   104        999
   105        135
   106          9
   107          0
   110          0
   111          0
   115          1
   118          0
   120          0
   121          1
   122          1
   123          0
   131          0