##TITLE=Library Entry 87544
##JCAMP-DX=Revision 4.10 
##DATA TYPE=MASS SPECTRUM
##SAMPLE DESCRIPTION=Japan AIST/NIMC Database- Spectrum MS-NW-4300
##NAMES=HP
##CAS NAME=Phenol, 4-butoxy-
##MOLFORM=C10H14O2
##CAS REGISTRY NO=122-94-1
##MP= -300
##BP= -300
##MW= 166
##$RETENTION INDEX=0
##$CONDENSED SPECTRUM=NO
##NPOINTS= 56
##XYDATA=(XY..XY) 1 
    15          2
    18          1
    26          9
    27         51
    28          9
    29        101
    30          2
    31          1
    37          1
    38          4
    39         48
    40          3
    41         66
    42          3
    43          2
    50          4
    51          8
    52          7
    53         28
    54         13
    55         20
    56          3
    57         28
    58          1
    61          1
    62          3
    63          8
    64          6
    65         26
    66          3
    67          2
    69          2
    74          1
    77          2
    79          1
    80          1
    81         52
    82         30
    83          2
    92          1
    93         13
    94          3
    95          4
   107          2
   108          1
   109         32
   110        999
   111         66
   112          6
   123         16
   124          3
   136          1
   137          1
   166        155
   167         17
   168          1