##TITLE=Library Entry 76479
##JCAMP-DX=Revision 4.10 
##DATA TYPE=MASS SPECTRUM
##SAMPLE DESCRIPTION=Japan AIST/NIMC Database- Spectrum MS-NW-2712
##NAMES=HP
##CAS NAME=Propane, 1,1,3,3-tetraethoxy-
##MOLFORM=C11H24O4
##CAS REGISTRY NO=122-31-6
##MP= -300
##BP= -300
##MW= 220
##$RETENTION INDEX=1304
##$CONDENSED SPECTRUM=NO
##NPOINTS= 59
##XYDATA=(XY..XY) 1 
    14          2
    15         11
    17          1
    18          3
    25          1
    26         10
    27         59
    28         19
    29        126
    30          3
    31         53
    32          2
    39          1
    41          4
    42          6
    43         46
    44         43
    45        111
    46          8
    47        380
    48          4
    49          1
    54          2
    55          5
    56          5
    57         20
    58         10
    59          6
    60          1
    61          5
    71         54
    72         18
    73         55
    74          4
    75        419
    76         14
    77          2
    83          1
    85         13
    86         13
    87          2
    89         22
    90          1
    99          2
   100          2
   101         23
   102          3
   103        999
   104         54
   105          5
   117         23
   118          1
   129         29
   130          8
   131          1
   145         45
   146          4
   174          5
   175          1