##TITLE=Library Entry 97516
##JCAMP-DX=Revision 4.10 
##DATA TYPE=MASS SPECTRUM
##SAMPLE DESCRIPTION=Japan AIST/NIMC Database- Spectrum MS-NW-2752
##NAMES=HP
##CAS NAME=Cinnamaldehyde, .alpha.-pentyl-
##MOLFORM=C14H18O
##CAS REGISTRY NO=122-40-7
##MP= -300
##BP= -300
##MW= 202
##$RETENTION INDEX=1659
##$CONDENSED SPECTRUM=NO
##NPOINTS= 156
##XYDATA=(XY..XY) 1 
    14          4
    15          4
    16          2
    26          7
    27        108
    28         32
    29        141
    30          3
    31          5
    32          3
    37          2
    38          8
    39        135
    40         15
    41        176
    42         12
    43         44
    44          5
    45          2
    50         28
    51         87
    52         20
    53         49
    54         24
    55         75
    56          8
    57         30
    58          2
    60          1
    61          3
    62         15
    63         57
    64         12
    65         77
    66          9
    67         52
    68         12
    69         34
    70          7
    71          7
    72          2
    73          1
    74         13
    75         20
    76         21
    77        127
    78        114
    79         31
    80          4
    81         33
    82         17
    83         23
    84          4
    85         22
    86          5
    87          8
    88          5
    89         47
    90          9
    91        777
    92        108
    93         22
    94          3
    95         66
    96         18
    97          8
    98          5
    99          3
   100          1
   101          8
   102         47
   103         75
   104        136
   105         86
   106          9
   107         12
   108          2
   109          9
   110          3
   111         84
   112          7
   113          7
   114          9
   115        584
   116        306
   117        999
   118        197
   119         19
   120         18
   121          3
   123          2
   124         10
   125          5
   126          6
   127         83
   128        158
   129        947
   130        182
   131        409
   132         97
   133         38
   134          8
   135          4
   137          4
   139          6
   140          2
   141        143
   142         46
   143         47
   144         32
   145        420
   146        136
   147         21
   148          3
   150          1
   151          1
   152          6
   153         10
   154          8
   155         76
   156         16
   157         12
   158         37
   159        134
   160         26
   161          3
   163          1
   165          6
   166          2
   167          5
   168          5
   169         22
   170          5
   171         46
   172          9
   173        214
   174         43
   175          5
   177          1
   178          1
   179          2
   180          2
   181          1
   182          2
   183          5
   184         16
   185          5
   186         23
   187         11
   188          2
   199          1
   200          5
   201        369
   202        694
   203        103
   204          9