##TITLE=Library Entry 59381
##JCAMP-DX=Revision 4.10 
##DATA TYPE=MASS SPECTRUM
##SAMPLE DESCRIPTION=V.Zaikin,Topchiev Inst.Petrochem.Synth.,Moscow
##NAMES=HP
##CAS NAME=Benzeneacetic acid, butyl ester
##MOLFORM=C12H16O2
##CAS REGISTRY NO=122-43-0
##MP= -300
##BP= -300
##MW= 192
##$RETENTION INDEX=1440
##$CONDENSED SPECTRUM=NO
##NPOINTS= 70
##XYDATA=(XY..XY) 1 
    27         43
    28         25
    29        130
    30          4
    31          3
    36          3
    37          6
    38         20
    39        117
    40         16
    41        217
    42         15
    43         26
    44         16
    45         14
    50         27
    51         66
    52         20
    53          9
    54          3
    55         24
    56         17
    57        312
    58         16
    60          2
    61          8
    62         29
    63         77
    64         25
    65        182
    66         11
    67          3
    68          2
    69          3
    70          2
    71          3
    73          3
    74          8
    75         10
    76          3
    77         32
    78          8
    79         11
    83          2
    85          4
    86          6
    87          3
    88          3
    89         62
    90         67
    91        999
    92        252
    93         19
    96          3
   101          8
   105         25
   106          2
   107          4
   118         12
   119         27
   120          3
   125          3
   135          2
   136        167
   137         32
   139          3
   149          3
   164          2
   192         49
   193          5