##TITLE=Library Entry 60529
##JCAMP-DX=Revision 4.10 
##DATA TYPE=MASS SPECTRUM
##SAMPLE DESCRIPTION=NIST Mass Spectrometry Data Center, 1992
##NAMES=HP
##CAS NAME=Benzyl isopentyl ether
##MOLFORM=C12H18O
##CAS REGISTRY NO=122-73-6
##MP= -300
##BP= -300
##MW= 178
##$RETENTION INDEX=1310
##$CONDENSED SPECTRUM=NO
##NPOINTS= 84
##XYDATA=(XY..XY) 1 
    12          0
    14          0
    15          4
    16          0
    17          1
    18          6
    25          0
    26          7
    27         67
    28         23
    29         82
    30          3
    31          5
    37          1
    38          6
    39         76
    40         11
    41         93
    42         15
    43         66
    44          4
    45          2
    50         14
    51         40
    52         12
    53          7
    54          1
    55         11
    56          2
    57          9
    58          1
    61          0
    62          5
    63         24
    64         12
    65        133
    66          8
    67          2
    68          0
    69         87
    70          5
    71          5
    72          0
    74          3
    75          2
    77         59
    78         25
    79         80
    80          8
    81          0
    85          2
    86          1
    87         11
    88          0
    89         33
    90          0
    91        999
    92        652
    93         43
    94          1
   104         10
   105         25
   106          7
   107         68
   108         61
   109          4
   110          0
   115          0
   117          2
   118          2
   119          5
   120          0
   121          1
   131          2
   132          2
   133          1
   145          1
   147          0
   148          0
   149          0
   160          0
   177          1
   178          4
   179          0