##TITLE=Library Entry 67468
##JCAMP-DX=Revision 4.10 
##DATA TYPE=MASS SPECTRUM
##SAMPLE DESCRIPTION=Japan AIST/NIMC Database- Spectrum MS-NW- 545
##NAMES=HP
##CAS NAME=Oxirane, (phenoxymethyl)-
##MOLFORM=C9H10O2
##CAS REGISTRY NO=122-60-1
##MP= -300
##BP= -300
##MW= 150
##$RETENTION INDEX=1251
##$CONDENSED SPECTRUM=NO
##NPOINTS= 86
##XYDATA=(XY..XY) 1 
    13          1
    14          6
    15         21
    17          4
    18         15
    25          1
    26         21
    27        221
    28         27
    29        357
    30          9
    31        400
    32          2
    37         12
    38         41
    39        214
    40         46
    41         33
    42          8
    43         28
    44          4
    45          2
    47          1
    49          3
    50         42
    51        146
    52         15
    53          8
    54          2
    55         43
    56          8
    57        317
    58         11
    59          1
    60          5
    61          6
    62         13
    63         46
    64         20
    65        172
    66        187
    67         10
    68          6
    69          1
    70          1
    71          1
    73          4
    74         10
    75          8
    76          9
    77        419
    78         50
    79        131
    80          9
    81          2
    87          1
    89          3
    90          3
    91        141
    92         32
    93         18
    94        999
    95         68
    96          5
   103          5
   104          1
   105          3
   106          3
   107        262
   108         23
   109          2
   118          2
   119         49
   120        148
   121         21
   122          3
   131         18
   132         11
   133          3
   134          8
   135          1
   136          1
   149          1
   150        882
   151         87
   152          8