##TITLE=Library Entry 12202
##JCAMP-DX=Revision 4.10 
##DATA TYPE=MASS SPECTRUM
##SAMPLE DESCRIPTION=Japan AIST/NIMC Database- Spectrum MS-NW-4888
##NAMES=HP
##CAS NAME=Acetamide, N-(3-nitrophenyl)-
##MOLFORM=C8H8N2O3
##CAS REGISTRY NO=122-28-1
##MP= -300
##BP= -300
##MW= 180
##$RETENTION INDEX=0
##$CONDENSED SPECTRUM=NO
##NPOINTS= 80
##XYDATA=(XY..XY) 1 
    13          1
    14          8
    15         66
    18          2
    26          4
    27          9
    28         13
    29          3
    30         19
    31          3
    37         11
    38         31
    39         60
    40          9
    41         19
    42         15
    43        999
    44         22
    45          2
    46          2
    49          2
    50         25
    51         19
    52         33
    53         11
    54          8
    55          1
    61          7
    62         17
    63         64
    64         66
    65        213
    66         21
    67          2
    73          2
    74          8
    75         10
    76         18
    77          7
    78          8
    79         11
    80         93
    81          7
    87          1
    88          1
    89          2
    90         14
    91         41
    92        457
    93         42
    94          2
    95          1
   103          1
   104          6
   105          8
   106          5
   107          2
   108         41
   109          4
   110          7
   118          1
   121          1
   122         13
   123          1
   132          1
   133          7
   134          9
   135          1
   137          5
   138        791
   139         57
   140          5
   150          2
   151          2
   162          1
   164          2
   165          5
   180        257
   181         23
   182          2