##TITLE=Library Entry 82431
##JCAMP-DX=Revision 4.10 
##DATA TYPE=MASS SPECTRUM
##SAMPLE DESCRIPTION=RADIAN CORP
##NAMES=HP
##CAS NAME=Ethanol, 2-(phenylamino)-
##MOLFORM=C8H11NO
##CAS REGISTRY NO=122-98-5
##MP= -300
##BP= -300
##MW= 137
##$RETENTION INDEX=1347
##$CONDENSED SPECTRUM=NO
##NPOINTS= 61
##XYDATA=(XY..XY) 1 
    15          1
    18          1
    26          2
    27          9
    28          4
    29         13
    30         11
    31         20
    37          3
    38         10
    39         36
    40          5
    41          7
    42          7
    43          7
    44          5
    45          4
    49          2
    50         41
    51        128
    52         29
    53          9
    54          3
    56          2
    59          2
    61          2
    62          9
    63         26
    64         16
    65         57
    66         20
    67          3
    74         16
    75         13
    76         18
    77        373
    78         73
    79        152
    80         13
    86          2
    88          2
    89          6
    90          4
    91        105
    92         16
    93         21
    94          2
   103          2
   104         61
   105         31
   106        999
   107         83
   108          3
   117          9
   118         15
   119          5
   120         25
   121          2
   133          2
   137        157
   138         14