##TITLE=Library Entry 87377
##JCAMP-DX=Revision 4.10 
##DATA TYPE=MASS SPECTRUM
##SAMPLE DESCRIPTION=Japan AIST/NIMC Database- Spectrum MS-NW-1864
##NAMES=HP
##CAS NAME=Benzene, 1,4-diethoxy-
##MOLFORM=C10H14O2
##CAS REGISTRY NO=122-95-2
##MP= -300
##BP= -300
##MW= 166
##$RETENTION INDEX=0
##$CONDENSED SPECTRUM=NO
##NPOINTS= 70
##XYDATA=(XY..XY) 1 
    14          1
    15          7
    25          1
    26         48
    27        196
    28         18
    29        225
    30          5
    31          1
    37          3
    38         22
    39         79
    40          5
    41          6
    42          3
    43         12
    45          1
    50         21
    51         28
    52         31
    53         96
    54         54
    55         36
    56          2
    61          3
    62         14
    63         62
    64         64
    65         77
    66         14
    67          3
    68          2
    69          3
    74          5
    75          4
    76          5
    77         20
    78          5
    79          9
    80          8
    81        244
    82         59
    83          4
    91         10
    92          9
    93          5
    94          9
    95          9
    96          1
   107          5
   108          6
   109        586
   110        999
   111         67
   112          6
   119          2
   121          8
   122          2
   123          2
   135          1
   136          2
   137         78
   138        159
   139         14
   140          1
   151          3
   165          3
   166        483
   167         54
   168          5