##TITLE=Library Entry 15782
##JCAMP-DX=Revision 4.10 
##DATA TYPE=MASS SPECTRUM
##SAMPLE DESCRIPTION=Japan AIST/NIMC Database- Spectrum MS-NW-8523
##NAMES=HP
##CAS NAME=Ethanamine, 2,2-dimethoxy-N-methyl-
##MOLFORM=C5H13NO2
##CAS REGISTRY NO=122-07-6
##MP= -300
##BP= -300
##MW= 119
##$RETENTION INDEX=0
##$CONDENSED SPECTRUM=NO
##NPOINTS= 51
##XYDATA=(XY..XY) 1 
    13          1
    14          6
    15        118
    16          2
    26          5
    27         28
    28        257
    29         94
    30         58
    31        125
    32          9
    33          5
    38          1
    39          2
    40          8
    41         22
    42        122
    43         70
    44        999
    45        139
    46          3
    47        246
    48          6
    52          1
    54          7
    55          4
    56        224
    57         53
    58        160
    59         45
    60          2
    61          1
    70          6
    71          3
    72         36
    73         17
    74          3
    75        976
    76         33
    77          4
    85          1
    86         14
    87          7
    88        288
    89         86
    90          4
   102          1
   104          2
   118          1
   119         18
   120          4