##TITLE=Library Entry 18005
##JCAMP-DX=Revision 4.10 
##DATA TYPE=MASS SPECTRUM
##SAMPLE DESCRIPTION=Japan AIST/NIMC Database- Spectrum MS-NW- 511
##NAMES=HP
##CAS NAME=Ethyl orthoformate
##MOLFORM=C7H16O3
##CAS REGISTRY NO=122-51-0
##MP= -300
##BP= -300
##MW= 148
##$RETENTION INDEX=885
##$CONDENSED SPECTRUM=NO
##NPOINTS= 41
##XYDATA=(XY..XY) 1 
    14          2
    15         13
    17          1
    18          3
    19          1
    25          1
    26         14
    27        105
    28         60
    29        238
    30          9
    31        106
    32          2
    39          2
    41          4
    42          4
    43         27
    44          8
    45        103
    46          7
    47        999
    48         11
    49          5
    56          1
    57          1
    59          8
    60          2
    63         25
    73          4
    74          7
    75        437
    76         14
    77          3
    78          4
    91          8
   102          3
   103        563
   104         29
   105          4
   119          3
   147          9