##TITLE=Library Entry 4021
##JCAMP-DX=Revision 4.10 
##DATA TYPE=MASS SPECTRUM
##SAMPLE DESCRIPTION=CCC 0036
##NAMES=HP
##CAS NAME=Borane, tributyl-
##MOLFORM=C12H27B
##CAS REGISTRY NO=122-56-5
##MP= -300
##BP= -300
##MW= 182
##$RETENTION INDEX=0
##$CONDENSED SPECTRUM=NO
##NPOINTS= 119
##XYDATA=(XY..XY) 1 
     2          6
    10          1
    11          1
    12          2
    13          6
    14          5
    15         27
    16          1
    17          1
    18          2
    19          1
    25          6
    26         82
    27        410
    28        106
    29        300
    30          7
    31          1
    32          1
    33          1
    36          8
    37         35
    38         44
    39        220
    40        265
    41        999
    42         81
    43        355
    44         12
    45          2
    46          1
    47          1
    48          1
    49          4
    50         17
    51         31
    52         41
    53        142
    54        127
    55        378
    56         67
    57         94
    58         23
    59          2
    60          1
    61          1
    62          2
    63          5
    64          6
    65         13
    66         18
    67         64
    68         40
    69         89
    70         25
    71         36
    72          2
    73          1
    74          1
    75          1
    76          1
    77          2
    78          1
    79          2
    80          3
    81         10
    82         70
    83        272
    84         32
    85         74
    86          5
    87          1
    88          1
    89          1
    90          1
    91          1
    92          1
    93          1
    94          1
    95          6
    96          8
    97         11
    98         13
    99         52
   100          5
   101          3
   102          1
   103          1
   104          1
   105          1
   109          1
   110          1
   111          1
   112          3
   113          3
   114         10
   115          1
   122          1
   123          2
   124        168
   125        700
   126         61
   137          1
   138          1
   139          1
   140          1
   141          3
   142          1
   143          1
   144          1
   152          1
   153          1
   154          1
   155          1
   167          1
   168          1
   181          3
   182         11
   183          1