##TITLE=Library Entry 85320
##JCAMP-DX=Revision 4.10 
##DATA TYPE=MASS SPECTRUM
##SAMPLE DESCRIPTION=Japan AIST/NIMC Database- Spectrum MS-NW-1717
##NAMES=HP
##CAS NAME=Acetamide, N-(4-aminophenyl)-
##MOLFORM=C8H10N2O
##CAS REGISTRY NO=122-80-5
##MP= -300
##BP= -300
##MW= 150
##$RETENTION INDEX=0
##$CONDENSED SPECTRUM=NO
##NPOINTS= 72
##XYDATA=(XY..XY) 1 
    14          5
    15         29
    17          1
    18          3
    26          6
    27         19
    28         37
    29          5
    30          6
    37          3
    38          9
    39         27
    40          8
    41         17
    42         13
    43        120
    44          5
    49          1
    50          8
    51         20
    52         74
    53        105
    54         37
    55          9
    56          3
    57          3
    60          1
    61          3
    62          8
    63         17
    64         10
    65         22
    66          9
    67         11
    68          3
    69          2
    71          1
    74          1
    75          2
    76          3
    77          6
    78         15
    79         31
    80        236
    81         89
    82          8
    83          1
    89          1
    90         10
    91         14
    92          8
    93          5
    94          2
    95          1
    97          1
   104          1
   105         19
   106         24
   107        351
   108        999
   109         90
   110          4
   119          3
   120          1
   121          5
   132          2
   134          9
   135          2
   149          6
   150        617
   151         58
   152          4