##TITLE=Library Entry 67112
##JCAMP-DX=Revision 4.10 
##DATA TYPE=MASS SPECTRUM
##SAMPLE DESCRIPTION=NIST Mass Spectrometry Data Center, 1992
##NAMES=HP
##CAS NAME=Ethanol, 2-phenoxy-
##MOLFORM=C8H10O2
##CAS REGISTRY NO=122-99-6
##MP= -300
##BP= -300
##MW= 138
##$RETENTION INDEX=1226
##$CONDENSED SPECTRUM=NO
##NPOINTS= 73
##XYDATA=(XY..XY) 1 
    12          0
    13          1
    14          8
    15         24
    16          1
    17          1
    18          5
    19         23
    25          2
    26         16
    27         76
    28         29
    29         60
    30          7
    31         52
    32          3
    36          1
    37         13
    38         44
    39        150
    40         34
    41          6
    42          9
    43         34
    44         10
    45        104
    46          2
    47          0
    48          0
    50         65
    51        166
    52         15
    53          8
    54          1
    55         20
    56          0
    60          1
    61          6
    62         17
    63         39
    64         20
    65        109
    66        188
    67         12
    68          3
    73          2
    74         16
    75         10
    76          1
    77        291
    78         38
    79         60
    80          4
    81          1
    89          1
    91         12
    94        999
    95        158
    96          9
   103          0
   105          1
   107         60
   108          6
   109          0
   118          0
   119          2
   120          0
   121          0
   135          0
   136          1
   138        285
   139         23
   140          2