##TITLE=Library Entry 80366
##JCAMP-DX=Revision 4.10 
##DATA TYPE=MASS SPECTRUM
##SAMPLE DESCRIPTION=NIST Mass Spectrometry Data Center, 1990.
##NAMES=HP
##CAS NAME=Benzene, 1,1'-[ethylidenebis(oxy-2,1-ethanediyl)]bis-
##MOLFORM=C18H22O2
##CAS REGISTRY NO=122-71-4
##MP= -300
##BP= -300
##MW= 270
##$RETENTION INDEX=0
##$CONDENSED SPECTRUM=NO
##NPOINTS= 76
##XYDATA=(XY..XY) 1 
    14          0
    15         10
    17          1
    18          2
    19          0
    25          1
    26          7
    27         47
    29         22
    30          2
    31         26
    37          3
    38         12
    39         71
    40          6
    41         14
    42          5
    43         23
    44          4
    45          4
    50         29
    51         78
    52         16
    53          8
    54          1
    55          0
    57          5
    58         22
    59          1
    60          0
    61          3
    62         11
    63         33
    64         12
    65        106
    66          6
    73          2
    74          7
    75          7
    76         13
    77        137
    78         63
    79        148
    80         10
    85          1
    86          1
    87          2
    89         16
    91        320
    92        137
    93          9
    94          0
   100          0
   102         14
   103        100
   104        273
   105        999
   106         93
   107          4
   115          1
   117          1
   119          2
   120          6
   121          5
   122         47
   123          4
   133          1
   149         84
   150         10
   151          1
   164          1
   165         10
   166          1
   179          1
   192          2
   226          1