##TITLE=Library Entry 10289
##JCAMP-DX=Revision 4.10 
##DATA TYPE=MASS SPECTRUM
##SAMPLE DESCRIPTION=NIST Mass Spectrometry Data Center, 1995
##NAMES=HP
##CAS NAME=Carbamic acid, phenyl-, 1-methylethyl ester
##MOLFORM=C10H13NO2
##CAS REGISTRY NO=122-42-9
##MP= -300
##BP= -300
##MW= 179
##$RETENTION INDEX=1453
##$CONDENSED SPECTRUM=NO
##NPOINTS= 78
##XYDATA=(XY..XY) 1 
    12          2
    14          1
    15         34
    16          0
    18          1
    19         18
    25          3
    26         28
    27        229
    28         27
    37         34
    38         80
    39        299
    40         58
    41        381
    42          3
    43        999
    44         53
    45        202
    46          8
    48          1
    49          5
    50         43
    51         93
    52         41
    53          8
    54          7
    55          1
    57          1
    59         51
    60          4
    61         11
    62         25
    63         83
    64        138
    65        259
    66        129
    67         14
    68          1
    73          2
    74         10
    75          7
    76         12
    77        118
    78         11
    79          5
    80          4
    82          2
    86          1
    87          1
    88          3
    89          2
    91        163
    92        135
    93        965
    94         73
    95          1
   103          4
   104          3
   106          8
   107          1
   108          2
   117          2
   119        198
   120        273
   121         24
   122          1
   134          2
   137        333
   138         28
   139          2
   146          0
   164          2
   176          0
   177          1
   179        297
   180         36
   181          3