##TITLE=Library Entry 66980
##JCAMP-DX=Revision 4.10 
##DATA TYPE=MASS SPECTRUM
##SAMPLE DESCRIPTION=Chuck Anderson, Aldrich Chemical Co.
##NAMES=HP
##CAS NAME=Acetic acid, phenyl ester
##MOLFORM=C8H8O2
##CAS REGISTRY NO=122-79-2
##MP= -300
##BP= -300
##MW= 136
##$RETENTION INDEX=1067
##$CONDENSED SPECTRUM=NO
##NPOINTS= 73
##XYDATA=(XY..XY) 1 
    12          0
    13          0
    14          3
    15         22
    16          0
    24          0
    25          0
    26          5
    27         10
    28          4
    29          3
    30          0
    31          2
    32          1
    36          0
    37         11
    38         36
    39        149
    40         25
    41          4
    42         14
    43        283
    44          6
    45          0
    46          0
    47          0
    48          0
    49          2
    50         25
    51         41
    52          4
    53          6
    54          1
    55         20
    56          0
    57          0
    60          0
    61          5
    62         13
    63         35
    64         12
    65        100
    66        134
    67          7
    68          2
    69          0
    73          1
    74          7
    75          3
    76          3
    77         28
    78          3
    79          3
    80          0
    81          0
    89          0
    90          0
    91          0
    92          1
    93         16
    94        999
    95         59
    96          3
    97          0
   105          0
   107          0
   108          0
   120          0
   121          0
   136        182
   137         15
   138          1
   139          0