##TITLE=Library Entry 99548
##JCAMP-DX=Revision 4.10 
##DATA TYPE=MASS SPECTRUM
##SAMPLE DESCRIPTION=NIST Mass Spectrometry Data Center, 1990.
##NAMES=HP
##CAS NAME=Ethanone, 1-(4-methylphenyl)-
##MOLFORM=C9H10O
##CAS REGISTRY NO=122-00-9
##MP= -300
##BP= -300
##MW= 134
##$RETENTION INDEX=1183
##$CONDENSED SPECTRUM=NO
##NPOINTS= 47
##XYDATA=(XY..XY) 1 
    14          1
    15         11
    27         18
    37          7
    38         22
    39        113
    40         13
    41         23
    42         11
    43         91
    44          5
    46         11
    49          5
    50         55
    51         69
    52         17
    53         12
    59          5
    61         18
    62         53
    63        129
    64         36
    65        273
    66         18
    73          4
    74         20
    75         13
    76         11
    77         37
    78         10
    79         11
    85          6
    86         13
    87         10
    88          4
    89         97
    90          4
    91        829
    92         63
   103          9
   104          4
   105         14
   119        999
   120         93
   121          4
   134        320
   135         31