##TITLE=Library Entry 98331
##JCAMP-DX=Revision 4.10 
##DATA TYPE=MASS SPECTRUM
##SAMPLE DESCRIPTION=NIST Mass Spectrometry Data Center
##NAMES=HP
##CAS NAME=2-Propenoic acid, 3-phenyl-, 3-phenylpropyl ester
##MOLFORM=C18H18O2
##CAS REGISTRY NO=122-68-9
##MP= -300
##BP= -300
##MW= 266
##$RETENTION INDEX=2324
##$CONDENSED SPECTRUM=NO
##NPOINTS= 37
##XYDATA=(XY..XY) 1 
    39         18
    41         15
    50         14
    51         49
    52         11
    53          6
    62          4
    63         12
    64          2
    65         37
    66          4
    74          6
    75          8
    76         16
    77        164
    78         29
    79         15
    89          8
    90          4
    91        133
    92         16
   101          5
   102         43
   103        203
   104         28
   105         12
   115         28
   116          8
   117        580
   118        999
   119         98
   120          6
   131        181
   132         17
   147         20
   148          7
   266          3