##TITLE=Library Entry 85078
##JCAMP-DX=Revision 4.10 
##DATA TYPE=MASS SPECTRUM
##SAMPLE DESCRIPTION=Japan AIST/NIMC Database- Spectrum MS-NW-3371
##NAMES=HP
##CAS NAME=m-Cresyl acetate
##MOLFORM=C9H10O2
##CAS REGISTRY NO=122-46-3
##MP= -300
##BP= -300
##MW= 150
##$RETENTION INDEX=1140
##$CONDENSED SPECTRUM=NO
##NPOINTS= 61
##XYDATA=(XY..XY) 1 
    13          1
    14          4
    15         20
    26          3
    27         19
    28          2
    29          2
    37          4
    38          9
    39         41
    40          5
    41          5
    42          8
    43        167
    44          4
    45          2
    49          2
    50         16
    51         32
    52         18
    53         24
    54          2
    55          4
    60          2
    61          3
    62          6
    63         16
    64          7
    65         16
    66          4
    67          2
    68          2
    69          1
    73          1
    74          4
    75          2
    76          2
    77         83
    78         25
    79         76
    80         34
    81          4
    86          1
    87          1
    89          7
    90         43
    91         29
    92          3
    93          1
    94          1
   105          2
   106          6
   107        331
   108        999
   109         77
   110          5
   121          1
   135          1
   150        127
   151         12
   152          1