##TITLE=Library Entry 59364
##JCAMP-DX=Revision 4.10 
##DATA TYPE=MASS SPECTRUM
##SAMPLE DESCRIPTION=V.Zaikin,Topchiev Inst.Petrochem.Synth.,Moscow
##NAMES=HP
##CAS NAME=Benzeneacetic acid, octyl ester
##MOLFORM=C16H24O2
##CAS REGISTRY NO=122-45-2
##MP= -300
##BP= -300
##MW= 248
##$RETENTION INDEX=1830
##$CONDENSED SPECTRUM=NO
##NPOINTS= 78
##XYDATA=(XY..XY) 1 
    27         36
    28         23
    29         88
    31          3
    36          2
    37          7
    38         11
    39        124
    40         27
    41        290
    42         63
    43        359
    44         18
    45          7
    49          2
    50         23
    51         42
    52          8
    53         32
    54         11
    55        136
    56         45
    57        374
    58         15
    59          3
    61          4
    62         15
    63         62
    64         21
    65        170
    66         15
    67          7
    68         10
    69         58
    70         44
    71        232
    72         13
    73          3
    74          4
    75          5
    76          5
    77         12
    78          6
    79          5
    80          2
    81          3
    82          5
    83         28
    84         23
    85          7
    88          4
    89         62
    90         58
    91        999
    92        190
    93         11
    95          2
    96          3
    97         10
    98          2
   104          4
   105          5
   107          3
   111          3
   112         27
   113          2
   115          2
   118         19
   119         32
   120          2
   129          3
   136        233
   137        100
   138          9
   157         78
   158          7
   192          2
   248         10