##TITLE=Library Entry 28744
##JCAMP-DX=Revision 4.10 
##DATA TYPE=MASS SPECTRUM
##SAMPLE DESCRIPTION=Virginia Division of Forensic Science
##NAMES=HP
##CAS NAME=Phentermine
##MOLFORM=C10H15N
##CAS REGISTRY NO=122-09-8
##MP= -300
##BP= -300
##MW= 149
##$RETENTION INDEX=1167
##$CONDENSED SPECTRUM=NO
##NPOINTS= 77
##XYDATA=(XY..XY) 1 
    15          9
    17          1
    18         10
    26          1
    27         10
    28          8
    29          4
    30         48
    32          1
    37          1
    38          7
    39         49
    40          5
    41         65
    42         95
    43         17
    44          2
    50         14
    51         30
    52         11
    53          4
    54          3
    55          2
    56         13
    58        999
    59         40
    61          3
    62          9
    63         33
    64         11
    65        104
    66          9
    67          5
    68          1
    70          1
    72          1
    74          4
    75          5
    76          4
    77         18
    78          7
    79          4
    80          1
    85          1
    86          1
    87          2
    89         26
    91        191
    92         23
    93          3
    94          1
   101          1
   102          3
   103          5
   104          5
   105          3
   106          4
   107          1
   113          1
   115         41
   116         10
   117         43
   118         13
   119          7
   120          1
   127          1
   128          2
   129          1
   130          3
   131          3
   132          9
   134         93
   135         12
   136          1
   144          1
   146          1
   147          1