##TITLE=Library Entry 83532
##JCAMP-DX=Revision 4.10 
##DATA TYPE=MASS SPECTRUM
##SAMPLE DESCRIPTION=Japan AIST/NIMC Database- Spectrum MS-NW-4865
##NAMES=HP
##CAS NAME=Acetic acid, phenoxy-
##MOLFORM=C8H8O3
##CAS REGISTRY NO=122-59-8
##MP= -300
##BP= -300
##MW= 152
##$RETENTION INDEX=0
##$CONDENSED SPECTRUM=NO
##NPOINTS= 72
##XYDATA=(XY..XY) 1 
    12          1
    13          2
    14         10
    15          3
    17          1
    18          3
    25          1
    26          5
    27         18
    28         21
    29         16
    30          4
    31         30
    32          1
    37          8
    38         23
    39        131
    40         12
    41          2
    42         15
    43          2
    44          5
    45         13
    49          2
    50         38
    51        172
    52         18
    53          4
    54          1
    55          8
    58          1
    59          3
    60          1
    61          3
    62          7
    63         25
    64         17
    65        179
    66         41
    67          3
    68          1
    73          2
    74          7
    75          7
    76         14
    77        925
    78        109
    79        247
    80         15
    81          2
    82          1
    89          1
    90          3
    91          6
    92          8
    93         21
    94        235
    95         17
    96          1
   104          1
   105          8
   106          4
   107        999
   108         75
   109          5
   110          2
   134          3
   135          1
   151          1
   152        902
   153         82
   154          9