##TITLE=Library Entry 81132
##JCAMP-DX=Revision 4.10 
##DATA TYPE=MASS SPECTRUM
##SAMPLE DESCRIPTION=Institute of Organic Chemistry, Novosibirsk, USSR 1988
##NAMES=HP
##CAS NAME=6-Methyl-4,5-tetramethylene-6-ethyl-2-phenyl-5,6-dihydro-4H-1,3-o
xazine
##MOLFORM=C17H23NO
##CAS REGISTRY NO=122035-93-2
##MP= -300
##BP= -300
##MW= 257
##$RETENTION INDEX=0
##$CONDENSED SPECTRUM=NO
##NPOINTS= 82
##XYDATA=(XY..XY) 1 
    12          6
    13          1
    14         18
    15         35
    16         11
    17          8
    18         70
    25          2
    26         11
    27         42
    28        168
    29        253
    30         39
    31          7
    32          5
    38         11
    39         54
    40         10
    41        120
    42         16
    43        146
    44         15
    45         32
    50         18
    51         50
    52         28
    53         28
    54         25
    55         86
    56         29
    57         46
    65         12
    67         64
    68         18
    69         33
    70         13
    71         16
    76         30
    77        297
    78         43
    79         49
    80         19
    81         54
    82         26
    83         28
    85         11
    91         27
    93         36
    94         22
    95         36
    96         17
    97         19
   103         54
   104         70
   105        999
   106         87
   107        279
   108         48
   109         44
   110         14
   111          9
   118          9
   120         21
   121         80
   122        193
   123         28
   125         21
   134         33
   135         22
   136        661
   137         78
   146         19
   152         16
   160         17
   161         16
   228         39
   229          6
   242         15
   256         21
   257        172
   258         35
   259          3