##TITLE=Library Entry 97893
##JCAMP-DX=Revision 4.10 
##DATA TYPE=MASS SPECTRUM
##SAMPLE DESCRIPTION=Institute of Organic Chemistry, Novosibirsk, USSR 1988
##NAMES=HP
##CAS NAME=6-Methyl-2,6-diphenyl-5,6-dihydro-4H-1,3-oxazine
##MOLFORM=C17H17NO
##CAS REGISTRY NO=122035-87-4
##MP= -300
##BP= -300
##MW= 251
##$RETENTION INDEX=0
##$CONDENSED SPECTRUM=NO
##NPOINTS= 101
##XYDATA=(XY..XY) 1 
    12         41
    13         10
    14         53
    15         65
    16         44
    17         75
    18        181
    25         10
    26         36
    27        153
    28        510
    29        140
    30         30
    31         38
    32         12
    37          8
    38         16
    39        130
    40         28
    41        159
    42         44
    43        306
    44          6
    49          7
    50        104
    51        346
    52         53
    53         32
    54         12
    55         73
    56         44
    57         57
    58         10
    60          1
    62         16
    63         45
    64         14
    65         50
    66         10
    67         22
    68          9
    69         32
    70         16
    71         24
    73         14
    74         22
    75         38
    76        136
    77        734
    78        244
    79         55
    80          6
    81         24
    82          9
    83         20
    84          8
    85         12
    89         32
    90         22
    91        204
    92         26
    93         12
    94          6
    95         11
    97         12
    98          5
    99          8
   101          6
   102         36
   103        459
   104        183
   105        704
   106         71
   107         10
   109          8
   115         95
   116         40
   117        306
   118        999
   119         81
   120         10
   121         12
   122         97
   123         14
   128         12
   129         28
   130        136
   131         44
   132         32
   133         22
   134         57
   135         14
   146         55
   147          8
   172         12
   236         28
   237         16
   250         20
   251        224
   252         46
   253          6