##TITLE=Library Entry 81585
##JCAMP-DX=Revision 4.10 
##DATA TYPE=MASS SPECTRUM
##SAMPLE DESCRIPTION=Institute of Organic Chemistry, Novosibirsk, USSR 1988
##NAMES=HP
##CAS NAME=6-Methyl-4,5-tetramethylene-2,6-diphenyl-5,6-dihydro-4H-1,3-oxazi
ne
##MOLFORM=C21H23NO
##CAS REGISTRY NO=122035-94-3
##MP= -300
##BP= -300
##MW= 305
##$RETENTION INDEX=0
##$CONDENSED SPECTRUM=NO
##NPOINTS= 143
##XYDATA=(XY..XY) 1 
    12          4
    13          3
    15         53
    24          1
    25          7
    26         43
    27        137
    28         67
    29        127
    30         42
    31        195
    32         11
    37          3
    38          7
    39         56
    40         20
    41        186
    42         65
    43        225
    44        127
    45         26
    46          3
    50         13
    51         42
    52          8
    53         41
    54         78
    55        137
    56         58
    57        122
    58          8
    59          5
    60          5
    63          4
    64          2
    65         19
    66          9
    67        107
    68         24
    69         88
    70         34
    71         68
    72          7
    73         43
    74          8
    75          5
    76         27
    77        538
    78         49
    79         47
    80         19
    81         68
    82         58
    83         56
    84         25
    85         38
    86          5
    87         12
    88          3
    91        127
    92         16
    93         13
    94         10
    95         29
    96         22
    97         46
    98         22
    99         17
   100          2
   101          6
   102          9
   103         34
   104        156
   105        999
   106         68
   107         14
   108          6
   109         17
   110         10
   111         23
   112         11
   113         12
   114          3
   115         53
   116         27
   117         28
   118         12
   119          6
   120          7
   121         47
   122         68
   123         17
   124          9
   125         13
   126          5
   127         21
   128         38
   129        107
   130         32
   131         38
   132         12
   133          6
   134         17
   135         12
   136          5
   137          8
   138          5
   139          8
   140          6
   141         42
   142         35
   143         46
   144         18
   145          9
   146          8
   147          3
   152          5
   153          7
   154          6
   155         93
   156         65
   157         52
   158         11
   167         12
   168          9
   169        506
   170         67
   171         14
   183         33
   184        695
   185        102
   186         22
   187         10
   200         73
   201         20
   224          8
   237         10
   256          4
   290          3
   304          6
   305        254
   306         60
   307          7