##TITLE=Library Entry 97358
##JCAMP-DX=Revision 4.10 
##DATA TYPE=MASS SPECTRUM
##SAMPLE DESCRIPTION=Chemical Concepts
##NAMES=HP
##CAS NAME=Bicyclo[4.2.0]octa-1,3,5-triene, 7-(3-butenyl)-
##MOLFORM=C12H14
##CAS REGISTRY NO=122057-61-8
##MP= -300
##BP= -300
##MW= 158
##$RETENTION INDEX=0
##$CONDENSED SPECTRUM=NO
##NPOINTS= 79
##XYDATA=(XY..XY) 1 
    26         12
    27         97
    28          6
    29         23
    37          6
    38         25
    39        274
    40         19
    41         82
    42          3
    49          2
    50         71
    51        177
    52         44
    53         35
    54          4
    55          7
    58          3
    61          6
    62         32
    63        118
    64         31
    65        124
    66         53
    67         21
    70          4
    71          4
    73          3
    74         28
    75         34
    76         42
    77        212
    78         81
    79         17
    80          3
    86          7
    87         11
    88          6
    89         67
    90         11
    91        374
    92         41
    98          3
   101         12
   102         71
   103        202
   104        249
   105         38
   106          3
   113         19
   114         23
   115        713
   116        368
   117        999
   118         89
   119          4
   124          2
   125          4
   126          8
   127         61
   128        240
   129        500
   130        273
   131         37
   132          3
   139          7
   140          5
   141         45
   142         49
   143        493
   144         57
   145          3
   152          6
   153          6
   155          5
   156          2
   157         42
   158         90
   159         11