##TITLE=Library Entry 79459
##JCAMP-DX=Revision 4.10 
##DATA TYPE=MASS SPECTRUM
##SAMPLE DESCRIPTION=Institute of Organic Chemistry, Novosibirsk, USSR 1988
##NAMES=HP
##CAS NAME=4,4,5,6-Tetramethyl-2-phenyl-5,6-dihydro-4H-1,3-oxazine
##MOLFORM=C14H19NO
##CAS REGISTRY NO=122035-86-3
##MP= -300
##BP= -300
##MW= 217
##$RETENTION INDEX=0
##$CONDENSED SPECTRUM=NO
##NPOINTS= 112
##XYDATA=(XY..XY) 1 
    12          4
    13          2
    14         10
    15         28
    16         16
    17         41
    18        195
    24          1
    25          3
    26         18
    27         48
    28         35
    29         49
    30         10
    31         11
    32          6
    36          1
    37          2
    38          5
    39         52
    40         13
    41        108
    42         36
    43         79
    44          3
    45          1
    49          1
    50         19
    51         68
    52         10
    53         13
    54          7
    55         64
    56         36
    57         12
    58         52
    59          5
    60          3
    61          1
    62          1
    63          4
    64          1
    65          3
    66          1
    67          6
    68          5
    69          9
    70         32
    71          6
    72          2
    73          1
    74          3
    75          7
    76         24
    77        330
    78         22
    79          3
    80          1
    81          4
    82          2
    83          4
    84         12
    85          4
    86          2
    89          2
    90          1
    91          3
    92          1
    93          2
    94          1
    95          2
    96          2
    97          4
    98          7
    99          3
   100          3
   103         28
   104         72
   105        999
   106         76
   107          5
   109          1
   110          1
   111          1
   112          2
   113          2
   115          1
   117          2
   118          1
   119          1
   122          2
   144          3
   145         14
   146          4
   158          8
   159          2
   160          3
   161          7
   162        233
   163         26
   164          2
   174          1
   175          4
   176          1
   188         15
   189          4
   202         14
   203          3
   216          2
   217         96
   218         15
   219          1