##TITLE=Library Entry 18361
##JCAMP-DX=Revision 4.10 
##DATA TYPE=MASS SPECTRUM
##SAMPLE DESCRIPTION=Chemical Concepts
##NAMES=HP
##CAS NAME=Chromium, tricarbonyl[(1,2,3,4,5,6-.eta.)-2,4-dimethylbicyclo[4.2
.0]octa-1,3,5-triene]-
##MOLFORM=C13H12CrO3
##CAS REGISTRY NO=122113-97-7
##MP= -300
##BP= -300
##MW= 268
##$RETENTION INDEX=0
##$CONDENSED SPECTRUM=NO
##NPOINTS= 125
##XYDATA=(XY..XY) 1 
    26          0
    27          9
    37          0
    38          2
    39         22
    41          1
    50         54
    51         20
    52        999
    53        132
    54         27
    61          0
    62          4
    63         14
    64          3
    65         12
    66          2
    67          1
    68          0
    74          2
    75          3
    76          2
    77         22
    78          5
    79          5
    80         29
    81          4
    82          1
    85          0
    86          1
    87          0
    89          4
    90          8
    91         26
    92         22
    93          2
   101          4
   102          3
   103         11
   104          3
   105          6
   106         12
   107          1
   108          1
   113          0
   114          1
   115         26
   116         12
   117         21
   118          2
   119          0
   120          4
   123          0
   124          0
   125          0
   127          2
   128          5
   129          5
   130          1
   131          7
   132         20
   133          1
   134          0
   141          1
   142          1
   143          1
   144          0
   153          0
   154          2
   155          1
   156         23
   157         13
   158          3
   159          0
   160          0
   162          0
   167          0
   168          1
   169          0
   170          2
   171          0
   172          1
   173          1
   174          0
   179          0
   180          0
   181          4
   182         45
   183         17
   184        735
   185        152
   186         45
   187          4
   188          0
   196          0
   197          1
   198          2
   199          2
   200         10
   201          0
   209          0
   210          3
   211          4
   212         85
   213         21
   214          4
   215          0
   223          0
   224          0
   225          0
   226          0
   238          0
   239          0
   240          7
   241          1
   254          0
   256          0
   264          1
   265          0
   266          8
   267          1
   268        119
   269         34
   270          9
   271          1