##TITLE=Library Entry 1908
##JCAMP-DX=Revision 4.10 
##DATA TYPE=MASS SPECTRUM
##SAMPLE DESCRIPTION=Exported from NIST MS Search
##NAMES=HP
##CAS NAME=Iron, dicarbonyl(.eta.5-2,4-cyclopentadien-1-yl)(2,3,3,4,4,5,5,6,
6-nonafluoro-1-cyclohexen-1-yl)-
##MOLFORM=C13H5F9FeO2
##CAS REGISTRY NO=12215-33-7
##MP= -300
##BP= -300
##MW= 420
##$RETENTION INDEX=0
##$CONDENSED SPECTRUM=NO
##NPOINTS= 65
##XYDATA=(XY..XY) 1 
    31         80
    32        100
    39        999
    40         40
    56        400
    63        130
    65        870
    66         50
    69        230
    70         20
    75        960
    76         60
    81         50
    87         50
    93        130
    94        130
    95         10
    98         50
   103         50
   105         70
   114         80
   117        370
   118         30
   120        140
   121        320
   123         30
   125         60
   140        999
   141         90
   143        120
   146         10
   149         60
   151         80
   155        670
   156         60
   169         70
   177         50
   182         80
   186         90
   193         60
   201        100
   202         10
   205        330
   206         40
   219         40
   220         50
   225         50
   231         60
   232         70
   251        270
   252         30
   270        999
   271         90
   289         30
   345         30
   364        200
   365         20
   373        100
   374         10
   382         10
   392        300
   393         30
   401         30
   420        250
   421         30