##TITLE=Library Entry 60558
##JCAMP-DX=Revision 4.10 
##DATA TYPE=MASS SPECTRUM
##SAMPLE DESCRIPTION=R.B.KING UNIVERSITY OF GEORGIA, ATHENS, GEORGIA, USA
##NAMES=HP
##CAS NAME=Iron, [(2,3,5,6-.eta.)-bicyclo[2.2.1]hepta-2,5-diene]tetracarbony
lbis[.mu.-(methanethiolato)]di-, (Fe-Fe)
##MOLFORM=C13H14Fe2O4S2
##CAS REGISTRY NO=12215-56-4
##MP= -300
##BP= -300
##MW= 410
##$RETENTION INDEX=0
##$CONDENSED SPECTRUM=NO
##NPOINTS= 25
##XYDATA=(XY..XY) 1 
    39        185
    47        109
    48         74
    50         46
    51         74
    65        185
    66        370
    91        999
    92        462
   144          4
   149          3
   176         11
   191         13
   206          2
   209          2
   241          2
   242          4
   248          2
   268         18
   283          6
   298         11
   326          8
   354          4
   382          5
   410          2