##TITLE=Library Entry 24988
##JCAMP-DX=Revision 4.10 
##DATA TYPE=MASS SPECTRUM
##SAMPLE DESCRIPTION=Institute of Organic Chemistry, Novosibirsk, USSR 1988
##NAMES=HP
##CAS NAME=Vinylbutoxydichlorosilane
##MOLFORM=C6H12Cl2OSi
##CAS REGISTRY NO=122274-04-8
##MP= -300
##BP= -300
##MW= 198
##$RETENTION INDEX=0
##$CONDENSED SPECTRUM=NO
##NPOINTS= 33
##XYDATA=(XY..XY) 1 
    35         79
    36          9
    37         34
    41         30
    43         18
    57        999
    58        291
    59         73
    83         14
    84          7
    89          5
   107         19
   108          4
   109          7
   110          1
   115         42
   116          9
   117         28
   118          4
   119        153
   120         14
   121         61
   125        101
   126          9
   127         89
   155        142
   156         19
   157        105
   158         10
   159         22
   171         33
   172          9
   173         22