##TITLE=Library Entry 34083
##JCAMP-DX=Revision 4.10 
##DATA TYPE=MASS SPECTRUM
##SAMPLE DESCRIPTION=V.G. Zaikin, TIPS RAS, Moscow, Russia
##NAMES=HP
##CAS NAME=Cyclopropanecarboxamide, N-2-methylpropyl
##MOLFORM=C8H15NO
##CAS REGISTRY NO=122348-69-0
##MP= -300
##BP= -300
##MW= 141
##$RETENTION INDEX=1249
##$CONDENSED SPECTRUM=NO
##NPOINTS= 53
##XYDATA=(XY..XY) 1 
    26         24
    27        145
    28        145
    29         96
    30         84
    31          7
    36          7
    37         15
    38         39
    39        409
    40         67
    41        668
    42         73
    43         95
    44         48
    45          5
    50          5
    51          7
    52          9
    53          7
    54         21
    55         62
    56         56
    57         79
    58         44
    59          7
    67          8
    68         48
    69        999
    70         52
    71          8
    72         21
    73          5
    80          4
    81          4
    82          6
    83          6
    84         25
    85          6
    86         95
    87          5
    96          8
    97          6
    98        275
    99         39
   100          6
   124          4
   125          4
   126         72
   127          4
   140          5
   141         74
   142          9