##TITLE=Library Entry 48079
##JCAMP-DX=Revision 4.10 
##DATA TYPE=MASS SPECTRUM
##SAMPLE DESCRIPTION=Dmitri Zagorevskii, Scientific Instruments & Applicatio
ns
##NAMES=HP
##CAS NAME=2-Bromo-5-(hydroxymethyl)pyridine
##MOLFORM=C6H6BrNO
##CAS REGISTRY NO=122306-01-8
##MP= -300
##BP= -300
##MW= 187
##$RETENTION INDEX=0
##$CONDENSED SPECTRUM=NO
##NPOINTS= 63
##XYDATA=(XY..XY) 1 
    50        360
    51        564
    52        279
    53        497
    54         72
    55         52
    56          2
    60          7
    61         21
    62         56
    63        140
    64         70
    65         28
    66          7
    67          3
    68          8
    71          2
    74          4
    75         47
    76        105
    77         28
    78        999
    79        326
    80        336
    81        120
    82         33
    88          3
    90        109
    91         64
    92          6
    93         10
    95          3
   104          5
   105          6
   106         87
   107        162
   108        252
   109         16
   117         22
   119         22
   129         17
   130          2
   131         27
   132          2
   133          4
   143         15
   145         16
   156         19
   157          3
   158        430
   159         54
   160        392
   161         28
   169         33
   170         38
   171          5
   172         22
   184         16
   186        345
   187        487
   188        326
   189        473
   190         34