##TITLE=Library Entry 3313
##JCAMP-DX=Revision 4.10 
##DATA TYPE=MASS SPECTRUM
##SAMPLE DESCRIPTION=Vladimir Zaikin, TIPS RAS, Moscow, Russia
##NAMES=HP
##CAS NAME=Cyclopropanecarboxamide, N-n-hexyl
##MOLFORM=C10H19NO
##CAS REGISTRY NO=122348-70-3
##MP= -300
##BP= -300
##MW= 169
##$RETENTION INDEX=1471
##$CONDENSED SPECTRUM=NO
##NPOINTS= 59
##XYDATA=(XY..XY) 1 
    30        148
    31          9
    35          5
    36          9
    37         48
    38         99
    39        748
    40        128
    41        999
    42        155
    43        230
    44         71
    45         20
    50          9
    51         18
    52         10
    53         30
    54         28
    55        108
    56         65
    57         30
    58         25
    59         10
    60          2
    63          5
    65          5
    66          5
    67         11
    68         65
    69        851
    70         60
    71         10
    72         11
    80          5
    81          3
    82         10
    83         10
    84         60
    85         20
    86         42
    96          8
    97         11
    98        280
    99        230
   100         30
   101          5
   112         95
   113         29
   124          5
   125          3
   126        140
   127         17
   128          7
   140         70
   141          8
   154         15
   168          8
   169         45
   170         28