##TITLE=Library Entry 56121
##JCAMP-DX=Revision 4.10 
##DATA TYPE=MASS SPECTRUM
##SAMPLE DESCRIPTION=Tox21 Consortium/NIST Mass Spectrometry Data Center, 20
12
##NAMES=HP
##CAS NAME=Clofexamide
##MOLFORM=C14H21ClN2O2
##CAS REGISTRY NO=1223-36-5
##MP= -300
##BP= -300
##MW= 284
##$RETENTION INDEX=0
##$CONDENSED SPECTRUM=NO
##NPOINTS= 81
##XYDATA=(XY..XY) 1 
    15          1
    18          1
    27          5
    28         12
    29         18
    30         42
    31          1
    38          1
    39          2
    40          1
    41          5
    42         32
    43         21
    44         20
    45          1
    49          1
    50          5
    51          4
    52          1
    53          1
    54          4
    55          3
    56         31
    57         12
    58         71
    59          3
    61          1
    62          1
    63          5
    64          2
    65          2
    68          2
    69          3
    70         10
    71         12
    72         12
    73          5
    74          3
    75         17
    76          5
    77          6
    78          1
    82          1
    83          1
    84         14
    85         21
    86        999
    87         60
    88          1
    96          1
    97          2
    98          3
    99         24
   100          5
   101          3
   102          1
   106          1
   111         34
   112          5
   113         18
   114          2
   115          3
   126          1
   127          4
   128         11
   129          2
   130          3
   139          2
   140          2
   141         15
   142          1
   143          9
   144          1
   155          5
   156          1
   212          7
   213          1
   214          2
   267          2
   269          1
   284          1