##TITLE=Library Entry 21658
##JCAMP-DX=Revision 4.10 
##DATA TYPE=MASS SPECTRUM
##SAMPLE DESCRIPTION=Institute of Organic Chemistry, Novosibirsk, USSR 1988
##NAMES=HP
##CAS NAME=(Chlorosulfonyl)cymantrene
##MOLFORM=C8H4ClMnO5S
##CAS REGISTRY NO=12247-52-8
##MP= -300
##BP= -300
##MW= 302
##$RETENTION INDEX=0
##$CONDENSED SPECTRUM=NO
##NPOINTS= 90
##XYDATA=(XY..XY) 1 
    48         69
    51         17
    52         27
    53          7
    55        999
    56         49
    58         13
    60          9
    61          7
    62         19
    63         69
    64         85
    65         13
    66         29
    67          5
    68          9
    69         15
    70         15
    71         35
    72         29
    79          7
    80        126
    81          7
    82          5
    83         19
    84         19
    87         33
    88          7
    89         11
    90        491
    91          1
    92        180
    93        376
    94         17
    95         19
    96         19
    97         11
    98          3
    99          5
   103         11
   104         11
   111         11
   112         41
   113          5
   116          7
   117          9
   118         31
   119        471
   120        116
   121          9
   128         19
   130          3
   138         73
   140         29
   147        102
   148         33
   154         71
   155          3
   156          7
   170        804
   171         49
   172        277
   173         15
   174          1
   175         29
   176          3
   183         75
   184          5
   185          3
   186          3
   203         29
   204         29
   211         51
   212          5
   213          3
   218        108
   219          7
   220         43
   221          3
   222          1
   246         27
   247          1
   248          9
   266         39
   267          5
   268          3
   302        138
   303         13
   304         55
   305          5