##TITLE=Library Entry 30059
##JCAMP-DX=Revision 4.10 
##DATA TYPE=MASS SPECTRUM
##SAMPLE DESCRIPTION=S.M. Lee, CA Export Lab. Services, CA, USA
##NAMES=HP
##CAS NAME=Chlorfenapyr
##MOLFORM=C15H11BrClF3N2O
##CAS REGISTRY NO=122453-73-0
##MP= -300
##BP= -300
##MW= 406
##$RETENTION INDEX=2222
##$CONDENSED SPECTRUM=NO
##NPOINTS= 197
##XYDATA=(XY..XY) 1 
     7          0
    50          8
    51          7
    52          2
    57          3
    59        999
    60         33
    61          4
    62          4
    63          6
    64          3
    65          1
    69         11
    70          1
    73          4
    74          7
    75         27
    76         10
    77          3
    78          1
    81          4
    82          3
    83          1
    84          1
    85          3
    86          4
    87          7
    88          5
    89          5
    90          1
    93          3
    94          1
    95          1
    97          2
    98          3
    99          7
   100          9
   101          4
   102         18
   103          2
   104          1
   105          2
   106          2
   107          2
   108          1
   109          2
   110          3
   111         16
   112         17
   113         10
   114          3
   115          1
   116          2
   117          1
   118          1
   123          6
   124          4
   125          4
   126          3
   127          1
   128          1
   131          9
   132          4
   133          1
   134          1
   136          3
   137         26
   138         17
   139         12
   140          3
   141          1
   142          1
   147          2
   148          1
   149          1
   150          3
   151          6
   152          3
   153          5
   154          5
   155          1
   156          1
   160          4
   161          2
   162          4
   163          6
   164          6
   165          5
   166          1
   167          3
   168          1
   169          2
   170          1
   171          1
   172          2
   173          4
   174          2
   175          1
   176          2
   177          3
   178          2
   179          1
   180          1
   183          5
   184          1
   185          2
   186          2
   187          3
   188          2
   189          1
   190          1
   193          2
   194          1
   195          1
   198          2
   199          5
   200          6
   201          2
   202          1
   203          1
   207          2
   208          1
   209          1
   210          2
   211          1
   212          3
   213          5
   214          6
   215          3
   216          1
   217          1
   218          2
   219          2
   220          2
   221          1
   222          1
   227          4
   228          1
   229          1
   233          5
   234          3
   235          1
   236          1
   241          2
   242          1
   243          1
   245          2
   246          2
   247         28
   248         14
   249         21
   250          6
   251          8
   252          1
   268          5
   269          2
   270          3
   271          1
   272          1
   282          4
   283          2
   284          2
   285          1
   286          1
   312          2
   313          1
   314          2
   315          1
   316          1
   325          4
   326         10
   327          8
   328         13
   329          7
   330          5
   331          2
   332          1
   347          4
   348          5
   349          6
   350          7
   351          2
   352          2
   353          1
   361          7
   362          7
   363          9
   364          9
   365          3
   366          2
   367          1
   406          8
   407          1
   408         11
   409          1
   410          3
   411          1