##TITLE=Library Entry 89357
##JCAMP-DX=Revision 4.10 
##DATA TYPE=MASS SPECTRUM
##SAMPLE DESCRIPTION=G A. VAGLIO
##NAMES=HP
##CAS NAME=Iron, hexacarbonyl[.mu.-[(1,2,3,4-.eta.:1,4-.eta.)-1,2,3,4-tetram
ethyl-1,3-butadiene-1,4-diyl]]di-, (Fe-Fe)
##MOLFORM=C14H12Fe2O6
##CAS REGISTRY NO=12245-44-2
##MP= -300
##BP= -300
##MW= 388
##$RETENTION INDEX=0
##$CONDENSED SPECTRUM=NO
##NPOINTS= 47
##XYDATA=(XY..XY) 1 
    54        100
    55        900
    70         70
    71         50
    81        150
    82         40
    83         70
    93        100
   105         80
   107         70
   108         30
   109         30
   110        600
   111        120
   112        999
   122         40
   124         70
   125         30
   136         70
   137        330
   138         50
   149         50
   150        170
   151        160
   152         30
   160         50
   162        310
   163         90
   164        190
   166         30
   178         30
   179        260
   180         10
   190         30
   192         30
   202         10
   204         30
   216         90
   218        220
   220        470
   246          3
   248        550
   276        670
   304        180
   332        180
   360        100
   388        120