##TITLE=Library Entry 15487
##JCAMP-DX=Revision 4.10 
##DATA TYPE=MASS SPECTRUM
##SAMPLE DESCRIPTION=Patti Price, Georgia Bureau of Investigation, Decatur,
 Georgia
##NAMES=HP
##CAS NAME=Desmethyldoxepin
##MOLFORM=C18H19NO
##CAS REGISTRY NO=1225-56-5
##MP= -300
##BP= -300
##MW= 265
##$RETENTION INDEX=2223
##$CONDENSED SPECTRUM=NO
##NPOINTS= 70
##XYDATA=(XY..XY) 1 
    42          9
    43          6
    44        999
    45         26
    49          1
    50          1
    51          4
    52          1
    55          5
    56          1
    62          1
    63          5
    64          1
    65          3
    68          1
    75          2
    76          3
    77          6
    78          1
    82          2
    83          1
    87          2
    88          1
    89          3
    91          4
   101          3
   102          2
   104          1
   114          1
   115         14
   116          1
   127          3
   128         10
   129          1
   139          3
   150          1
   151          4
   152         11
   153          3
   163          5
   164          5
   165         22
   166          3
   176          5
   177          4
   178         24
   179          7
   180          1
   188          1
   189         15
   190          7
   191          8
   192          1
   194          2
   195          1
   200          1
   201          2
   202         17
   203          9
   204         19
   205          8
   207          4
   208          1
   218          4
   219          8
   220          2
   221          6
   222         20
   223          2
   265          2