##TITLE=Library Entry 39760
##JCAMP-DX=Revision 4.10 
##DATA TYPE=MASS SPECTRUM
##SAMPLE DESCRIPTION=NIST Mass Spectrometry Data Center, 2013
##NAMES=HP
##CAS NAME=4-Methylethcathinone
##MOLFORM=C12H17NO
##CAS REGISTRY NO=1225617-18-4
##MP= -300
##BP= -300
##MW= 191
##$RETENTION INDEX=1535
##$CONDENSED SPECTRUM=NO
##NPOINTS= 79
##XYDATA=(XY..XY) 1 
    15          3
    18         20
    26          2
    27         20
    28         33
    29         27
    30          5
    37          1
    38          2
    39         23
    40          3
    41         15
    42         52
    43         10
    44        297
    45          8
    50          6
    51         12
    52          3
    53          3
    54          2
    55          6
    56         33
    57          5
    58          1
    61          1
    62          5
    63         19
    64          6
    65         66
    66          4
    68          2
    69          1
    70         25
    71          7
    72        999
    73         48
    74          3
    75          2
    76          2
    77          7
    78          2
    79          1
    86          1
    87          1
    88          1
    89         23
    90         10
    91         93
    92          9
    93          2
   102          1
   103          3
   104          2
   105          8
   106          1
   115          4
   116          1
   117          3
   118          2
   119         51
   120          5
   127          1
   128          1
   129          1
   130          1
   131          3
   132          1
   133          3
   134          1
   146          5
   147          2
   148          4
   158          1
   160          1
   174          1
   176          2
   190          1
   191          1