##TITLE=Library Entry 18976
##JCAMP-DX=Revision 4.10 
##DATA TYPE=MASS SPECTRUM
##SAMPLE DESCRIPTION=Chemical Concepts
##NAMES=HP
##CAS NAME=2-Pentenoic acid, 2,3-dimethyl-
##MOLFORM=C7H12O2
##CAS REGISTRY NO=122630-51-7
##MP= -300
##BP= -300
##MW= 128
##$RETENTION INDEX=0
##$CONDENSED SPECTRUM=NO
##NPOINTS= 80
##XYDATA=(XY..XY) 1 
    26         77
    27        749
    28        101
    29        371
    30         15
    31         34
    36          3
    37         14
    38         40
    39        557
    40         96
    41        866
    42         91
    43        589
    44         18
    45        131
    46          7
    47          8
    49          6
    50         61
    51        116
    52         53
    53        259
    54         79
    55        999
    56        113
    57         64
    58         10
    59        228
    60         13
    61          4
    62         12
    63         29
    64          7
    65         68
    66         34
    67        644
    68         52
    69         67
    70         59
    71         34
    72         21
    73         62
    74         55
    75          3
    77         24
    78          5
    79         39
    80          9
    81         99
    82         93
    83        515
    84         36
    85         82
    86          8
    87         18
    91          1
    92          1
    93          2
    94          1
    95        185
    96         13
    97          4
    98          2
    99        270
   100         29
   101          6
   108          1
   109         43
   110        140
   111        115
   112          9
   113        719
   114         45
   115          3
   125          1
   127         17
   128        645
   129         53
   130          6