##TITLE=Library Entry 62570
##JCAMP-DX=Revision 4.10 
##DATA TYPE=MASS SPECTRUM
##SAMPLE DESCRIPTION=Chemical Concepts
##NAMES=HP
##CAS NAME=1-Benzenesulfonic acid, 4-methyl-,2-nitrophenyl ester
##MOLFORM=C13H11NO5S
##CAS REGISTRY NO=1226-48-8
##MP= -300
##BP= -300
##MW= 293
##$RETENTION INDEX=0
##$CONDENSED SPECTRUM=NO
##NPOINTS= 74
##XYDATA=(XY..XY) 1 
    26          3
    27          9
    28          7
    29          5
    30         28
    38         19
    39         65
    40          5
    41         23
    43          7
    45          5
    50         16
    51         43
    52         27
    53         17
    55          7
    56          5
    57          9
    62         16
    63         87
    64         55
    65        173
    66         14
    67          7
    69          6
    70          3
    71          6
    74          4
    75          6
    76          8
    77         48
    78         19
    79         27
    80         11
    81          4
    83          4
    85          4
    89         43
    90         30
    91        999
    92        101
    93          8
    94         12
    95          4
    97          3
   104          3
   105         10
   106          7
   107         15
   108         17
   109         10
   111          4
   115          5
   121          6
   122         11
   123          5
   124          4
   128          5
   139         17
   140          4
   152          5
   153          4
   155        885
   156         89
   157         51
   158          5
   165          5
   168          6
   181          9
   205          4
   223          6
   293         49
   294          8
   295          3