##TITLE=Library Entry 79340
##JCAMP-DX=Revision 4.10 
##DATA TYPE=MASS SPECTRUM
##SAMPLE DESCRIPTION=Japan AIST/NIMC Database- Spectrum MS-NW-6026
##NAMES=HP
##CAS NAME=Benzoic acid, 2-benzoyl-1,2-dimethylhydrazide
##MOLFORM=C16H16N2O2
##CAS REGISTRY NO=1226-43-3
##MP= -300
##BP= -300
##MW= 268
##$RETENTION INDEX=0
##$CONDENSED SPECTRUM=NO
##NPOINTS= 46
##XYDATA=(XY..XY) 1 
    15          5
    18          1
    27          4
    28          3
    30          1
    39          3
    43         14
    50         13
    51         57
    52          3
    58          3
    63          1
    65          1
    74          3
    75          3
    76          8
    77        234
    78         15
    91          1
   103          3
   104          2
   105        999
   106         76
   107          6
   118          5
   119          6
   122          5
   134         25
   135         63
   136        110
   137          9
   139          2
   146          1
   147         30
   148          3
   152          1
   163         82
   164          8
   165          2
   166          1
   222          2
   240         16
   241          3
   267          1
   268          9
   269          2