##TITLE=Library Entry 87883
##JCAMP-DX=Revision 4.10 
##DATA TYPE=MASS SPECTRUM
##SAMPLE DESCRIPTION=Chemical Concepts
##NAMES=HP
##CAS NAME=Tricyclo[7.2.0.0(2,6)]undecan-5-ol, 2,6,10,10-tetramethyl- (isome
r 3)
##MOLFORM=C15H26O
##CAS REGISTRY NO=122621-20-9
##MP= -300
##BP= -300
##MW= 222
##$RETENTION INDEX=0
##$CONDENSED SPECTRUM=NO
##NPOINTS= 128
##XYDATA=(XY..XY) 1 
    26          4
    27        149
    29        203
    30          6
    31         24
    39        118
    40         21
    41        653
    42         37
    43        214
    44         11
    45         14
    51         17
    52          9
    53        129
    54         36
    55        285
    56         42
    57        100
    58          9
    59         14
    60          2
    62          2
    63          3
    65         53
    66         17
    67        286
    68         55
    69        256
    70         59
    71         65
    72         82
    73          6
    74          2
    75          6
    77        111
    78         20
    79        218
    80         63
    81        379
    82        388
    83        153
    84         60
    85         33
    86          3
    91        195
    92         90
    93        421
    94        132
    95        357
    96        188
    97        302
    98        115
    99         13
   102          2
   103         12
   104          5
   105        173
   106        146
   107        563
   108        330
   109        422
   110        179
   111        999
   112        134
   113         18
   115         11
   116          5
   117         20
   118          9
   119        150
   120         68
   121        204
   122        317
   123        323
   124        229
   125        123
   126         59
   127          7
   128          4
   129          4
   131         20
   132          5
   133        411
   134         64
   135        119
   136         70
   137        147
   138        133
   139        206
   140        119
   141         16
   145         10
   146          9
   147        106
   148        485
   149        336
   150         36
   151        541
   152         74
   153         37
   154         18
   159          8
   160          2
   161         79
   162         17
   163         43
   164         46
   165         79
   166        389
   167         72
   168          4
   175          8
   176          4
   177          6
   178         17
   179         63
   180         10
   189         62
   190         10
   193          8
   194         11
   204         22
   205          4
   207         97
   208         16
   222         45
   223          7