##TITLE=Library Entry 97817
##JCAMP-DX=Revision 4.10 
##DATA TYPE=MASS SPECTRUM
##SAMPLE DESCRIPTION=Chemical Concepts
##NAMES=HP
##CAS NAME=1,4,5-Trimethyl-2,3-diphenylpiperazine
##MOLFORM=C19H24N2
##CAS REGISTRY NO=122688-13-5
##MP= -300
##BP= -300
##MW= 280
##$RETENTION INDEX=0
##$CONDENSED SPECTRUM=NO
##NPOINTS= 160
##XYDATA=(XY..XY) 1 
    26          2
    27         36
    28         33
    29         17
    30         13
    38          5
    39         64
    40         10
    41         93
    42        498
    43         26
    44         20
    50         26
    51        100
    52         27
    53          9
    54         24
    55         13
    56        100
    57         18
    58         17
    59          1
    62          8
    63         45
    64         16
    65         85
    66          8
    67          2
    68          9
    69          2
    70         13
    71          2
    72          1
    73          0
    74          7
    75         16
    76         36
    77        235
    78        115
    79         28
    80          1
    81          1
    82          1
    83          3
    84         37
    85          5
    86          0
    87          3
    88          6
    89         71
    90         54
    91        403
    92         36
    93          3
    94          0
    95          1
    97          7
    98          0
    99          2
   100          0
   101          5
   102         46
   103         70
   104         81
   105        107
   106         12
   111          5
   113          3
   114          1
   115         23
   116         21
   117         67
   118        999
   119        468
   120         61
   121          2
   126          4
   127          5
   128         11
   129          4
   130         23
   131         25
   132        279
   133         41
   134         18
   135          0
   139          9
   140          4
   141          3
   142          1
   143          1
   144         22
   145          9
   146        206
   147         44
   148          3
   149          0
   150          4
   151         15
   152         34
   153          9
   154          1
   156          1
   157          1
   158          7
   159         14
   160        332
   161        201
   162         21
   163          4
   164          4
   165         73
   166         12
   167          4
   168          0
   169          0
   171          3
   172          0
   173          1
   174          1
   175          2
   176         20
   177         23
   178        139
   179        107
   180        129
   181         17
   182          0
   185          0
   187          4
   188          1
   189         14
   190          1
   191          0
   192          0
   193          3
   194          0
   202          1
   203          2
   204          1
   205          0
   206          2
   207          0
   208          1
   209          1
   210         13
   211          1
   220          4
   221          0
   222          2
   223          0
   236          1
   264          1
   265         67
   266         13
   278          2
   279          5
   280        196
   281         41
   282          3