##TITLE=Library Entry 92461
##JCAMP-DX=Revision 4.10 
##DATA TYPE=MASS SPECTRUM
##SAMPLE DESCRIPTION=Chemical Concepts
##NAMES=HP
##CAS NAME=Oxazolidine, 2-t-butyl-4-(1-hydroxy-1-methylethyl)-3-methoxycarbo
nyl-5-methyl-
##MOLFORM=C13H25NO4
##CAS REGISTRY NO=122697-78-3
##MP= -300
##BP= -300
##MW= 259
##$RETENTION INDEX=0
##$CONDENSED SPECTRUM=NO
##NPOINTS= 96
##XYDATA=(XY..XY) 1 
    26          9
    27        192
    28        161
    29        344
    30         44
    31        179
    33         23
    38          7
    39        235
    40         22
    41        843
    42        301
    43        546
    44         26
    45         64
    46         21
    47         14
    51         11
    52          8
    53         77
    54         81
    55        259
    56        345
    57        318
    58         31
    59        924
    60         28
    65          9
    67         48
    68         42
    69        251
    70        230
    71         75
    72         56
    73         16
    76         30
    79         15
    80          8
    81        117
    82        105
    83        135
    84        179
    85         65
    86         32
    87         52
    88         25
    96         28
    97         14
    98        131
    99         56
   100        415
   101         34
   102         16
   104         25
   107         11
   108          7
   112          7
   113         13
   114        140
   115        999
   116        256
   117         18
   122          7
   123          8
   124        170
   125         26
   126         41
   128         11
   129         27
   130        188
   131         16
   132        109
   140         26
   142         33
   143          8
   144        165
   145          9
   156        350
   157         25
   158        376
   159         28
   166          8
   168         77
   174          8
   182          8
   184         95
   185         10
   200        201
   201         19
   202        560
   203         57
   204          7
   210          7
   226          7
   244         14
   258          7