##TITLE=Library Entry 55160
##JCAMP-DX=Revision 4.10 
##DATA TYPE=MASS SPECTRUM
##SAMPLE DESCRIPTION=ASES Database, Dalian Institute, P.R. China
##NAMES=HP
##CAS NAME=2-(1-Methylcyclopentyloxy)-tetrahydropyran
##MOLFORM=C11H20O2
##CAS REGISTRY NO=122685-21-6
##MP= -300
##BP= -300
##MW= 184
##$RETENTION INDEX=0
##$CONDENSED SPECTRUM=NO
##NPOINTS= 13
##XYDATA=(XY..XY) 1 
    29         58
    41        130
    43        128
    55        251
    56         89
    57         99
    67        190
    82        210
    83        598
    84        120
    85        999
    86         60
   184         10