##TITLE=Library Entry 98580
##JCAMP-DX=Revision 4.10 
##DATA TYPE=MASS SPECTRUM
##SAMPLE DESCRIPTION=Chemical Concepts
##NAMES=HP
##CAS NAME=Piperazinium, 1,1,4-trimethyl-2,3-diphenyl-, iodide, trans-(.+-.)
-
##MOLFORM=C19H25IN2
##CAS REGISTRY NO=122688-07-7
##MP= -300
##BP= -300
##MW= 408
##$RETENTION INDEX=0
##$CONDENSED SPECTRUM=NO
##NPOINTS= 42
##XYDATA=(XY..XY) 1 
    27         23
    39         18
    41         26
    42        307
    44         17
    51         36
    65         37
    77         81
    78         52
    89         29
    90         16
    91        231
    92         24
   102         16
   103         27
   104         47
   105         42
   117         47
   118        999
   119        395
   120         36
   127        134
   132        213
   133         48
   134         20
   141         37
   142        458
   145         31
   146        874
   147        365
   148         31
   152         12
   165         30
   175         28
   178         45
   179         38
   180         45
   210         23
   251        109
   252         25
   266        547
   267        107