##TITLE=Library Entry 92982
##JCAMP-DX=Revision 4.10 
##DATA TYPE=MASS SPECTRUM
##SAMPLE DESCRIPTION=S.Bowadt ET AL, Org. Mass Spectr.,24,959(1989)
##NAMES=HP
##CAS NAME=2-Isopropyl-3-methoxycyclopropanecarboxylic acid
##MOLFORM=C8H14O3
##CAS REGISTRY NO=122775-02-4
##MP= -300
##BP= -300
##MW= 158
##$RETENTION INDEX=0
##$CONDENSED SPECTRUM=NO
##NPOINTS= 34
##XYDATA=(XY..XY) 1 
    39         94
    40         16
    41        206
    42         23
    43         77
    45         54
    53         50
    55        108
    56         67
    57         30
    59         20
    61        128
    67         27
    69         47
    70         20
    71         97
    73         40
    79         27
    81        104
    83        847
    84         67
    85         87
    87         50
    97         23
    98         70
   101         33
   103         20
   108          6
   111         30
   113         67
   115        999
   116        331
   117         13
   158         43