##TITLE=Library Entry 71979
##JCAMP-DX=Revision 4.10 
##DATA TYPE=MASS SPECTRUM
##SAMPLE DESCRIPTION=Exported from NIST MS Search
##NAMES=HP
##CAS NAME=2H-Pyran-2-one, tetrahydro-6-tridecyl-
##MOLFORM=C18H34O2
##CAS REGISTRY NO=1227-51-6
##MP= -300
##BP= -300
##MW= 282
##$RETENTION INDEX=0
##$CONDENSED SPECTRUM=NO
##NPOINTS= 186
##XYDATA=(XY..XY) 1 
    15          7
    26          6
    27         59
    28         37
    29        188
    30          6
    31          3
    39         55
    40         16
    41        432
    42        312
    43        531
    44         39
    45          9
    50          3
    51          6
    52          3
    53         24
    54         66
    55        575
    56        194
    57        314
    58         24
    59          8
    60         26
    61          3
    65          6
    66          7
    67        102
    68        119
    69        326
    70        432
    71        387
    72         27
    73         73
    74          4
    75          1
    77          4
    78          6
    79         19
    80         16
    81         77
    82        128
    83        328
    84        160
    85         90
    86         34
    87         33
    88          3
    91         12
    92          3
    93          9
    94         16
    95         84
    96        138
    97        315
    98        138
    99        999
   100         91
   101         44
   102          6
   105          4
   106          3
   107         10
   108         16
   109         42
   110         73
   111        150
   112         74
   113         26
   114        206
   115         54
   116          9
   118          3
   119         16
   120          5
   121         10
   122         11
   123         46
   124         44
   125         70
   126         39
   127         43
   128         25
   129         15
   130          4
   133         18
   134         57
   135         19
   136          9
   137         38
   138         42
   139         25
   140         32
   141         19
   142         18
   143          9
   144          4
   145          1
   147         22
   148         21
   149         13
   150          5
   151         41
   152         31
   153         24
   154         13
   155         14
   156          6
   157          8
   158          2
   161         10
   162          6
   163          5
   164          6
   165         30
   166         25
   167         12
   168         28
   169         23
   170          3
   171          4
   172          2
   173          1
   175          6
   176          2
   177          3
   178          2
   179         16
   180         34
   181         10
   182          9
   183          8
   184          4
   185          3
   186          5
   189          3
   191          5
   192          2
   193         13
   194         13
   195          9
   196          4
   197          8
   198          3
   199          4
   200          6
   203          4
   207         16
   208         11
   209          6
   210         16
   211         28
   212          4
   213          3
   214          3
   215          3
   217          3
   220         94
   221         38
   222         45
   223         11
   224          1
   225          2
   226          3
   227          1
   230          1
   235          9
   236         10
   237          2
   239          7
   240          3
   245          1
   246         22
   247          6
   253          8
   254          5
   263          3
   264        191
   265         36
   266          4
   267          4
   280          2
   281          9
   282         50
   283         11