##TITLE=Library Entry 3552
##JCAMP-DX=Revision 4.10 
##DATA TYPE=MASS SPECTRUM
##SAMPLE DESCRIPTION=Chemical Concepts
##NAMES=HP
##CAS NAME=Cyclopropanecarboxylic acid, 2-methoxy-, methyl ester, trans-
##MOLFORM=C6H10O3
##CAS REGISTRY NO=122775-09-1
##MP= -300
##BP= -300
##MW= 130
##$RETENTION INDEX=0
##$CONDENSED SPECTRUM=NO
##NPOINTS= 64
##XYDATA=(XY..XY) 1 
    25          2
    26         44
    27        352
    28        173
    29        263
    30         14
    31         91
    33         17
    36          0
    37         12
    38         40
    39        237
    40         51
    41        999
    42         99
    43        102
    44         16
    45        131
    46          3
    47         91
    48          2
    51          0
    52          0
    53         35
    54         11
    55        340
    56        110
    57         37
    58         41
    59        118
    60          3
    61          4
    66          1
    67          6
    68         18
    69         70
    70         28
    71        947
    72         51
    73          4
    74          7
    75        725
    76         26
    77          4
    83        398
    84         24
    85         29
    86          2
    87         60
    88          6
    89          0
    97          4
    98        142
    99        369
   100         31
   101         11
   102          0
   115        568
   116         36
   117          6
   129          0
   130        178
   131         12
   132          1