##TITLE=Library Entry 68100
##JCAMP-DX=Revision 4.10 
##DATA TYPE=MASS SPECTRUM
##SAMPLE DESCRIPTION=T.W.Kwon ET AL, Org.Mass Spectrom., 24,193(1989)
##NAMES=HP
##CAS NAME=1,1-(Phenylthio)-2-isopropyl-cyclobutane
##MOLFORM=C19H22S2
##CAS REGISTRY NO=122732-90-5
##MP= -300
##BP= -300
##MW= 314
##$RETENTION INDEX=0
##$CONDENSED SPECTRUM=NO
##NPOINTS= 28
##XYDATA=(XY..XY) 1 
    41        410
    43        120
    45        180
    51        220
    53        160
    55        200
    65        240
    66        130
    67        250
    69        740
    71        160
    77        270
    79        150
    91        360
    95        999
    96         90
   109        230
   110        280
   123        160
   135        460
   147         60
   205        530
   206         80
   237         80
   244        150
   314         60
   315         10
   316         10