##TITLE=Library Entry 109099
##JCAMP-DX=Revision 4.10 
##DATA TYPE=MASS SPECTRUM
##SAMPLE DESCRIPTION=Humboldt-Universitat zu Berlin, Department of Chemistry
, Analytical Group
##NAMES=HP
##CAS NAME=1-Methyl-N-[1-methylthio-2-(4-chlorophenyl)ethenyl]pyrrolidin-2-i
mine
##MOLFORM=C14H17ClN2S
##CAS REGISTRY NO=122715-04-2
##MP= -300
##BP= -300
##MW= 280
##$RETENTION INDEX=0
##$CONDENSED SPECTRUM=NO
##NPOINTS= 215
##XYDATA=(XY..XY) 1 
    12          3
    14          7
    15         98
    16          9
    17         55
    18        221
    26         11
    27         60
    28         99
    29         29
    30         30
    31          7
    32          7
    35          4
    36          9
    37          3
    38         12
    39         83
    40         18
    41        134
    42        144
    43         61
    44         43
    45         44
    46         11
    47         29
    48          3
    49          6
    50         18
    51         24
    52         14
    53         21
    54        124
    55        933
    56         54
    57         30
    58          8
    59          7
    60         11
    61         13
    62         17
    63         39
    64         11
    65          7
    66         12
    67         63
    68         63
    69         30
    70         23
    71         17
    72          7
    73         25
    74         16
    75         36
    76         11
    77         11
    78          6
    79          4
    80         20
    81         33
    82         41
    83        109
    84         23
    85         12
    86          8
    87         15
    88         18
    89         78
    90         14
    91         12
    92          6
    93         10
    94          9
    95         21
    96        115
    97         37
    98         14
    99         25
   100          9
   101         47
   102         46
   103         10
   104          3
   105          4
   106          5
   107         17
   108          9
   109         67
   110          7
   111         12
   112          9
   113          9
   114         37
   115         30
   116         17
   118          5
   119          3
   120          4
   121         66
   122          9
   123         63
   124         30
   125        999
   126         90
   127        335
   128         41
   129        176
   130         29
   131         18
   132         13
   133         40
   134         13
   135          6
   136         15
   137         40
   138         14
   139         18
   140         22
   141         24
   142         25
   143          9
   144          9
   145          4
   146          3
   147          7
   148          7
   149         25
   150         76
   151         19
   152         30
   153          7
   154         14
   155         31
   156         10
   157         12
   158          3
   159          5
   160          8
   161          3
   162          8
   163          4
   164         10
   165          8
   166          5
   167         10
   168         52
   169         18
   170         26
   171         19
   172          4
   173          7
   174          2
   175          3
   176          5
   177          3
   178          4
   179          3
   180          3
   181          7
   182          5
   183          7
   184          3
   185          3
   186          2
   187          2
   188          3
   189          3
   190          5
   191          2
   192          3
   193          3
   194          3
   195          3
   196          4
   197         14
   198         22
   199          6
   201          9
   202          6
   203          3
   204         17
   205         10
   206          8
   207          6
   208          2
   213          2
   217          3
   218          3
   219          4
   220          2
   221          2
   223          7
   225          3
   229          3
   230         12
   231          7
   233        284
   234         43
   235         91
   236         15
   237          2
   239          2
   245          1
   247          3
   249          1
   256          1
   265         24
   266          4
   267         10
   268          1
   280        206
   281         36
   282         76
   283         12
   284          4