##TITLE=Library Entry 85244
##JCAMP-DX=Revision 4.10 
##DATA TYPE=MASS SPECTRUM
##SAMPLE DESCRIPTION=Humboldt-Universitat zu Berlin, Department of Chemistry
, Analytical Group
##NAMES=HP
##CAS NAME=N,N'-Bis-(4-methoxyphenyl)urea
##MOLFORM=C15H16N2O3
##CAS REGISTRY NO=1227-44-7
##MP= -300
##BP= -300
##MW= 272
##$RETENTION INDEX=0
##$CONDENSED SPECTRUM=NO
##NPOINTS= 149
##XYDATA=(XY..XY) 1 
    12          1
    13          0
    14          3
    15         36
    16          2
    17          5
    18         17
    25          0
    26         10
    27         21
    28         26
    29         11
    30          3
    31          2
    32          0
    35          0
    36          0
    37          3
    38         14
    39         41
    40          5
    41         67
    42          6
    43          5
    44          4
    45          2
    46          0
    47          0
    48          0
    49          0
    50         17
    51         51
    52        109
    53         95
    54         15
    55          9
    56          1
    57          2
    58          1
    60          0
    61          2
    62          7
    63         37
    64         43
    65         46
    66          9
    67         13
    68          4
    69          2
    70          1
    71          1
    73          0
    74          2
    75          3
    76          9
    77         32
    78         42
    79         36
    80        124
    81         19
    82          2
    83          1
    84          0
    85          1
    86          0
    87          0
    88          0
    89          1
    90         11
    91         13
    92         35
    93          7
    94         10
    95         84
    96          8
    97          1
    98          0
    99          0
   102          0
   103          0
   104          1
   105          1
   106         50
   107         19
   108        999
   109         72
   110          4
   111          0
   112          0
   113          0
   114          0
   115          1
   116          0
   117          0
   118          1
   119          2
   120          2
   121         10
   122        214
   123        900
   124         76
   125          5
   126          0
   127          1
   128          1
   129          0
   130          0
   133          2
   134         74
   135          9
   136          6
   140          0
   141          0
   142          0
   143          0
   147          0
   149         64
   150          9
   151          1
   154          0
   155          0
   163          2
   164          1
   168          0
   169          0
   170          0
   171          1
   172          0
   182          0
   184          0
   185          0
   197          0
   198          0
   212          0
   213          0
   214          0
   225          0
   227          0
   228          0
   239          0
   240          1
   241          0
   254          0
   255          0
   256          0
   272        349
   273         64
   274          7
   275          0