##TITLE=Library Entry 97043
##JCAMP-DX=Revision 4.10 
##DATA TYPE=MASS SPECTRUM
##SAMPLE DESCRIPTION=R.T.HOLMAN,UNIVERSITY OF MINNESOTA
##NAMES=HP
##CAS NAME=2-Tridecanol, TMS derivative
##MOLFORM=C16H36OSi
##CAS REGISTRY NO=122873-65-8
##MP= -300
##BP= -300
##MW= 272
##$RETENTION INDEX=0
##$CONDENSED SPECTRUM=NO
##NPOINTS= 70
##XYDATA=(XY..XY) 1 
    26          6
    27        140
    28        130
    29        270
    30          6
    31          6
    32         26
    39         77
    40         13
    41        390
    42         97
    43        390
    44         32
    45         90
    46          6
    47         58
    51          6
    53         26
    54         19
    55        190
    56         52
    57        100
    58         32
    59         58
    60         13
    61         90
    62          6
    67         26
    68         13
    69         58
    70         19
    71         19
    72         26
    73        680
    74         71
    75        670
    76         45
    77         26
    79          6
    81         13
    82          6
    83         26
    84          6
    85          6
    87         13
    89         13
    91          6
    95          6
    97         13
    99         13
   101         26
   102         13
   103         26
   111          6
   113          6
   115         13
   116          6
   117        999
   118        100
   119         39
   129         19
   130          6
   133         13
   135         13
   143          6
   149          6
   177         13
   185          6
   257         32
   258          6