##TITLE=Library Entry 16157
##JCAMP-DX=Revision 4.10 
##DATA TYPE=MASS SPECTRUM
##SAMPLE DESCRIPTION=Chemical Concepts
##NAMES=HP
##CAS NAME=Propanediamide, N,N''-1,6-hexanediylbis[N'-heptyl-N'-methyl-
##MOLFORM=C28H54N4O4
##CAS REGISTRY NO=122861-02-3
##MP= -300
##BP= -300
##MW= 510
##$RETENTION INDEX=0
##$CONDENSED SPECTRUM=NO
##NPOINTS= 100
##XYDATA=(XY..XY) 1 
    27         58
    29        106
    30        137
    39         37
    40        201
    41        119
    42        300
    44        999
    46         52
    55        205
    56         80
    57        606
    60        160
    70         52
    71         76
    72         25
    73         66
    74         74
    75         18
    81         21
    83         47
    84         48
    86        114
    87         83
    96         25
    98        144
    99         34
   100         96
   101         26
   112         43
   113         27
   114         62
   115         18
   117         28
   126         59
   127         21
   128        851
   129        110
   130        169
   140         34
   141         20
   142         33
   143         59
   144         41
   154         34
   156        351
   157         72
   158         47
   168         32
   171         35
   172         38
   185        116
   186         57
   197         45
   198        160
   199         83
   200         44
   211         60
   212         34
   227         53
   228        132
   229         26
   241        112
   242         46
   253         44
   255        100
   256         34
   257         19
   269         95
   270         54
   271         42
   283        490
   284        133
   285         23
   295         52
   297         88
   298         30
   312         22
   314         48
   326          9
   340        113
   341         29
   342         12
   355        102
   356         36
   382        139
   383         37
   425         23
   426         51
   439         61
   440         18
   453         32
   454         15
   467         29
   468          9
   481         32
   495          9
   510        277
   511         87
   512         16