##TITLE=Library Entry 203
##JCAMP-DX=Revision 4.10 
##DATA TYPE=MASS SPECTRUM
##SAMPLE DESCRIPTION=Chemical Concepts
##NAMES=HP
##CAS NAME=Iron, tetracarbonyl[(2,3-.eta.)-methyl-2-propenoate]-
##MOLFORM=C8H6FeO6
##CAS REGISTRY NO=12287-67-1
##MP= -300
##BP= -300
##MW= 254
##$RETENTION INDEX=0
##$CONDENSED SPECTRUM=NO
##NPOINTS= 105
##XYDATA=(XY..XY) 1 
    27        269
    28        999
    29         39
    30         13
    31         41
    32         11
    33          0
    38          0
    39          6
    40          1
    41          6
    42         47
    43         16
    44         14
    45          5
    50          0
    51          0
    53          7
    54          7
    55        476
    56         69
    57         42
    58         41
    59         23
    60          1
    61          0
    62          0
    67          0
    68          9
    69          2
    70          0
    71          4
    72          0
    73          7
    77          0
    78          1
    79          0
    80          5
    81          6
    82         87
    83         52
    84        147
    85         59
    86         44
    87         29
    88         16
    89          0
    91          0
    92          0
    93          0
    94          0
    96          1
    97          1
    98          0
    99          3
   100          0
   101          0
   105          0
   107          0
   109          0
   110          2
   111          7
   112         33
   113          3
   114        110
   115          7
   116          1
   118          0
   119          0
   125          0
   127          9
   128          0
   137          0
   138          0
   139          6
   140         15
   141          2
   142        120
   143          8
   144          1
   146          0
   165          0
   166          0
   167          5
   168         10
   169          1
   170        112
   171          9
   172          1
   173          0
   195          3
   196          3
   197          0
   198         51
   199          4
   200          0
   221          0
   223          9
   224          2
   225          0
   226         26
   227          2
   228          0
   254          2
   255          0