##TITLE=Library Entry 97130
##JCAMP-DX=Revision 4.10 
##DATA TYPE=MASS SPECTRUM
##SAMPLE DESCRIPTION=V.G.Zaikin, TIPS, Russian Acad. Sci.
##NAMES=HP
##CAS NAME=2-Pentadecanol, TMS derivative
##MOLFORM=C18H40OSi
##CAS REGISTRY NO=122825-95-0
##MP= -300
##BP= -300
##MW= 300
##$RETENTION INDEX=0
##$CONDENSED SPECTRUM=NO
##NPOINTS= 29
##XYDATA=(XY..XY) 1 
    55         90
    57         60
    59         40
    61         40
    69         40
    71         50
    73        260
    74         40
    75        360
    76         40
    77         40
    82         40
    83         60
    84         60
    85         20
    89         50
    91         20
    97         40
   101         50
   103         60
   109         40
   117        999
   118        110
   119         40
   131         60
   285         90
   286         22
   287          6
   288          1