##TITLE=Library Entry 96713
##JCAMP-DX=Revision 4.10 
##DATA TYPE=MASS SPECTRUM
##SAMPLE DESCRIPTION=Chemical Concepts
##NAMES=HP
##CAS NAME=3-Oxazolidinecarboxylic acid, 4-[(3-chlorobenzoyl)oxy]-2-(1,1-dim
ethylethyl)-5-hydroxy-, methyl ester, [2R-(2.alpha.,4.alpha.,5.beta.)]-
##MOLFORM=C16H20ClNO6
##CAS REGISTRY NO=122877-13-8
##MP= -300
##BP= -300
##MW= 357
##$RETENTION INDEX=0
##$CONDENSED SPECTRUM=NO
##NPOINTS= 50
##XYDATA=(XY..XY) 1 
    27         28
    28         71
    29         85
    33         16
    39         34
    41        145
    42         92
    43         35
    44         73
    45         43
    50         42
    51         26
    57        210
    58         44
    59        115
    65         12
    69         50
    71         32
    73         39
    74         27
    75         91
    76         53
    77         32
    84         25
    85         21
    86         28
    87         19
    88         21
   104         40
   111        200
   113         69
   116        999
   117         78
   128         21
   139        869
   140         71
   141        282
   142         21
   144         99
   156        219
   157         50
   158         74
   172         16
   186          8
   202         13
   242         11
   300        302
   301         43
   302        105
   303         13