##TITLE=Library Entry 2958
##JCAMP-DX=Revision 4.10 
##DATA TYPE=MASS SPECTRUM
##SAMPLE DESCRIPTION=Chemical Concepts
##NAMES=HP
##CAS NAME=1,3-Dithiolo[4,5-b][1,4]dithiin, 2-(5,6-dihydro-5,6-dimethyl-1,3-
dithiolo[4,5-b][1,4]dithiin-2-ylidene)-5,6-dihydro-5,6-dimethyl-
##MOLFORM=C14H16S8
##CAS REGISTRY NO=122920-57-4
##MP= -300
##BP= -300
##MW= 440
##$RETENTION INDEX=0
##$CONDENSED SPECTRUM=NO
##NPOINTS= 193
##XYDATA=(XY..XY) 1 
    25          8
    26         68
    27        241
    28         70
    29        221
    30          8
    31          5
    33         16
    34         43
    35          2
    36          9
    37         22
    38         42
    39        382
    40         61
    41        999
    42         44
    43         61
    44         45
    45         57
    46         12
    47          7
    48          4
    49         21
    50         82
    51         83
    52         26
    53        107
    54         44
    55        348
    56        620
    57         88
    58         25
    59         25
    60         23
    61         12
    62         10
    63         22
    64        145
    65         41
    66         14
    67         14
    68          9
    69         33
    70         15
    71         33
    72         10
    73         24
    74          6
    75          3
    76        142
    77         10
    78         14
    79          4
    80          6
    81         13
    82          9
    83         25
    84         13
    85         20
    86          4
    87          8
    88        315
    89         19
    90         39
    95          9
    96         10
    97         20
    98          9
    99          8
   100         31
   101          8
   102         10
   103          3
   104          3
   105          3
   107          2
   108         17
   109          5
   110          8
   111         41
   112         13
   113          5
   114          2
   115          4
   116          5
   117          2
   119          2
   120         26
   121          5
   122          9
   123          4
   124          2
   125          5
   126          2
   127          3
   128         15
   129         17
   130          3
   131          2
   132         82
   133          8
   134         13
   135          2
   137          2
   139          3
   140          3
   141          6
   142          3
   143          9
   144         35
   145          5
   146          5
   148          2
   149         14
   150          4
   152          3
   153          2
   155          3
   160         21
   161          2
   162          5
   164          7
   165          2
   166          3
   167          2
   176         25
   177          4
   178         17
   179          2
   180          3
   184         18
   185          2
   186          4
   190          2
   192         56
   193          6
   194         13
   196          9
   198          2
   204          2
   208         69
   209          8
   210         18
   211          2
   212          2
   220        110
   221         15
   222         20
   223          2
   224         12
   226          3
   234          4
   240         43
   241          5
   242         10
   252         36
   253          4
   254         10
   256          8
   258          2
   264         46
   265          6
   266         13
   272          1
   276          1
   284          1
   296         14
   297          3
   298          6
   304          4
   308         14
   309          2
   310          3
   320          3
   322          1
   328         28
   329          4
   330         10
   331          1
   332          1
   353          2
   354          2
   384         86
   385         15
   386         31
   387          5
   388          5
   440         55
   441         12
   442         22
   443          4
   444          3