##TITLE=Library Entry 23459
##JCAMP-DX=Revision 4.10 
##DATA TYPE=MASS SPECTRUM
##SAMPLE DESCRIPTION=CONTINENTAL OIL CO., PONCA CITY, OKLA, USA
##NAMES=HP
##CAS NAME=Heptane, 3-(chloromethyl)-
##MOLFORM=C8H17Cl
##CAS REGISTRY NO=123-04-6
##MP= -300
##BP= -300
##MW= 148
##$RETENTION INDEX=0
##$CONDENSED SPECTRUM=NO
##NPOINTS= 85
##XYDATA=(XY..XY) 1 
    15         34
    16          1
    17          0
    25          0
    26         23
    27        285
    28         58
    29        292
    30          7
    33          6
    35          2
    36         11
    37          4
    38         12
    39        154
    40         24
    41        388
    42         74
    43        300
    44         10
    45          0
    46          0
    47          0
    48          0
    49         21
    50          7
    51         22
    52          6
    53         44
    54         20
    55        282
    56         89
    57        999
    58         44
    59          1
    61          2
    62          5
    63         16
    64          2
    65          9
    66          2
    67         13
    68          5
    69         41
    70         52
    71         15
    72          0
    74          0
    75          7
    76          1
    77         12
    78          1
    79          4
    80          0
    81          2
    82          3
    83         46
    84          7
    85          1
    89          1
    90          2
    91          7
    92          1
    93          2
    95          0
    97          2
    98         46
    99        163
   100         12
   101          0
   104          0
   105          2
   107          0
   111          0
   112          6
   113          0
   118          0
   119         20
   120          1
   121          6
   122          0
   131          0
   147          0
   148          0
   150          0