##TITLE=Library Entry 7531
##JCAMP-DX=Revision 4.10 
##DATA TYPE=MASS SPECTRUM
##SAMPLE DESCRIPTION=Exported from NIST MS Search
##NAMES=HP
##CAS NAME=Pentanoic acid, 4-oxo-
##MOLFORM=C5H8O3
##CAS REGISTRY NO=123-76-2
##MP= -300
##BP= -300
##MW= 116
##$RETENTION INDEX=1063
##$CONDENSED SPECTRUM=NO
##NPOINTS= 42
##XYDATA=(XY..XY) 1 
    14          9
    15         50
    17          5
    18         23
    26         17
    27         66
    28         49
    29         68
    30          4
    31          9
    32          2
    37          2
    38          3
    39         12
    40          1
    41         10
    42         44
    43        999
    44         25
    45         83
    46          2
    50          3
    51          2
    53          7
    54          2
    55         79
    56        333
    57         21
    60          2
    61         17
    69          2
    70          3
    71         20
    72          4
    73         69
    74         18
    98          8
    99         24
   101         36
   102          2
   116         32
   117          2