##TITLE=Library Entry 32965
##JCAMP-DX=Revision 4.10 
##DATA TYPE=MASS SPECTRUM
##SAMPLE DESCRIPTION=NIST Mass Spectrometry Data Center, 1998.
##NAMES=HP
##CAS NAME=Oxacycloheptadec-8-en-2-one, (8Z)-
##MOLFORM=C16H28O2
##CAS REGISTRY NO=123-69-3
##MP= -300
##BP= -300
##MW= 252
##$RETENTION INDEX=1925
##$CONDENSED SPECTRUM=NO
##NPOINTS= 175
##XYDATA=(XY..XY) 1 
    15          2
    26          4
    27         77
    29        143
    30          4
    31         12
    37          1
    38          3
    39        193
    40         41
    41        788
    42        159
    43        161
    44         11
    45         21
    46          1
    47          1
    48          1
    50          3
    51         16
    52         14
    53        170
    54        461
    55        878
    56        105
    57         71
    58          9
    59         11
    60         26
    61          4
    62          1
    63          3
    64          1
    65         61
    66         81
    67        999
    68        492
    69        309
    70         48
    71         46
    72          3
    73         42
    74          4
    75          4
    76          1
    77         57
    78         19
    79        222
    80        161
    81        922
    82        948
    83        248
    84         71
    85         33
    86          5
    87         17
    88          2
    89          4
    90          2
    91         46
    92         13
    93        119
    94        143
    95        549
    96        688
    97        179
    98         76
    99         19
   100          9
   101         19
   102          2
   103          2
   104          6
   105         18
   106         11
   107         74
   108         95
   109        346
   110        171
   111         63
   112         24
   113         17
   114         11
   115          9
   116          2
   117          6
   118          4
   119         18
   120         15
   121         81
   122         89
   123        131
   124         67
   125         20
   126         28
   127         20
   128          4
   129          5
   130          1
   131         11
   132          4
   133         15
   134         14
   135         70
   136         71
   137         57
   138         28
   139         17
   140         23
   141          7
   142          1
   143          2
   145          6
   146          3
   147         11
   148          6
   149         35
   150         33
   151         20
   152         16
   153         20
   154         11
   155          3
   156          1
   157          1
   159          6
   160          2
   161          4
   162          1
   163         13
   164         12
   165         11
   166          5
   167         11
   168         10
   169          2
   170          1
   171          2
   173          7
   174          2
   175          2
   177          7
   178          6
   179          3
   180          1
   181          5
   182          6
   183          1
   184          1
   185          1
   187          6
   188          1
   190          1
   191          4
   192          5
   193          2
   195         11
   196         12
   197          2
   205          2
   206          3
   207          1
   208          1
   209          6
   210          5
   211          1
   216          1
   223          3
   224         10
   225          2
   234         21
   235          4
   252         55
   253         10
   254          1