##TITLE=Library Entry 28043
##JCAMP-DX=Revision 4.10 
##DATA TYPE=MASS SPECTRUM
##SAMPLE DESCRIPTION=NIST Mass Spectrometry Data Center, 1992
##NAMES=HP
##CAS NAME=N,N',N''-Trimethyldiitrimethylenetriamine
##MOLFORM=C9H23N3
##CAS REGISTRY NO=123-70-6
##MP= -300
##BP= -300
##MW= 173
##$RETENTION INDEX=0
##$CONDENSED SPECTRUM=NO
##NPOINTS= 91
##XYDATA=(XY..XY) 1 
    12          0
    14          3
    15         54
    16          1
    17          7
    18         62
    19          0
    25          1
    26          6
    27         38
    28        116
    29         31
    30        101
    31         21
    32          3
    36          0
    37          1
    38          4
    39         27
    40         11
    41         89
    42        342
    43        134
    44        699
    45         28
    46          5
    50          1
    51          0
    52          2
    53          1
    54         14
    55         15
    56        103
    57        130
    58        999
    59         41
    60          1
    65          0
    66          2
    67          5
    68         39
    69         21
    70        191
    71        250
    72        315
    73         18
    74          2
    77          0
    79          0
    80          1
    81          3
    82         24
    83         13
    84         79
    85        141
    86         25
    87          2
    89          0
    94          1
    96         19
    97          9
    98         50
    99         46
   100          6
   101         15
   102         15
   103        117
   104          7
   108          0
   110          3
   111          9
   113        171
   114         15
   115         37
   116         16
   117          1
   125          1
   126          0
   127          3
   128          2
   129          8
   130          3
   139          4
   140          3
   141          6
   142          1
   144          1
   158          1
   170          2
   173         37
   174          4