##TITLE=Library Entry 8053
##JCAMP-DX=Revision 4.10 
##DATA TYPE=MASS SPECTRUM
##SAMPLE DESCRIPTION=NIST Mass Spectrometry Data Center, 1990.
##NAMES=HP
##CAS NAME=Pentanal, 2-methyl-
##MOLFORM=C6H12O
##CAS REGISTRY NO=123-15-9
##MP= -300
##BP= -300
##MW= 100
##$RETENTION INDEX=760
##$CONDENSED SPECTRUM=NO
##NPOINTS= 25
##XYDATA=(XY..XY) 1 
    14         19
    15         30
    26         44
    27        328
    28         95
    29        352
    30         24
    31         20
    32          4
    38         31
    39        279
    40         55
    41        434
    42         95
    43        999
    44         40
    53         38
    55        123
    56         22
    57        180
    58        796
    59         27
    70         14
    71        118
   100         21