##TITLE=Library Entry 65210
##JCAMP-DX=Revision 4.10 
##DATA TYPE=MASS SPECTRUM
##SAMPLE DESCRIPTION=Japan AIST/NIMC Database- Spectrum MS-NW-5278
##NAMES=HP
##CAS NAME=Benzene, tridecyl-
##MOLFORM=C19H32
##CAS REGISTRY NO=123-02-4
##MP= -300
##BP= -300
##MW= 260
##$RETENTION INDEX=1981
##$CONDENSED SPECTRUM=NO
##NPOINTS= 93
##XYDATA=(XY..XY) 1 
    26          1
    27         24
    28          2
    29         59
    30          1
    39         19
    40          3
    41        102
    42         16
    43        161
    44          5
    50          1
    51          7
    52          3
    53          7
    54          5
    55         56
    56         18
    57        120
    58          5
    63          3
    64          1
    65         27
    66          3
    67          7
    68          3
    69         22
    70         10
    71         52
    72          3
    77         16
    78         32
    79         18
    80          8
    81          3
    82          4
    83         11
    84          6
    85         24
    86          1
    89          4
    90          3
    91        601
    92        999
    93         78
    94         10
    95          3
    96          2
    97          6
    98          3
    99          3
   102          1
   103          9
   104         36
   105         87
   106         27
   107          4
   108          1
   110          1
   111          3
   112          2
   113          2
   115          5
   116          2
   117         13
   118          6
   119         25
   120         12
   121          2
   125          1
   127          1
   128          1
   129          1
   131          2
   132          3
   133         68
   134         20
   135          3
   147         11
   148          4
   161          4
   162          1
   173          1
   175          2
   189          1
   194          1
   203          1
   206          2
   217          2
   232          1
   260        164
   261         37
   262          4