##TITLE=Library Entry 24982
##JCAMP-DX=Revision 4.10 
##DATA TYPE=MASS SPECTRUM
##SAMPLE DESCRIPTION=NIST Mass Spectrometry Data Center, 1990.
##NAMES=HP
##CAS NAME=4-Nonanone, 2,6,8-trimethyl-
##MOLFORM=C12H24O
##CAS REGISTRY NO=123-18-2
##MP= -300
##BP= -300
##MW= 184
##$RETENTION INDEX=0
##$CONDENSED SPECTRUM=NO
##NPOINTS= 40
##XYDATA=(XY..XY) 1 
    27         87
    28          7
    29        120
    39        130
    40         43
    41        487
    42        121
    43        400
    44         15
    51          5
    53         29
    55        121
    56        107
    57        999
    58        597
    59         59
    65          9
    67         42
    69        145
    70         12
    71         55
    72         51
    79          6
    81         10
    83        295
    84        185
    85        591
    86         40
    95         11
   100        148
   101        154
   102         10
   109        306
   110         28
   113         10
   127        294
   128         27
   141         14
   169          7
   184         24