##TITLE=Library Entry 22457
##JCAMP-DX=Revision 4.10 
##DATA TYPE=MASS SPECTRUM
##SAMPLE DESCRIPTION=R.T.HOLMAN,UNIVERSITY OF MINNESOTA
##NAMES=HP
##CAS NAME=Octadecanoic acid, butyl ester
##MOLFORM=C22H44O2
##CAS REGISTRY NO=123-95-5
##MP= -300
##BP= -300
##MW= 340
##$RETENTION INDEX=2388
##$CONDENSED SPECTRUM=NO
##NPOINTS= 235
##XYDATA=(XY..XY) 1 
    26          8
    27         43
    28        146
    29        162
    30          6
    31          8
    32         13
    36          2
    37          2
    38          3
    39         27
    40          9
    41        284
    42         57
    43        398
    44         54
    45         19
    46          2
    50          3
    51          3
    52          3
    53         12
    54         25
    55        260
    56        999
    57        544
    58         33
    59         16
    60        252
    61        191
    62          7
    63          3
    64          2
    65          4
    66          4
    67         36
    68         26
    69        162
    70         47
    71        178
    72         14
    73        284
    74         28
    75          5
    76          2
    77          4
    78          3
    79         10
    80          6
    81         36
    82         26
    83        121
    84         59
    85        100
    86         13
    87         53
    88         10
    89          9
    90          2
    91          5
    92          3
    93          8
    94          5
    95         36
    96         21
    97         95
    98         63
    99         29
   100          6
   101         78
   102         13
   103          7
   104          2
   105          3
   106          2
   107          7
   108          5
   109         20
   110         11
   111         48
   112         28
   113         17
   114          6
   115         45
   116        186
   117        126
   118         10
   119          4
   120          3
   121         11
   122          4
   123         13
   124          7
   125         27
   126          8
   127         11
   128          4
   129        243
   130         22
   131          5
   133          4
   134          2
   135         12
   136          3
   137          8
   138          5
   139         17
   140          5
   141          8
   142          3
   143         25
   144          5
   145          3
   147          3
   148          2
   149          8
   150          3
   151          4
   152          5
   153         12
   154          5
   155          6
   156          3
   157         14
   158          8
   159          4
   160          3
   163          6
   164          3
   165          4
   166          4
   167          8
   168          4
   169          5
   170          3
   171         32
   172         13
   173          4
   176          2
   177          4
   178          2
   179          4
   180          5
   181          7
   182          4
   183          3
   184          1
   185         83
   186         13
   187          4
   188          1
   189          1
   190          1
   191          3
   193          3
   194          3
   195          4
   196          4
   197          3
   199         20
   200          6
   201          3
   205          4
   207          4
   208          3
   209          4
   210          4
   211          2
   212          2
   213          9
   214          4
   215          3
   217          3
   218          3
   219          5
   220          4
   221          2
   222          8
   223          4
   224          4
   225          4
   226          2
   227         17
   228          6
   229          3
   236          4
   237          5
   238          5
   239          4
   240          3
   241         72
   242         12
   243          4
   246          2
   247          4
   248          4
   249          3
   250          2
   251          2
   252          1
   253          2
   255         17
   256          4
   257          2
   264          8
   265         13
   266          7
   267        235
   268         46
   269          7
   270          3
   271          1
   279          2
   281          2
   282          3
   283         11
   284        126
   285        439
   286         83
   287         11
   288          3
   297         19
   298          7
   299          2
   310          2
   311          6
   312          3
   325          3
   326          2
   327          2
   339          7
   340        260
   341         61
   342          9
   343          2