##TITLE=Library Entry 29556
##JCAMP-DX=Revision 4.10 
##DATA TYPE=MASS SPECTRUM
##SAMPLE DESCRIPTION=J.A.GILPIN DOW CHEM. CO., MIDLAND, MICHIGAN, USA
##NAMES=HP
##CAS NAME=Formamide, N-methyl-
##MOLFORM=C2H5NO
##CAS REGISTRY NO=123-39-7
##MP= -300
##BP= -300
##MW= 59
##$RETENTION INDEX=758
##$CONDENSED SPECTRUM=NO
##NPOINTS= 17
##XYDATA=(XY..XY) 1 
    15         70
    27         30
    28        340
    29        130
    30        540
    31         20
    41         30
    42         10
    43         10
    44         10
    45          1
    55          3
    56          4
    57          4
    58         80
    59        999
    60         30