##TITLE=Library Entry 76345
##JCAMP-DX=Revision 4.10 
##DATA TYPE=MASS SPECTRUM
##SAMPLE DESCRIPTION=Japan AIST/NIMC Database- Spectrum MS-IW-1311
##NAMES=HP
##CAS NAME=Thiomorpholine
##MOLFORM=C4H9NS
##CAS REGISTRY NO=123-90-0
##MP= -300
##BP= -300
##MW= 103
##$RETENTION INDEX=973
##$CONDENSED SPECTRUM=NO
##NPOINTS= 64
##XYDATA=(XY..XY) 1 
    14          3
    15         16
    25          1
    26         13
    27         58
    28        210
    29        255
    30        208
    31          4
    32          4
    33          2
    34          3
    35          9
    37          1
    38          2
    39          8
    40         10
    41         44
    42        331
    43         38
    44         89
    45         79
    46        172
    47         40
    48         15
    49          3
    51          3
    52          3
    53          1
    54         17
    55         19
    56        468
    57        852
    58         42
    59         43
    60         12
    61         87
    62          3
    63          6
    67          2
    68          7
    69          2
    70          6
    71          4
    72          2
    73          8
    74         62
    75         49
    76          7
    77          2
    84          2
    85          2
    86          5
    88        276
    89         12
    90         12
    99          1
   100          2
   101          8
   102         28
   103        999
   104         63
   105         46
   106          2