##TITLE=Library Entry 44938
##JCAMP-DX=Revision 4.10 
##DATA TYPE=MASS SPECTRUM
##SAMPLE DESCRIPTION=Exported from NIST MS Search
##NAMES=HP
##CAS NAME=Propane, 1-ethoxy-1,3,3-trimethoxy-
##MOLFORM=C8H18O4
##CAS REGISTRY NO=123-59-1
##MP= -300
##BP= -300
##MW= 178
##$RETENTION INDEX=0
##$CONDENSED SPECTRUM=NO
##NPOINTS= 109
##XYDATA=(XY..XY) 1 
    14         23
    15        212
    16          6
    17          3
    18          5
    19          3
    24          1
    25          2
    26         17
    27         84
    28         52
    29        188
    30         15
    31        158
    32         17
    33         63
    34          1
    35          1
    36          1
    37          1
    38          2
    39         12
    40          3
    41         23
    42         19
    43         72
    44         12
    45         53
    46          4
    47        130
    48          3
    49          1
    50          1
    51          2
    52          1
    53          3
    54          5
    55          9
    56          4
    57         20
    58         26
    59         54
    60          3
    61        190
    62          5
    63          1
    64          1
    65          1
    66          1
    67          1
    68          3
    69          6
    70          1
    71         34
    72          7
    73          3
    74          4
    75        999
    76         43
    77          6
    78          1
    79          1
    80          1
    81          4
    82          1
    83          2
    84          2
    85         15
    86          2
    87         12
    88          1
    89        158
    90          9
    91          1
    92          1
    94          1
    95          1
    96          1
    97          1
    99          1
   100          1
   101         32
   102          5
   103         10
   104          1
   105          1
   106          1
   108          2
   109          1
   111          2
   113          1
   115          7
   117         35
   118          1
   121          1
   125          1
   126          1
   129          1
   131          6
   132          6
   133          4
   134          1
   135          1
   139          1
   145          1
   146          2
   147          1
   153          2
   161          1