##TITLE=Library Entry 9783
##JCAMP-DX=Revision 4.10 
##DATA TYPE=MASS SPECTRUM
##SAMPLE DESCRIPTION=Exported from NIST MS Search
##NAMES=HP
##CAS NAME=Acetylacetone
##MOLFORM=C5H8O2
##CAS REGISTRY NO=123-54-6
##MP= -300
##BP= -300
##MW= 100
##$RETENTION INDEX=783
##$CONDENSED SPECTRUM=NO
##NPOINTS= 64
##XYDATA=(XY..XY) 1 
     2          2
    12          3
    13         10
    14         48
    15        188
    16          3
    17          1
    18          2
    19          1
    24          1
    25          6
    26         33
    27         91
    28         17
    29         79
    30          4
    31         43
    32          1
    33          1
    36          2
    37         12
    38         19
    39         54
    40          9
    41         60
    42         72
    43        999
    44         23
    45          8
    48          1
    49          2
    50          4
    51          3
    52          1
    53          9
    54          1
    55         15
    56          1
    57          7
    58         35
    59          1
    60          1
    61          1
    62          1
    63          1
    64          1
    65          1
    66          1
    67          3
    68          1
    69          8
    70          1
    71          1
    72         33
    81          1
    82          1
    83          1
    84          4
    85        272
    86         12
    87          1
   100        182
   101         11
   102          1