##TITLE=Library Entry 2192
##JCAMP-DX=Revision 4.10 
##DATA TYPE=MASS SPECTRUM
##SAMPLE DESCRIPTION=FOOD RESEARCH REPORT 122, K.E. MURRAY & COLLEAGUES, DIV
 OF FOOD RESEARCH, CSIRO, AUSTRALIA
##NAMES=HP
##CAS NAME=2-Butenal, (E)-
##MOLFORM=C4H6O
##CAS REGISTRY NO=123-73-9
##MP= -300
##BP= -300
##MW= 70
##$RETENTION INDEX=647
##$CONDENSED SPECTRUM=NO
##NPOINTS= 30
##XYDATA=(XY..XY) 1 
    25         50
    26        180
    27        490
    29        390
    30         20
    31         20
    33         10
    36         40
    37        180
    38        290
    39        970
    40        270
    41        999
    42        300
    43         40
    48         10
    49         40
    50         50
    51         40
    52         20
    53         30
    54         10
    55         50
    66         10
    67         10
    68         50
    69        650
    70        820
    71         80
    72         10