##TITLE=Library Entry 19562
##JCAMP-DX=Revision 4.10 
##DATA TYPE=MASS SPECTRUM
##SAMPLE DESCRIPTION=Exported from NIST MS Search
##NAMES=HP
##CAS NAME=1-Butanol, 3-methyl-
##MOLFORM=C5H12O
##CAS REGISTRY NO=123-51-3
##MP= -300
##BP= -300
##MW= 88
##$RETENTION INDEX=736
##$CONDENSED SPECTRUM=NO
##NPOINTS= 64
##XYDATA=(XY..XY) 1 
    12          6
    13         12
    14         44
    15        201
    16         12
    17         15
    18         43
    19         44
    20          1
    24          1
    25          5
    26         66
    27        594
    28        190
    29        594
    30         23
    31        612
    32          9
    33          4
    34          1
    35          1
    36          2
    37         25
    38         53
    39        436
    40         68
    41        805
    42        896
    43        823
    44         67
    45        199
    46         78
    47         15
    48          1
    49          6
    50         22
    51         25
    52          7
    53         28
    54         17
    55        999
    56        128
    57        307
    58         16
    59          7
    60         10
    61          3
    62          1
    63          2
    65          1
    66          1
    67          5
    68          2
    69         53
    70        705
    71         49
    72          3
    73          7
    77          1
    79          1
    85          1
    86          1
    87          7
    88          1