##TITLE=Library Entry 3793
##JCAMP-DX=Revision 4.10 
##DATA TYPE=MASS SPECTRUM
##SAMPLE DESCRIPTION=Exported from NIST MS Search
##NAMES=HP
##CAS NAME=.beta.-Myrcene
##MOLFORM=C10H16
##CAS REGISTRY NO=123-35-3
##MP= -300
##BP= -300
##MW= 136
##$RETENTION INDEX=991
##$CONDENSED SPECTRUM=NO
##NPOINTS= 81
##XYDATA=(XY..XY) 1 
    12          1
    13          1
    14          4
    15         28
    26         19
    27        280
    28         36
    29         82
    30          2
    32          1
    37          5
    38         20
    39        299
    40         55
    41        999
    42         46
    43         49
    44          2
    49          1
    50         22
    51         58
    52         31
    53        141
    54         17
    55         68
    56          6
    57          3
    58          2
    59          1
    61          1
    62          6
    63         15
    64          4
    65         42
    66         19
    67        110
    68         57
    69        796
    70         45
    71          1
    74          2
    75          2
    76          1
    77        110
    78         19
    79        138
    80         62
    81         26
    82         18
    83          3
    88          1
    89          2
    90          1
    91         95
    92         66
    93        855
    94         93
    95         18
    96          8
    97         12
    98          1
   103          4
   104          2
   105         18
   106          5
   107         34
   108          8
   109          2
   115          2
   117          2
   119          5
   120          2
   121         55
   122          6
   123          1
   134          1
   135          1
   136         41
   137          5
   138          1
   140          1