##TITLE=Library Entry 28222
##JCAMP-DX=Revision 4.10 
##DATA TYPE=MASS SPECTRUM
##SAMPLE DESCRIPTION=Japan AIST/NIMC Database- Spectrum MS-IW-4035
##NAMES=HP
##CAS NAME=1,2-Ethanediamine, N'-ethyl-N,N-dimethyl-
##MOLFORM=C6H16N2
##CAS REGISTRY NO=123-83-1
##MP= -300
##BP= -300
##MW= 116
##$RETENTION INDEX=0
##$CONDENSED SPECTRUM=NO
##NPOINTS= 34
##XYDATA=(XY..XY) 1 
    15          9
    27         10
    28         22
    29         20
    30        114
    31          1
    39          1
    41          8
    42         58
    43         21
    44         42
    45          5
    46          1
    50          3
    54          3
    55          2
    56         31
    57         25
    58        999
    59        301
    60         10
    68          1
    69          2
    70          6
    71          9
    72         29
    73          4
    83          1
    85          2
    86          2
    99          1
   113          2
   116         36
   117          3