##TITLE=Library Entry 84114
##JCAMP-DX=Revision 4.10 
##DATA TYPE=MASS SPECTRUM
##SAMPLE DESCRIPTION=NIST Mass Spectrometry Data Center
##NAMES=HP
##CAS NAME=Phenol, 4-ethyl-
##MOLFORM=C8H10O
##CAS REGISTRY NO=123-07-9
##MP= -300
##BP= -300
##MW= 122
##$RETENTION INDEX=1169
##$CONDENSED SPECTRUM=NO
##NPOINTS= 63
##XYDATA=(XY..XY) 1 
    15          1
    26          2
    27         11
    29          3
    37          2
    38          8
    39         45
    40          5
    41          8
    42          1
    43          3
    45          2
    46          2
    49          1
    50         19
    51         43
    52         19
    53         34
    54          2
    55         15
    59          4
    60          7
    61          8
    62         15
    63         33
    64          8
    65         43
    66         14
    67          4
    68          1
    73          1
    74          7
    75          5
    76          3
    77        174
    78         38
    79         27
    80          2
    81          6
    86          1
    87          1
    89          8
    90          2
    91         55
    92          6
    93         11
    94         16
    95          3
   101          1
   102          3
   103         23
   104          2
   105          8
   107        999
   108         88
   109          5
   118          1
   119          6
   120          9
   121         31
   122        374
   123         33
   124          2