##TITLE=Library Entry 7741
##JCAMP-DX=Revision 4.10 
##DATA TYPE=MASS SPECTRUM
##SAMPLE DESCRIPTION=Japan AIST/NIMC Database- Spectrum MS-NW-5893
##NAMES=HP
##CAS NAME=Propanoic acid, 3,3'-thiobis-, didodecyl ester
##MOLFORM=C30H58O4S
##CAS REGISTRY NO=123-28-4
##MP= -300
##BP= -300
##MW= 514
##$RETENTION INDEX=0
##$CONDENSED SPECTRUM=NO
##NPOINTS= 258
##XYDATA=(XY..XY) 1 
    15          4
    18          1
    25          2
    26         17
    27        215
    28        100
    29        307
    30          7
    31         16
    32          4
    33          4
    34          9
    35          9
    37          1
    38          2
    39         76
    40         17
    41        581
    42        152
    43        999
    44         33
    45         16
    46         11
    47         14
    48          1
    49          1
    50          1
    51          3
    52          2
    53         30
    54         64
    55        686
    56        298
    57        825
    58         36
    59         16
    60         49
    61         84
    62          5
    63          7
    65          5
    66          8
    67         81
    68        114
    69        441
    70        246
    71        358
    72         21
    73        238
    74         50
    75         27
    76          2
    77          7
    78          1
    79          9
    80          5
    81         55
    82        136
    83        318
    84        161
    85        188
    86         11
    87         33
    88         83
    89        193
    90         11
    91         10
    92          1
    93          4
    94          4
    95         37
    96         71
    97        226
    98         99
    99         45
   100          9
   101          9
   102          9
   103          8
   104         10
   105        106
   106        141
   107         79
   108          9
   109         25
   110         42
   111        121
   112         55
   113         50
   114         59
   115         35
   116         15
   117         15
   118          2
   119         55
   120          6
   121          6
   122          4
   123         14
   124         22
   125         49
   126         29
   127         51
   128         15
   129          9
   130          7
   131          3
   132        173
   133         54
   134         34
   135         13
   136          4
   137          9
   138         13
   139         19
   140         50
   141         11
   142         78
   143        275
   144         28
   145         15
   146          3
   147          3
   148          1
   149          1
   150          2
   151          4
   152          4
   153          3
   154          4
   155          5
   156          3
   157          7
   158          3
   159         30
   160         43
   161        208
   162         19
   163         10
   164          2
   165          6
   166         41
   167         10
   168         74
   169         26
   170          4
   171          4
   172          2
   173          2
   174          1
   175          3
   176          1
   177          8
   178        343
   179         84
   180         24
   181          5
   182          1
   183          3
   184          1
   185          4
   186          1
   187          1
   189          2
   193          2
   194          7
   195          4
   196          2
   197          2
   198          2
   199          4
   200          4
   201         36
   202          8
   203          4
   204          2
   210          1
   211          5
   212          2
   213         19
   214          3
   215          4
   216          2
   217          3
   218          1
   221          1
   222          9
   223         20
   224          3
   225          1
   226          3
   227          3
   228          2
   229          4
   230          2
   231          2
   232          1
   233          1
   234          1
   237          1
   238          1
   239          2
   240          6
   241         38
   242          7
   243          3
   244          1
   245          4
   246          1
   255          3
   256          6
   257          4
   258          2
   268          1
   269          2
   271          6
   272          2
   273         37
   274         31
   275          9
   276          2
   285          1
   287          2
   288          1
   299          1
   300         25
   301          9
   302          3
   303          1
   310          1
   312          2
   313          1
   318          3
   319          1
   327         13
   328         29
   329         97
   330         21
   331          8
   332          1
   345          2
   346        152
   347         51
   348         14
   349          3
   357          1
   374          1
   401          1
   441          8
   442          4
   443          1
   486          2
   496          3
   497          1
   514         88
   515         30
   516          9
   517          2