##TITLE=Library Entry 2479
##JCAMP-DX=Revision 4.10 
##DATA TYPE=MASS SPECTRUM
##SAMPLE DESCRIPTION=Japan AIST/NIMC Database- Spectrum MS-NW-1228
##NAMES=HP
##CAS NAME=3-Allyloxy-1,2 propanediol
##MOLFORM=C6H12O3
##CAS REGISTRY NO=123-34-2
##MP= -300
##BP= -300
##MW= 132
##$RETENTION INDEX=0
##$CONDENSED SPECTRUM=NO
##NPOINTS= 67
##XYDATA=(XY..XY) 1 
    14          6
    15         98
    16          1
    17          3
    18         11
    19          5
    25          1
    26         13
    27         78
    28         39
    29         91
    30         15
    31        224
    32          9
    33          3
    37          4
    38          9
    39        168
    40         26
    41        999
    42        118
    43        346
    44        118
    45         87
    46          2
    47          3
    53          2
    54          3
    55         57
    56         47
    57        222
    58        237
    59         34
    60         24
    61        337
    62          8
    63          1
    66          2
    67          2
    68          4
    69         16
    70          9
    71        191
    72         23
    73         26
    74         67
    75         66
    76          2
    77          1
    81          2
    83         58
    84         33
    85          3
    86          3
    87          3
    89          3
    91          2
    95          1
    96          1
    97          1
   100          2
   101         55
   102          3
   103          2
   113          1
   117          2
   131          1