##TITLE=Library Entry 73718
##JCAMP-DX=Revision 4.10 
##DATA TYPE=MASS SPECTRUM
##SAMPLE DESCRIPTION=J.VOTH UNIV. OF CALIFORNIA, DAVIS, CALIFORNIA, 95616, U
SA
##NAMES=HP
##CAS NAME=Butanedioic acid, diethyl ester
##MOLFORM=C8H14O4
##CAS REGISTRY NO=123-25-1
##MP= -300
##BP= -300
##MW= 174
##$RETENTION INDEX=1182
##$CONDENSED SPECTRUM=NO
##NPOINTS= 56
##XYDATA=(XY..XY) 1 
    12          3
    13          6
    14         33
    15         93
    16          5
    17          5
    18         17
    19         14
    25          5
    26         95
    27        461
    28        342
    29        833
    30         40
    31         57
    32          2
    39          4
    41          9
    42         43
    43         72
    44         11
    45        146
    46          5
    47          6
    49          3
    53          8
    54          7
    55        280
    56        157
    57         56
    58          4
    59          7
    60          9
    61          2
    68          2
    71          3
    72          8
    73        160
    74        122
    75         22
    82          2
    83          4
    84          7
    85          2
    99          9
   100         50
   101        999
   102        131
   103         12
   128        121
   129        632
   130         43
   131          5
   146          1
   147         19
   174          8