##TITLE=Library Entry 87195
##JCAMP-DX=Revision 4.10 
##DATA TYPE=MASS SPECTRUM
##SAMPLE DESCRIPTION=Japan AIST/NIMC Database- Spectrum MS-NW-1852
##NAMES=HP
##CAS NAME=Hydroquinone
##MOLFORM=C6H6O2
##CAS REGISTRY NO=123-31-9
##MP= -300
##BP= -300
##MW= 110
##$RETENTION INDEX=1241
##$CONDENSED SPECTRUM=NO
##NPOINTS= 64
##XYDATA=(XY..XY) 1 
    14          3
    15          2
    17          3
    18         10
    24          2
    25         12
    26         79
    27        138
    28         20
    29         47
    30          2
    31          9
    32          4
    36          4
    37         20
    38         31
    39        159
    40         10
    41          8
    42         22
    43         15
    44          1
    45          1
    46          3
    48          2
    49         13
    50         39
    51         53
    52         44
    53        172
    54        124
    55        181
    56         15
    57          5
    60          4
    61         19
    62         30
    63         52
    64         41
    65         15
    66          6
    67          3
    68          4
    69         17
    70          2
    71          6
    73          2
    74          5
    77          4
    79          5
    80          9
    81        314
    82        147
    83          8
    84          5
    90          1
    92          5
    93          2
    95          6
   108         15
   109         58
   110        999
   111         69
   112          7