##TITLE=Library Entry 7523
##JCAMP-DX=Revision 4.10 
##DATA TYPE=MASS SPECTRUM
##SAMPLE DESCRIPTION=NIST Mass Spectrometry Data Center
##NAMES=HP
##CAS NAME=Acetic acid, butyl ester
##MOLFORM=C6H12O2
##CAS REGISTRY NO=123-86-4
##MP= -300
##BP= -300
##MW= 116
##$RETENTION INDEX=812
##$CONDENSED SPECTRUM=NO
##NPOINTS= 48
##XYDATA=(XY..XY) 1 
    14         12
    15         75
    16          1
    18          2
    19          1
    25          1
    26         19
    27        125
    28         60
    29        129
    30          7
    31         20
    37          3
    38          8
    39         84
    40         16
    41        189
    42         61
    43        999
    44         32
    45         12
    50          3
    51          4
    52          1
    53          7
    54          4
    55         72
    56        371
    57         42
    58         17
    59          1
    60          4
    61        146
    62          3
    63          1
    70          1
    71         20
    72          5
    73        181
    74          7
    75          1
    83          1
    86          9
    87         17
    88          2
    98          1
   101          3
   115          1