##TITLE=Library Entry 89488
##JCAMP-DX=Revision 4.10 
##DATA TYPE=MASS SPECTRUM
##SAMPLE DESCRIPTION=Japan AIST/NIMC Database- Spectrum MS-NW- 247
##NAMES=HP
##CAS NAME=Maleic hydrazide
##MOLFORM=C4H4N2O2
##CAS REGISTRY NO=123-33-1
##MP= -300
##BP= -300
##MW= 112
##$RETENTION INDEX=0
##$CONDENSED SPECTRUM=NO
##NPOINTS= 69
##XYDATA=(XY..XY) 1 
    12          3
    13          3
    14          4
    15          2
    16          3
    24          8
    25         32
    26        139
    27        118
    28         26
    29        112
    30         32
    31          9
    32          2
    36          4
    37         14
    38         35
    39         11
    40         14
    41         53
    42         16
    43         17
    44         11
    45          5
    50          4
    51         19
    52         16
    53         67
    54        203
    55        319
    56         44
    57          8
    58         27
    59          3
    60          2
    61          1
    64          1
    65          2
    66          4
    67          3
    68          9
    69          6
    70          3
    71          5
    73          4
    74          1
    75          1
    76          1
    77          3
    78          7
    79          1
    80          2
    81          2
    82        693
    83         38
    84         76
    85          3
    86          1
    92          1
    93          1
    94          1
    95          2
    96          3
    97          3
   109          1
   111          1
   112        999
   113         60
   114          5