##TITLE=Library Entry 70879
##JCAMP-DX=Revision 4.10 
##DATA TYPE=MASS SPECTRUM
##SAMPLE DESCRIPTION=Japan AIST/NIMC Database- Spectrum MS-NW-6838
##NAMES=HP
##CAS NAME=Octadecanoic acid, 2,3-dihydroxypropyl ester
##MOLFORM=C21H42O4
##CAS REGISTRY NO=123-94-4
##MP= -300
##BP= -300
##MW= 358
##$RETENTION INDEX=0
##$CONDENSED SPECTRUM=NO
##NPOINTS= 264
##XYDATA=(XY..XY) 1 
    13          1
    14          4
    15         36
    16          1
    17          9
    18         33
    19          3
    25          3
    26         17
    27        141
    28         69
    29        384
    30         16
    31         87
    32          5
    33          1
    37          1
    38          2
    39         69
    40         16
    41        612
    42        144
    43        992
    44        111
    45        108
    46          9
    47          5
    50          1
    51          3
    52          2
    53         32
    54         62
    55        633
    56        192
    57        816
    58         56
    59         35
    60        178
    61        150
    62          5
    63          2
    65          6
    66          7
    67        117
    68         77
    69        402
    70        108
    71        381
    72         28
    73        257
    74        673
    75        213
    76         11
    77          8
    78          4
    79         27
    80         21
    81        120
    82         82
    83        287
    84        542
    85        227
    86         24
    87        144
    88         17
    89          7
    90          1
    91          9
    92          3
    93         57
    94         22
    95        125
    96         66
    97        225
    98        999
    99        111
   100         20
   101         45
   102         12
   103          8
   104          1
   105          4
   106          2
   107         17
   108         13
   109         73
   110         33
   111        138
   112        325
   113         57
   114         13
   115         43
   116        142
   117         26
   118          4
   119          4
   120          1
   121         35
   122         12
   123         38
   124         20
   125         64
   126         69
   127         29
   128          9
   129        153
   130         19
   131          4
   132          1
   133          2
   134        541
   135         58
   136         12
   137         20
   138         15
   139         30
   140         52
   141         18
   142          8
   143         43
   144          7
   145          2
   147         93
   148          9
   149         14
   150          5
   151          9
   152         11
   153         21
   154        148
   155         26
   156          6
   157         17
   158          5
   159          1
   161          2
   163          7
   164          4
   165          5
   166          9
   167         17
   168         65
   169         12
   170          6
   171         27
   172          7
   173          2
   175          2
   176         57
   177          9
   178          3
   179          3
   180          6
   181         14
   182         48
   183         13
   184          3
   185         55
   186          8
   187          2
   189          2
   190         20
   191          5
   192          3
   193          3
   194          6
   195         13
   196         34
   197          7
   198          2
   199         20
   200          4
   201          2
   203          3
   204          5
   205          2
   206          2
   207          2
   208          2
   209          9
   210         68
   211         22
   212          3
   213         16
   214          4
   215          2
   218          1
   219          2
   220          4
   221          2
   222          7
   223         10
   224         26
   225          7
   226          1
   227         15
   228          6
   229          5
   230          1
   233          1
   235          1
   236          3
   237          9
   238         39
   239        128
   240         22
   241         30
   242          8
   243          2
   246          1
   247          2
   248          7
   249          4
   250          2
   251          2
   252          3
   253          5
   254          2
   255         13
   256         46
   257         42
   258          7
   259          1
   264          7
   265          9
   266        108
   267        265
   268         50
   269          9
   270         23
   271          9
   272          1
   281          1
   282          3
   283          4
   284        104
   285         83
   286         13
   287          2
   294          3
   295          5
   296          1
   297          6
   298         40
   299         33
   300          7
   301          1
   311          2
   312          6
   313          6
   314          1
   325          1
   326          1
   327         51
   328         10
   329          2
   330          1
   331          2
   339          1
   340          7
   341          5
   342          1
   358          5
   359          3