##TITLE=Library Entry 72963
##JCAMP-DX=Revision 4.10 
##DATA TYPE=MASS SPECTRUM
##SAMPLE DESCRIPTION=Japan AIST/NIMC Database- Spectrum MS-NW-1362
##NAMES=HP
##CAS NAME=4-Morpholinepropanamine
##MOLFORM=C7H16N2O
##CAS REGISTRY NO=123-00-2
##MP= -300
##BP= -300
##MW= 144
##$RETENTION INDEX=0
##$CONDENSED SPECTRUM=NO
##NPOINTS= 67
##XYDATA=(XY..XY) 1 
    14          2
    15         43
    16          1
    17          4
    18         15
    26          9
    27         52
    28        161
    29         65
    30        315
    31         16
    32          4
    39         14
    40          5
    41         72
    42        146
    43        217
    44        115
    45         18
    52          3
    53          2
    54         28
    55         44
    56        385
    57        240
    58         66
    59         22
    60          1
    67          2
    68         20
    69         26
    70        120
    71         75
    72         27
    73          6
    74          1
    81          2
    82         17
    83         33
    84         33
    85         34
    86         83
    87         16
    88         85
    89          4
    94          1
    95          1
    96         13
    97         19
    98         24
    99          9
   100        999
   101        161
   102          9
   109          2
   110          2
   111          7
   112         58
   113        233
   114         80
   115          7
   125          2
   126         67
   127         96
   128          8
   129          6
   144          6