##TITLE=Library Entry 15139
##JCAMP-DX=Revision 4.10 
##DATA TYPE=MASS SPECTRUM
##SAMPLE DESCRIPTION=Chemical Concepts
##NAMES=HP
##CAS NAME=1-(2-Aminoethylamino)-2-propanol
##MOLFORM=C5H14N2O
##CAS REGISTRY NO=123-84-2
##MP= -300
##BP= -300
##MW= 118
##$RETENTION INDEX=0
##$CONDENSED SPECTRUM=NO
##NPOINTS= 45
##XYDATA=(XY..XY) 1 
    27        229
    28        470
    29        202
    30        949
    31        156
    32          9
    36          2
    37          3
    38          9
    39         61
    41        563
    42        778
    43        311
    44        999
    45         83
    46          1
    51          1
    52          1
    53          1
    54         12
    55         21
    56         92
    57         31
    58        125
    59         28
    60          5
    67          2
    68         14
    70        471
    71         32
    73        296
    74         75
    75          2
    82          3
    83          2
    84          5
    85         27
    86         16
    88        561
    89         27
    90          1
    99          6
   100         45
   101          2
   119          2