##TITLE=Library Entry 16794
##JCAMP-DX=Revision 4.10 
##DATA TYPE=MASS SPECTRUM
##SAMPLE DESCRIPTION=Exported from NIST MS Search
##NAMES=HP
##CAS NAME=Paraldehyde
##MOLFORM=C6H12O3
##CAS REGISTRY NO=123-63-7
##MP= -300
##BP= -300
##MW= 132
##$RETENTION INDEX=755
##$CONDENSED SPECTRUM=NO
##NPOINTS= 56
##XYDATA=(XY..XY) 1 
     2          2
    12          5
    13         12
    14         49
    15        179
    16         11
    17          1
    19         18
    21          1
    23          1
    24          1
    25          4
    26         22
    27         63
    28         19
    29        174
    30          3
    31          8
    33          1
    34          1
    35          6
    36          1
    37          1
    38          1
    39          1
    40          1
    41          6
    42         32
    43        532
    44         64
    45        999
    46         23
    47          3
    57          1
    58          1
    59          1
    60          1
    61          1
    69          1
    70          1
    71          1
    72          1
    73          3
    74          1
    86          1
    87         72
    88          4
    89        114
    90          5
    91          1
   117         55
   118          3
   119          1
   131         23
   132          2
   133          1