##TITLE=Library Entry 8649
##JCAMP-DX=Revision 4.10 
##DATA TYPE=MASS SPECTRUM
##SAMPLE DESCRIPTION=NIST Mass Spectrometry Data Center, 1990.
##NAMES=HP
##CAS NAME=Pyrrolidine
##MOLFORM=C4H9N
##CAS REGISTRY NO=123-75-1
##MP= -300
##BP= -300
##MW= 71
##$RETENTION INDEX=680
##$CONDENSED SPECTRUM=NO
##NPOINTS= 34
##XYDATA=(XY..XY) 1 
    13          3
    14         17
    15         57
    16          2
    18          1
    25          4
    26         34
    27        113
    28        210
    29         31
    30         72
    31          2
    32          1
    33          8
    36          2
    37         17
    38         37
    39        130
    40         51
    41        180
    42        245
    43        999
    44         36
    50          3
    51          4
    52          6
    53          5
    54          8
    56         10
    67          7
    68         44
    70        291
    71        199
    72         10