##TITLE=Library Entry 35488
##JCAMP-DX=Revision 4.10 
##DATA TYPE=MASS SPECTRUM
##SAMPLE DESCRIPTION=Exported from NIST MS Search
##NAMES=HP
##CAS NAME=6-Tridecanol, 3,9-diethyl-
##MOLFORM=C17H36O
##CAS REGISTRY NO=123-24-0
##MP= -300
##BP= -300
##MW= 256
##$RETENTION INDEX=0
##$CONDENSED SPECTRUM=NO
##NPOINTS= 117
##XYDATA=(XY..XY) 1 
    14          1
    15          2
    17          3
    18         11
    19          1
    26          1
    27         50
    28         38
    29        146
    30          6
    31         17
    32          6
    39         31
    40          6
    41        284
    42         42
    43        422
    44         30
    45         28
    51          3
    53         21
    54         20
    55        539
    56         77
    57        533
    58         65
    59         26
    60          2
    65          7
    66          3
    67         54
    68         20
    69        999
    70        276
    71        214
    72         18
    73         13
    77         10
    78          1
    79          9
    80          3
    81         66
    82         21
    83        751
    84        214
    85        102
    86         10
    87         24
    88          5
    91          3
    93          4
    94          6
    95         47
    96         28
    97        355
    98        105
    99         35
   100          7
   101         16
   102          1
   105          1
   107          2
   108          1
   109         40
   110         28
   111        405
   112        150
   113         48
   114          7
   115          5
   121          2
   123         16
   124          8
   125         34
   126         43
   127         26
   128         18
   129        200
   130         17
   131          2
   135          2
   137         13
   138          9
   139         38
   140          8
   141          6
   142          2
   143          3
   145          2
   151          8
   152         13
   153         11
   154          7
   155         10
   156          7
   157        211
   158         24
   159          2
   167          2
   168          1
   169          0
   170          1
   171          0
   175          0
   177          0
   195          6
   196          1
   207          7
   208          3
   209         13
   210          7
   211          3
   225          3
   236          1
   237          1
   238         24
   239          6