##TITLE=Library Entry 26136
##JCAMP-DX=Revision 4.10 
##DATA TYPE=MASS SPECTRUM
##SAMPLE DESCRIPTION=NIST Mass Spectrometry Data Center, 1990.
##NAMES=HP
##CAS NAME=3-Heptene, 2,2,4,6,6-pentamethyl-
##MOLFORM=C12H24
##CAS REGISTRY NO=123-48-8
##MP= -300
##BP= -300
##MW= 168
##$RETENTION INDEX=0
##$CONDENSED SPECTRUM=NO
##NPOINTS= 45
##XYDATA=(XY..XY) 1 
    15          9
    27         70
    28         50
    29        159
    32          8
    39        140
    41        483
    42         27
    43         64
    44          6
    51         18
    52         10
    53         70
    54          6
    55        280
    56          6
    57        999
    58         46
    65         22
    66         10
    67         70
    68         10
    69        294
    70         28
    71          6
    77         33
    78          7
    79         46
    80          7
    81         69
    82          6
    83        185
    84         15
    91         20
    93         12
    95         23
    97        944
    98         72
   109         13
   111         28
   112        224
   113         20
   153         14
   168        148
   169         20