##TITLE=Library Entry 16936
##JCAMP-DX=Revision 4.10 
##DATA TYPE=MASS SPECTRUM
##SAMPLE DESCRIPTION=K. Kirk, LBC, NIDDK, NIH, Bethesda, MD 20892
##NAMES=HP
##CAS NAME=Acetamide, 2-(2-hydroxyethoxy)-
##MOLFORM=C4H9NO3
##CAS REGISTRY NO=123-85-3
##MP= -300
##BP= -300
##MW= 119
##$RETENTION INDEX=0
##$CONDENSED SPECTRUM=NO
##NPOINTS= 81
##XYDATA=(XY..XY) 1 
    42        345
    43        399
    44        465
    45        999
    46         41
    47         58
    48          3
    49          1
    50          1
    51          3
    52          2
    53          1
    54          1
    55          6
    56          3
    57         17
    58        239
    59        363
    60        245
    61         29
    62          3
    63          1
    64          0
    65          2
    66          1
    67          2
    68          2
    69          4
    70          3
    71          8
    72          8
    73        314
    74         28
    75        310
    76        169
    77         14
    78         20
    79          2
    80          1
    81          1
    82          1
    83          2
    84         10
    85          2
    86          1
    87          1
    88         41
    89         65
    90          9
    91          1
    92          0
    93          0
    94          0
    95          1
    96          1
    97          2
    98          3
    99          0
   100          1
   101         47
   102         39
   103          5
   104          1
   105          2
   106          1
   107          3
   108          0
   109          1
   110          0
   111          0
   112          0
   113          1
   114          0
   115          1
   116          1
   117          0
   118          6
   119        170
   120         15
   121          7
   122          2