##TITLE=Library Entry 23056
##JCAMP-DX=Revision 4.10 
##DATA TYPE=MASS SPECTRUM
##SAMPLE DESCRIPTION=J.Little, Eastman Chem. Comp., Kingsport
##NAMES=HP
##CAS NAME=1,2-Ethanediol, dipropanoate
##MOLFORM=C8H14O4
##CAS REGISTRY NO=123-80-8
##MP= -300
##BP= -300
##MW= 174
##$RETENTION INDEX=1075
##$CONDENSED SPECTRUM=NO
##NPOINTS= 39
##XYDATA=(XY..XY) 1 
    14          2
    15         13
    17          1
    19          1
    20          1
    26         22
    27        121
    28         60
    29        393
    30          9
    31         17
    39          2
    41          2
    42         12
    43         16
    44          8
    45         10
    53          1
    54          1
    55         19
    56         35
    57        999
    58         45
    59          4
    73          2
    74          2
    75          7
    87         32
    88          5
    89          9
    99          5
   100         49
   101         27
   102          1
   114         33
   115         28
   116          1
   131          7
   144          4