##TITLE=Library Entry 57998
##JCAMP-DX=Revision 4.10 
##DATA TYPE=MASS SPECTRUM
##SAMPLE DESCRIPTION=Japan AIST/NIMC Database- Spectrum MS-NW- 513
##NAMES=HP
##CAS NAME=Nonanoic acid, ethyl ester
##MOLFORM=C11H22O2
##CAS REGISTRY NO=123-29-5
##MP= -300
##BP= -300
##MW= 186
##$RETENTION INDEX=1296
##$CONDENSED SPECTRUM=NO
##NPOINTS= 89
##XYDATA=(XY..XY) 1 
    15          4
    17          4
    18         21
    26          7
    27         79
    28         26
    29        197
    30          5
    31          6
    32          2
    39         48
    40          9
    41        202
    42         52
    43        185
    44         31
    45         78
    46          3
    47          2
    51          2
    52          2
    53         13
    54         11
    55        144
    56         40
    57        160
    58          8
    59         11
    60        210
    61        169
    62          5
    65          2
    66          1
    67         19
    68         18
    69         77
    70        139
    71         97
    72          7
    73        186
    74         26
    75          6
    77          2
    79          4
    81         19
    82          4
    83         30
    84         42
    85          6
    86          2
    87         30
    88        999
    89         79
    90          7
    91          2
    93          2
    94          3
    95          6
    96          8
    97         27
    98         14
    99          3
   101        355
   102         34
   103          3
   111          9
   112         10
   113          2
   115         63
   116          6
   121          3
   122          2
   123          8
   125          3
   127          1
   129         23
   130          5
   139          8
   140          2
   141        184
   142         18
   143         63
   144          8
   155          2
   157         58
   158          8
   159          9
   186         28
   187          5