##TITLE=Library Entry 16978
##JCAMP-DX=Revision 4.10 
##DATA TYPE=MASS SPECTRUM
##SAMPLE DESCRIPTION=Japan AIST/NIMC Database- Spectrum MS-NW-5553
##NAMES=HP
##CAS NAME=2-Octanol
##MOLFORM=C8H18O
##CAS REGISTRY NO=123-96-6
##MP= -300
##BP= -300
##MW= 130
##$RETENTION INDEX=998
##$CONDENSED SPECTRUM=NO
##NPOINTS= 60
##XYDATA=(XY..XY) 1 
    15          7
    17          1
    18          6
    19          8
    26          3
    27         64
    28         14
    29         69
    30          2
    31         15
    38          2
    39         41
    40          7
    41        131
    42         54
    43        131
    44         63
    45        999
    46         22
    47          3
    50          1
    51          2
    52          1
    53          9
    54          6
    55        210
    56         72
    57         61
    58         24
    59          8
    60          2
    65          1
    67          7
    68          8
    69         56
    70         60
    71         17
    72          1
    73          1
    77          1
    79          1
    81          3
    82          7
    83         27
    84         43
    85          8
    86          3
    95          1
    96          1
    97         56
    98          6
   107          1
   108          1
   111          1
   112         21
   113          3
   115         20
   116          2
   128          1
   129          3