##TITLE=Library Entry 19443
##JCAMP-DX=Revision 4.10 
##DATA TYPE=MASS SPECTRUM
##SAMPLE DESCRIPTION=Japan AIST/NIMC Database- Spectrum MS-NW-9895
##NAMES=HP
##CAS NAME=Azelaoyl chloride
##MOLFORM=C9H14Cl2O2
##CAS REGISTRY NO=123-98-8
##MP= -300
##BP= -300
##MW= 224
##$RETENTION INDEX=0
##$CONDENSED SPECTRUM=NO
##NPOINTS= 125
##XYDATA=(XY..XY) 1 
    14          2
    15          5
    18          2
    26         10
    27        154
    28         57
    29        106
    30          2
    31          1
    34          1
    35         17
    36        179
    37          6
    38         58
    39        125
    40         27
    41        370
    42        125
    43        110
    44         15
    45          3
    46          3
    47          5
    48          6
    49          7
    50          6
    51         11
    52          4
    53         46
    54         68
    55        999
    56         78
    57         36
    58          3
    59          2
    60          1
    61          3
    62          2
    63         47
    64          2
    65         17
    66          9
    67        166
    68        104
    69        174
    70         41
    71          6
    73          2
    74          2
    75          7
    76          4
    77         25
    78         69
    79         61
    80        111
    81        113
    82         78
    83        260
    84        289
    85         19
    86          1
    87          2
    88          2
    89          5
    90          4
    91         25
    92         10
    93         46
    94          5
    95         39
    96         58
    97        132
    98        182
    99         11
   101          1
   102          8
   103          4
   104          5
   105          9
   106          6
   107         47
   108          9
   109         48
   110         22
   111         87
   112          8
   113          1
   114          1
   115          1
   116          6
   117          9
   118          5
   119          4
   120          2
   121          2
   123          9
   124        135
   125         94
   126          9
   127          6
   128          1
   131          1
   132          9
   133          2
   134          6
   135         26
   136          2
   137          4
   144          6
   145          6
   146          2
   147          3
   151          1
   152         15
   153        135
   154         12
   155          8
   156          1
   160          5
   161          1
   162          2
   189         80
   190          9
   191         26
   192          3