##TITLE=Library Entry 71835
##JCAMP-DX=Revision 4.10 
##DATA TYPE=MASS SPECTRUM
##SAMPLE DESCRIPTION=Japan AIST/NIMC Database- Spectrum MS-NW- 159
##NAMES=HP
##CAS NAME=Hexanoic acid, 2-propenyl ester
##MOLFORM=C9H16O2
##CAS REGISTRY NO=123-68-2
##MP= -300
##BP= -300
##MW= 156
##$RETENTION INDEX=1076
##$CONDENSED SPECTRUM=NO
##NPOINTS= 79
##XYDATA=(XY..XY) 1 
    14          2
    15         21
    17          3
    18         11
    26         22
    27        236
    28         74
    29        241
    30          7
    31         15
    32          9
    37          6
    38         18
    39        312
    40         52
    41        875
    42        105
    43        976
    44         31
    45         22
    50          3
    51          7
    52          2
    53         20
    54         74
    55        235
    56         75
    57        102
    58         69
    59         10
    60         21
    61          7
    63          1
    65          4
    67         14
    68          9
    69        233
    70         27
    71        610
    72         34
    73         62
    74          3
    75          3
    77          6
    79          3
    80          5
    81         19
    82         34
    83          9
    84          1
    85         15
    87          7
    89          8
    91          5
    92          1
    94          2
    95          9
    96          7
    97         67
    98         12
    99        999
   100        298
   101         22
   102          5
   104          2
   109          1
   110          1
   111          2
   113        105
   114         10
   115          7
   116          2
   117         22
   118          2
   127         33
   128          4
   129          2
   141          2
   156          3