##TITLE=Library Entry 8780
##JCAMP-DX=Revision 4.10 
##DATA TYPE=MASS SPECTRUM
##SAMPLE DESCRIPTION=Japan AIST/NIMC Database- Spectrum MS-NW-4187
##NAMES=HP
##CAS NAME=4-Heptanone
##MOLFORM=C7H14O
##CAS REGISTRY NO=123-19-3
##MP= -300
##BP= -300
##MW= 114
##$RETENTION INDEX=871
##$CONDENSED SPECTRUM=NO
##NPOINTS= 43
##XYDATA=(XY..XY) 1 
    14          2
    15         14
    17          1
    18          6
    26          9
    27        158
    28         10
    29         28
    31          4
    32          2
    37          2
    38          6
    39         62
    40          9
    41        174
    42         25
    43        999
    44         34
    45          2
    50          1
    51          1
    53          4
    54          1
    55         21
    56          2
    57         13
    58         66
    59          3
    65          1
    67          3
    69          3
    70         11
    71        846
    72         37
    73          2
    81          2
    85          1
    86         13
    87          1
    99         19
   100          1
   114        143
   115         11