##TITLE=Library Entry 65209
##JCAMP-DX=Revision 4.10 
##DATA TYPE=MASS SPECTRUM
##SAMPLE DESCRIPTION=NIST Mass Spectrometry Data Center, 1998.
##NAMES=HP
##CAS NAME=Benzene, dodecyl-
##MOLFORM=C18H30
##CAS REGISTRY NO=123-01-3
##MP= -300
##BP= -300
##MW= 246
##$RETENTION INDEX=1878
##$CONDENSED SPECTRUM=NO
##NPOINTS= 111
##XYDATA=(XY..XY) 1 
    26          1
    27         19
    29         42
    30          1
    38          1
    39         27
    40          4
    41        122
    42         19
    43        132
    44          4
    50          2
    51         12
    52          4
    53         10
    54          6
    55         65
    56         20
    57        100
    58          4
    62          1
    63          6
    64          2
    65         57
    66          5
    67          9
    68          4
    69         22
    70         11
    71         35
    72          2
    74          1
    75          1
    76          2
    77         33
    78         46
    79         34
    80          8
    81          4
    82          4
    83          9
    84          4
    85         19
    86          1
    89         10
    91        804
    92        999
    93         93
    94         11
    95          3
    96          2
    97          6
    98          2
    99          2
   102          3
   103         23
   104         74
   105        113
   106         26
   107          4
   108          1
   109          1
   110          1
   111          3
   112          1
   113          1
   115         14
   116          4
   117         28
   118         10
   119         35
   120         11
   121          2
   122          1
   123          1
   124          1
   125          1
   126          1
   127          1
   128          2
   129          2
   130          1
   131          4
   132          4
   133        102
   134         31
   135          4
   136          1
   145          1
   146          1
   147         16
   148          7
   149          1
   150          1
   152          1
   161          6
   162          2
   175          3
   176          1
   179          1
   180          1
   189          2
   192          3
   203          3
   204          1
   205          1
   217          1
   218          1
   246        197
   247         40
   248          4