##TITLE=Library Entry 56029
##JCAMP-DX=Revision 4.10 
##DATA TYPE=MASS SPECTRUM
##SAMPLE DESCRIPTION=RADIAN CORP
##NAMES=HP
##CAS NAME=1,2-Ethanediamine, N,N-diethyl-N',N'-dimethyl-
##MOLFORM=C8H20N2
##CAS REGISTRY NO=123-10-4
##MP= -300
##BP= -300
##MW= 144
##$RETENTION INDEX=0
##$CONDENSED SPECTRUM=NO
##NPOINTS= 35
##XYDATA=(XY..XY) 1 
    15          6
    18          4
    27         16
    28         31
    29         36
    30        121
    31          2
    40          2
    41         11
    42         88
    43         23
    44         30
    45          2
    54          6
    55          5
    56         49
    57         19
    58        537
    59         20
    68          1
    70         17
    71         20
    72         41
    73          2
    83          1
    84          6
    85          4
    86        999
    87         59
    88          1
    99          2
   100          4
   113          3
   127          2
   144         15