##TITLE=Library Entry 57581
##JCAMP-DX=Revision 4.10 
##DATA TYPE=MASS SPECTRUM
##SAMPLE DESCRIPTION=Exported from NIST MS Search
##NAMES=HP
##CAS NAME=Hexanoic acid, ethyl ester
##MOLFORM=C8H16O2
##CAS REGISTRY NO=123-66-0
##MP= -300
##BP= -300
##MW= 144
##$RETENTION INDEX=1000
##$CONDENSED SPECTRUM=NO
##NPOINTS= 98
##XYDATA=(XY..XY) 1 
     2          5
    12          2
    13          5
    14         24
    15        120
    16          5
    17          1
    18          1
    19          8
    24          1
    25          3
    26         78
    27        687
    28        187
    29        984
    30         35
    31         38
    32          2
    33          1
    34          1
    37          6
    38          2
    39        232
    40         46
    41        430
    42        350
    43        859
    44         41
    45        230
    46          6
    47          6
    48          3
    49          1
    50          5
    51         14
    52          5
    53         30
    54         13
    55        234
    56         57
    57         52
    58          5
    59         16
    60        450
    61        247
    62          9
    63          3
    65          3
    66          3
    67          9
    68          9
    69         85
    70        222
    71        268
    72         18
    73        274
    74         48
    75         10
    76          1
    77          1
    78          2
    79          1
    80          4
    81          6
    82          2
    83         15
    84          2
    85          5
    86          3
    87         73
    88        999
    89         58
    90          6
    91          1
    92          1
    95          1
    96          1
    97         19
    98         14
    99        539
   100         39
   101        262
   102         35
   103          3
   104          1
   105          1
   113          1
   114          3
   115         84
   116          9
   117         48
   118          3
   119          1
   127          3
   129          4
   143          2
   144         15
   145          3