##TITLE=Library Entry 71756
##JCAMP-DX=Revision 4.10 
##DATA TYPE=MASS SPECTRUM
##SAMPLE DESCRIPTION=Japan AIST/NIMC Database- Spectrum MS-NW- 421
##NAMES=HP
##CAS NAME=Succinimide
##MOLFORM=C4H5NO2
##CAS REGISTRY NO=123-56-8
##MP= -300
##BP= -300
##MW= 99
##$RETENTION INDEX=2438
##$CONDENSED SPECTRUM=NO
##NPOINTS= 42
##XYDATA=(XY..XY) 1 
    13          2
    14          8
    15          4
    16          2
    17          1
    18          3
    24          1
    25          9
    26         83
    27        106
    28        827
    29         18
    30          1
    32          1
    35          2
    36          1
    37          2
    38          4
    39          4
    40          7
    41          8
    42         44
    43         25
    44         23
    50          1
    51          6
    52          9
    53         13
    54          9
    55         52
    56        587
    57         19
    58          2
    69          3
    70         41
    71          2
    81          1
    83          1
    97          1
    99        999
   100         50
   101          5