##TITLE=Library Entry 27248
##JCAMP-DX=Revision 4.10 
##DATA TYPE=MASS SPECTRUM
##SAMPLE DESCRIPTION=Chemical Concepts
##NAMES=HP
##CAS NAME=2-t-Butyl-5-isobutyl-3-methyl-4-oxoimidazolidine-1-carboxylic aci
d, t-butyl ester
##MOLFORM=C17H32N2O3
##CAS REGISTRY NO=123052-90-4
##MP= -300
##BP= -300
##MW= 312
##$RETENTION INDEX=0
##$CONDENSED SPECTRUM=NO
##NPOINTS= 114
##XYDATA=(XY..XY) 1 
    26          4
    27         51
    28         17
    29        151
    30         28
    31          2
    37          2
    38          5
    39         63
    40         13
    41        260
    42        172
    43         60
    44         28
    49          1
    50          3
    51          3
    52          1
    53         12
    54         17
    55         39
    56         50
    57        999
    58         51
    59          5
    60          0
    65          1
    66          1
    67          5
    68          7
    69         24
    70         16
    71          6
    72          2
    73          0
    74          3
    80          2
    81          2
    82         11
    83         13
    84         18
    85          5
    86        134
    87          8
    88          1
    91          1
    94          1
    95          2
    96          4
    97          6
    98         44
    99         21
   100         16
   101          1
   109          1
   110          1
   111         48
   112         15
   113          2
   114          0
   124          0
   125          1
   126          4
   127         18
   128          2
   129          3
   130          2
   138          1
   139          3
   140          2
   141          2
   142          4
   143         11
   144          0
   149          1
   151          0
   152          1
   153          3
   154         19
   155        359
   156         38
   157          3
   167          2
   168          0
   169          3
   170          0
   181          0
   182          0
   183          1
   184          0
   185          1
   197          8
   198          4
   199        594
   200         63
   201          6
   202          0
   209          0
   210          0
   211         13
   212          1
   213          1
   239         28
   240          5
   241         10
   242          1
   255         84
   256         12
   257          1
   295          0
   297          1
   311          1
   312          0
   313          1