##TITLE=Library Entry 27374
##JCAMP-DX=Revision 4.10 
##DATA TYPE=MASS SPECTRUM
##SAMPLE DESCRIPTION=Chemical Concepts
##NAMES=HP
##CAS NAME=2-t-Butyl-5-(2-chloroethyl)-5-ethyl-3-methyl-4-oxoimidazolidine-1
-carboxylic acid, t-butyl ester
##MOLFORM=C17H31ClN2O3
##CAS REGISTRY NO=123053-02-1
##MP= -300
##BP= -300
##MW= 346
##$RETENTION INDEX=0
##$CONDENSED SPECTRUM=NO
##NPOINTS= 85
##XYDATA=(XY..XY) 1 
    26          3
    27         42
    28         23
    29        178
    30         10
    36          2
    38          3
    39         60
    40         12
    41        300
    42        267
    43         22
    44         10
    51          4
    53         16
    54         11
    55         55
    56         57
    57        999
    58         52
    59          6
    63          2
    65          2
    67         18
    68          7
    69         18
    70         10
    71         10
    75          3
    82         10
    83         10
    84         32
    85          5
    90          3
    96          8
    97          3
    98          6
   100         19
   103          4
   110          5
   111         34
   112         12
   114          8
   120         53
   121          3
   122         16
   123          2
   124          3
   125         18
   126         29
   127          9
   131          4
   145          2
   146          9
   148          3
   153          5
   154          5
   160          6
   161         10
   162          5
   163          2
   170          4
   183         29
   184          2
   188          5
   189        259
   190         25
   191         82
   192          6
   197          6
   199          5
   227         69
   228          8
   233        355
   234         36
   235        113
   236         11
   273         17
   274          2
   275         11
   277          3
   283          5
   289         30
   290          3
   291         11