##TITLE=Library Entry 10128
##JCAMP-DX=Revision 4.10 
##DATA TYPE=MASS SPECTRUM
##SAMPLE DESCRIPTION=Chemical Concepts
##NAMES=HP
##CAS NAME=3-Hexenoic acid, 5-hydroxy-2-methyl-, methyl ester, [R*,R*-(E)]-
##MOLFORM=C8H14O3
##CAS REGISTRY NO=123061-22-3
##MP= -300
##BP= -300
##MW= 158
##$RETENTION INDEX=0
##$CONDENSED SPECTRUM=NO
##NPOINTS= 94
##XYDATA=(XY..XY) 1 
    26         14
    27        111
    28         36
    29        114
    30          8
    31         30
    33          6
    37          4
    38         11
    39        117
    40         22
    41        158
    42         30
    43        999
    44         43
    45        111
    46          4
    49          3
    50         13
    51         26
    52         14
    53         86
    54         35
    55        204
    56        149
    57        162
    58         43
    59        251
    60         14
    61          9
    62          3
    63          5
    64          2
    65         18
    66         11
    67         60
    68          9
    69         77
    70         14
    71        404
    72         23
    73         16
    74          3
    75          8
    77         17
    78          4
    79         35
    80          8
    81         68
    82         72
    83        342
    84         57
    85         65
    86          8
    87        140
    88        579
    89         31
    90          3
    91          3
    93          3
    95          5
    96          4
    97         43
    98        227
    99        140
   100         11
   101         95
   102          7
   108          5
   109         12
   110          3
   111        269
   112         22
   113         14
   114         56
   115         33
   116          6
   117          2
   124          3
   125         26
   126        240
   127         28
   128          3
   129          1
   130          2
   139          2
   140          5
   141         46
   142          5
   143         12
   144          2
   157          1
   158          2
   159          1