##TITLE=Library Entry 114633
##JCAMP-DX=Revision 4.10 
##DATA TYPE=MASS SPECTRUM
##SAMPLE DESCRIPTION=Chemical Concepts
##NAMES=HP
##CAS NAME=l-Norleucine, 6-chloro-2-ethyl-
##MOLFORM=C8H16ClNO2
##CAS REGISTRY NO=123053-17-8
##MP= -300
##BP= -300
##MW= 193
##$RETENTION INDEX=0
##$CONDENSED SPECTRUM=NO
##NPOINTS= 99
##XYDATA=(XY..XY) 1 
    26         30
    27        231
    28        228
    29        250
    30        160
    31        306
    37          5
    38         13
    39        164
    40         32
    41        295
    42        322
    43        144
    44         80
    45         69
    46         13
    50         11
    51         24
    52         21
    53         74
    54        149
    55        291
    56        889
    57        363
    58         89
    59         13
    60          3
    62          3
    63          5
    65         17
    66         11
    67        112
    68         42
    69         64
    70        199
    71        178
    72         65
    73          9
    74          9
    75          3
    76          2
    77         13
    78          4
    79         15
    80         21
    81         28
    82        300
    83         84
    84        275
    85         45
    86         61
    87         47
    88          9
    91          7
    92          2
    93         15
    94          8
    95         61
    96         31
    97         18
    98         31
    99          9
   100         97
   101         17
   102        459
   103         40
   104          4
   105          2
   107          2
   108          4
   109          5
   110         31
   111         22
   112        264
   113        188
   114         20
   115          3
   116         10
   117          2
   125          2
   126          3
   127          3
   128         35
   129        162
   130        999
   131         86
   132          4
   139          2
   140          5
   141          3
   142          2
   146         26
   147          2
   149          3
   155          2
   156          3
   158          3
   174          2
   176          5