##TITLE=Library Entry 196
##JCAMP-DX=Revision 4.10 
##DATA TYPE=MASS SPECTRUM
##SAMPLE DESCRIPTION=D.HENNEBERG, MAX-PLANCK INSTITUTE, MULHEIM, WEST GERMAN
Y
##NAMES=HP
##CAS NAME=Chromium, tetracarbonyl[(1,2,5,6-.eta.)-1,5-cyclooctadiene]-
##MOLFORM=C12H12CrO4
##CAS REGISTRY NO=12301-34-7
##MP= -300
##BP= -300
##MW= 272
##$RETENTION INDEX=0
##$CONDENSED SPECTRUM=NO
##NPOINTS= 115
##XYDATA=(XY..XY) 1 
    26         25
    27         65
    28        999
    29         13
    30          1
    31          0
    32          4
    37          3
    38         10
    39        129
    40         11
    41         69
    42         11
    43          8
    44          7
    49          2
    50         38
    51         25
    52        798
    53         96
    54        188
    55         11
    56          1
    57          2
    58          0
    59          1
    62          2
    63          6
    64          2
    65         28
    66         43
    67        170
    68         11
    70          0
    71          0
    72          0
    73          0
    74          2
    75          2
    76          1
    77         50
    78         27
    79         95
    80        107
    81          8
    82          0
    89          2
    90          6
    91         35
    92          6
    93         36
    94         11
    95          1
    99          0
   101          0
   102          1
   103          9
   104         16
   105         14
   106        250
   107         39
   108         24
   109          1
   110          0
   111          0
   115          2
   116          0
   117         19
   118         28
   119          6
   120          3
   121          0
   128          1
   129          6
   130         29
   131         14
   132         15
   133          3
   134          2
   135          1
   136          1
   142          0
   143          1
   144         13
   145          2
   154          2
   155          2
   156          8
   157          3
   158         57
   159         14
   160        535
   161         98
   162         28
   163          2
   186          6
   187          1
   188         86
   189         20
   190          4
   191          0
   207          3
   216         20
   217          2
   218          1
   220          1
   242          2
   244         40
   245          7
   246          2
   270          3
   272         59
   273         14
   274          3
   275          0