##TITLE=Library Entry 1712
##JCAMP-DX=Revision 4.10 
##DATA TYPE=MASS SPECTRUM
##SAMPLE DESCRIPTION=D.HENNEBERG, MAX-PLANCK INSTITUTE, MULHEIM, WEST GERMAN
Y
##NAMES=HP
##CAS NAME=Rhodium, di-.mu.-iodotetrakis(.eta.3-2-propenyl)di-
##MOLFORM=C12H20I2Rh2
##CAS REGISTRY NO=12307-77-6
##MP= -300
##BP= -300
##MW= 624
##$RETENTION INDEX=0
##$CONDENSED SPECTRUM=NO
##NPOINTS= 267
##XYDATA=(XY..XY) 1 
    26         60
    27        109
    28          8
    29         24
    30          0
    31         30
    34          0
    35          0
    36         21
    37        101
    38        154
    39        999
    40        230
    41        763
    42         70
    43          6
    44          3
    45         10
    46          0
    48          0
    49          1
    50          8
    51         11
    52          5
    53         20
    54         83
    55         12
    56          1
    57          1
    58          0
    59         12
    60          0
    61          0
    62          1
    64          2
    65          8
    66          4
    67        152
    68          9
    69          1
    70          0
    71          0
    72          0
    73          1
    74          7
    75          1
    76          0
    77          6
    78          2
    79         10
    80          4
    81         17
    82         11
    83          1
    84          0
    85          0
    88          0
    91          1
    92          0
    93          1
    94          0
    95          1
    96          0
    97          0
    98          0
    99          0
   103        210
   104          2
   105          0
   107          1
   108          0
   109          0
   110          1
   111          0
   112          0
   113          0
   115         81
   116         14
   117         19
   118          2
   119          0
   121          1
   123          0
   127         47
   128         48
   129         12
   130          5
   131          1
   132          0
   133          0
   135          1
   136          0
   138          1
   139          1
   140         57
   141         52
   142        225
   143        180
   144        303
   145         34
   146          0
   149          1
   152          2
   153          3
   154         10
   155          9
   156         11
   157         26
   158         19
   159          6
   160          0
   161          0
   164          0
   165          0
   167          0
   168         95
   169          5
   170          0
   176          0
   177          0
   178          0
   179          6
   180         13
   181         81
   182         22
   183         97
   184         50
   185        555
   186         36
   187          1
   203          0
   205          1
   209          0
   218          8
   219          1
   224          0
   225          0
   226          0
   230        100
   231         42
   232          1
   242          7
   243          8
   244          7
   245         32
   246          2
   254          0
   255          0
   256          1
   257          1
   258          2
   259          0
   264          0
   266          0
   267          0
   268          1
   269         13
   270         12
   271         20
   272          1
   281          1
   282          1
   283          1
   284          5
   285          0
   286          0
   295          0
   308          0
   309          0
   310          3
   311          0
   312        352
   313         23
   314          0
   315          0
   316          0
   317          0
   318          1
   320          0
   322          2
   330          0
   332          1
   333         23
   334          1
   345         21
   346         20
   347          1
   358          1
   359          1
   360          0
   364          0
   365          0
   366          0
   367          0
   368          0
   370         21
   371          6
   372         62
   373         27
   374          2
   375          0
   376          0
   382          0
   383          0
   384          0
   385          3
   386          7
   387          3
   397          0
   398          5
   399          0
   405          0
   407          0
   408          0
   409          2
   410         15
   411         20
   412         28
   413         54
   414         38
   415          4
   416          0
   417          0
   418          0
   439          0
   449          5
   450          0
   451          1
   452          1
   453         11
   454          2
   455         12
   456          4
   457          0
   460         27
   461          2
   470          0
   471          0
   472          0
   473          2
   474          0
   493          0
   494          0
   496          0
   497         55
   498          7
   499          3
   500         19
   501          3
   502          0
   514          0
   538          0
   539          0
   540          0
   541          8
   542         52
   543          4
   576          0
   578          0
   579          0
   581          0
   582          0
   583          6
   584          0
   624        224
   625          6
   626          0