##TITLE=Library Entry 2281
##JCAMP-DX=Revision 4.10 
##DATA TYPE=MASS SPECTRUM
##SAMPLE DESCRIPTION=D.HENNEBERG, MAX-PLANCK INSTITUTE, MULHEIM, WEST GERMAN
Y
##NAMES=HP
##CAS NAME=Molybdenum, tetrakis(.eta.3-2-propenyl)di-
##MOLFORM=C12H20Mo2
##CAS REGISTRY NO=12318-77-3
##MP= -300
##BP= -300
##MW= 360
##$RETENTION INDEX=0
##$CONDENSED SPECTRUM=NO
##NPOINTS= 327
##XYDATA=(XY..XY) 1 
    26        106
    27        415
    28        116
    29        191
    30          5
    31          3
    32          0
    35          0
    36         15
    37         94
    38        142
    39        644
    40        229
    41        999
    42        809
    43        405
    44         55
    45          3
    47          0
    49          1
    50          9
    51         12
    52          7
    53         14
    54         19
    55         55
    56         31
    57         52
    58          3
    59          4
    61          0
    62          1
    63          2
    64          0
    65          5
    66          2
    67         39
    68          5
    69         25
    70          7
    71         13
    72         39
    73          4
    74          1
    75          1
    76          1
    77          7
    78         21
    79          9
    80          3
    81          7
    82          7
    83          3
    84         14
    85          1
    86          0
    87          0
    89          0
    90          0
    91          9
    92         12
    93          1
    94          7
    95         14
    96         15
    97          8
    98         20
    99          1
   100          7
   102          0
   103          1
   104          1
   105          6
   106          3
   107          7
   108         13
   109         13
   110         12
   111         14
   112          7
   113          7
   114          7
   115          8
   116          7
   117          9
   118         10
   119          9
   120         15
   121         25
   122         29
   123         24
   124         18
   125         12
   126          7
   127          7
   128          7
   129         10
   130         12
   131         13
   132         13
   133         22
   134         30
   135         33
   136         30
   137         25
   138         14
   139         10
   140          6
   141          9
   142         11
   143         12
   144         10
   145          9
   146         10
   147         11
   148         12
   149         13
   150         13
   151         13
   152         23
   153         38
   154         50
   155         56
   156         50
   157         36
   158         21
   159          9
   160          4
   161          3
   162          3
   163          2
   164          2
   165          1
   166          1
   167          1
   168          1
   169          1
   170          2
   171          2
   172          3
   173          5
   174          5
   175          5
   176          5
   177          4
   178          2
   179          1
   180          0
   181          0
   182          0
   184         18
   185          3
   186         22
   187         42
   188         53
   189         53
   190        112
   191         74
   192        116
   193        106
   194        101
   195         77
   196         85
   197         32
   198         43
   199         19
   200         28
   201         26
   202         34
   203         49
   204         40
   205         55
   206         49
   207         46
   208         38
   209         41
   210         19
   211         27
   212         24
   213         31
   214         35
   215         55
   216         49
   217         63
   218         62
   219         61
   220         48
   221         49
   222         34
   223         52
   224         29
   225         65
   226         98
   227        120
   228        146
   229        213
   230        182
   231        236
   232        218
   233        204
   234        161
   235        148
   236         75
   237         76
   238         39
   239         47
   240         46
   241         52
   242         72
   243         60
   244         75
   245         69
   246         62
   247         49
   248         44
   249         21
   250         22
   251         10
   252         13
   253         11
   254         13
   255         14
   256         16
   257         15
   258         15
   259         12
   260         13
   261         10
   262         15
   263         15
   264         50
   265         50
   266         83
   267        128
   268        182
   269        187
   270        270
   271        253
   272        292
   273        287
   274        268
   275        205
   276        196
   277        107
   278         88
   279         45
   280         27
   281         26
   282         20
   283         22
   284         30
   285         22
   286         29
   287         26
   288         25
   289         19
   290         19
   291          9
   292         12
   293          6
   294          8
   295          7
   296          8
   297          8
   298          8
   299          7
   300         10
   301          8
   302         20
   303         17
   304         36
   305         42
   306         73
   307         70
   308        115
   309        103
   310        144
   311        122
   312        151
   313        114
   314        126
   315         82
   316         88
   317         44
   318         49
   319         15
   320         18
   321          4
   322          3
   323          1
   325          0
   326          1
   327          0
   328          1
   329          1
   330          1
   331          0
   332          0
   333          0
   334          0
   335          0
   339          0
   340          0
   341          0
   342          0
   344          1
   345          0
   346          1
   347          2
   348         23
   349          5
   350         31
   351         53
   352         69
   353         71
   354        140
   355         94
   356        147
   357        130
   358        124
   359         93
   360        102
   361         32
   362         49
   363          6
   364          8
   365          1