##TITLE=Library Entry 27371
##JCAMP-DX=Revision 4.10 
##DATA TYPE=MASS SPECTRUM
##SAMPLE DESCRIPTION=Chemical Concepts
##NAMES=HP
##CAS NAME=3,5-Di-tert-butyl-4-hydroxybenzoyl azide
##MOLFORM=C15H21N3O2
##CAS REGISTRY NO=123197-53-5
##MP= -300
##BP= -300
##MW= 275
##$RETENTION INDEX=0
##$CONDENSED SPECTRUM=NO
##NPOINTS= 45
##XYDATA=(XY..XY) 1 
    39        271
    41        694
    42         51
    43        132
    51        130
    53        156
    55        305
    57        999
    58         97
    63         86
    65        106
    67         52
    77        188
    78         56
    79         80
    80         82
    87        256
    89         48
    91        184
    94         52
   101        109
   103         62
   105         58
   109         68
   115        159
   116         65
   117         63
   128         95
   129         68
   130         63
   131         50
   132        101
   144         50
   146         77
   148         63
   160         56
   172        222
   176         56
   188        105
   204        325
   216        101
   232        697
   233        346
   234         50
   275        208