##TITLE=Library Entry 39225
##JCAMP-DX=Revision 4.10 
##DATA TYPE=MASS SPECTRUM
##SAMPLE DESCRIPTION=Chemical Concepts
##NAMES=HP
##CAS NAME=2H-Pyran, 3,4-dihydro-4-hydroxy-
##MOLFORM=C5H8O2
##CAS REGISTRY NO=123160-08-7
##MP= -300
##BP= -300
##MW= 100
##$RETENTION INDEX=0
##$CONDENSED SPECTRUM=NO
##NPOINTS= 53
##XYDATA=(XY..XY) 1 
    26         97
    28        233
    29        273
    30         41
    31        128
    36         15
    37         56
    38        119
    39        233
    40         49
    41        170
    42        153
    43        439
    44        243
    45         61
    46         27
    47         15
    49         53
    50        207
    51        242
    52        128
    53        294
    54        297
    55        332
    56        574
    57        211
    58         74
    59         21
    60         15
    61         28
    63         15
    65         22
    66         15
    67         16
    68         56
    69        138
    70        148
    71        999
    72        500
    73         85
    74         24
    75         22
    80         22
    81        142
    82        173
    83        231
    84         48
    85         16
    97         21
    98         42
    99        357
   100        704
   101         44