##TITLE=Library Entry 26811
##JCAMP-DX=Revision 4.10 
##DATA TYPE=MASS SPECTRUM
##SAMPLE DESCRIPTION=Chemical Concepts
##NAMES=HP
##CAS NAME=2-Ethyl-2-hydroxy-1,3-dimethylcyclopentanecarboxylic acid, ethyl
 ester
##MOLFORM=C12H22O3
##CAS REGISTRY NO=123284-26-4
##MP= -300
##BP= -300
##MW= 214
##$RETENTION INDEX=0
##$CONDENSED SPECTRUM=NO
##NPOINTS= 127
##XYDATA=(XY..XY) 1 
    26         12
    27        134
    29        425
    30         16
    31         62
    36          4
    37          3
    38          6
    39         93
    40         33
    41        325
    42         93
    43        377
    44         64
    45         86
    46          5
    47          3
    49          5
    50          8
    51         23
    52          8
    53         64
    54         23
    55        354
    56         83
    57        999
    58         58
    59         61
    60         11
    61          4
    63          6
    64          4
    65         20
    66         12
    67         79
    68         39
    69        253
    70         76
    71        118
    72         45
    73         29
    74         27
    75         14
    76          4
    77         50
    78         11
    79         44
    80         12
    81         93
    82        288
    83        321
    84         81
    85        124
    86        344
    87        273
    88         24
    89          8
    91         28
    92          7
    93         31
    94         23
    95        101
    96         38
    97        137
    98         77
    99        179
   100        126
   101         23
   102         25
   103          7
   104          5
   105         28
   106         10
   107         28
   108         13
   109         63
   110         38
   111        284
   112        466
   113        114
   114         21
   115        157
   116         18
   117         10
   118          3
   119          8
   120          7
   121         22
   122         18
   123        278
   124         59
   125         94
   126         35
   127         37
   128         41
   129         26
   130          8
   131          6
   133         10
   134          6
   135         65
   136         11
   137         28
   138         13
   139        201
   140        636
   141        141
   142         35
   143         12
   144         16
   145          4
   156         35
   157         18
   158        387
   159         29
   160          5
   167         17
   168         57
   169        110
   170         18
   171          8
   184          6
   185        104
   186         13
   199          8
   214         28
   215          3