##TITLE=Library Entry 83821
##JCAMP-DX=Revision 4.10 
##DATA TYPE=MASS SPECTRUM
##SAMPLE DESCRIPTION=Chemical Concepts
##NAMES=HP
##CAS NAME=1,3-Cyclopentadiene, 1,3-bis(1-methylethyl)-
##MOLFORM=C11H18
##CAS REGISTRY NO=123278-27-3
##MP= -300
##BP= -300
##MW= 150
##$RETENTION INDEX=0
##$CONDENSED SPECTRUM=NO
##NPOINTS= 100
##XYDATA=(XY..XY) 1 
    26          2
    27        117
    28          5
    29         56
    30          1
    31          0
    36          0
    37          1
    38          3
    39        112
    40         12
    41        201
    42          8
    43        358
    44         10
    45          1
    46          0
    50          8
    51         50
    52         17
    53         51
    54          3
    55         50
    56          2
    57         19
    58         18
    59         12
    60          3
    61          0
    62          4
    63         21
    64         11
    65         78
    66         38
    67         29
    68          2
    69         18
    70          0
    73          0
    74          1
    75          4
    76          2
    77        178
    78         29
    79        144
    80         12
    81         13
    82          4
    83          1
    84          0
    85          0
    86          0
    87          1
    88          0
    89          9
    90          3
    91        396
    92         50
    93        674
    94         52
    95          9
    96          0
   101          0
   102          5
   103         22
   104          8
   105        132
   106         42
   107        999
   108         91
   109          9
   110          0
   115         19
   116          5
   117         17
   118          3
   119         51
   120         19
   121         16
   122          2
   123          0
   124          0
   125          0
   127          1
   128          2
   129          1
   130          0
   131          1
   132          1
   133          6
   134          3
   135        665
   136         63
   137          2
   138          0
   143          0
   149          3
   150        263
   151         31
   152          2