##TITLE=Library Entry 75503
##JCAMP-DX=Revision 4.10 
##DATA TYPE=MASS SPECTRUM
##SAMPLE DESCRIPTION=A.A.Kutin, Moscow, Russia
##NAMES=HP
##CAS NAME=Acetamide, 2,2-diphenyl-N-(4-morpholyl)-
##MOLFORM=C18H20N2O2
##CAS REGISTRY NO=1232-41-3
##MP= -300
##BP= -300
##MW= 296
##$RETENTION INDEX=0
##$CONDENSED SPECTRUM=NO
##NPOINTS= 78
##XYDATA=(XY..XY) 1 
    33         40
    34          2
    40         55
    41        103
    42        164
    43        189
    44        241
    45         62
    50         69
    51         60
    52         25
    54         18
    55        127
    56        253
    57        146
    58         11
    59          4
    62         17
    63         86
    65         78
    69         38
    70         27
    71         39
    72         21
    74         20
    75         18
    76         59
    77         30
    78         15
    80         18
    82         20
    83         30
    84         18
    85        377
    86        238
    87         26
    89         53
    90         54
    91         39
    92         23
    93         20
    98          4
    99         21
   101        999
   102        279
   104         24
   105          8
   106         16
   108         15
   113         14
   115         56
   119         25
   120         13
   123        102
   124          2
   126          4
   128         39
   132         12
   134         24
   139         30
   146         24
   150         20
   152        203
   153          9
   162         21
   163         27
   165        498
   167        726
   168         72
   169          2
   182         39
   193         10
   210         36
   211        206
   212         13
   218         13
   296        157
   297         21