##TITLE=Library Entry 97267
##JCAMP-DX=Revision 4.10 
##DATA TYPE=MASS SPECTRUM
##SAMPLE DESCRIPTION=Chemical Concepts
##NAMES=HP
##CAS NAME=d-Ribose, 2-deoxy-bis(thiodecyl)- dithioacetal
##MOLFORM=C25H52O3S2
##CAS REGISTRY NO=123390-25-0
##MP= -300
##BP= -300
##MW= 464
##$RETENTION INDEX=0
##$CONDENSED SPECTRUM=NO
##NPOINTS= 164
##XYDATA=(XY..XY) 1 
    26          0
    27         12
    28          2
    29         30
    30          0
    31          4
    35          0
    39          4
    40          5
    41         48
    42          8
    43        104
    44          3
    45         10
    46          0
    47          5
    53          2
    54          2
    55         49
    56         13
    57         92
    58          3
    59          4
    60          9
    61         36
    62          1
    63          0
    65          0
    66          0
    67          8
    68          5
    69         35
    70         12
    71         57
    72          2
    73         26
    74          2
    75          8
    76          0
    77          0
    79          0
    81         20
    82          6
    83         43
    84          8
    85         62
    86          3
    87         23
    88          3
    89          9
    90          4
    91         10
    92          0
    93          0
    95          5
    96          2
    97         21
    98          6
    99        178
   100         14
   101         46
   102          3
   103          6
   104          0
   105          0
   107          0
   109          1
   110          1
   111          4
   112          2
   113          3
   114          1
   115         23
   116          4
   117        999
   118         52
   119          7
   120          0
   123          0
   127          0
   129          5
   130          0
   131          2
   132          0
   133          1
   134          0
   137          0
   138          0
   139          0
   140          4
   141          0
   142          0
   143          3
   144          0
   145          0
   147          0
   149          1
   155          0
   157          1
   159          0
   165          0
   167          0
   170          0
   171         11
   172          6
   173          8
   174          6
   175          4
   176          0
   185          3
   186          0
   187         22
   188          2
   189          0
   197          0
   199          3
   200          3
   201         53
   202          7
   203          3
   211          0
   213          3
   214          0
   215          1
   216          0
   217          0
   227          0
   228          0
   229         21
   230          3
   231          3
   232          0
   233          0
   239          0
   241          2
   242          0
   243          0
   254          0
   255          7
   256          1
   257          0
   258          0
   259          3
   260          0
   271          0
   272          3
   273         12
   274          2
   275          0
   289          0
   290          2
   291          2
   292          0
   323          0
   359          4
   360          0
   361          0
   370          1
   371          0
   428          0
   446          0
   464          9
   465          2
   466          0