##TITLE=Library Entry 96881
##JCAMP-DX=Revision 4.10 
##DATA TYPE=MASS SPECTRUM
##SAMPLE DESCRIPTION=Chemical Concepts
##NAMES=HP
##CAS NAME=d-Ribose, 2-deoxy-bis(thiononyl)-dithioacetal
##MOLFORM=C23H48O3S2
##CAS REGISTRY NO=123390-24-9
##MP= -300
##BP= -300
##MW= 436
##$RETENTION INDEX=0
##$CONDENSED SPECTRUM=NO
##NPOINTS= 179
##XYDATA=(XY..XY) 1 
    26          2
    27         22
    29         49
    30          2
    31          9
    33          0
    34          1
    35          1
    36          0
    37          0
    38          0
    39         10
    41         90
    42         21
    43        216
    44          5
    45         21
    46          1
    47         11
    48          0
    49          0
    50          0
    51          0
    52          0
    53          5
    54          5
    55         87
    56         44
    57        150
    58          6
    59          8
    60         22
    61         66
    62          3
    63          1
    65          0
    66          1
    67         13
    68         10
    69         91
    70         30
    71        140
    72          7
    73         44
    74          4
    75         14
    76          1
    77          1
    79          1
    80          0
    81         21
    82          7
    83         45
    84         12
    85         76
    86          4
    87         27
    88          4
    89         11
    90          5
    91          9
    92          0
    93          1
    95          4
    96          3
    97         13
    98          7
    99        192
   100         12
   101         47
   102          3
   103          9
   104          0
   105          0
   107          0
   109          0
   110          0
   111          1
   112          0
   113          3
   114          1
   115         26
   116          4
   117        999
   118         54
   119          7
   120          0
   121          0
   123          1
   124          1
   125          1
   126          7
   127          1
   129          4
   130          0
   131          2
   132          1
   133          2
   134          0
   135          0
   137          0
   141          1
   142          0
   143          3
   144          0
   145          0
   147          0
   149          1
   156          0
   157         11
   158          5
   159          9
   160          8
   161          5
   162          0
   163          0
   171          3
   172          0
   173         22
   174          2
   175          1
   185          3
   186          4
   187         63
   188          8
   189          3
   190          0
   197          1
   199          4
   200          0
   201          1
   202          0
   203          0
   205          0
   211          0
   213          1
   214          0
   215         26
   216          3
   217          4
   218          0
   219          0
   225          1
   226          0
   227          2
   228          0
   229          1
   230          0
   241         10
   242          2
   243          1
   244          0
   245          4
   246          0
   247          0
   257          1
   258          3
   259         14
   260          2
   261          1
   273          0
   275          0
   276          2
   277          3
   278          0
   291          0
   309          0
   331          5
   332          1
   333          0
   339          0
   357          0
   374          0
   400          0
   401          0
   418          0
   436          9
   437          2
   438          1