##TITLE=Library Entry 96944
##JCAMP-DX=Revision 4.10 
##DATA TYPE=MASS SPECTRUM
##SAMPLE DESCRIPTION=Chemical Concepts
##NAMES=HP
##CAS NAME=d-Ribose, 2-deoxy-bis(thioheptyl)-dithioacetal
##MOLFORM=C19H40O3S2
##CAS REGISTRY NO=123390-22-7
##MP= -300
##BP= -300
##MW= 380
##$RETENTION INDEX=0
##$CONDENSED SPECTRUM=NO
##NPOINTS= 174
##XYDATA=(XY..XY) 1 
    26          0
    27         24
    29         49
    30          1
    31         10
    35          2
    38          0
    39          9
    41         86
    42         17
    43        105
    45         17
    46          1
    47         10
    48          0
    49          0
    51          0
    52          0
    53          4
    54          3
    55         88
    56         22
    57        352
    58         14
    59          9
    60         20
    61         76
    62          2
    63          2
    65          1
    66          0
    67          5
    68          5
    69         40
    70         21
    71         15
    72          4
    73         40
    74          4
    75         17
    76          1
    77          1
    78          0
    79          1
    81         29
    82          1
    83         12
    84          0
    85         14
    86          2
    87         26
    88          4
    89         13
    90          5
    91         15
    92          1
    93          2
    94          0
    95          5
    96          3
    97         43
    98         14
    99        238
   100         16
   101         41
   102          3
   103         10
   104          0
   105          1
   106          0
   107          0
   109          1
   110          0
   111          0
   112          0
   113          3
   114          1
   115         33
   116          5
   117        999
   118         62
   119          9
   120          0
   121          0
   123          0
   124          0
   125          0
   127          0
   128          1
   129         16
   130          9
   131         11
   132         11
   133         15
   134          2
   135          0
   139          0
   141          0
   142          0
   143          5
   144          0
   145         34
   146          3
   147          2
   148          0
   149          2
   150          0
   153          0
   155          0
   156          0
   157          7
   158          7
   159        125
   160         14
   161          7
   162          0
   163          0
   169          1
   170          0
   171          7
   172          1
   173          2
   174          0
   175          0
   177          1
   179          0
   183          0
   184          0
   185          1
   186          0
   187         32
   188          4
   189          6
   190          0
   191          0
   195          0
   197          1
   199          5
   200          1
   201          1
   202          0
   211          0
   212          0
   213          9
   214          1
   215          0
   216          0
   217          6
   218          0
   219          0
   228          0
   229          0
   230          4
   231         17
   232          2
   233          1
   245          0
   248          6
   249          6
   250          1
   251          0
   263          0
   275          7
   276          1
   277          0
   281          0
   318          0
   344          1
   345          0
   362          0
   380         14
   381          3
   382          1
   383          0