##TITLE=Library Entry 14065
##JCAMP-DX=Revision 4.10 
##DATA TYPE=MASS SPECTRUM
##SAMPLE DESCRIPTION=Chemical Concepts
##NAMES=HP
##CAS NAME=l-Arabinose, dihexyl mercaptal
##MOLFORM=C17H36O4S2
##CAS REGISTRY NO=123390-03-4
##MP= -300
##BP= -300
##MW= 368
##$RETENTION INDEX=0
##$CONDENSED SPECTRUM=NO
##NPOINTS= 184
##XYDATA=(XY..XY) 1 
    24          3
    26         12
    27        159
    28          3
    29        171
    30         13
    31         56
    33          2
    34          5
    35         10
    37          3
    38          4
    39         71
    40         48
    41        272
    42         92
    43        999
    44         34
    45         68
    46         18
    47         73
    48         11
    49          5
    50          3
    51          5
    52          3
    53         22
    54         11
    55        266
    56        232
    57        166
    58         12
    59         41
    60         39
    61        263
    62         10
    63          6
    64          2
    65          8
    66          2
    67         29
    68          9
    69         77
    70          9
    71         25
    72          9
    73        114
    74         18
    75         28
    76        101
    77         85
    78         17
    79         49
    80          3
    81         26
    82         12
    83        193
    84         73
    85        253
    86         20
    87        109
    88         12
    89         61
    90          5
    91         19
    92          5
    93         16
    94          1
    95         15
    96          3
    97         31
    98          7
    99         18
   100          4
   101         29
   102          4
   103         26
   104          4
   105          7
   106          1
   107          5
   108          2
   109          4
   110          1
   111          2
   112          1
   113         10
   114          5
   115         91
   116         18
   117         74
   118         45
   119         26
   120          3
   121          3
   125          2
   127          3
   128          1
   129         67
   130          9
   131        164
   132         17
   133        254
   134         16
   135          3
   139          1
   141          3
   142          1
   143          5
   145          5
   147          5
   148          1
   149          4
   150          2
   151          1
   155          1
   157          5
   158          2
   159         19
   160         47
   161        177
   162         26
   163        170
   164         21
   165         17
   166          2
   169          1
   171         11
   172          3
   173         27
   174          3
   175          2
   176          1
   177          3
   183          4
   184          1
   185          3
   186          2
   187          2
   188          2
   189         10
   190          2
   191          3
   198          2
   199          1
   200          1
   201          7
   202          2
   203          3
   204          1
   205          1
   215         10
   216          2
   217          2
   219          9
   221          1
   231          1
   232          1
   233         71
   234         11
   235          4
   236          1
   245          1
   247        988
   248        175
   249        114
   250         22
   251         18
   252          3
   253          1
   260          3
   261          1
   275         10
   276          3
   277          2
   289         11
   290          2
   291          1
   337          1
   368         46
   369          9
   370          5
   371          1
   372          1