##TITLE=Library Entry 7487
##JCAMP-DX=Revision 4.10 
##DATA TYPE=MASS SPECTRUM
##SAMPLE DESCRIPTION=Chemical Concepts
##NAMES=HP
##CAS NAME=d-Ribose, dinonyl mercaptal
##MOLFORM=C23H48O4S2
##CAS REGISTRY NO=123390-15-8
##MP= -300
##BP= -300
##MW= 452
##$RETENTION INDEX=0
##$CONDENSED SPECTRUM=NO
##NPOINTS= 206
##XYDATA=(XY..XY) 1 
    25          2
    26         24
    27        276
    29        436
    30         17
    31         69
    33          5
    34          8
    35         14
    37          5
    38         10
    39        187
    41        683
    42        189
    43        999
    44          9
    45         92
    46         25
    47        134
    48         13
    49         10
    50          8
    51         19
    52         10
    53         70
    54         54
    55        728
    56        438
    57        420
    58         26
    59         52
    60         78
    61        290
    62         10
    63         10
    64          0
    65         24
    66          9
    67        103
    68        116
    69        520
    70        282
    71        283
    72         20
    73        189
    74         26
    75         28
    76         99
    77         37
    78         13
    79         16
    80          5
    81         79
    82         74
    83        280
    84        163
    85        197
    86         19
    87        186
    88         22
    89        102
    90          8
    91         24
    92          9
    93          4
    94          1
    95         21
    96         36
    97        163
    98        106
    99         57
   100         15
   101         57
   102         13
   103         37
   104          8
   105          7
   106          1
   107          3
   108          1
   109          4
   110          0
   111          6
   112          7
   113         26
   114         22
   115        115
   116         13
   117         16
   118          0
   119          2
   121          1
   123          6
   124          4
   125          7
   126        117
   127         12
   128          2
   129         22
   130          7
   131         26
   132          8
   133        276
   134         21
   135          2
   137          1
   141          3
   142          1
   143          3
   144          1
   145          6
   147          4
   149          2
   151          2
   153          2
   154          2
   155          3
   156          3
   157         47
   158         32
   159         88
   160         88
   161         27
   162          8
   163          4
   169          1
   170          2
   171         42
   172          6
   173        255
   174         28
   175         13
   176          2
   177          1
   179          1
   183          1
   184          2
   185          4
   186          2
   187          4
   189          5
   191          2
   197          2
   199         10
   200          3
   201         18
   202         59
   203        127
   204         23
   205         77
   206         11
   207          5
   208          0
   211          3
   213         13
   214          5
   215         50
   216          5
   217          4
   225         10
   226          2
   227          4
   228          5
   229          3
   230          4
   231         10
   232          2
   233          2
   235          2
   239          3
   240          4
   241          3
   242          3
   243          6
   244          3
   245          4
   256          3
   257         15
   258          1
   259          3
   261          6
   273          3
   275        200
   276         30
   277         13
   278          2
   285          2
   287          0
   292          7
   293          7
   294          2
   331        715
   332        202
   333         94
   334         21
   335          4
   344          8
   345          4
   357          2
   360          2
   373         16
   374          5
   375          1
   452         28
   453          7
   454          3