##TITLE=Library Entry 71495
##JCAMP-DX=Revision 4.10 
##DATA TYPE=MASS SPECTRUM
##SAMPLE DESCRIPTION=NIST Mass Spectrometry Data Center
##NAMES=HP
##CAS NAME=Pymetrozin
##MOLFORM=C10H11N5O
##CAS REGISTRY NO=123312-89-0
##MP= -300
##BP= -300
##MW= 217
##$RETENTION INDEX=2235
##$CONDENSED SPECTRUM=NO
##NPOINTS= 92
##XYDATA=(XY..XY) 1 
    14          1
    15          8
    25          1
    26         15
    27         25
    28         71
    29         90
    30         15
    31          1
    37          8
    38         42
    39         87
    40         22
    41        129
    42        147
    43         18
    44         87
    45          9
    49          5
    50         58
    51        173
    52         55
    53         11
    54         41
    55         40
    56         69
    57         17
    58          1
    61          4
    62         20
    63        139
    64        114
    65         25
    66          4
    67          1
    68          2
    69          9
    70         25
    71          3
    72          5
    74          1
    75          9
    76         21
    77         33
    78        151
    79         49
    80          8
    81          1
    82          2
    83         14
    84          5
    85          2
    86          1
    87          1
    88          1
    90          3
    91         81
    92         16
    93          3
    94          1
    95          1
    96          1
    98        999
    99         44
   100          3
   101          1
   103          5
   104         28
   105        169
   106         26
   107          9
   108          1
   112        207
   113        541
   114         29
   115          2
   117          3
   118          1
   119          2
   120          3
   121          1
   130          1
   132        101
   133         10
   134         14
   135          1
   139          1
   145          1
   146          1
   148          2
   217         39
   218          6