##TITLE=Library Entry 28213
##JCAMP-DX=Revision 4.10 
##DATA TYPE=MASS SPECTRUM
##SAMPLE DESCRIPTION=A.S.Moskovkin,I.M.Karnaukh, Russian Center on Disaster
 Medicine
##NAMES=HP
##CAS NAME=1-Methyl-3,6-diazahomoadamantan-9-one
##MOLFORM=C10H16N2O
##CAS REGISTRY NO=123387-98-4
##MP= -300
##BP= -300
##MW= 180
##$RETENTION INDEX=0
##$CONDENSED SPECTRUM=NO
##NPOINTS= 56
##XYDATA=(XY..XY) 1 
    39         87
    40         62
    41        567
    42        473
    43        733
    44        180
    54         53
    55        646
    56        217
    57        932
    58        999
    60         67
    65         73
    67        134
    68        133
    69        400
    70        660
    71        386
    73         80
    77        140
    78         40
    79         72
    81        185
    82        188
    83        253
    84        240
    85        231
    86         70
    91         69
    93         80
    94        147
    95        122
    96        133
    97        233
    98        113
    99        110
   105        246
   108         47
   109        110
   110         33
   111        127
   112         60
   113         54
   123         72
   124         40
   125         80
   135         40
   136         46
   137         38
   138         74
   152         60
   163         52
   179         54
   180        867
   181        102
   182          6