##TITLE=Library Entry 27490
##JCAMP-DX=Revision 4.10 
##DATA TYPE=MASS SPECTRUM
##SAMPLE DESCRIPTION=Chemical Concepts
##NAMES=HP
##CAS NAME=d-Lyxose, diheptyl mercaptal
##MOLFORM=C19H40O4S2
##CAS REGISTRY NO=123390-10-3
##MP= -300
##BP= -300
##MW= 396
##$RETENTION INDEX=0
##$CONDENSED SPECTRUM=NO
##NPOINTS= 217
##XYDATA=(XY..XY) 1 
    23          1
    26         23
    27        238
    28          3
    29        359
    30         34
    31         98
    33          3
    34          6
    35         18
    36         13
    37          4
    38          8
    39        139
    40         62
    41        546
    42        219
    43        576
    44         25
    45         82
    46         26
    47        135
    48         15
    49          8
    50          5
    51          9
    52          4
    53         35
    54         27
    55        570
    56        235
    57        999
    58         46
    59         42
    60         62
    61        288
    62         12
    63         12
    64          1
    65          7
    66          3
    67         31
    68         43
    69        151
    70        239
    71         66
    72         15
    73        150
    74         16
    75         26
    76        137
    77         62
    78         14
    79         30
    80          2
    81         17
    82          4
    83         26
    84          4
    85         53
    86         10
    87        103
    88         14
    89         61
    90          5
    91         24
    92          4
    93          8
    94          1
    95         15
    96          9
    97        150
    98         85
    99         15
   100          4
   101         40
   102          6
   103         19
   104          4
   105          7
   106          0
   107          2
   108          2
   109          7
   110          1
   111          2
   112          2
   113          7
   114          5
   115        101
   116          9
   117          8
   118          2
   119          3
   120          0
   121          3
   122          1
   123          2
   124          0
   125          0
   126          0
   127          2
   128          1
   129         25
   130         15
   131         64
   132         63
   133        289
   134         23
   135          5
   136          0
   139          1
   141          2
   142          0
   143         35
   144          4
   145        148
   146         15
   147          7
   148          0
   149          2
   150          0
   151          0
   153          0
   155          2
   156          2
   157          3
   158          0
   159          3
   160          0
   161          5
   162          0
   163          2
   164          0
   165          1
   166          0
   167          0
   169          0
   171          3
   172          1
   173         23
   174         62
   175        232
   176         35
   177        102
   178         12
   179          9
   180          1
   181          0
   183          1
   185          9
   186          3
   187         24
   188          3
   189          2
   190          1
   191          4
   199          6
   200          1
   201          5
   202          3
   203          8
   204          1
   205          1
   207          1
   211          0
   212          0
   213          0
   215          5
   216          1
   217          1
   219          1
   227          0
   228          1
   229          9
   230          2
   231          1
   233          8
   234          1
   235          0
   243          1
   245          1
   246          2
   247        151
   248         22
   249          8
   250          1
   261          0
   262          0
   263          0
   264          3
   265         10
   266          2
   267          0
   273          0
   275        922
   276        145
   277        104
   278         15
   279          4
   280          0
   288          2
   289          1
   291          1
   301          2
   302          0
   304          0
   305          1
   317         18
   318          4
   319          2
   320          0
   368          0
   396         45
   397         12
   398          6
   399          1