##TITLE=Library Entry 8038
##JCAMP-DX=Revision 4.10 
##DATA TYPE=MASS SPECTRUM
##SAMPLE DESCRIPTION=Chemical Concepts
##NAMES=HP
##CAS NAME=d-Ribose, didecyl mercaptal
##MOLFORM=C25H52O4S2
##CAS REGISTRY NO=123390-16-9
##MP= -300
##BP= -300
##MW= 480
##$RETENTION INDEX=0
##$CONDENSED SPECTRUM=NO
##NPOINTS= 254
##XYDATA=(XY..XY) 1 
    27         88
    28         10
    29        295
    30         14
    31         70
    33          1
    35          2
    36          2
    37          5
    38          1
    39        104
    40         21
    41        478
    42         42
    43        999
    45         47
    46          9
    47         14
    48         12
    49          2
    50          7
    51          5
    52          2
    53         24
    54          8
    55        321
    57        795
    58         23
    59         53
    60         98
    61        327
    62         10
    63         12
    64          5
    65          3
    66          2
    67         71
    69        119
    71        311
    72         19
    73        246
    74         34
    75         46
    76        107
    77         32
    78         16
    79         15
    80          7
    81         98
    83        123
    85        319
    86         28
    87        254
    88         24
    89         13
    90          7
    91         17
    92         13
    93         13
    94          1
    95         48
    96          0
    97        122
    99         49
   100         12
   101         93
   102         23
   103         55
   104          6
   105         12
   106          5
   107         11
   108          4
   109         18
   113         28
   114         15
   115        135
   116         16
   117         21
   118          5
   119          6
   120          3
   121          8
   122          4
   123          0
   124          4
   125          3
   126          4
   127         10
   128          5
   129         53
   130         11
   131         24
   132         10
   133        312
   134         20
   135          9
   136          2
   137          2
   138          6
   139          6
   142          9
   143         18
   144         13
   145         13
   146          4
   147          6
   148          4
   149          6
   150          3
   151          5
   152          2
   153          4
   154          3
   155          5
   156          3
   157         11
   158          4
   159          9
   160          3
   161          5
   162          2
   163          2
   165          3
   167          2
   168          2
   169         10
   170         10
   171         35
   172         27
   173         68
   175         22
   176          1
   177          6
   179          3
   181          4
   183          6
   184          2
   185         40
   186          8
   187        224
   188         30
   189         15
   190          4
   191          3
   193          3
   194          3
   195          4
   197          5
   198          3
   199         12
   200          3
   201         21
   202          2
   203          5
   204          4
   205          4
   206          5
   207          5
   208          5
   209          3
   211          3
   212          2
   213          6
   214          3
   215         25
   216         37
   217        110
   218         24
   219         62
   220         11
   221         10
   222          3
   224          2
   225          2
   227         11
   228          3
   229         55
   230          9
   231          4
   232          6
   233          7
   234          3
   237          2
   239          4
   240          5
   241          4
   242          4
   243          7
   244         14
   245         13
   246          3
   247          2
   248          3
   251          2
   253          8
   254          5
   255          6
   256          3
   257          4
   258          2
   259          4
   261          3
   268          2
   269          2
   270          5
   271         19
   272          4
   273          4
   274          3
   275          8
   283          3
   285          4
   287          5
   288          4
   289        162
   290         22
   291         12
   292          4
   301          2
   302          2
   306          4
   307          9
   309          3
   313          3
   314          3
   315          6
   316          3
   321          2
   327          2
   329          3
   346         11
   347          4
   348          3
   349          3
   355          2
   357          3
   359        634
   360        177
   361         98
   362         18
   363          5
   364          2
   372         11
   373          3
   374          3
   385          2
   401         12
   402          5
   403          3
   425          2
   480         22
   481          6
   482          4