##TITLE=Library Entry 84831
##JCAMP-DX=Revision 4.10 
##DATA TYPE=MASS SPECTRUM
##SAMPLE DESCRIPTION=Japan AIST/NIMC Database- Spectrum MS-IW-1028
##NAMES=HP
##CAS NAME=L-Arginine, N2-[(phenylmethoxy)carbonyl]-
##MOLFORM=C14H20N4O4
##CAS REGISTRY NO=1234-35-1
##MP= -300
##BP= -300
##MW= 308
##$RETENTION INDEX=0
##$CONDENSED SPECTRUM=NO
##NPOINTS= 90
##XYDATA=(XY..XY) 1 
    12          1
    15          1
    16         56
    17        101
    18         69
    22          4
    26          4
    27         23
    28         36
    29         13
    30         10
    31         14
    32          1
    37          6
    38         14
    39         58
    40          7
    41         13
    42         19
    43         26
    44        581
    45          8
    46          3
    49          4
    50         46
    51        113
    52         34
    53         57
    54         12
    55          6
    56         21
    57          5
    58          8
    59          3
    60          1
    61          5
    62         10
    63         24
    64          7
    65         56
    66          5
    67          2
    68          4
    69         54
    70          8
    71          1
    73          3
    74         13
    75          8
    76          9
    77        379
    78         87
    79        817
    80         71
    81          5
    82          1
    83          2
    84          2
    85          4
    86          3
    87          2
    89         51
    90         77
    91        159
    92         21
    93          2
    94          1
    95          2
    96          1
    97          4
    98          1
    99          1
   105         55
   106         31
   107        654
   108        999
   109         78
   110          7
   111          1
   112          2
   113          1
   114          1
   115          1
   134          1
   135          4
   136          4
   137          3
   138          4
   141          2
   155          1