##TITLE=Library Entry 14384
##JCAMP-DX=Revision 4.10 
##DATA TYPE=MASS SPECTRUM
##SAMPLE DESCRIPTION=A. Brossi, LC, NIDDK, NIH, Bethesda, MD 20892
##NAMES=HP
##CAS NAME=1,2-Diethoxycarbonyl-dedimethylcolchicine
##MOLFORM=C26H29NO10
##CAS REGISTRY NO=123417-72-1
##MP= -300
##BP= -300
##MW= 515
##$RETENTION INDEX=0
##$CONDENSED SPECTRUM=NO
##NPOINTS= 143
##XYDATA=(XY..XY) 1 
    41         84
    42         94
    43        999
    44        140
    45         99
    55         92
    56         44
    57         64
    60        122
    67         46
    69         42
    71         22
    77         39
    88        113
   115        103
   127         48
   128         55
   129         23
   139        104
   140         67
   141         85
   151         51
   152        162
   153         89
   154         51
   155         23
   156         22
   165         79
   166         23
   167         47
   168        115
   169         77
   170         43
   171         20
   180         51
   181         76
   182         55
   183        138
   184         65
   185         49
   193         19
   195         73
   196         67
   197         88
   198         52
   199         45
   208         49
   209         61
   210         61
   211        142
   212         77
   213         65
   221         59
   222         23
   223        281
   224         98
   225         95
   226         52
   227         54
   228         25
   235         49
   236         55
   237        106
   238         66
   239        114
   240         87
   241         81
   242         55
   251        243
   252        180
   253        404
   254        120
   255         97
   256         80
   257         66
   265         72
   266        224
   267        247
   268        117
   269        300
   270         99
   271         26
   272         66
   279         79
   280         68
   281        201
   282        104
   283        580
   284        517
   285        198
   286         66
   293         31
   294        125
   295        117
   296         97
   297        261
   298        116
   299         23
   300         32
   309         65
   310        112
   311        414
   312        428
   313         91
   314         23
   325         53
   326         27
   328         27
   339         32
   340         62
   342         25
   344         20
   354         19
   355         55
   356        117
   357         23
   358         22
   366         22
   370         94
   371         21
   372         20
   383         28
   384        447
   385        108
   386         23
   398         66
   400         25
   412         22
   426         22
   428        105
   429         23
   430         72
   442         82
   443         39
   444         20
   456        153
   457         45
   470         23
   472         52
   473         19
   515        417
   516        123
   517         21