##TITLE=Library Entry 50995
##JCAMP-DX=Revision 4.10 
##DATA TYPE=MASS SPECTRUM
##SAMPLE DESCRIPTION=R RYHAGE MS-LAB KAROLINSKA INSTITUTET STOCKHOLM SWEDEN
##NAMES=HP
##CAS NAME=1-Naphthalenecarboxylic acid, 5-[2-(3-furanyl)ethyl]decahydro-1,4
a-dimethyl-6-methylene-, [1R-(1.alpha.,4a.alpha.,5.alpha.,8a.beta.)]-
##MOLFORM=C20H28O3
##CAS REGISTRY NO=1235-77-4
##MP= -300
##BP= -300
##MW= 316
##$RETENTION INDEX=0
##$CONDENSED SPECTRUM=NO
##NPOINTS= 169
##XYDATA=(XY..XY) 1 
    26         13
    27         24
    28         30
    29         49
    30         54
    39         62
    40         20
    41        260
    42         16
    43        178
    44         19
    45         29
    50         11
    51         27
    52         30
    53        328
    54         24
    55        270
    56         14
    57         66
    59         32
    63         13
    65         93
    66         46
    67        235
    68         49
    69         85
    70         16
    71         33
    73         10
    77        191
    78         53
    79        304
    80         35
    81        999
    82        470
    83         90
    85         16
    87         41
    89         10
    91        250
    92         54
    93        240
    94        255
    95        319
    96         51
    97         75
    98         11
    99         14
   103         35
   104         22
   105        211
   106         56
   107        279
   108         79
   110         16
   111         35
   113         14
   115         53
   116         26
   117         62
   118         24
   119        178
   120         62
   121        706
   122        118
   123        163
   124         20
   125         54
   127         15
   128         29
   129         34
   130         17
   131         62
   132         26
   133        255
   134         94
   135        146
   136         62
   137         28
   139        294
   140         35
   141         22
   143         24
   145         55
   146         27
   147        245
   148        211
   149        260
   150         91
   151         33
   152         13
   153         21
   155         19
   157         22
   158         10
   159         55
   160         46
   161        122
   162        103
   163         71
   164         16
   165         18
   166         34
   167        196
   168         29
   169         13
   171         18
   173         60
   174         24
   175         69
   176         44
   177         88
   178         18
   179         37
   183         15
   185         15
   187         24
   188        100
   189        510
   190         82
   191         14
   193         45
   194         14
   197         11
   199         21
   201         46
   202         18
   203         14
   204         16
   205         12
   206         11
   207         97
   208         31
   209         12
   213         12
   215         20
   216         16
   217         51
   218         15
   219         21
   220         55
   221         81
   222        132
   223         25
   227         13
   233         17
   234         74
   235        191
   236         34
   237         12
   241         14
   242         10
   253         15
   255         43
   256         11
   270         59
   271         59
   272         25
   273         18
   283         12
   287         31
   288         29
   298         29
   301         63
   302         16
   316        911
   317        206
   318         33