##TITLE=Library Entry 60598
##JCAMP-DX=Revision 4.10 
##DATA TYPE=MASS SPECTRUM
##SAMPLE DESCRIPTION=Chemical Concepts
##NAMES=HP
##CAS NAME=3-Furanol, tetrahydro-4-(phenylmethoxy)-, cis-
##MOLFORM=C11H14O3
##CAS REGISTRY NO=123665-72-5
##MP= -300
##BP= -300
##MW= 194
##$RETENTION INDEX=0
##$CONDENSED SPECTRUM=NO
##NPOINTS= 111
##XYDATA=(XY..XY) 1 
    24          0
    26          4
    27         50
    29         60
    30          3
    31         95
    33          0
    35          0
    36          0
    37          0
    38          6
    39         71
    40          6
    41         33
    42          7
    43         70
    44         35
    45        267
    46          6
    47          2
    49          0
    50         17
    51         66
    52         11
    53          3
    54          0
    55          8
    56          2
    57         33
    58          9
    59         23
    60          3
    61          1
    62          5
    63         23
    64          9
    65        136
    66          5
    67          0
    68         13
    69         56
    70        187
    71          9
    72          1
    73         78
    74          4
    75         22
    76          8
    77        113
    78         14
    79         26
    80          1
    84          0
    85         19
    86         54
    87          3
    88          1
    89         27
    90         15
    91        999
    92        331
    93         25
    94          1
   101          0
   102          5
   103         92
   104         13
   105        318
   106         29
   107        226
   108         24
   109          1
   111          0
   112          0
   115          0
   116          6
   117          4
   118          2
   119          1
   120          7
   121         17
   122          9
   123         11
   124          1
   125          0
   128          0
   129          0
   130          0
   131          1
   132          1
   133          3
   134         24
   135          3
   136          0
   137          0
   145          1
   148          4
   149          0
   150          0
   151          0
   158          0
   163          1
   164          0
   165         24
   166          2
   167          0
   193          0
   194         70
   195          6
   196          0
   197          0