##TITLE=Library Entry 6596
##JCAMP-DX=Revision 4.10 
##DATA TYPE=MASS SPECTRUM
##SAMPLE DESCRIPTION=Chemical Concepts
##NAMES=HP
##CAS NAME=2-Acetamido-3-(acetylthio)propanoic acid, methyl ester
##MOLFORM=C8H13NO4S
##CAS REGISTRY NO=123751-54-2
##MP= -300
##BP= -300
##MW= 219
##$RETENTION INDEX=0
##$CONDENSED SPECTRUM=NO
##NPOINTS= 137
##XYDATA=(XY..XY) 1 
    25          4
    26         15
    27         26
    29         38
    30         27
    31         12
    33         44
    34         17
    35          2
    36          3
    37          3
    38          6
    39         12
    40         28
    41        121
    42        248
    43        999
    44         51
    45         41
    46         12
    47         15
    48          7
    49          3
    50          3
    51          3
    52          4
    53          6
    54          7
    55         12
    56          8
    57         13
    58         12
    59         30
    60        152
    61         16
    62          2
    63          2
    64          2
    65          4
    66          2
    67          3
    68          9
    69          4
    70          7
    71         24
    72          3
    73          5
    74         21
    75         27
    76        123
    77          7
    78          6
    79          1
    80          2
    81          2
    82          2
    83          6
    84         18
    85          7
    86         19
    87          9
    88        162
    89         22
    90          6
    91          3
    92          3
    93          1
    94          1
    95          1
    96          2
    97          2
    98          2
    99         36
   100         12
   101        120
   102         76
   103          6
   104          2
   105          1
   106          1
   107          2
   108          1
   109          1
   110          2
   111         31
   112         13
   113          2
   114          1
   115          3
   116          5
   117          7
   118        128
   119          9
   120          7
   121          1
   122          1
   123          1
   126          1
   127          1
   128          2
   129          1
   130          5
   131         11
   132          3
   133          2
   134         23
   135          4
   136          2
   137          1
   138          3
   139          1
   140          1
   141          1
   142          2
   143         70
   144         21
   145          3
   146          4
   147          1
   148          1
   149          1
   157          1
   158          2
   159          1
   160         41
   161          3
   162          6
   163          1
   164          1
   176         46
   177         97
   178         11
   179          6
   187          1
   188          4
   219          5
   220          1