##TITLE=Library Entry 53619
##JCAMP-DX=Revision 4.10 
##DATA TYPE=MASS SPECTRUM
##SAMPLE DESCRIPTION=A.A.Kutin, Moscow, Russia
##NAMES=HP
##CAS NAME=Benzo[c]1,2,5-thiadiazole, 4-(1-piperidylsulfonyl)-
##MOLFORM=C11H13N3O2S2
##CAS REGISTRY NO=123708-47-4
##MP= -300
##BP= -300
##MW= 283
##$RETENTION INDEX=0
##$CONDENSED SPECTRUM=NO
##NPOINTS= 145
##XYDATA=(XY..XY) 1 
    33          5
    34          2
    35          2
    36          9
    37          8
    38         18
    39         79
    40         32
    41        150
    42        300
    43         27
    45         29
    46         17
    47          3
    48          9
    49          5
    50         23
    51         22
    52         29
    53         25
    54         58
    55        242
    56        114
    57         24
    58         11
    59          5
    60          8
    61          3
    62          7
    64         74
    65          8
    66          2
    67         11
    68         18
    69         22
    70         17
    71          5
    72          1
    73          2
    75         16
    76         48
    77         15
    78          3
    79          1
    80          7
    82         89
    83        273
    84        999
    85         51
    86          3
    88          4
    89          1
    90          5
    91         13
    92          3
    93          1
    94          3
    95          1
    96          3
    97          3
    98          6
    99          1
   100          3
   101          2
   103         45
   104          4
   105          1
   108         54
   109         30
   110          4
   111          1
   112          0
   115          0
   116          0
   117          0
   118          0
   120          0
   121          0
   122          0
   123          1
   124          1
   125          0
   126          1
   128          0
   130          0
   131          1
   132          3
   133          4
   135        153
   136        203
   137         21
   138          9
   139          0
   140          0
   142          0
   148          0
   149          2
   150          1
   151          1
   152          1
   153          0
   154          0
   155          3
   156          0
   157          0
   158          0
   160          0
   161          0
   162          2
   163          1
   164          0
   167          0
   168          0
   171          0
   173          0
   174          0
   175          0
   176          1
   177          0
   178          0
   182          1
   183         11
   184          2
   185          0
   186          1
   187          0
   188          3
   189          4
   190          7
   191          2
   192          0
   197          0
   199         20
   200          3
   201          2
   202          1
   203          0
   206          0
   216          0
   218         14
   219          2
   220          0
   228          0
   282          0
   283          0