##TITLE=Library Entry 107655
##JCAMP-DX=Revision 4.10 
##DATA TYPE=MASS SPECTRUM
##SAMPLE DESCRIPTION=Japan AIST/NIMC Database- Spectrum MS-IW-1574
##NAMES=HP
##CAS NAME=Naphthol AS-BI,CI 37566
##MOLFORM=C18H14BrNO3
##CAS REGISTRY NO=1237-75-8
##MP= -300
##BP= -300
##MW= 371
##$RETENTION INDEX=0
##$CONDENSED SPECTRUM=NO
##NPOINTS= 140
##XYDATA=(XY..XY) 1 
    27          1
    28          2
    38          1
    39          6
    41          3
    43          2
    50          2
    51          7
    52          9
    53          5
    54          1
    55          2
    57          3
    62          4
    63         15
    64          5
    65         13
    66          2
    67          1
    69          1
    70          1
    71          2
    74          2
    75          3
    76          1
    77          6
    78          4
    79          3
    80         20
    81          2
    82          4
    83          1
    85          1
    86          3
    87          5
    88         10
    89          3
    91          3
    92          9
    93          4
    94          4
    95          3
    97          1
    99          1
   101          1
   102          1
   104          1
   105          2
   106          2
   107          1
   108        138
   109         10
   110          2
   111          2
   112          2
   113         39
   114         69
   115         16
   116          2
   119          1
   120          3
   121          1
   122          2
   123        999
   124         82
   125          6
   126          2
   127          1
   128          1
   134          1
   135          2
   137          3
   139          1
   140          1
   141          3
   142         11
   143          4
   149          4
   151          1
   169          2
   170          9
   171          9
   172          1
   176          1
   185          3
   186          3
   191          1
   192          9
   193         58
   194         14
   195         56
   196          5
   203          1
   204          1
   219          1
   220         23
   221         12
   222         28
   223         11
   224          7
   232          4
   233          1
   247          2
   248         27
   249         71
   250         33
   251         68
   252          8
   261          1
   263          2
   265          1
   273          1
   291          1
   292          1
   293         10
   294          2
   310          1
   311          1
   312          1
   313          1
   324          1
   325          2
   326          1
   327          1
   329          1
   339          8
   340          2
   341          9
   342          2
   343          1
   353          5
   354          1
   355          6
   356          1
   370          1
   371        154
   372         31
   373        152
   374         30
   375          4