##TITLE=Library Entry 64277
##JCAMP-DX=Revision 4.10 
##DATA TYPE=MASS SPECTRUM
##SAMPLE DESCRIPTION=Chemical Concepts
##NAMES=HP
##CAS NAME=2-(E)-Penten-1-ol, 4-(dibenzylamino)-5-phenyl-
##MOLFORM=C25H27NO
##CAS REGISTRY NO=123751-17-7
##MP= -300
##BP= -300
##MW= 357
##$RETENTION INDEX=0
##$CONDENSED SPECTRUM=NO
##NPOINTS= 128
##XYDATA=(XY..XY) 1 
    26          0
    27          2
    28          2
    29          2
    30          4
    31          2
    38          0
    39          8
    41         11
    42          1
    43          1
    44          0
    50          0
    51          4
    52          0
    53          3
    54          0
    55          2
    56          1
    57          1
    62          0
    63          2
    64          1
    65         55
    66          3
    67          0
    68         12
    69          6
    70          2
    71          2
    75          0
    76          0
    77          7
    78          2
    79          3
    80          2
    81          0
    83          0
    84          2
    85          0
    86          1
    89          6
    90          5
    91        999
    92         80
    93          3
    96          1
    98          6
    99          0
   102          0
   103          3
   104          9
   105          3
   106         20
   107          1
   115          8
   116          3
   117         12
   118          4
   119          0
   120          3
   127          2
   128          6
   129          9
   130          3
   131          6
   132          1
   133          0
   141          2
   142          1
   143         17
   144         11
   145          2
   146          2
   147          0
   148          0
   152          0
   153          0
   156          2
   157          1
   158         13
   159          1
   160          7
   161          1
   165          3
   166          4
   167          1
   174          8
   175          3
   176          2
   177          0
   178          1
   179          1
   180          0
   181         52
   182          7
   183          0
   193          0
   194          0
   195          0
   196          7
   197          1
   198          0
   208          1
   210          0
   213          0
   222          0
   234          1
   235          0
   236          1
   237          0
   240          6
   241          1
   248          1
   249          1
   250          0
   252          0
   264          3
   265          2
   266        732
   267        150
   268         16
   269          1
   294          0
   300          4
   301          1
   340          0
   356          0