##TITLE=Library Entry 81981
##JCAMP-DX=Revision 4.10 
##DATA TYPE=MASS SPECTRUM
##SAMPLE DESCRIPTION=Institute of Organic Chemistry, USSR, 1990
##NAMES=HP
##CAS NAME=5-Acetyl-3-benzoyl-1,2,4,4a-tetrahydropyrazino[1,2-a]naphth[2,3-d
]imidazole-6,11-dione
##MOLFORM=C23H19N3O4
##CAS REGISTRY NO=123707-58-4
##MP= -300
##BP= -300
##MW= 401
##$RETENTION INDEX=0
##$CONDENSED SPECTRUM=NO
##NPOINTS= 91
##XYDATA=(XY..XY) 1 
    41         16
    42         50
    43        158
    44         21
    50         17
    51         59
    54         17
    55         35
    56        414
    57         26
    69          7
    71          6
    75          9
    76         53
    77        487
    78         32
    83          7
    88          7
    89         24
    91         11
   101         11
   102         16
   103          9
   104         90
   105        999
   106         79
   114         14
   115         26
   116         13
   117          6
   126          6
   127          7
   128          9
   129         11
   130         12
   132         14
   133          5
   138         23
   142         16
   144         10
   145         10
   146          5
   148         13
   149          5
   154         10
   155          5
   157          9
   158          6
   160        119
   161         19
   162          6
   170         48
   171         17
   172         11
   174          6
   182          7
   183          7
   184         12
   198         39
   199        109
   200         46
   201         51
   202          5
   211         24
   212         17
   213         36
   214         10
   224          7
   225         49
   226         47
   227         11
   229         43
   230          6
   243         54
   252         14
   254        975
   255        164
   256         17
   268          6
   270         17
   271         12
   285         10
   357         12
   358         33
   359        526
   360        118
   361         16
   375         15
   401         43
   402         11
   403          7