##TITLE=Library Entry 63904
##JCAMP-DX=Revision 4.10 
##DATA TYPE=MASS SPECTRUM
##SAMPLE DESCRIPTION=Chemical Concepts
##NAMES=HP
##CAS NAME=2-(E)-Pentenoic acid, (4S)-dibenzylamino)-, ethyl ester
##MOLFORM=C21H25NO2
##CAS REGISTRY NO=123725-86-0
##MP= -300
##BP= -300
##MW= 323
##$RETENTION INDEX=0
##$CONDENSED SPECTRUM=NO
##NPOINTS= 192
##XYDATA=(XY..XY) 1 
    26          0
    27          6
    28          1
    29         20
    30          1
    31          0
    38          0
    39          9
    40         15
    41          8
    42          4
    43          9
    44          1
    45          1
    50          0
    51          4
    52          1
    53          7
    54          4
    55          6
    56          8
    57          2
    58          0
    59          0
    62          0
    63          3
    64          1
    65         49
    66          3
    67          0
    68          2
    69          1
    70          0
    71          5
    72          0
    74          0
    75          0
    76          0
    77          6
    78          2
    79          2
    80          0
    81          4
    82          9
    83          1
    84          0
    85          1
    87          0
    89          8
    90          7
    91        999
    92         83
    93          3
    94          0
    96          3
    97          0
    98          1
    99         12
   100          3
   101          0
   102          0
   103          2
   104         14
   105         10
   106         15
   107          1
   108          1
   109          0
   110          6
   111          0
   112          1
   113          0
   114          0
   115          5
   116          2
   117          5
   118          4
   119          0
   120         12
   121          1
   122          0
   123          0
   126          0
   127          3
   128          3
   129          5
   130          2
   131          3
   132          5
   133          1
   134          0
   135          1
   139          0
   140          6
   141          1
   142          1
   143          2
   144          5
   145          1
   146          0
   147          0
   149          0
   152          0
   153          0
   154          0
   155          0
   156          1
   157          0
   158         12
   159          2
   160          0
   161          0
   162          0
   165          2
   166          3
   167          1
   168          0
   169          0
   170          0
   171          0
   172          3
   173          0
   175          0
   176          0
   178          0
   179          1
   180          1
   181         46
   182          7
   183          0
   184          0
   186         10
   187          2
   188          1
   189          0
   190          0
   191          0
   193          0
   194          3
   195          1
   196          7
   197          1
   198          0
   200          0
   202          0
   203          0
   204          1
   205          0
   207          0
   210          0
   212          0
   216          5
   217          1
   218          7
   219          1
   220          0
   221          0
   223          0
   224         31
   225          5
   226          0
   230          0
   231          0
   232        452
   233         69
   234         25
   235          4
   236          0
   246         10
   247          1
   248          0
   250          1
   251          0
   262          5
   263          0
   264          0
   266          0
   278         28
   279          6
   280          2
   281          0
   294          5
   295          1
   307          0
   308        344
   309         74
   310         10
   311          0
   322          2
   323          7
   324          1
   325          0