##TITLE=Library Entry 60344
##JCAMP-DX=Revision 4.10 
##DATA TYPE=MASS SPECTRUM
##SAMPLE DESCRIPTION=Drug Lab
##NAMES=HP
##CAS NAME=Acetamide, N-phenyl-N-[1-(phenylmethyl)-4-piperidinyl]-
##MOLFORM=C20H24N2O
##CAS REGISTRY NO=1237-52-1
##MP= -300
##BP= -300
##MW= 308
##$RETENTION INDEX=2631
##$CONDENSED SPECTRUM=NO
##NPOINTS= 98
##XYDATA=(XY..XY) 1 
    13          2
    15         12
    20          5
    29          4
    30          3
    32         17
    37          7
    39         45
    40          3
    41         24
    42         58
    43        270
    44         12
    47          6
    51         48
    52          7
    53          6
    54         16
    55         42
    56         32
    60          4
    63         17
    65        157
    66         15
    67         16
    68         13
    71          2
    75          4
    76          9
    77        121
    78         23
    80         18
    81         10
    82        624
    83         34
    89         23
    90         23
    91        999
    92        102
    93         42
    94         11
    95          9
    96         40
   104         41
   105         10
   106         24
   107          8
   113          1
   115         13
   116          9
   117         45
   118        143
   119         63
   120         50
   121         11
   126          1
   127          3
   128          7
   130         38
   131         24
   132        122
   133         31
   134         26
   135          1
   136          8
   140          2
   144         56
   145         39
   146        132
   147         18
   156          3
   157         11
   158         62
   159          6
   160          6
   161          5
   167          3
   169          2
   172        203
   173        193
   174         80
   175          8
   176          6
   177          4
   188         11
   202          4
   217         17
   232          1
   236          3
   237          3
   249         22
   250          3
   256          2
   265         51
   266         12
   307          2
   308         38
   309          6