##TITLE=Library Entry 56724
##JCAMP-DX=Revision 4.10 
##DATA TYPE=MASS SPECTRUM
##SAMPLE DESCRIPTION=Org.Mass.Spectrom.,24(2)81(1989);Z.Moldovan ET AL
##NAMES=HP
##CAS NAME=Cyclohexyl phosphonomorpholinylamidothioate
##MOLFORM=C11H22NOPS
##CAS REGISTRY NO=123729-65-7
##MP= -300
##BP= -300
##MW= 247
##$RETENTION INDEX=0
##$CONDENSED SPECTRUM=NO
##NPOINTS= 66
##XYDATA=(XY..XY) 1 
    26         38
    27         98
    28         12
    29         36
    39         29
    41        140
    42         36
    43         17
    44         15
    45         12
    46          7
    47         12
    53         24
    54         17
    55        182
    56         98
    57         24
    58         32
    59         11
    63         31
    65          4
    67          9
    70         18
    74          9
    77         11
    78          9
    79         69
    80         91
    81        122
    82          4
    83         69
    84         24
    85         51
    86        999
    87        174
    88         12
    94          5
   104          5
   105          5
   106          7
   107         12
   116          4
   118          8
   121          8
   127          7
   130          5
   132        550
   133         32
   149         14
   150         79
   151          8
   161        128
   162         51
   163         11
   164         44
   165        357
   166         25
   167         15
   190         34
   204          7
   214          8
   232          5
   247        204
   248         25
   249          9
   250          8