##TITLE=Library Entry 71332
##JCAMP-DX=Revision 4.10 
##DATA TYPE=MASS SPECTRUM
##SAMPLE DESCRIPTION=Japan AIST/NIMC Database- Spectrum MS-IW-8144
##NAMES=HP
##CAS NAME=3,3'-Hexamethylenedithiophene
##MOLFORM=C14H18S2
##CAS REGISTRY NO=123756-83-2
##MP= -300
##BP= -300
##MW= 250
##$RETENTION INDEX=0
##$CONDENSED SPECTRUM=NO
##NPOINTS= 150
##XYDATA=(XY..XY) 1 
    27         15
    28          7
    29          8
    32          3
    34          1
    38          1
    39         36
    40          3
    41         43
    42          2
    43          4
    44          3
    45        105
    46          3
    47          9
    49          1
    50          2
    51         10
    52          4
    53         72
    54          4
    55          9
    57          1
    58          9
    59          6
    60          1
    61          1
    62          1
    63          5
    64          1
    65         18
    66          9
    67         23
    68          2
    69         13
    70          5
    71         13
    72          1
    73          1
    76          1
    77         31
    78         12
    79         13
    80          2
    81          5
    82          2
    83          2
    84         19
    85         66
    86          9
    87          4
    88          1
    89          1
    91         14
    92          2
    93          5
    95          3
    96          2
    97        785
    98        999
    99        115
   100         48
   101          4
   103          1
   104          1
   105          4
   106          2
   107          3
   108          1
   109          9
   110         25
   111        251
   112         26
   113         13
   114          1
   115          4
   117          2
   118          1
   119          9
   120          1
   121          2
   122          1
   123         27
   124         11
   125         22
   126          4
   127          4
   128          1
   129          1
   133          1
   134          3
   135         10
   136          6
   137         15
   138          8
   139          9
   140         34
   141          4
   142          2
   147          5
   148          3
   149          7
   150         12
   151         16
   152         41
   153         43
   154          8
   155          3
   160          1
   161          3
   162          2
   163          8
   164         14
   165         13
   166          7
   167          2
   168          1
   169          1
   173          1
   174          1
   175          3
   176          1
   179          4
   180          1
   181          1
   183          1
   187          2
   188          3
   189         22
   190          8
   191          3
   193          3
   194          1
   201          1
   203         47
   204          7
   205          3
   207          1
   216         10
   217         17
   218          3
   219          1
   221          7
   222          2
   223          1
   250        366
   251         65
   252         39
   253          6
   254          1