##TITLE=Library Entry 33783
##JCAMP-DX=Revision 4.10 
##DATA TYPE=MASS SPECTRUM
##SAMPLE DESCRIPTION=V.A.Korolev, Moscow, Russia
##NAMES=HP
##CAS NAME=Ethyl 5-(hydroxymethyl)-1,2-oxazole-3-carboxylate
##MOLFORM=C7H9NO4
##CAS REGISTRY NO=123770-62-7
##MP= -300
##BP= -300
##MW= 171
##$RETENTION INDEX=0
##$CONDENSED SPECTRUM=NO
##NPOINTS= 72
##XYDATA=(XY..XY) 1 
    27         85
    28         39
    29        190
    30         64
    31         89
    36          1
    37         22
    38         65
    39        242
    40        253
    41         93
    42        115
    43        103
    44         54
    45         89
    46          1
    47          2
    49          6
    50         36
    51         45
    52         51
    53        114
    54         67
    55         23
    56         11
    57          2
    58          2
    59          5
    64          2
    65          2
    66          7
    67        146
    68        999
    69         55
    70         39
    71         15
    72          5
    73         69
    74          1
    77          5
    78          1
    79          2
    80          6
    81         14
    82          5
    83          2
    84          4
    86          2
    89          3
    95          4
    96        101
    97          6
    98          6
    99         17
   109          3
   110          3
   112          2
   113          1
   114          5
   125          5
   126        296
   127         43
   128          6
   140          4
   141          1
   142          4
   143          2
   154          6
   155          5
   156          5
   171         68
   172         10