##TITLE=Library Entry 40986
##JCAMP-DX=Revision 4.10 
##DATA TYPE=MASS SPECTRUM
##SAMPLE DESCRIPTION=Chemical Concepts
##NAMES=HP
##CAS NAME=.alpha.-D-Glucopyranoside, methyl 4,6-O-nonylidene-
##MOLFORM=C16H30O6
##CAS REGISTRY NO=123828-45-5
##MP= -300
##BP= -300
##MW= 318
##$RETENTION INDEX=0
##$CONDENSED SPECTRUM=NO
##NPOINTS= 214
##XYDATA=(XY..XY) 1 
    26         49
    27        356
    29        627
    30         40
    31        556
    33        144
    34          1
    35          7
    36         22
    37         10
    38         16
    39        208
    40         68
    41        915
    42        164
    43        608
    44        193
    45        593
    46         20
    47         24
    48          3
    49          9
    50         44
    51         62
    52         85
    53         89
    54         62
    55        539
    56        142
    57        937
    58         75
    59        135
    60        866
    61        359
    62         21
    63         23
    64          9
    65         47
    66         18
    67        136
    68         85
    69        921
    70        345
    71        278
    72         53
    73        999
    74        403
    75        228
    76         12
    77         26
    78         20
    79        139
    80         24
    81        229
    82         85
    83        290
    84         44
    85        228
    86        163
    87        231
    88         24
    89         25
    90         17
    91         82
    92         10
    93         24
    94         10
    95         64
    96         45
    97         85
    98        140
    99        174
   100         45
   101         46
   102         11
   103        111
   104         40
   105         24
   106          6
   107         40
   108         25
   109        150
   110         21
   111         23
   112         10
   113         28
   114         13
   115         45
   116        139
   117         38
   118          6
   119          4
   120         25
   121         12
   122          9
   123         36
   124         67
   125         55
   126         10
   127        364
   128         33
   129         21
   130          7
   131         18
   132          2
   133        131
   134          9
   135          9
   136          4
   137         11
   138         10
   139          9
   140          8
   141        277
   142         58
   143         82
   144         45
   145         69
   146         10
   147          7
   149          9
   150          1
   151          9
   152          9
   153         20
   154         15
   155         21
   156          8
   157         34
   158          9
   159         18
   160          2
   161          0
   162          0
   163          9
   164          4
   165          3
   166          8
   167         15
   168          7
   169         10
   170          8
   171          8
   172         58
   173        238
   174         24
   175          8
   176          5
   177          4
   179          5
   180          7
   181         29
   182          9
   183          3
   184          7
   185         25
   186          8
   187         12
   188          0
   189          3
   191          0
   193          0
   194          2
   195          7
   196          1
   197         16
   198         46
   199         24
   200          4
   202         10
   203         26
   204          7
   205        359
   206         32
   207          8
   209          4
   211         14
   212          3
   213          2
   214          7
   215         61
   216         10
   217          8
   218          1
   220          9
   221          1
   223          2
   225          0
   227         11
   228          1
   229          6
   231          0
   233          6
   240          8
   241          1
   243          0
   257          1
   258          0
   266         20
   267          7
   268          5
   269          9
   270          0
   281          0
   282          4
   283          0
   285          9
   286          8
   287          9
   290         10
   291          1
   315          0
   317         23
   318          8