##TITLE=Library Entry 28787
##JCAMP-DX=Revision 4.10 
##DATA TYPE=MASS SPECTRUM
##SAMPLE DESCRIPTION=Chemical Concepts
##NAMES=HP
##CAS NAME=2-Propanamine, 2-(2-[2,6-difluorobenzyl)oxy]-4-methyl-3-cyclohexe
nyl)
##MOLFORM=C17H23F2NO
##CAS REGISTRY NO=123843-19-6
##MP= -300
##BP= -300
##MW= 295
##$RETENTION INDEX=0
##$CONDENSED SPECTRUM=NO
##NPOINTS= 127
##XYDATA=(XY..XY) 1 
    26          1
    27         18
    28          5
    29         13
    30         19
    31          5
    37          1
    38          2
    39         31
    40          5
    41         71
    42         55
    43         26
    44         47
    45         10
    46          0
    49          0
    50          5
    51         11
    52          3
    53         17
    54          6
    55         18
    56          8
    57         18
    58        999
    59         47
    60          8
    61          1
    62          2
    63         11
    64          0
    65          8
    66          4
    67         14
    68          6
    69         43
    70         65
    71          8
    72          2
    73          0
    74          2
    75         12
    76          2
    77         29
    78          6
    79         99
    80         10
    81         18
    82         10
    83         13
    84         26
    85          7
    86          7
    87          1
    88          0
    89          1
    90          0
    91         17
    92          3
    93         20
    94        396
    95         42
    96         11
    97          7
    98          2
    99          0
   100          1
   101         10
   102          1
   103          0
   104          0
   105          5
   106          1
   107          9
   108         44
   109         46
   110         15
   111          4
   112          1
   113          4
   114          3
   115          8
   116          1
   117          0
   118          0
   119          7
   120          2
   121          3
   122          3
   123         18
   124          9
   125          6
   126          5
   127        155
   128         12
   129          0
   133          1
   134          2
   135         17
   136         10
   137          3
   138          1
   139          1
   140          0
   141          5
   142          0
   143         15
   144         19
   145          1
   148          0
   149          2
   150          1
   151         25
   152          8
   153          2
   154          0
   155          0
   166          1
   167          2
   168         21
   169          2
   180          2
   181          1
   182          2
   194          2
   195          1