##TITLE=Library Entry 41143
##JCAMP-DX=Revision 4.10 
##DATA TYPE=MASS SPECTRUM
##SAMPLE DESCRIPTION=Chemical Concepts
##NAMES=HP
##CAS NAME=.alpha.-d-Glucopyranoside, methyl 4,6-O-octylidene-
##MOLFORM=C15H28O6
##CAS REGISTRY NO=123828-44-4
##MP= -300
##BP= -300
##MW= 304
##$RETENTION INDEX=0
##$CONDENSED SPECTRUM=NO
##NPOINTS= 178
##XYDATA=(XY..XY) 1 
    26          3
    27         51
    29        107
    30          9
    31         68
    33         26
    37          0
    38          0
    39         19
    41        149
    42         33
    43        113
    44         53
    45        150
    46          3
    47          2
    49          0
    50          0
    52          0
    53         20
    54          8
    55        122
    56         79
    57        232
    58         21
    59         27
    60        436
    61        155
    62          5
    63          1
    64          0
    65          1
    66          4
    67         30
    68         22
    70         71
    71        184
    72         17
    73        999
    74        122
    75         66
    76          2
    77          1
    78          0
    79          3
    80          2
    81         35
    82         16
    83         29
    84         13
    85         86
    86         53
    87         84
    88          9
    89          6
    90          2
    91          1
    92          0
    94          1
    95          8
    96          4
    97         52
    98         99
    99        275
   100         15
   101         18
   102          7
   103         52
   104         39
   105         10
   106          1
   107          3
   108          2
   109         22
   110         21
   111         84
   112          7
   113          3
   114         10
   115         16
   116         87
   117         16
   118          1
   120          6
   121          1
   122          2
   123          5
   124          2
   125          2
   126          1
   127        115
   128         26
   129         90
   130          8
   132          1
   133        146
   134          8
   135          1
   136          0
   137          1
   138          0
   139          3
   140          4
   141          8
   142         21
   143          1
   144          6
   145         85
   146         10
   147          2
   148          1
   149          0
   152          0
   153          3
   154          0
   155          2
   156          1
   157          1
   158          2
   159         16
   160          1
   161          0
   165          0
   166          2
   167          2
   168          1
   170          0
   171         14
   172          3
   173         79
   174          6
   175          1
   176          2
   177          0
   179          0
   183          6
   184         35
   185          7
   187          7
   188          1
   189         23
   190          3
   196          0
   197          1
   198          0
   199          0
   201         94
   202         11
   203          1
   205        258
   206         24
   207          3
   208          0
   209          0
   211          0
   215          0
   218          0
   220          2
   221          0
   226          1
   227          1
   228          0
   229          0
   233          0
   236          0
   237          0
   244          0
   256          0
   267          0
   271          1
   272          0
   273         18
   274          1
   275          0
   276          1
   282          0
   303         16
   304          3