##TITLE=Library Entry 61987
##JCAMP-DX=Revision 4.10 
##DATA TYPE=MASS SPECTRUM
##SAMPLE DESCRIPTION=Chemical Concepts
##NAMES=HP
##CAS NAME=Benzenepropanoic acid, .alpha.-(1-hydroxyethyl)-
##MOLFORM=C11H14O3
##CAS REGISTRY NO=123986-72-1
##MP= -300
##BP= -300
##MW= 194
##$RETENTION INDEX=0
##$CONDENSED SPECTRUM=NO
##NPOINTS= 138
##XYDATA=(XY..XY) 1 
    26          8
    27         77
    28         11
    29         38
    30          2
    31          9
    37          2
    38          9
    39         90
    40          9
    41         45
    42          9
    43        123
    44         25
    45        261
    46          7
    47          3
    48          1
    49          2
    50         36
    51        119
    52         34
    53         23
    54          6
    55         53
    56          8
    57         25
    58          5
    59          3
    60          5
    61          4
    62         10
    63         43
    64         14
    65        157
    66         15
    67          6
    68          3
    69         38
    70         16
    71         15
    72          3
    73         32
    74         13
    75         14
    76         17
    77        162
    78        472
    79        102
    80          7
    81          6
    82          4
    83          9
    84          5
    85         30
    86          3
    87          5
    88          2
    89         31
    90         16
    91        999
    92        466
    93         37
    94          4
    95          5
    96          3
    97          7
    98          9
    99          3
   100          1
   101          5
   102         25
   103        237
   104        209
   105        115
   106         11
   107        113
   108         13
   109          4
   110          2
   111          4
   112          2
   113          3
   114          2
   115         68
   116         40
   117         83
   118          9
   119          4
   120          6
   121          6
   122          1
   123          3
   124          1
   125          2
   126          2
   127          6
   128         12
   129         48
   130        139
   131        700
   132        167
   133         52
   134          8
   135          3
   136          1
   137          1
   139          1
   141          3
   143          4
   144          1
   145          2
   146          1
   147         20
   148         22
   149         57
   150         45
   151          5
   152          1
   157          9
   158        161
   159         27
   160          3
   161         46
   162          6
   163          1
   165          1
   167          1
   175         11
   176        428
   177         59
   178          6
   179          2
   180          1
   181          2
   193          0
   194          1
   195          1