##TITLE=Library Entry 89661
##JCAMP-DX=Revision 4.10 
##DATA TYPE=MASS SPECTRUM
##SAMPLE DESCRIPTION=J. Daly, M. Garraffo, T. Spande, LBC, NIDDK, NIH, Bethe
sda, MD 20892
##NAMES=HP
##CAS NAME=(2R,5S)-2-Butyl-5-propylpyrrolidine
##MOLFORM=C11H23N
##CAS REGISTRY NO=123994-04-7
##MP= -300
##BP= -300
##MW= 169
##$RETENTION INDEX=0
##$CONDENSED SPECTRUM=NO
##NPOINTS= 22
##XYDATA=(XY..XY) 1 
    53         15
    55         81
    56         66
    67         61
    68        102
    69        129
    70         38
    82        105
    83         42
    84         26
    95         45
    96         33
    98         67
   110         32
   111         18
   112        999
   113         81
   125         22
   126        809
   127         68
   168         27
   169          9