##TITLE=Library Entry 76110
##JCAMP-DX=Revision 4.10 
##DATA TYPE=MASS SPECTRUM
##SAMPLE DESCRIPTION=Humboldt-Universitat zu Berlin, Department of Chemistry
, Analytical Group
##NAMES=HP
##CAS NAME=2-Diazo-1-oxo-1,2-dihydro-5-hydroxonaphthalene
##MOLFORM=C10H6N2O2
##CAS REGISTRY NO=123973-46-6
##MP= -300
##BP= -300
##MW= 186
##$RETENTION INDEX=0
##$CONDENSED SPECTRUM=NO
##NPOINTS= 143
##XYDATA=(XY..XY) 1 
    12          2
    13          2
    14         61
    15         17
    16          3
    17          8
    18         32
    19          3
    24          1
    25          9
    26         64
    27         88
    28        462
    29         98
    30          5
    31          6
    32          1
    34          0
    36          4
    37         78
    38        147
    39        151
    40         13
    41         37
    42         61
    43         31
    44         12
    45          4
    48          4
    49         64
    50        360
    51        423
    52        119
    53        160
    54         16
    55         32
    56          9
    57          4
    58          0
    59          0
    60          9
    61         85
    62        137
    63        135
    64         23
    65         24
    66         16
    67          3
    68          1
    69          2
    70          1
    71         20
    72         16
    73         49
    74        298
    75        349
    76        347
    77         87
    78         14
    79         53
    80          7
    81          1
    82          0
    83          1
    84          6
    85         26
    86         52
    87         47
    88         11
    89         11
    90          5
    91          5
    92          3
    93         17
    95          0
    96          1
    97         11
    98         57
    99         20
   100         13
   101        238
   102        999
   103         98
   104         19
   105          3
   106          0
   107          0
   108          1
   109          5
   110         10
   111          6
   112          2
   113          5
   114          5
   115          7
   116          2
   117          1
   118          2
   119          0
   121          0
   122          0
   123          1
   125          0
   126          0
   127          0
   128          2
   129        149
   130        714
   131        140
   132         20
   133          2
   139          0
   142          1
   143          0
   144          0
   145          0
   146          0
   147          0
   149          0
   151          0
   152          0
   153          0
   155          0
   156          0
   158        444
   159         55
   160         70
   161          7
   162          0
   163          0
   165          0
   170          0
   171          0
   172          0
   173          0
   176          3
   177          0
   181          0
   184          0
   186        188
   187         30
   188          3
   189          0