##TITLE=Library Entry 24642
##JCAMP-DX=Revision 4.10 
##DATA TYPE=MASS SPECTRUM
##SAMPLE DESCRIPTION=NIST Mass Spectrometry Data Center, 1990.
##NAMES=HP
##CAS NAME=2-Propanol, 1-(2-butoxyethoxy)-
##MOLFORM=C9H20O3
##CAS REGISTRY NO=124-16-3
##MP= -300
##BP= -300
##MW= 176
##$RETENTION INDEX=890
##$CONDENSED SPECTRUM=NO
##NPOINTS= 59
##XYDATA=(XY..XY) 1 
    15         37
    18          7
    19         34
    26         26
    27        177
    28         96
    29        454
    30         36
    31        260
    33          9
    38          7
    39         81
    41        575
    42         79
    43        235
    44         93
    45        641
    46         19
    47         12
    53          9
    55         95
    56        212
    57        999
    58        140
    59        597
    60        175
    61         52
    63         11
    69         18
    70          8
    71         72
    72         76
    73         63
    74         15
    75        130
    76         21
    77         78
    78          5
    82          5
    83          7
    85         51
    86         34
    87        283
    88         20
    89        113
   100        110
   101         58
   102          6
   103         27
   104          6
   115         13
   117          6
   129         14
   130         13
   131         73
   132         56
   133         10
   158          5
   161          4