##TITLE=Library Entry 30962
##JCAMP-DX=Revision 4.10 
##DATA TYPE=MASS SPECTRUM
##SAMPLE DESCRIPTION=NIST Mass Spectrometry Data Center, 1998.
##NAMES=HP
##CAS NAME=Octanoic acid
##MOLFORM=C8H16O2
##CAS REGISTRY NO=124-07-2
##MP= -300
##BP= -300
##MW= 144
##$RETENTION INDEX=1180
##$CONDENSED SPECTRUM=NO
##NPOINTS= 74
##XYDATA=(XY..XY) 1 
    15          1
    26          9
    27        128
    28         15
    29        146
    30          5
    31         12
    37          1
    38          3
    39        143
    40         25
    41        382
    42        128
    43        427
    44         17
    45        150
    46          1
    47          1
    50          2
    51         11
    52          2
    53         36
    54         19
    55        353
    56         95
    57        106
    58          6
    59         36
    60        999
    61        126
    62          6
    63          1
    65          2
    66          1
    67         22
    68         10
    69        119
    70         17
    71          8
    72          1
    73        627
    74         62
    75          2
    77          1
    78          1
    79          2
    80          2
    81          2
    82         27
    83         50
    84        176
    85        187
    86         16
    87        125
    88         10
    89          1
    91          1
    93          1
    97         20
    98         18
    99          1
   100          1
   101        237
   102         17
   103          1
   108          1
   111          1
   115         98
   116          8
   125          1
   127          7
   129          7
   144          3
   145          1