##TITLE=Library Entry 25707
##JCAMP-DX=Revision 4.10 
##DATA TYPE=MASS SPECTRUM
##SAMPLE DESCRIPTION=Japan AIST/NIMC Database- Spectrum MS-IW-3684
##NAMES=HP
##CAS NAME=Tetradecanal
##MOLFORM=C14H28O
##CAS REGISTRY NO=124-25-4
##MP= -300
##BP= -300
##MW= 212
##$RETENTION INDEX=1613
##$CONDENSED SPECTRUM=NO
##NPOINTS= 121
##XYDATA=(XY..XY) 1 
    15          3
    18          2
    26          4
    27        136
    28         30
    29        325
    30          8
    31         10
    32          1
    38          1
    39        104
    40         20
    41        673
    42        167
    43        806
    44        309
    45        130
    46          3
    47          1
    50          1
    51          5
    52          3
    53         47
    54        155
    55        710
    56        371
    57        999
    58         66
    59          9
    60          1
    63          1
    65          9
    66         87
    67        420
    68        551
    69        509
    70        327
    71        439
    72         88
    73         11
    74          1
    75          3
    77          6
    78          2
    79         25
    80         29
    81        375
    82        862
    83        472
    84        211
    85        226
    86         30
    87          3
    91          4
    92          1
    93         10
    94         22
    95        344
    96        515
    97        301
    98        118
    99         65
   100          8
   101          1
   103          6
   105          1
   107          4
   108          8
   109        166
   110        175
   111        120
   112         67
   113         32
   114          4
   115          1
   121          2
   122          6
   123         86
   124        103
   125         58
   126         50
   127         18
   128          3
   129          1
   133          1
   135          1
   136          3
   137         66
   138         88
   139         24
   140         38
   141          9
   142          1
   146          1
   151         21
   152         27
   153          5
   154          2
   155          3
   156          5
   157          1
   160          1
   161          9
   162          1
   165          9
   166         75
   167         10
   168        121
   169         19
   170          2
   179          2
   183          1
   184         19
   185          2
   194         52
   195          8
   196          2
   197          1
   211          1
   212          6
   213          2