##TITLE=Library Entry 30122
##JCAMP-DX=Revision 4.10 
##DATA TYPE=MASS SPECTRUM
##SAMPLE DESCRIPTION=Japan AIST/NIMC Database- Spectrum MS-NW-6024
##NAMES=HP
##CAS NAME=Octadecanamide
##MOLFORM=C18H37NO
##CAS REGISTRY NO=124-26-5
##MP= -300
##BP= -300
##MW= 283
##$RETENTION INDEX=2374
##$CONDENSED SPECTRUM=NO
##NPOINTS= 131
##XYDATA=(XY..XY) 1 
    15          1
    26          1
    27         30
    28          9
    29         82
    30          6
    39         21
    40          5
    41        158
    42         31
    43        220
    44         73
    45          3
    46          1
    51          1
    53          9
    54         11
    55        116
    56         26
    57        110
    58          8
    59        999
    60        113
    61          6
    65          2
    66          1
    67         13
    68          6
    69         55
    70         17
    71         35
    72        400
    73         76
    74          9
    75          2
    77          2
    79          4
    80          1
    81         10
    82          8
    83         33
    84         18
    85         17
    86         61
    87         11
    88          1
    91          1
    93          2
    94          1
    95          8
    96          9
    97         30
    98         38
    99          7
   100         19
   101         21
   102          2
   107          1
   109          4
   110         10
   111         13
   112          6
   113          4
   114         56
   115         36
   116          3
   121          2
   122          1
   123          2
   124          8
   125          7
   126          3
   127          2
   128         67
   129         11
   130          1
   135          2
   137          1
   138          4
   139          3
   140          2
   141          1
   142         12
   143          5
   149          1
   152          2
   153          2
   154          2
   156          9
   157          3
   166          2
   167          1
   168          1
   170         11
   171          3
   180          2
   181          1
   182          1
   184         13
   185          4
   194          3
   195          1
   196          1
   198          9
   199          3
   208          3
   209          2
   210          1
   212          9
   213          3
   222          4
   223          2
   224          1
   226          7
   227          3
   236          3
   237          1
   240         22
   241          6
   254         10
   255          9
   256          3
   265          2
   266          3
   267          1
   268          2
   269          1
   282          4
   283         59
   284         17
   285          3