##TITLE=Library Entry 67864
##JCAMP-DX=Revision 4.10 
##DATA TYPE=MASS SPECTRUM
##SAMPLE DESCRIPTION=R.E.Ardrey ET AL.Pharmaceutical Mass Spectra,L.,1985
##NAMES=HP
##CAS NAME=Picrotoxin
##MOLFORM=C15H16O6
##CAS REGISTRY NO=124-87-8
##MP= -300
##BP= -300
##MW= 292
##$RETENTION INDEX=0
##$CONDENSED SPECTRUM=NO
##NPOINTS= 179
##XYDATA=(XY..XY) 1 
    26         30
    27        660
    29        210
    30         10
    31        120
    39        590
    40        100
    41        900
    42         70
    43        850
    44         70
    45         40
    50         30
    51        110
    52         60
    53        220
    54         50
    55        910
    56         80
    57         60
    58         20
    59        730
    60         30
    62         20
    63         40
    64         20
    65        170
    66         80
    67        550
    68        130
    69        310
    70         40
    71        100
    73         10
    74         10
    75         20
    76         10
    77        170
    78         60
    79        170
    80         90
    81        170
    82        120
    83        220
    84         50
    85        120
    86         10
    87         10
    89         10
    90         20
    91        220
    92         50
    93         90
    94         60
    95        999
    96        480
    97        450
    98         80
    99         40
   100         10
   103         40
   104         60
   105        150
   106         50
   107        140
   108        130
   109        490
   110        180
   111        150
   112         60
   113         60
   114         20
   115         50
   116         30
   117         80
   118         40
   119         60
   120         60
   121        170
   122         60
   123         90
   124        130
   125        120
   126        120
   127         40
   128         20
   129         30
   130         10
   131         70
   132         30
   133        110
   134        120
   135        220
   136         60
   137        100
   138         60
   139        120
   140        100
   141         40
   142         10
   143         20
   144         10
   145        110
   146         30
   147         80
   148        170
   149        530
   150         70
   151         80
   152        100
   153         60
   154         20
   155         60
   156         20
   157         10
   158         10
   159         40
   160         20
   161         90
   162         30
   163         60
   164         40
   165         70
   166         30
   167         10
   168         50
   169         40
   170         20
   171         10
   173         30
   174         10
   175         50
   176         40
   177         30
   178         20
   179         20
   180         20
   181         60
   182         10
   185         10
   187         30
   188         10
   189         30
   190         10
   191         30
   192         60
   193         70
   194         10
   197         20
   202         10
   203         20
   205         30
   206         10
   207         20
   210         20
   213         10
   215         20
   217         10
   219         10
   220         30
   229         10
   231         10
   233         40
   234         10
   235         10
   246         10
   247         10
   249         20
   251         40
   252         50
   253         10
   259         50
   260         10
   274         30
   277         40
   278         10
   292         80
   293         20
   295         10