##TITLE=Library Entry 67754
##JCAMP-DX=Revision 4.10 
##DATA TYPE=MASS SPECTRUM
##SAMPLE DESCRIPTION=Japan AIST/NIMC Database- Spectrum MS-NW-4330
##NAMES=HP
##CAS NAME=Isoborneol
##MOLFORM=C10H18O
##CAS REGISTRY NO=124-76-5
##MP= -300
##BP= -300
##MW= 154
##$RETENTION INDEX=1157
##$CONDENSED SPECTRUM=NO
##NPOINTS= 93
##XYDATA=(XY..XY) 1 
    14          1
    15          7
    17          4
    18         13
    26          3
    27         70
    28          4
    29         58
    30          1
    31          9
    32          1
    37          1
    38          4
    39         81
    40         14
    41        201
    42         16
    43         91
    44          6
    45          8
    50          4
    51         14
    52          6
    53         50
    54         14
    55        133
    56         17
    57         26
    58          4
    59         60
    60          2
    61          1
    62          1
    63          4
    64          1
    65         15
    66          8
    67        113
    68         36
    69         96
    70         28
    71         90
    72         58
    73          3
    74          1
    77         34
    78          6
    79         50
    80         21
    81         70
    82        111
    83         65
    84         48
    85         14
    86          4
    91         27
    92         67
    93        189
    94         28
    95        999
    96         92
    97         20
    98          9
    99         12
   100          5
   103          1
   105         14
   106          5
   107         30
   108         37
   109         31
   110        161
   111         58
   112          6
   113          7
   119          3
   120          1
   121        130
   122         13
   123          9
   124          1
   125          6
   126          6
   135          1
   136        103
   137         14
   138          1
   139         89
   140          9
   152          3
   153          1
   154          7
   155          1