##TITLE=Library Entry 57961
##JCAMP-DX=Revision 4.10 
##DATA TYPE=MASS SPECTRUM
##SAMPLE DESCRIPTION=Japan AIST/NIMC Database- Spectrum MS-NW-3755
##NAMES=HP
##CAS NAME=Tetradecanoic acid, ethyl ester
##MOLFORM=C16H32O2
##CAS REGISTRY NO=124-06-1
##MP= -300
##BP= -300
##MW= 256
##$RETENTION INDEX=1794
##$CONDENSED SPECTRUM=NO
##NPOINTS= 120
##XYDATA=(XY..XY) 1 
    14          1
    15          2
    17          2
    18          9
    26          3
    27         50
    28         26
    29        143
    30          3
    31          6
    32          9
    39         23
    40          5
    41        161
    42         40
    43        195
    44          6
    45         45
    46          2
    53          9
    54         11
    55        127
    56         34
    57        119
    58          6
    59          7
    60         76
    61         98
    62          2
    65          1
    66          1
    67         18
    68         10
    69         79
    70         99
    71         51
    72          3
    73        117
    74         14
    75          3
    77          1
    79          4
    80          2
    81         15
    82          7
    83         46
    84         32
    85         25
    86          2
    87         16
    88        999
    89        136
    90          9
    91          1
    93          3
    94          1
    95         14
    96          6
    97         38
    98         36
    99          6
   101        473
   102         41
   103          4
   107          2
   109          8
   110          3
   111         18
   112          9
   113          2
   115         50
   116          5
   121          3
   123          4
   124          2
   125          9
   126          2
   127          1
   129         18
   130          9
   131          1
   135          2
   137          1
   138          1
   139          4
   140          1
   143         46
   144          9
   145          1
   149          2
   153          3
   157        112
   158         12
   159          1
   163          1
   166          2
   167          2
   168          2
   171         19
   172          3
   181          1
   185         12
   186          3
   191          2
   199         18
   200          4
   209          2
   210          2
   211         84
   212         12
   213         69
   214         11
   215          1
   227         16
   228          4
   229          2
   255          2
   256        118
   257         22
   258          2