##TITLE=Library Entry 7539
##JCAMP-DX=Revision 4.10 
##DATA TYPE=MASS SPECTRUM
##SAMPLE DESCRIPTION=Japan AIST/NIMC Database- Spectrum MS-NW-4025
##NAMES=HP
##CAS NAME=1-Nonene
##MOLFORM=C9H18
##CAS REGISTRY NO=124-11-8
##MP= -300
##BP= -300
##MW= 126
##$RETENTION INDEX=889
##$CONDENSED SPECTRUM=NO
##NPOINTS= 64
##XYDATA=(XY..XY) 1 
    15          8
    26         11
    27        210
    28         33
    29        301
    30          7
    31          1
    36          1
    37          3
    38          9
    39        217
    40         35
    41        689
    42        370
    43        999
    44         33
    50          7
    51         14
    52          9
    53         61
    54        110
    55        755
    56        860
    57        224
    58          9
    62          1
    63          3
    65          9
    66          8
    67        104
    68         78
    69        407
    70        406
    71         61
    72          3
    77          8
    78          2
    79         11
    80          4
    81         47
    82         67
    83        240
    84        221
    85         42
    86          3
    91          4
    93          5
    94          2
    95         23
    96         30
    97        143
    98         74
    99          7
   105          1
   107          2
   108          1
   109          5
   110          1
   111          7
   122          1
   124          5
   126         58
   127          6
   128          1