##TITLE=Library Entry 27657
##JCAMP-DX=Revision 4.10 
##DATA TYPE=MASS SPECTRUM
##SAMPLE DESCRIPTION=Japan AIST/NIMC Database- Spectrum MS-IW-7689
##NAMES=HP
##CAS NAME=Dimantine
##MOLFORM=C20H43N
##CAS REGISTRY NO=124-28-7
##MP= -300
##BP= -300
##MW= 297
##$RETENTION INDEX=2096
##$CONDENSED SPECTRUM=NO
##NPOINTS= 134
##XYDATA=(XY..XY) 1 
    15          1
    17          1
    18          4
    26          4
    27         13
    28         70
    29         31
    30         17
    31          1
    38          1
    39          9
    40          4
    41         48
    42         23
    43         64
    44         27
    45         23
    46         17
    48          5
    53          3
    54          4
    55         44
    56         15
    57         57
    58        999
    59         54
    64         10
    65          4
    66          1
    67          8
    68          5
    69         23
    70         12
    71         22
    72          7
    73          1
    77          2
    78          2
    79          4
    80          3
    81          6
    82          7
    83         16
    84         66
    85         12
    86          2
    91          7
    92          8
    93          3
    94          3
    95          4
    96          5
    97         12
    98          6
    99          2
   100          3
   104          2
   105          3
   106          2
   107          1
   108          1
   109          2
   110         12
   111          7
   112          3
   113          1
   114          4
   115          1
   117          2
   118          1
   119          2
   120          1
   121          2
   122          7
   123          2
   124          1
   125          3
   126          2
   127          1
   128          3
   129          2
   130          1
   131          2
   132          1
   133          1
   134          1
   135          1
   136          2
   137          1
   138          1
   139          1
   140          3
   141          1
   142          2
   143          1
   148          1
   153          1
   154          1
   155          1
   156          1
   166          1
   167          1
   168          1
   170          1
   180          5
   181          1
   182          1
   184          1
   196          1
   198          1
   210          1
   212          1
   224          1
   238          1
   240          1
   242          1
   244          1
   246          2
   252          2
   254          1
   268          2
   280          1
   282          4
   283          1
   289          1
   291          1
   292          1
   293          2
   294          7
   295          6
   296         36
   297         47
   298          9
   299          1