##TITLE=Library Entry 39689
##JCAMP-DX=Revision 4.10 
##DATA TYPE=MASS SPECTRUM
##SAMPLE DESCRIPTION=Drug Lab
##NAMES=HP
##CAS NAME=Dimethylethylcetylammonium bromide
##MOLFORM=C20H44BrN
##CAS REGISTRY NO=124-03-8
##MP= -300
##BP= -300
##MW= 377
##$RETENTION INDEX=0
##$CONDENSED SPECTRUM=NO
##NPOINTS= 52
##XYDATA=(XY..XY) 1 
    41         45
    42         21
    43         58
    44         46
    45          1
    53          2
    54          2
    55         32
    56         12
    57         27
    58         30
    59          8
    60          5
    67          3
    68          1
    69         12
    70         11
    72        999
    73         45
    74          1
    81          1
    82          1
    83          4
    84          7
    85          4
    86          1
    96          1
    97          2
    98         10
    99          1
   112          2
   114          2
   126          1
   128          3
   135          2
   137          2
   140          1
   142          2
   154          1
   156          1
   168          1
   182          1
   184          1
   198          1
   212          1
   254          3
   266          2
   268         16
   269          3
   282         11
   283         14
   284          3