##TITLE=Library Entry 48443
##JCAMP-DX=Revision 4.10 
##DATA TYPE=MASS SPECTRUM
##SAMPLE DESCRIPTION=Japan AIST/NIMC Database- Spectrum MS-NW-1128
##NAMES=HP
##CAS NAME=Methanesulfonyl chloride
##MOLFORM=CH3ClO2S
##CAS REGISTRY NO=124-63-0
##MP= -300
##BP= -300
##MW= 114
##$RETENTION INDEX=774
##$CONDENSED SPECTRUM=NO
##NPOINTS= 44
##XYDATA=(XY..XY) 1 
    12          1
    13          2
    14          9
    15        421
    16          5
    18          2
    28         11
    29         18
    30          1
    31          9
    32          9
    33          6
    34          4
    35          7
    36          6
    37          1
    38          1
    44         10
    45         23
    46          7
    47          4
    48         56
    49         17
    50          4
    51          4
    62          1
    63          9
    64         55
    65          7
    66          2
    67          1
    78          2
    79        999
    80         20
    81         46
    82          1
    83          8
    85          2
    94          1
    96          1
    99         17
   101          7
   114          7
   116          3