##TITLE=Library Entry 57273
##JCAMP-DX=Revision 4.10 
##DATA TYPE=MASS SPECTRUM
##SAMPLE DESCRIPTION=NIST Mass Spectrometry Data Center, 2007
##NAMES=HP
##CAS NAME=Ethanol, 2-(2-butoxyethoxy)-, acetate
##MOLFORM=C10H20O4
##CAS REGISTRY NO=124-17-4
##MP= -300
##BP= -300
##MW= 204
##$RETENTION INDEX=1366
##$CONDENSED SPECTRUM=NO
##NPOINTS= 83
##XYDATA=(XY..XY) 1 
    14          2
    15         30
    16          1
    18          1
    19          4
    26          9
    27         75
    28         92
    29        233
    30         18
    31         34
    32          1
    33          1
    38          2
    39         43
    40          7
    41        293
    42         54
    43        940
    44         97
    45        267
    46          7
    47          1
    50          1
    51          2
    52          1
    53          7
    54          3
    55         53
    56        230
    57        964
    58         93
    59         60
    60          6
    61        101
    62          3
    63          3
    67          2
    68          1
    69         11
    70         25
    71         59
    72        160
    73         97
    74         47
    75         99
    76          3
    77          1
    81          1
    82          7
    83         10
    84          2
    85        140
    86         53
    87        999
    88         91
    89        109
    90          6
    91          1
    98          6
    99         13
   100         97
   101        131
   102         12
   103         13
   104         21
   105         14
   106          1
   107          1
   113          1
   115          8
   116          1
   117         20
   118          2
   119          1
   129          8
   130          1
   131         19
   132         16
   133          1
   144         13
   145          1
   161          2