##TITLE=Library Entry 109621
##JCAMP-DX=Revision 4.10 
##DATA TYPE=MASS SPECTRUM
##SAMPLE DESCRIPTION=Japan AIST/NIMC Database- Spectrum MS-IW-2349
##NAMES=HP
##CAS NAME=Silane, dichloroethenylmethyl-
##MOLFORM=C3H6Cl2Si
##CAS REGISTRY NO=124-70-9
##MP= -300
##BP= -300
##MW= 140
##$RETENTION INDEX=697
##$CONDENSED SPECTRUM=NO
##NPOINTS= 83
##XYDATA=(XY..XY) 1 
    14          1
    15          4
    26          6
    27         19
    28          6
    29          5
    35          2
    36          6
    37          1
    38          3
    39         16
    40          2
    41          9
    42          9
    43         21
    44          3
    45          1
    52          3
    53         27
    54          5
    55          8
    63        222
    64         16
    65         83
    66          8
    67          5
    69          1
    70          1
    73          1
    75          1
    76          4
    77         16
    78         34
    79         55
    80         14
    81         17
    82          1
    87          1
    88          6
    89          5
    90          9
    91          4
    92          2
    93          5
    95          2
    98         40
    99        152
   100         35
   101        103
   102          9
   103         20
   104          7
   105         74
   106          9
   107         26
   108          2
   109          1
   111          2
   112         54
   113        291
   114         53
   115        194
   116         17
   117         35
   118          2
   119          1
   123          9
   124          3
   125        999
   126         76
   127        694
   128         49
   129        130
   130          8
   131          4
   139          1
   140        185
   141         16
   142        126
   143         10
   144         24
   145          1
   146          1