##TITLE=Library Entry 44768
##JCAMP-DX=Revision 4.10 
##DATA TYPE=MASS SPECTRUM
##SAMPLE DESCRIPTION=NIST Mass Spectrometry Data Center
##NAMES=HP
##CAS NAME=Methyl tetradecanoate
##MOLFORM=C15H30O2
##CAS REGISTRY NO=124-10-7
##MP= -300
##BP= -300
##MW= 242
##$RETENTION INDEX=1725
##$CONDENSED SPECTRUM=NO
##NPOINTS= 121
##XYDATA=(XY..XY) 1 
    15          5
    26          1
    27         23
    28          8
    29         62
    30          2
    31          3
    33          1
    39         34
    40          8
    41        214
    42         49
    43        260
    44         10
    45         11
    51          2
    52          1
    53         21
    54         21
    55        289
    56         54
    57        144
    58         10
    59        115
    60          4
    61          2
    65          4
    66          2
    67         30
    68         14
    69        126
    70         23
    71         42
    72          3
    74        999
    75        155
    76          9
    77          3
    78          1
    79         10
    80          3
    81         21
    82          9
    83         76
    84         34
    85         24
    87        691
    88         63
    89          5
    91          1
    93          6
    94          2
    95         17
    96          7
    97         59
    98         30
    99          6
   100          3
   101         67
   102          6
   103          1
   107          5
   108          1
   109          9
   110          4
   111         23
   112          7
   113          3
   114          1
   115         22
   116          9
   117          1
   121          5
   122          1
   123          4
   124          2
   125         10
   126          2
   127          1
   129         67
   130         13
   131          1
   135          4
   137          2
   138          2
   139          4
   140          1
   141          1
   143        205
   144         21
   145          2
   149          2
   153          2
   154          1
   157         42
   158          5
   163          1
   166          2
   167          1
   168          4
   169          1
   171         14
   172          2
   177          1
   181          1
   185         36
   186          5
   187          1
   191          1
   192          1
   199        110
   200         16
   201          2
   209          1
   211         53
   212          8
   213         22
   214          3
   242         51
   243          9
   244          1