##TITLE=Library Entry 1012
##JCAMP-DX=Revision 4.10 
##DATA TYPE=MASS SPECTRUM
##SAMPLE DESCRIPTION=Japan AIST/NIMC Database- Spectrum MS-NW- 321
##NAMES=HP
##CAS NAME=1-Octadecanamine
##MOLFORM=C18H39N
##CAS REGISTRY NO=124-30-1
##MP= -300
##BP= -300
##MW= 269
##$RETENTION INDEX=2045
##$CONDENSED SPECTRUM=NO
##NPOINTS= 103
##XYDATA=(XY..XY) 1 
    27         11
    28          5
    29         42
    30        999
    31         15
    39         10
    40          2
    41        103
    42         24
    43        170
    44        208
    45        104
    46          2
    50          1
    53          7
    54         10
    55        102
    56         54
    57         87
    58          9
    59         35
    60          1
    66          1
    67         11
    68          9
    69         64
    70         18
    71         24
    72         34
    73         15
    79          2
    80          1
    81          3
    82          7
    83         48
    84         12
    85         14
    86         75
    87         15
    95          2
    96          6
    97         29
    98          8
    99          1
   100         53
   101          7
   109          1
   110          2
   111         14
   112          4
   113          1
   114         20
   115          5
   124          2
   125          6
   126          5
   127          1
   128         20
   129          5
   138          1
   139          4
   140          4
   142         21
   143          6
   144          1
   152          1
   153          2
   154          5
   156         15
   157          3
   167          1
   168          2
   170         14
   171          4
   180          1
   181          1
   182          2
   184         14
   185          6
   186          1
   195          1
   196          1
   198         17
   199          2
   208          1
   210          3
   212         15
   213          5
   224          3
   226         14
   227          4
   240         14
   241          8
   242          1
   252          2
   254          8
   255          2
   266          1
   267          3
   268         20
   269        112
   270         23
   271          2