##TITLE=Library Entry 1087
##JCAMP-DX=Revision 4.10 
##DATA TYPE=MASS SPECTRUM
##SAMPLE DESCRIPTION=NIST Mass Spectrometry Data Center
##NAMES=HP
##CAS NAME=1,6-Hexanediamine
##MOLFORM=C6H16N2
##CAS REGISTRY NO=124-09-4
##MP= -300
##BP= -300
##MW= 116
##$RETENTION INDEX=0
##$CONDENSED SPECTRUM=NO
##NPOINTS= 56
##XYDATA=(XY..XY) 1 
    15          3
    17          1
    18         24
    26          3
    27         27
    28         68
    29         26
    30        999
    31         50
    32          1
    38          2
    39         43
    40          8
    41         94
    42        114
    43         70
    44        103
    45         91
    46          2
    47          2
    50          2
    51          4
    52          4
    53         14
    54         20
    55         66
    56        329
    57         34
    58         13
    59         62
    60          2
    65          2
    66          2
    67         19
    68          8
    69         41
    70         84
    71          5
    72         41
    73         28
    74          1
    77          1
    79          5
    80          1
    81         11
    82         18
    83          2
    84          5
    86         79
    87        165
    88         10
    98         19
    99         40
   100         53
   101          4
   117          2