##TITLE=Library Entry 28886
##JCAMP-DX=Revision 4.10 
##DATA TYPE=MASS SPECTRUM
##SAMPLE DESCRIPTION=Japan AIST/NIMC Database- Spectrum MS-IW- 756
##NAMES=HP
##CAS NAME=Bis(2-ethoxyethyl)amine
##MOLFORM=C8H19NO2
##CAS REGISTRY NO=124-21-0
##MP= -300
##BP= -300
##MW= 161
##$RETENTION INDEX=0
##$CONDENSED SPECTRUM=NO
##NPOINTS= 53
##XYDATA=(XY..XY) 1 
    14          1
    15          6
    26          3
    27         20
    28         34
    29         53
    30         67
    31         30
    40          1
    41          9
    42         23
    43         22
    44         73
    45        155
    46          9
    54          3
    55          6
    56        176
    57         16
    58        999
    59         51
    60          3
    68          2
    69          1
    70         22
    71          7
    72         21
    73         34
    74         17
    75          1
    84          1
    85          1
    86          7
    87          1
    88          9
    89          3
    99          1
   100          5
   101          1
   102        606
   103         36
   104          2
   114          2
   115          1
   116         18
   117         82
   118          6
   130          4
   146          1
   160          1
   161          9
   162         11
   163          1