##TITLE=Library Entry 89574
##JCAMP-DX=Revision 4.10 
##DATA TYPE=MASS SPECTRUM
##SAMPLE DESCRIPTION=H. Fales, LC, NHLBI, NIH, Bethesda, MD 20892
##NAMES=HP
##CAS NAME=Cevane-3,4,12,14,16,17,20-heptol, 4,9-epoxy-, (3.alpha.,4.alpha.,
16.beta.)-
##MOLFORM=C27H43NO8
##CAS REGISTRY NO=124-98-1
##MP= -300
##BP= -300
##MW= 509
##$RETENTION INDEX=0
##$CONDENSED SPECTRUM=NO
##NPOINTS= 230
##XYDATA=(XY..XY) 1 
    41         96
    42         59
    43        283
    44        117
    45         37
    46          6
    47          7
    49         22
    50         10
    51         24
    52          6
    53         26
    54         22
    55        192
    56         71
    57         70
    58         14
    59          7
    60         18
    61          4
    63          5
    65         14
    66          6
    67         56
    68         29
    69         69
    70         35
    71         31
    72          9
    73         20
    74          5
    75          3
    76          5
    77         35
    78         46
    79         32
    80         10
    81         50
    82         69
    83         38
    84         32
    85         18
    86         18
    87          7
    88          3
    91         29
    92          5
    93         20
    94         11
    95         24
    96         44
    97         30
    98        572
    99         23
   100         39
   101          6
   102          2
   103          9
   104          3
   105         25
   106         29
   107         23
   108         10
   109         25
   110         94
   111        351
   112        999
   113         75
   114          6
   115          8
   116          3
   117          9
   118          2
   119         11
   120          5
   121         15
   122          8
   123         14
   124         57
   125         15
   126         18
   127          8
   128         77
   129         15
   131         13
   132          4
   133         14
   134          6
   135         11
   136         13
   137          8
   138         21
   139          7
   140         51
   141         14
   142         31
   143         12
   144          5
   145         10
   146          5
   147         10
   148          6
   149         23
   150         11
   151          6
   152         23
   153         26
   154         83
   155         20
   156         24
   157         10
   158          3
   159         10
   160          4
   161         10
   162         11
   163          9
   164          9
   165          6
   166          7
   167          7
   168          6
   169          7
   170         10
   171          9
   172          4
   173          6
   174          5
   175          6
   176          6
   177          7
   178         25
   179         11
   180         18
   181          6
   182          8
   183          9
   184          3
   185          7
   186          3
   187          4
   188          4
   189          3
   190          7
   191         15
   192         10
   193          5
   194          4
   195          4
   196         35
   197          8
   198         16
   199          7
   200          5
   201          3
   202          2
   203          3
   204          3
   205          5
   206          9
   207         11
   208          5
   209         10
   210          4
   211          3
   213          4
   214          2
   215          3
   217          2
   219          2
   220         13
   221          5
   222          4
   223          3
   224          9
   225          3
   227          4
   228          2
   229          2
   242          4
   259          2
   262          3
   270          4
   273          4
   298          5
   299          4
   336          3
   370          2
   372          5
   376          2
   388          2
   396          6
   406          2
   407          2
   412          2
   418          2
   422          1
   430          5
   434          6
   436          7
   437          3
   438          2
   446          3
   448         13
   449          4
   450          5
   451          2
   454          3
   456          2
   464         11
   465          4
   466         95
   467         27
   468          5
   472          6
   473          5
   474         30
   475          9
   476          3
   490         22
   491         68
   492         49
   493         12
   494         15
   495          4
   507          2
   508         12
   509        119
   510         24
   511          7