##TITLE=Library Entry 72869
##JCAMP-DX=Revision 4.10 
##DATA TYPE=MASS SPECTRUM
##SAMPLE DESCRIPTION=Japan AIST/NIMC Database- Spectrum MS-NW- 242
##NAMES=HP
##CAS NAME=Hexanedioic acid
##MOLFORM=C6H10O4
##CAS REGISTRY NO=124-04-9
##MP= -300
##BP= -300
##MW= 146
##$RETENTION INDEX=1372
##$CONDENSED SPECTRUM=NO
##NPOINTS= 66
##XYDATA=(XY..XY) 1 
    14          8
    15         22
    17          5
    18         19
    26         51
    27        257
    28        139
    29        206
    30         12
    31         65
    32          5
    37          3
    38         18
    39        173
    40         21
    41        481
    42        269
    43        520
    44         19
    45        272
    46          9
    47          7
    50         15
    51         14
    52          9
    53         53
    54        146
    55        325
    56         85
    57         75
    58        118
    59         61
    60        495
    61         15
    62          6
    68         81
    69        430
    70         18
    71          7
    72         10
    73        294
    74         35
    77          5
    78          4
    79          4
    81          9
    82         69
    83         65
    84          9
    85         17
    86         27
    87        404
    88         19
    96          3
    97          6
    99         22
   100        999
   101         79
   102         20
   109          5
   110         31
   111         16
   112         13
   128        178
   129         37
   130          5