##TITLE=Library Entry 28571
##JCAMP-DX=Revision 4.10 
##DATA TYPE=MASS SPECTRUM
##SAMPLE DESCRIPTION=Japan AIST/NIMC Database- Spectrum MS-NW-9208
##NAMES=HP
##CAS NAME=1-Hexadecanaminium, N,N,N-trimethyl-, octadecanoate
##MOLFORM=C37H77NO2
##CAS REGISTRY NO=124-23-2
##MP= -300
##BP= -300
##MW= 567
##$RETENTION INDEX=0
##$CONDENSED SPECTRUM=NO
##NPOINTS= 133
##XYDATA=(XY..XY) 1 
    15          4
    18          2
    27         10
    28          5
    29         35
    30          6
    31          1
    39          9
    40          2
    41         84
    42         26
    43        123
    44         15
    45         13
    46          9
    53          4
    54          6
    55         94
    56         22
    57         77
    58        999
    59         52
    60          2
    61          2
    65          1
    67         12
    68          7
    69         61
    70         16
    71         37
    72          7
    73          9
    74        351
    75         81
    76          4
    77          1
    79          3
    80          1
    81         11
    82          8
    83         44
    84         30
    85         19
    86          1
    87        235
    88         20
    89          1
    91          1
    93          3
    94          1
    95          9
    96          5
    97         34
    98         15
    99          5
   100          3
   101         25
   102          3
   107          2
   109          5
   110          4
   111         14
   112          5
   113          2
   114          3
   115          9
   116          5
   121          3
   123          3
   124          2
   125          8
   126          3
   127          1
   128          3
   129         30
   130          9
   131          1
   135          3
   136          1
   137          2
   138          1
   139          5
   140          2
   141          1
   142          1
   143         87
   144          9
   145          1
   149          2
   152          1
   153          3
   154          1
   155          1
   156          1
   157         16
   158          2
   163          1
   167          2
   168          1
   171          9
   172          2
   181          1
   185         17
   186          4
   196          1
   199         34
   200          5
   213         11
   214          2
   224          3
   227          6
   228          1
   239          1
   240          1
   241         10
   242          2
   254          1
   255         30
   256          6
   257          1
   267         14
   268         11
   269         23
   270          9
   271          1
   284          4
   285          6
   286          1
   297          1
   298         58
   299         14
   300          2
   508          1