##TITLE=Library Entry 51047
##JCAMP-DX=Revision 4.10 
##DATA TYPE=MASS SPECTRUM
##SAMPLE DESCRIPTION=Japan AIST/NIMC Database- Spectrum MS-IW-4030
##NAMES=HP
##CAS NAME=Octanenitrile
##MOLFORM=C8H15N
##CAS REGISTRY NO=124-12-9
##MP= -300
##BP= -300
##MW= 125
##$RETENTION INDEX=1082
##$CONDENSED SPECTRUM=NO
##NPOINTS= 66
##XYDATA=(XY..XY) 1 
    15          6
    26         10
    27        180
    28         63
    29        258
    30         24
    31          1
    37          2
    38          7
    39        161
    40         31
    41        771
    42        163
    43        502
    44         28
    50          5
    51         12
    52         15
    53         50
    54        604
    55        557
    56        121
    57        190
    58         11
    62          1
    63          2
    64          4
    65          9
    66         12
    67         54
    68        122
    69        482
    70         71
    71         39
    72          2
    75          1
    77          8
    78          2
    79         40
    80         15
    81         30
    82        999
    83        540
    84         45
    85         20
    86          2
    91          7
    92          1
    93         25
    94         10
    95          7
    96        615
    97        285
    98         23
    99          2
   100          9
   105          1
   107          6
   108          3
   109          2
   110        172
   111         13
   124         50
   125          5
   126         21
   127          2