##TITLE=Library Entry 15147
##JCAMP-DX=Revision 4.10 
##DATA TYPE=MASS SPECTRUM
##SAMPLE DESCRIPTION=Chemical Concepts
##NAMES=HP
##CAS NAME=1,4-Butanediamine, N-(3-aminopropyl)-
##MOLFORM=C7H19N3
##CAS REGISTRY NO=124-20-9
##MP= -300
##BP= -300
##MW= 145
##$RETENTION INDEX=0
##$CONDENSED SPECTRUM=NO
##NPOINTS= 90
##XYDATA=(XY..XY) 1 
    26          3
    27         34
    28        130
    29         42
    30        732
    31         29
    37          0
    38          1
    39         21
    40         47
    41         87
    42        173
    43        156
    44        999
    45         63
    46          7
    47          0
    50          0
    51          0
    52          1
    53          7
    54         13
    55         69
    56        170
    57        300
    58         96
    59         47
    60          5
    65          0
    66          0
    67          6
    68         34
    69         11
    70        425
    71         44
    72        268
    73         76
    74         29
    75          9
    76          0
    77          0
    78          0
    79          0
    80          2
    81          2
    82         20
    83         10
    84        343
    85         70
    86          9
    87        213
    88         13
    89         34
    90          1
    91          0
    93          0
    94          1
    95          0
    96         16
    97          2
    98         98
    99         36
   100          5
   101        120
   102        100
   103          6
   104          0
   108          0
   109          0
   110          7
   111          8
   112          6
   113          2
   114          2
   115         11
   116          3
   117          0
   123          1
   124          0
   125          1
   126          0
   127          2
   128          7
   129         12
   130          1
   137          0
   144          0
   145         23
   146         11
   147          0