##TITLE=Library Entry 107772
##JCAMP-DX=Revision 4.10 
##DATA TYPE=MASS SPECTRUM
##SAMPLE DESCRIPTION=K. Jacobson, LBC, NIDDK, NIH, Bethesda, MD 20892
##NAMES=HP
##CAS NAME=4-(t-butoxycarbonylaminoacetamido)butanamide, N-methyl-N-[4-(1-py
rrolidinyl)-2-butynyl]
##MOLFORM=C20H34N4O4
##CAS REGISTRY NO=124045-44-9
##MP= -300
##BP= -300
##MW= 394
##$RETENTION INDEX=0
##$CONDENSED SPECTRUM=NO
##NPOINTS= 232
##XYDATA=(XY..XY) 1 
    42        437
    43         51
    44        814
    45         12
    46          1
    48          1
    49          5
    50         22
    51         57
    52        105
    53        178
    54         92
    55        119
    56        135
    57        376
    58        710
    59         55
    60          4
    61          1
    62          3
    63          2
    64          5
    65         54
    66         81
    67        122
    68        143
    69        160
    70        197
    71        440
    72         24
    73         14
    74         78
    75         77
    76         37
    77         32
    78         20
    79         50
    80        172
    81        202
    82        118
    83        226
    84        237
    85         23
    86        358
    87         13
    88          7
    89         10
    90          2
    91         20
    92         28
    93        127
    94         96
    95         61
    96         42
    97         51
    98         66
    99        165
   100        235
   101          9
   102         11
   103          4
   104          3
   105          6
   106         43
   107         10
   108        414
   109         22
   110         65
   111         49
   112         35
   113         13
   114         13
   115         14
   116          7
   117          9
   118         16
   120        210
   122        317
   123        423
   124        999
   125         39
   126         52
   127         13
   128          2
   129          3
   130          4
   131          5
   132          6
   133          4
   134         11
   135         19
   136         41
   137         22
   138         62
   139        124
   140         20
   141         22
   142          9
   143         79
   144          6
   145          4
   146          1
   147          4
   148         10
   149         27
   150         53
   151         77
   152         37
   153         18
   154          4
   155          4
   156         48
   157          6
   158          2
   159          3
   160          4
   161          2
   162          3
   163          6
   164          5
   165         18
   166          7
   167         16
   168          6
   169         17
   170          2
   171          2
   172          1
   173          1
   174          5
   175          1
   176          2
   177          6
   178          4
   179          6
   180          2
   181          2
   182         10
   183          4
   184          1
   185          2
   186          2
   187         13
   188          2
   189          1
   190          1
   191          3
   192          4
   193        191
   194         30
   195         21
   196          4
   197          2
   198          1
   199          2
   200        373
   201         26
   202          7
   203          1
   204          1
   205          2
   206          4
   207          6
   208          2
   209          1
   210          1
   211          1
   213          1
   214          0
   215          0
   216          1
   217          3
   218          5
   219          3
   220          9
   221          5
   222          6
   223          3
   224         18
   225          6
   226          1
   228          1
   229          1
   230          1
   231          1
   234          1
   236          3
   237          1
   238          1
   239          1
   240          0
   243          2
   244          0
   248          1
   250         50
   251          8
   252          2
   253          1
   256        193
   257         35
   258          4
   262          1
   264         93
   265         15
   266          4
   267          1
   268         14
   269          8
   270          1
   274          2
   278          1
   280          1
   284          2
   293          6
   294          5
   295         14
   296          2
   308          1
   313          2
   321         35
   322          7
   323          1
   324          2
   325          2
   337          3
   338          1
   379          0
   393          5
   394         58
   395         13
   396          6
   397          1