##TITLE=Library Entry 37153
##JCAMP-DX=Revision 4.10 
##DATA TYPE=MASS SPECTRUM
##SAMPLE DESCRIPTION=K. Jacobson, LBC, NIDDK, NIH, Bethesda, MD 20892
##NAMES=HP
##CAS NAME=Propionamide, 3-methoxycarbonyl-N-methyl-N-[4-(1-pyrrolidinyl)-2-
butynyl
##MOLFORM=C14H22N2O3
##CAS REGISTRY NO=124045-49-4
##MP= -300
##BP= -300
##MW= 266
##$RETENTION INDEX=0
##$CONDENSED SPECTRUM=NO
##NPOINTS= 227
##XYDATA=(XY..XY) 1 
    42        629
    43        212
    44        163
    45         75
    46          4
    47          6
    49         30
    50         17
    51         65
    52         99
    53        148
    54         66
    55        476
    56         98
    57        113
    58         41
    59        139
    60         19
    61          8
    62          9
    63         13
    64          8
    65         42
    66         57
    67         78
    68        113
    69         78
    70        999
    71        118
    72         24
    73         23
    74          8
    75          9
    76          7
    77         58
    78         72
    79         53
    80        153
    81        288
    82        150
    83        141
    84        131
    85         35
    86         13
    87         58
    88         33
    89         22
    90          5
    91         50
    92         21
    93         71
    94         56
    95         59
    96         40
    97         41
    98         20
    99         14
   100         46
   101         12
   102          5
   103         29
   104          9
   105         30
   106         63
   107         43
   108        308
   109         50
   110         47
   111         26
   112         10
   113         19
   114         75
   115        401
   116         31
   117         44
   118         16
   119         45
   120        322
   121        502
   122        181
   123        148
   124         84
   125         17
   126          8
   127         11
   128        529
   129         49
   130          8
   131         10
   132          6
   133         13
   134         12
   135         18
   136         39
   137         26
   138         31
   139        131
   140         16
   141         11
   142         10
   143          9
   144          5
   145         10
   146         11
   147          8
   148          6
   149         27
   150         16
   151         44
   152         13
   153          9
   154          7
   155          6
   156          4
   157          7
   158         10
   159         10
   160          3
   161          3
   162          3
   163          7
   164         63
   165         56
   166         25
   167         10
   168          6
   169          6
   170          4
   171          6
   172          3
   173          7
   174          3
   175          4
   176          3
   177          8
   178         11
   179         11
   180          6
   181          6
   182          9
   183          6
   184          3
   185          6
   186          4
   187          5
   188          1
   189          6
   190          3
   191          8
   192          6
   193         12
   194         11
   195         20
   196        187
   197        166
   198         23
   199          7
   200          3
   201          3
   202          5
   203          5
   204          3
   205          6
   206          3
   207         14
   208          6
   209          7
   210          7
   211          6
   212          4
   213          4
   214          2
   215          5
   216          3
   217          4
   218          3
   219          6
   220          3
   221          9
   222          5
   223          5
   224          4
   225          4
   226          2
   227          3
   228          3
   229          3
   230          3
   231          6
   232          5
   233          8
   234          6
   235        125
   236         23
   237         10
   238          5
   239          7
   240          3
   241          3
   242          3
   243          3
   244          2
   245          2
   246          2
   247          4
   248          4
   249          3
   250          4
   251          4
   252          4
   253          2
   254          1
   255          3
   256          3
   257          2
   258          2
   259          2
   260          2
   261          2
   262          3
   263          2
   264          2
   265         19
   266         29
   267         16
   268         10
   269          3