##TITLE=Library Entry 5164
##JCAMP-DX=Revision 4.10 
##DATA TYPE=MASS SPECTRUM
##SAMPLE DESCRIPTION=K. Jacobson, LBC, NIDDK, NIH, Bethesda, MD 20892
##NAMES=HP
##CAS NAME=5-Aminovaleramide, N-methyl-N-[4-(1-pyrrolidinyl]-2-butynyl]-
##MOLFORM=C14H25N3O
##CAS REGISTRY NO=124045-59-6
##MP= -300
##BP= -300
##MW= 251
##$RETENTION INDEX=0
##$CONDENSED SPECTRUM=NO
##NPOINTS= 212
##XYDATA=(XY..XY) 1 
    42        999
    43        530
    44        560
    45         53
    46          7
    47          6
    48          2
    49         14
    50         27
    51         76
    52        100
    53        169
    54         95
    55        443
    56        518
    57        186
    58         76
    59         19
    60         37
    61         44
    62          8
    63         15
    64         10
    65         70
    66         93
    67        112
    68        113
    69        122
    70        604
    71        202
    72         54
    73         67
    74         21
    75         12
    76          8
    77         62
    78         75
    79         62
    80        179
    81        258
    82        186
    83        205
    84        161
    85         59
    86         22
    87         21
    88         18
    89          7
    91         49
    92         25
    93        125
    94        179
    95         84
    96         52
    97         63
    98        121
    99        264
   100        111
   101         18
   102          5
   103         17
   104          9
   105         27
   106         66
   107         36
   108        256
   109         55
   110         57
   111         47
   112         24
   113        687
   114         62
   115         15
   116          7
   117         12
   118         14
   119         32
   120        606
   121        999
   122        173
   123        190
   124        176
   125         71
   126         20
   127         18
   128          7
   129         19
   130          4
   131          7
   132          5
   133         10
   134         12
   135         21
   136         56
   137         38
   138         74
   139        189
   140         23
   141         21
   142          8
   143         40
   144          5
   145          5
   146          4
   147         12
   148          8
   149          6
   150         69
   151         48
   152         76
   153         24
   154          8
   155         10
   156          4
   157          7
   158          2
   159          4
   160          2
   161          5
   162          5
   163         17
   164        167
   165         52
   166         20
   167         20
   168         12
   169         11
   170          1
   171          6
   172          2
   173          3
   174          1
   175          5
   176          3
   177          8
   178          9
   179         15
   180          7
   181         28
   182         49
   183         11
   184          2
   185          7
   186          3
   187          4
   188          1
   189          5
   190          2
   191          9
   192          5
   193         11
   194          6
   195          6
   196          5
   197         12
   198          3
   199          4
   200          2
   201          2
   202          3
   203          4
   204          2
   205          8
   206          7
   207          1
   208          7
   209         12
   210          4
   211          5
   212          5
   213          6
   214          1
   215          3
   216          1
   217          3
   218          2
   219          4
   220          3
   221         13
   222          5
   223          7
   224          4
   225          1
   226          2
   227          3
   228          3
   229          2
   230          2
   231          3
   232          3
   233          4
   234          3
   235          7
   236         12
   237          4
   238          0
   239          0
   240          0
   241          1
   242          1
   243          1
   244          0
   245          2
   246          2
   247          1
   248          1
   249          2
   250          5
   251         18
   252          7
   253          3
   254          1