##TITLE=Library Entry 5160
##JCAMP-DX=Revision 4.10 
##DATA TYPE=MASS SPECTRUM
##SAMPLE DESCRIPTION=K. Jacobson, LBC, NIDDK, NIH, Bethesda, MD 20892
##NAMES=HP
##CAS NAME=7-Aminoheptanamide, N-methyl-N-[4-(1-pyrrolidinyl)-2-butynyl]-
##MOLFORM=C16H29N3O
##CAS REGISTRY NO=124045-64-3
##MP= -300
##BP= -300
##MW= 279
##$RETENTION INDEX=0
##$CONDENSED SPECTRUM=NO
##NPOINTS= 232
##XYDATA=(XY..XY) 1 
    42        999
    43        594
    44        953
    45         78
    46         19
    47          3
    50        103
    51        560
    52        107
    53        219
    54        106
    55        542
    56        176
    57         87
    58        139
    59         23
    60         42
    61          3
    62          2
    63          6
    64          6
    65         51
    66         78
    67        141
    68        149
    69        447
    70        574
    71        183
    72        133
    73         51
    74          8
    75          5
    76          2
    77         42
    78         26
    79         61
    80        190
    81        310
    82        284
    83        185
    84        335
    85         45
    86         76
    87         17
    88          7
    89          9
    91         43
    92         26
    93        154
    94         85
    95         69
    96         52
    97         41
    98         52
    99         19
   100         35
   101         10
   102          4
   103         10
   104          5
   105         16
   106         44
   107         31
   108        463
   109         57
   110        154
   111         34
   112         28
   113          9
   114         12
   115         15
   116          9
   117         25
   118         17
   119         10
   120        562
   121        966
   122         68
   123        321
   124        208
   125         82
   126         34
   127         25
   128        306
   129         44
   130          9
   131         13
   132          8
   133         17
   134         24
   135         34
   136         95
   137         44
   138        120
   139        167
   140         30
   141        514
   142         96
   143         28
   144          5
   145          5
   146          4
   147          6
   148         10
   149         21
   150         31
   151         77
   152         41
   153         25
   154          9
   155         11
   156          5
   157          8
   158          4
   159          7
   160          5
   161          6
   162          6
   163          9
   164         17
   165         13
   166         16
   167         33
   168          7
   169         69
   170         26
   171          9
   172          3
   173          4
   174          2
   175          5
   176          4
   177          6
   178         31
   179         11
   180         30
   181         12
   182          3
   183        505
   184         60
   185         10
   186          2
   187          2
   188          1
   189          4
   190          6
   191          7
   192         22
   193         11
   194         13
   195          9
   196          3
   197          6
   198          2
   199         16
   200          7
   201          8
   202          5
   203          5
   204          4
   205          7
   206          3
   207         15
   208          4
   209         23
   210         13
   211          7
   212          5
   213          5
   214          1
   215          3
   216          2
   217          3
   218          2
   219          6
   220          3
   221          9
   222          4
   223          9
   224          4
   225          2
   226          2
   227          2
   228          1
   229          2
   230          3
   231          5
   232          4
   233          5
   234          3
   235         16
   236          6
   237         22
   238          6
   239          5
   240          4
   241          5
   242          1
   243          1
   245          2
   246          1
   247          3
   248          2
   249          8
   250          6
   251         23
   252          6
   253          4
   254          1
   255          1
   256          1
   257          1
   259          1
   260          1
   261          2
   262          2
   263          3
   264          3
   265          2
   266          2
   267          1
   268          2
   269          1
   274          1
   275          1
   276          2
   277          2
   278          4
   279         14
   280          6
   281          2
   282          1