##TITLE=Library Entry 27386
##JCAMP-DX=Revision 4.10 
##DATA TYPE=MASS SPECTRUM
##SAMPLE DESCRIPTION=Chemical Concepts
##NAMES=HP
##CAS NAME=l-Phenylalanine, N-[4-[2,6-bis(1,1-dimethylethyl)-4-methoxyphenox
y]-3-nitro-4-oxobutyl]-, 1,1-dimethylethyl ester, (S)-
##MOLFORM=C32H46N2O7
##CAS REGISTRY NO=124201-90-7
##MP= -300
##BP= -300
##MW= 570
##$RETENTION INDEX=0
##$CONDENSED SPECTRUM=NO
##NPOINTS= 252
##XYDATA=(XY..XY) 1 
    25          1
    26          7
    27         42
    28         31
    29        125
    30        313
    31         31
    37          3
    38         14
    39        150
    40        243
    41        307
    42         16
    43         58
    44          3
    45         28
    46          6
    50          4
    51         25
    52         12
    53         49
    54          8
    55        139
    56         17
    57        999
    58         48
    59         41
    60          2
    61          0
    62          1
    63         11
    64          5
    65         36
    66         11
    67         58
    68         45
    69         49
    70          7
    71          6
    72          1
    73        344
    74         18
    75          4
    76          3
    77         57
    78         17
    79         40
    80          6
    81         21
    82          3
    83         28
    84          2
    85          5
    86          1
    87          1
    88          2
    89          7
    90          4
    91        104
    92         17
    93         25
    94          6
    95         15
    96          2
    97          8
    98          5
    99          6
   100          1
   101          2
   102          6
   103         26
   104         11
   105         58
   106         10
   107         37
   108         10
   109         16
   110          5
   111          3
   112          1
   113         13
   114        113
   115         39
   116         18
   117         28
   118          9
   119         66
   120         13
   121         47
   122         18
   123         22
   124         10
   125          7
   126          2
   127         11
   128         24
   129         29
   130         16
   131         27
   132         13
   133         47
   134         20
   135         92
   136         26
   137         37
   138          8
   139         11
   140          2
   141         11
   142          8
   143         11
   144         10
   145         32
   146         17
   147         38
   148         16
   149         42
   150         16
   151         43
   152          8
   153          7
   154          2
   155          4
   156          4
   157          8
   158         14
   159         20
   160         16
   161         35
   162         18
   163         24
   164         60
   165         36
   166          6
   167          7
   168          2
   169          2
   170          3
   171          5
   172          7
   173         10
   174          7
   175        143
   176         25
   177         68
   178         18
   179        353
   180         48
   181          6
   182          2
   183          4
   184          1
   185          3
   186          2
   187          6
   188          8
   189         11
   190          7
   191         15
   192          7
   193         14
   194          2
   195          2
   196          1
   197          1
   198          1
   199          1
   200          1
   201          2
   202          2
   203         35
   204          9
   205         81
   206         13
   207        128
   208         20
   209          2
   210          1
   211          1
   212          1
   213          2
   214          9
   215          3
   216          2
   217          5
   218          3
   219         22
   220         31
   221         14
   222          3
   223          1
   227          1
   228          1
   229          3
   230          2
   231          5
   232          4
   233          3
   234         12
   235        822
   236        151
   237         16
   238          2
   243          1
   244          1
   245          2
   246          5
   247         20
   248          3
   249          1
   250          0
   254          1
   255          1
   257          0
   258          0
   259          1
   260          5
   261          2
   262          1
   263          0
   268          1
   269          1
   270          9
   271          2
   272          1
   273          2
   274          1
   275          1
   276          2
   277          1
   278          5
   279          1
   292          3
   293          3
   294          1
   302          1
   303          1
   304          1
   316          6
   317          1
   318          1
   329          1
   330          1
   333          3
   334         27
   335          5
   336          1
   349        513
   350        105
   351         16
   352          2
   353          0