##TITLE=Library Entry 20998
##JCAMP-DX=Revision 4.10 
##DATA TYPE=MASS SPECTRUM
##SAMPLE DESCRIPTION=NIST Mass Spectrometry Data Center
##NAMES=HP
##CAS NAME=Panaxjapyne A
##MOLFORM=C17H26O
##CAS REGISTRY NO=1242413-82-6
##MP= -300
##BP= -300
##MW= 246
##$RETENTION INDEX=1994
##$CONDENSED SPECTRUM=NO
##NPOINTS= 119
##XYDATA=(XY..XY) 1 
    26          3
    27         79
    28          7
    29        132
    30          4
    31          9
    38          5
    39        147
    40         26
    41        434
    42         42
    43        353
    44         15
    50         22
    51         91
    52         43
    53        131
    54        152
    55        999
    56         71
    57        148
    58         11
    62          9
    63         64
    64         23
    65        221
    66        245
    67        389
    68        116
    69        145
    70         43
    71         21
    74          8
    75         16
    76         19
    77        431
    78        189
    79        488
    80        126
    81        224
    82         88
    83        101
    84         14
    85         15
    88          4
    89         36
    90         22
    91        966
    92        242
    93        259
    94        289
    95        183
    96         85
    97         21
    98          6
   101          5
   102         30
   103        128
   104         60
   105        546
   106        175
   107        703
   108        726
   109        154
   110         48
   111          6
   115        208
   116         70
   117        243
   118         56
   119        252
   120        175
   121        171
   122         51
   123         18
   127         53
   128        211
   129        187
   130         62
   131        116
   132         36
   133        273
   134         92
   135         47
   136         10
   137         10
   138          8
   139          6
   141         31
   142         26
   143        132
   144         33
   145         34
   146         14
   147        259
   148         52
   149         17
   150          4
   157         24
   158          6
   161        115
   162         23
   163         10
   164          3
   175         37
   176         32
   177          6
   189         18
   190          5
   191         19
   192          6
   203          5
   215          3
   217          9
   219          3
   228          3
   231          7
   245         10
   246          5