##TITLE=Library Entry 64099
##JCAMP-DX=Revision 4.10 
##DATA TYPE=MASS SPECTRUM
##SAMPLE DESCRIPTION=Chemical Concepts
##NAMES=HP
##CAS NAME=1H-Pyrrole-3,4-diacetic acid, 2-benzyloxycarbonyl-5-methyl-, diet
hyl ester
##MOLFORM=C21H25NO6
##CAS REGISTRY NO=124481-56-7
##MP= -300
##BP= -300
##MW= 387
##$RETENTION INDEX=0
##$CONDENSED SPECTRUM=NO
##NPOINTS= 175
##XYDATA=(XY..XY) 1 
    27          9
    28          4
    29         31
    39         14
    41         25
    42         22
    43         30
    44          6
    45          8
    51          8
    52          6
    53         12
    54          4
    55         24
    56          9
    57         31
    59          3
    60          8
    61          2
    63          6
    64          3
    65         66
    66          6
    67          9
    68          5
    69         24
    70          7
    71         21
    73          6
    76          2
    77         26
    78         10
    79         14
    80          5
    81         17
    82          7
    83         14
    84          7
    85         13
    87          2
    89          9
    90          6
    91        999
    92         78
    93         10
    94         11
    95         12
    96          5
    97         13
    98          4
    99          6
   104         18
   105         23
   106         27
   107         32
   108         17
   109          8
   110          3
   111          9
   112          3
   113          5
   115          3
   119          2
   120          5
   121          6
   122         41
   123          8
   124          4
   125          7
   127          5
   129          6
   132          6
   133         35
   134         22
   135         10
   136          6
   137          4
   138          2
   139          4
   141          3
   143          2
   147          2
   148          9
   149         58
   150         52
   151         12
   152         27
   153          4
   155          3
   159          2
   160         33
   161          5
   162          2
   165          9
   166         19
   167          8
   168          4
   169          2
   176         23
   177         20
   178         58
   179         35
   180         46
   181         10
   182         11
   183          4
   185          3
   193          2
   194         45
   195         13
   196         47
   197         10
   198         23
   199          4
   204         19
   205         15
   206         39
   207         41
   208          8
   209          2
   210          4
   211          2
   212          4
   222        136
   223         36
   224        195
   225         21
   226          6
   228          2
   232         11
   233          2
   235          3
   237          5
   238          5
   239          6
   240         69
   241         16
   242         54
   243         10
   249          2
   250        475
   251         69
   252         37
   253          7
   254          2
   256         12
   257          2
   262          2
   265          4
   267          7
   268         62
   269         30
   270        104
   271         21
   278          8
   279          5
   284          7
   285          2
   286          2
   295          9
   296        363
   297         61
   298         10
   312          4
   313         78
   314        146
   315         29
   316          3
   341        275
   342         59
   343         18
   344          3
   387        204
   388         46
   389          6