##TITLE=Library Entry 59075
##JCAMP-DX=Revision 4.10 
##DATA TYPE=MASS SPECTRUM
##SAMPLE DESCRIPTION=Chemical Concepts
##NAMES=HP
##CAS NAME=5-Acetoxymethyl-3,4-bis-ethoxycarbonylmethyl-1H-pyrrole-2-carboxy
lic acid, benzyl ester
##MOLFORM=C23H27NO8
##CAS REGISTRY NO=124481-57-8
##MP= -300
##BP= -300
##MW= 445
##$RETENTION INDEX=0
##$CONDENSED SPECTRUM=NO
##NPOINTS= 314
##XYDATA=(XY..XY) 1 
    26          5
    27         20
    28         25
    29        106
    30          4
    31         20
    38          3
    39         24
    40          9
    41         71
    42         86
    43        631
    44         44
    45        548
    46          8
    47          3
    50          8
    51         23
    52         16
    53         16
    54          8
    55         58
    56         21
    57         85
    58          6
    59         11
    60        452
    61         20
    62          5
    63         12
    64          8
    65         81
    66         12
    67         26
    68         13
    69         68
    70         24
    71         52
    72          6
    73         14
    74          4
    75          3
    76          7
    77         50
    78         30
    79         27
    80          9
    81         36
    82         16
    83         32
    84         18
    85         25
    86          3
    87          5
    88          2
    89         13
    90         12
    91        999
    92         88
    93         21
    94         10
    95         22
    96         15
    97         30
    98         11
    99         13
   100          2
   101          4
   102          3
   103          7
   104         26
   105         42
   106         17
   107         25
   108         18
   109         16
   110          9
   111         20
   112          9
   113         12
   114          3
   115          5
   116          2
   117          3
   118          3
   119         11
   120         14
   121         26
   122         18
   123         15
   124          7
   125         11
   126          6
   127          9
   128          4
   129         11
   130          3
   131          6
   132         28
   133         19
   134          9
   135          9
   136          9
   137         13
   138         12
   139          7
   140          5
   141          7
   142          2
   143          4
   144          2
   145          3
   146          4
   147          9
   148         33
   149         89
   150         36
   151         14
   152         10
   153          6
   154          4
   155          6
   156          2
   157          4
   158          2
   159          6
   160         10
   161          5
   162          3
   163          5
   164         15
   165         13
   166         32
   167         18
   168          5
   169          4
   170          2
   171          4
   172          1
   173          2
   174          9
   175          6
   176         27
   177         29
   178         40
   179         76
   180         26
   181         11
   182         13
   183          6
   184          3
   185          6
   186          3
   187          1
   189          2
   190          3
   191          5
   192         43
   193         20
   194         64
   195         18
   196         20
   197          6
   198          5
   199          4
   200          1
   201          2
   202          1
   203          5
   204         16
   205         23
   206         12
   207          9
   208         10
   209          6
   210         33
   211          9
   212          5
   213          5
   214          2
   215          1
   217          2
   218          5
   219          4
   220         42
   221         18
   222         64
   223         34
   224         28
   225          7
   226          7
   227          4
   228          4
   229          3
   231          4
   232          5
   234          6
   235          7
   236         15
   237         10
   238        347
   239         62
   240         61
   241         13
   242          9
   243          3
   244          2
   245          3
   246          1
   247          2
   248         33
   249         27
   250         77
   251         86
   252         24
   253          7
   254         16
   255          7
   256         13
   257          6
   258          2
   259          2
   260          2
   261          2
   262          6
   263          7
   264          7
   265         15
   266        419
   267         74
   268         58
   269         15
   270         15
   271          4
   272          2
   277         33
   278         10
   279         21
   280          8
   281          4
   282         25
   283         11
   284         16
   285          5
   286          2
   292          1
   293          4
   294        187
   295         38
   296         44
   297         10
   298         12
   299          4
   300          9
   301          4
   302          1
   304          2
   308         10
   309          7
   310         17
   311         38
   312        268
   313         62
   314         28
   315          5
   321          1
   322          1
   323          4
   324          2
   325          1
   326          4
   327          7
   328         51
   329         15
   330          4
   331          2
   337          2
   338          3
   339         27
   340         52
   341         40
   342         11
   343          3
   354         54
   355         12
   356          9
   357         13
   358          7
   359          2
   365          1
   366          2
   367          1
   368          5
   369          3
   370          1
   371          4
   372         60
   373         14
   374          3
   383          2
   384          3
   385        223
   386        125
   387         42
   388          9
   389          2
   399          2
   400          8
   401          3
   402          1
   411          1
   445         42
   446         12
   447          3