##TITLE=Library Entry 114350
##JCAMP-DX=Revision 4.10 
##DATA TYPE=MASS SPECTRUM
##SAMPLE DESCRIPTION=H. ADLERCREUTZ, UNIV. OF HELSINKI, FINLAND
##NAMES=HP
##CAS NAME=17-Hydroxyestr-4-en-3-one o-methyloxime, TMS derivative
##MOLFORM=C22H37NO2Si
##CAS REGISTRY NO=124460-92-0
##MP= -300
##BP= -300
##MW= 375
##$RETENTION INDEX=0
##$CONDENSED SPECTRUM=NO
##NPOINTS= 191
##XYDATA=(XY..XY) 1 
    59         12
    67         37
    69         28
    70         20
    71         12
    73        185
    74         35
    75        118
    76         11
    77         15
    79         56
    80         20
    81         95
    82         39
    83         14
    85         11
    87         12
    91         62
    92         16
    93        100
    94         48
    95         95
    96         39
    97         11
    99         14
   101         40
   103         26
   104         23
   105         97
   106         70
   107         94
   108        104
   109         74
   110         24
   111         19
   112         41
   113         15
   115         85
   116         41
   117         68
   118         28
   119        109
   120         53
   121         83
   122         75
   123         25
   125         48
   126         70
   127         15
   128         14
   129        999
   130        190
   131        139
   132         79
   133         92
   134         74
   135        249
   136         60
   137        499
   138        249
   139        514
   140         83
   141         33
   142         19
   143         70
   144         76
   145        200
   146         86
   147        191
   148        428
   149         69
   150         25
   151        108
   152         54
   153         32
   154         16
   155         37
   156         34
   157        101
   158         91
   159         99
   160         67
   161         67
   162         33
   163         54
   164         44
   165         13
   167         20
   168         19
   169         74
   170         52
   171         84
   172         56
   173         40
   174        101
   175         34
   176         36
   177         46
   178         18
   180         15
   181         37
   182         38
   183         63
   184         59
   185         92
   186         43
   187         44
   188         24
   189         98
   190         59
   191        115
   192         87
   193         21
   194         15
   195         83
   196         49
   197        150
   198        103
   199         82
   200         60
   201         20
   202         27
   203         20
   204         13
   205         13
   209         22
   210         56
   211         88
   212        129
   213        119
   214         51
   215         28
   216         24
   217         16
   221         22
   222         19
   223         42
   224         75
   225        101
   226         77
   227         45
   228        112
   229         31
   230         26
   231         30
   235         13
   236         17
   237        170
   238        157
   239         88
   240         27
   242         26
   243         16
   244        102
   245         30
   246         28
   252         54
   253        108
   254        657
   255        153
   256         46
   257         31
   258         18
   259         64
   260         15
   270         91
   271         22
   284         89
   285        349
   286         92
   287         22
   315         19
   316         18
   317         11
   327         14
   329         12
   330         18
   341         22
   342         18
   343         87
   344        371
   345        169
   346         54
   347         16
   360         81
   361         30
   373         22
   374         32
   375        599
   376        159
   377         29