##TITLE=Library Entry 76875
##JCAMP-DX=Revision 4.10 
##DATA TYPE=MASS SPECTRUM
##SAMPLE DESCRIPTION=A.A.Kutin, Moscow, Russia
##NAMES=HP
##CAS NAME=Isoindole-1,3(1H,3H)-dione, 2-[(2-phenylethynyl)aziridin-1-yl]-
##MOLFORM=C18H12N2O2
##CAS REGISTRY NO=124475-74-7
##MP= -300
##BP= -300
##MW= 288
##$RETENTION INDEX=0
##$CONDENSED SPECTRUM=NO
##NPOINTS= 145
##XYDATA=(XY..XY) 1 
    34          1
    36          2
    37         16
    38         36
    39         98
    40         56
    41         16
    42          8
    43         34
    44         26
    45          4
    50        428
    51        125
    52         36
    53         10
    54          0
    55          6
    56          7
    57          8
    60          1
    61         13
    62         68
    63        124
    64         39
    65         24
    66          5
    67          2
    69          2
    70          6
    71          2
    73         11
    74        131
    75        160
    76        927
    77        166
    78         49
    79         11
    81          1
    84          0
    85          6
    86         23
    87         41
    88         66
    89         49
    90         84
    91         18
    92          4
    93          6
    98          9
    99          7
   100          4
   101         24
   102        163
   103         65
   104        999
   105        135
   106          8
   107          1
   111          0
   112          1
   113         80
   114        322
   115        318
   116         37
   117          6
   118          6
   119          2
   120          1
   121          1
   122          0
   125          1
   126         33
   127         86
   128        195
   129         58
   130         74
   131          7
   132         23
   133          3
   134          1
   135         25
   136          3
   139          1
   140         27
   141         59
   142        148
   143         15
   145          1
   146         11
   147         29
   148          6
   155         14
   156          7
   157         23
   158         13
   160          1
   162         13
   163          0
   164          1
   165         22
   166          1
   171          1
   173         38
   174          3
   175          3
   176          2
   177          1
   178          9
   179          2
   180          1
   183          8
   184          2
   185          4
   189          1
   190          4
   191          1
   193          4
   202         15
   203         10
   204         69
   205         22
   206          9
   207          1
   214          0
   215          2
   216          3
   217          3
   218          1
   219          0
   231         81
   232         46
   233         13
   234          1
   235          3
   242          4
   243         52
   244         12
   259         37
   260         21
   261          5
   271          4
   287         15
   288        350
   289         69
   290          7