##TITLE=Library Entry 49540
##JCAMP-DX=Revision 4.10 
##DATA TYPE=MASS SPECTRUM
##SAMPLE DESCRIPTION=Chemical Concepts
##NAMES=HP
##CAS NAME=3-Azabicyclo[3.3.0]octane-2,4-dione, 7-methylene-3-phenyl-
##MOLFORM=C14H13NO2
##CAS REGISTRY NO=124571-38-6
##MP= -300
##BP= -300
##MW= 227
##$RETENTION INDEX=0
##$CONDENSED SPECTRUM=NO
##NPOINTS= 91
##XYDATA=(XY..XY) 1 
    26         15
    27         92
    29          1
    34          0
    36          0
    37          7
    38         21
    39        137
    41         42
    42          6
    43          2
    44          8
    45          2
    46          0
    49          0
    50         23
    51         80
    52         60
    53         47
    54         18
    55         15
    56          3
    58          0
    62          3
    63         26
    64         48
    65         45
    66         13
    67          5
    68         12
    69          0
    73          0
    74          4
    75          7
    76          6
    77        198
    78         53
    79        456
    80        999
    81         64
    82          2
    89          1
    90          6
    91         72
    92         18
    93         32
    94          8
    95          1
    96          1
   103          5
   104         29
   105         15
   106         22
   107         33
   108          5
   115          0
   117          4
   119        141
   120         77
   121          8
   122          0
   123          1
   124          6
   128          1
   129          2
   130          4
   133          0
   135          0
   143          0
   154          0
   155          0
   156          2
   159          1
   170          2
   171          3
   172          2
   173          0
   181          1
   182          4
   183          0
   184          1
   187          3
   197          2
   198         35
   199         17
   200          2
   207          3
   225          0
   227        409
   228         65
   229          7