##TITLE=Library Entry 114999
##JCAMP-DX=Revision 4.10 
##DATA TYPE=MASS SPECTRUM
##SAMPLE DESCRIPTION=NIST Mass Spectrometry Data Center
##NAMES=HP
##CAS NAME=.alpha.-Ethyl-3-nitrocinnamic acid
##MOLFORM=C11H11NO4
##CAS REGISTRY NO=124525-55-9
##MP= -300
##BP= -300
##MW= 221
##$RETENTION INDEX=0
##$CONDENSED SPECTRUM=NO
##NPOINTS= 161
##XYDATA=(XY..XY) 1 
    15          8
    16          2
    17         13
    18         47
    26          8
    27         81
    29         35
    30         41
    31          5
    37          6
    38         21
    39        178
    40         12
    41         67
    42         13
    43         42
    44         17
    45        115
    46         12
    47          1
    49          3
    50        108
    51        211
    52         56
    53         86
    54         16
    55         45
    56          4
    57         16
    58          6
    60          1
    61         11
    62         61
    63        216
    64         81
    65        145
    66         26
    67         12
    68          5
    69        104
    70          7
    71         22
    73          7
    74         68
    75        105
    76         82
    77        291
    78         98
    79         53
    80         17
    81          9
    82          2
    83          2
    85          6
    86         22
    87         39
    88         34
    89        180
    90         88
    91        203
    92         30
    93         77
    94         25
    95          4
    97          3
    98         14
    99         15
   100          7
   101         62
   102        148
   103        185
   104         56
   105         53
   106         92
   107         38
   108          4
   109          4
   110          3
   111          2
   113         40
   114         64
   115        803
   116        277
   117        122
   118         58
   119         32
   120         22
   121         12
   122          5
   123          2
   125          3
   126         41
   127        304
   128        724
   129        870
   130        999
   131        322
   132         86
   133         15
   134         12
   135         26
   136         56
   137         10
   138          3
   139          1
   140         10
   141         15
   142         60
   143         48
   144        120
   145        175
   146        164
   147         32
   148         17
   149          5
   150          9
   151          3
   152         15
   153          2
   154          2
   155         16
   156         36
   157         29
   158         99
   159        150
   160        121
   161         18
   162         10
   163          4
   165          3
   166          3
   168          5
   169          3
   170          1
   171          2
   172         23
   173         55
   174        195
   175         61
   176        137
   177         17
   178          6
   185          3
   186         32
   187         29
   188          6
   189         11
   190          9
   191        200
   192         29
   193          4
   202          2
   203         21
   204        439
   205         76
   206         22
   207          3
   220          7
   221        198
   222         24
   223          3