##TITLE=Library Entry 830
##JCAMP-DX=Revision 4.10 
##DATA TYPE=MASS SPECTRUM
##SAMPLE DESCRIPTION=Chemical Concepts
##NAMES=HP
##CAS NAME=Malonic acid, (9,10-anthrylenedimethylene)bis[methyl-, tetraethyl
 ester
##MOLFORM=C32H38O8
##CAS REGISTRY NO=124514-49-4
##MP= -300
##BP= -300
##MW= 550
##$RETENTION INDEX=0
##$CONDENSED SPECTRUM=NO
##NPOINTS= 279
##XYDATA=(XY..XY) 1 
    26         34
    27        185
    28         25
    29        999
    30         24
    31         30
    34          1
    36          0
    37          1
    38          2
    39          8
    41         19
    42          3
    43         68
    44         15
    45         25
    46          3
    47          8
    50          4
    51          4
    52          2
    53          4
    54          5
    55         15
    56         16
    57          4
    58          3
    59          1
    61          1
    62          3
    63          4
    64          0
    65          2
    66          1
    67          1
    68          1
    69          7
    71          2
    72         17
    73          7
    74          6
    75          4
    76          4
    77          3
    78          1
    81          1
    82          3
    83         30
    84          3
    85          4
    86          2
    87          3
    88          3
    89          3
    91          2
    95          0
    97          1
    98          1
    99          7
   100         19
   101          8
   102          2
   103          2
   104          2
   105          1
   107          2
   108          2
   110          4
   111          1
   112          1
   113          3
   114          4
   115          3
   117          2
   119          1
   120          2
   122          1
   126          2
   127          3
   128         13
   129          1
   130          1
   135          1
   137          2
   139          3
   141          3
   142          3
   146          2
   149          1
   150          3
   151          4
   152          3
   153          1
   156          2
   163          3
   164          3
   165          8
   166          2
   167          1
   171          1
   173          2
   174          9
   175          3
   176          6
   177          4
   178         10
   179          3
   185          1
   187          4
   188          4
   189         37
   190         17
   191         40
   192          9
   193          3
   198          1
   199          1
   200          9
   201         12
   202         79
   203         61
   204        112
   205         40
   206          8
   207          3
   211          3
   212          2
   213         13
   214          9
   215        214
   216        141
   217         39
   218         11
   219         11
   220          3
   221          2
   222          1
   224          3
   225          3
   226         24
   227         28
   228         56
   229        860
   230        233
   231        146
   232         32
   233          8
   234          3
   235          3
   236          1
   237          2
   238          3
   239         19
   240         14
   241         27
   242         18
   243         19
   244         30
   245         25
   246          8
   247          9
   248          5
   249         33
   250          9
   251          3
   252          5
   253          4
   254          3
   255         30
   256         15
   257        132
   258        521
   259        337
   260         58
   261          7
   262          3
   263          1
   264          1
   266          1
   267          3
   268          4
   269         13
   270         10
   271          6
   272         12
   273          9
   274          4
   275         54
   276         13
   277          3
   282          3
   283         25
   284         12
   285         20
   286         17
   287        137
   288         29
   289          5
   290          3
   291          1
   295          1
   296          3
   297          3
   298          3
   299          3
   300          3
   301         10
   302          9
   303        209
   304         60
   305         19
   306          4
   309          1
   311          5
   312         11
   313          9
   314          4
   315          3
   316          3
   317          2
   318          1
   319          1
   320          2
   325          1
   328          2
   329         10
   330          7
   331         59
   332         16
   333          5
   334          1
   341          2
   343          1
   345          2
   347          3
   349          6
   350          2
   357          9
   358          7
   359          4
   360          2
   364          3
   373          1
   374          1
   375          3
   377        816
   378        225
   379         45
   380          7
   381          2
   383          3
   384          1
   385          1
   386          2
   387          2
   391          2
   401          2
   402          1
   403          7
   404          3
   405          1
   406          1
   421          2
   422          1
   431         14
   432          6
   433          2
   459          1
   476          3
   477          3
   478          6
   479          3
   505          6
   506          3
   507          1
   550        232
   551         88
   552         19
   553          4