##TITLE=Library Entry 28734
##JCAMP-DX=Revision 4.10 
##DATA TYPE=MASS SPECTRUM
##SAMPLE DESCRIPTION=Darrick Lee, Cayman Chemical, Ann Arbor, MI
##NAMES=HP
##CAS NAME=2-Methylmethcathinone
##MOLFORM=C11H15NO
##CAS REGISTRY NO=1246815-51-9
##MP= -300
##BP= -300
##MW= 177
##$RETENTION INDEX=0
##$CONDENSED SPECTRUM=NO
##NPOINTS= 49
##XYDATA=(XY..XY) 1 
    40          5
    41         20
    42         44
    43         24
    44          3
    50          9
    51         18
    52          6
    53          3
    54          5
    56        101
    58        999
    59         40
    61          2
    62         10
    63         33
    64         11
    65         93
    66          6
    74          3
    75          4
    76          3
    77          9
    78          3
    79          2
    86          2
    87          2
    89         32
    90         14
    91        108
    92         10
   102          2
   103          5
   104          2
   105          6
   115          8
   116          2
   117          5
   119         35
   120          3
   128          3
   130          2
   131          3
   132          3
   144          3
   146          2
   147          2
   160          3
   162          2