##TITLE=Library Entry 41144
##JCAMP-DX=Revision 4.10 
##DATA TYPE=MASS SPECTRUM
##SAMPLE DESCRIPTION=Chemical Concepts
##NAMES=HP
##CAS NAME=.alpha.-d-Galactopyranoside, methyl 4,6-O-decylidene-
##MOLFORM=C17H32O6
##CAS REGISTRY NO=124674-81-3
##MP= -300
##BP= -300
##MW= 332
##$RETENTION INDEX=0
##$CONDENSED SPECTRUM=NO
##NPOINTS= 197
##XYDATA=(XY..XY) 1 
    26          2
    27         48
    28         30
    29        125
    30          5
    31         56
    33         24
    39         17
    40         11
    41        143
    42         28
    43        137
    44         34
    45        107
    46          2
    47          3
    51          1
    52          0
    53         18
    54          9
    55        135
    56         52
    57        184
    58         19
    59         26
    60        355
    61        118
    62          3
    63          1
    65          1
    66          3
    67         36
    68         20
    69        135
    70         79
    71        188
    72         17
    73        999
    74        126
    75         64
    76          3
    77          2
    78          0
    79          5
    80          3
    81         69
    82         37
    83        206
    84         22
    85         99
    86         63
    87         90
    88         13
    89          8
    90          2
    91          3
    93          4
    94          2
    95         46
    96         21
    97         82
    98        117
    99        317
   100         32
   101         24
   102          9
   103         66
   104         48
   105         12
   106          1
   107          4
   108          3
   109         20
   110          9
   111         13
   112          7
   113         12
   114         10
   115         20
   116        110
   117         24
   118          2
   119          6
   120          8
   121          5
   122          3
   123          6
   124          3
   125          3
   126          2
   127        145
   128         14
   129         23
   130          4
   131          8
   132          1
   133        189
   134         12
   135          3
   136          3
   137         13
   138         24
   139         17
   140          3
   141         11
   142         22
   143          5
   144          8
   145        104
   146         12
   147          4
   148          0
   149          1
   150          2
   151          4
   152          3
   153          2
   154          1
   155         65
   156         21
   157         83
   158          8
   159         22
   160          1
   163          2
   165          2
   166          1
   167          6
   168          2
   169          3
   170          1
   171          4
   172          1
   173        102
   174          7
   175          3
   176          5
   177          1
   178          1
   179          0
   181          3
   182          0
   183          2
   184          0
   185          0
   186          2
   187         12
   188          2
   189          1
   191          0
   193          1
   194          6
   195          4
   196          2
   197          1
   199         14
   200          2
   201          1
   202          0
   205        302
   206         29
   207          5
   211          8
   212         29
   213          5
   214          0
   216          1
   217         20
   218          3
   220          4
   221          1
   223          0
   225          2
   227          0
   229         84
   230         12
   231          2
   232          0
   239          0
   240          0
   241          1
   243          0
   254          1
   255          1
   257          1
   259          1
   271          1
   272          0
   283          0
   299          1
   300          0
   301         19
   302          4
   304          0
   331         13
   332          3
   333          1