##TITLE=Library Entry 73348
##JCAMP-DX=Revision 4.10 
##DATA TYPE=MASS SPECTRUM
##SAMPLE DESCRIPTION=A.A.Kutin, Moscow, Russia
##NAMES=HP
##CAS NAME=1-Propanone, 1-(2-benzofuryl)-3-(4-morpholyl)-
##MOLFORM=C15H17NO3
##CAS REGISTRY NO=124617-33-0
##MP= -300
##BP= -300
##MW= 259
##$RETENTION INDEX=0
##$CONDENSED SPECTRUM=NO
##NPOINTS= 89
##XYDATA=(XY..XY) 1 
    33         39
    34          7
    39         35
    40         16
    41         51
    42        145
    43         62
    44         83
    45         17
    50          5
    51          7
    52          1
    54         36
    55        104
    56        295
    57         40
    58          4
    59          2
    62         13
    63         35
    64          5
    65          3
    67          2
    68         12
    69         15
    70         51
    71         62
    72         16
    73          5
    77         22
    78          2
    79          2
    81          3
    82          8
    84         43
    86         51
    87         27
    88         16
    89        117
    90         16
    91          8
    93          1
    94          1
    95          2
    96          5
    98        131
    99        547
   100        999
   101         54
   102          7
   103          1
   104          1
   108         12
   112         15
   113         15
   114         34
   115         20
   116          3
   117          4
   118         12
   119          2
   127          4
   129          3
   131         56
   132          3
   133          2
   143          7
   144         33
   145        143
   146         15
   147          5
   149          1
   151         32
   159          2
   160          7
   172         47
   173         24
   174         22
   201          1
   212          2
   216         49
   217          4
   228          3
   242          1
   257          6
   258         24
   259        217
   260         37
   261          2