##TITLE=Library Entry 40987
##JCAMP-DX=Revision 4.10 
##DATA TYPE=MASS SPECTRUM
##SAMPLE DESCRIPTION=Chemical Concepts
##NAMES=HP
##CAS NAME=.beta.-D-Glucopyranoside, methyl 4,6-O-nonylidene-
##MOLFORM=C16H30O6
##CAS REGISTRY NO=124674-80-2
##MP= -300
##BP= -300
##MW= 318
##$RETENTION INDEX=0
##$CONDENSED SPECTRUM=NO
##NPOINTS= 238
##XYDATA=(XY..XY) 1 
    26          9
    27        111
    28        180
    29        254
    30          9
    31        146
    32         41
    33         64
    34          0
    36          0
    37          0
    38          2
    39         68
    40         31
    41        413
    42         85
    43        372
    44        106
    45        390
    46         10
    47         13
    49          0
    50          4
    51          6
    52          9
    53         46
    54         44
    55        400
    56         98
    57        625
    58         67
    59         73
    60        599
    61        236
    62          8
    63          4
    64          0
    65          8
    66         10
    67        101
    68         70
    69        610
    70        255
    71        244
    72         43
    73        999
    74        245
    75        173
    76          7
    77          6
    78          3
    79         25
    80          7
    81        170
    82         70
    83        260
    84         29
    85        175
    86        176
    87        176
    88         17
    89         12
    90          4
    91         10
    92          1
    93         15
    94          6
    95         48
    96         29
    97         70
    98        112
    99        174
   100         43
   101         41
   102          7
   103        162
   104         43
   105         16
   106          2
   107          9
   108          4
   109         68
   110         11
   111         16
   112          5
   113         26
   114         12
   115         29
   116        169
   117         50
   118          4
   119          2
   120         18
   121          9
   122          5
   123         43
   124         75
   125         68
   126          9
   127        174
   128         16
   129         13
   130          3
   131         16
   132          1
   133        108
   134          8
   135          5
   136          3
   137         10
   138         10
   139          6
   140          2
   141        302
   142         69
   143        111
   144         42
   145         89
   146          9
   147          2
   148          0
   149          6
   150          0
   151          3
   152          6
   153          9
   154         13
   155         17
   156          6
   157         43
   158          6
   159         92
   160          9
   161          3
   162          2
   163          4
   164          1
   165          0
   166          4
   167         10
   168          3
   169          4
   170          4
   171          3
   172         15
   173         76
   174          7
   175          2
   176          2
   177          8
   178          0
   179          0
   180          3
   181         26
   182          7
   183          2
   184          4
   185         27
   186          4
   187         20
   188          2
   189          1
   191          0
   193          0
   194          0
   195          0
   196          0
   197         10
   198         40
   199         20
   200          1
   201          0
   202          9
   203         27
   204          3
   205        254
   206         25
   207          5
   208          0
   209          0
   210          0
   211         15
   212          3
   213          0
   214          4
   215         67
   216          9
   217          0
   218          0
   220          1
   221          0
   222          0
   223          0
   224          0
   227         14
   228          1
   229          1
   230          0
   231          0
   232          0
   233          0
   235          0
   238          0
   239          0
   240          4
   241          0
   243          0
   250          0
   251          0
   253          0
   257          0
   258          0
   265          1
   266          8
   267          2
   268          0
   269          9
   270          0
   271          0
   281          0
   282          0
   283          0
   285          4
   286          1
   287          4
   288          0
   289          0
   290          3
   297          0
   299          0
   300          0
   311          0
   313          0
   315          3
   316          0
   317         22
   318          4
   319          1