##TITLE=Library Entry 94065
##JCAMP-DX=Revision 4.10 
##DATA TYPE=MASS SPECTRUM
##SAMPLE DESCRIPTION=Humboldt-Universitat zu Berlin, Department of Chemistry
, Analytical Group
##NAMES=HP
##CAS NAME=3-Sulfo-3H-inden-1-carboxylic acid
##MOLFORM=C10H8O5S
##CAS REGISTRY NO=124709-21-3
##MP= -300
##BP= -300
##MW= 240
##$RETENTION INDEX=0
##$CONDENSED SPECTRUM=NO
##NPOINTS= 127
##XYDATA=(XY..XY) 1 
    12         10
    15          3
    16         26
    17         45
    18        138
    26          6
    27         16
    28         46
    29         14
    30          2
    31          6
    32         26
    34          2
    37          7
    38         20
    39         71
    40          5
    41         10
    42          5
    43         10
    44        197
    45         14
    48        171
    49         11
    50         52
    51         69
    52         12
    53         10
    55          9
    56          4
    57         16
    60          3
    61         15
    62         61
    63        118
    64        184
    65         61
    66         15
    67          3
    69          6
    70          2
    71          8
    73          5
    74         30
    75         39
    76         30
    77        103
    78          9
    79          2
    80         20
    81         29
    82          4
    83          3
    84          4
    85         10
    86         31
    87         40
    88         51
    89         87
    90         16
    91          4
    92          2
    93          4
    94          2
    95          2
    97          2
    98          9
    99          3
   100          3
   101         24
   102         53
   103        183
   104         25
   105          6
   108          2
   109          7
   110          9
   111          5
   113         78
   114        152
   115        999
   116        139
   117         10
   118         10
   119          3
   129         24
   130         19
   131        385
   132         55
   133          7
   134          2
   141          2
   142         30
   143          6
   145          3
   146         13
   147          7
   148          2
   156          1
   157          4
   158         19
   159        198
   160        122
   161         14
   162          3
   165          2
   174          7
   175          2
   176          2
   187          3
   188          4
   189          2
   196        117
   197         13
   198          7
   212          1
   215          2
   222         22
   223          4
   224          2
   226          1
   240         63
   241          8
   242          4
   243          0
   244          1
   246          1