##TITLE=Library Entry 84833
##JCAMP-DX=Revision 4.10 
##DATA TYPE=MASS SPECTRUM
##SAMPLE DESCRIPTION=NIST Mass Spectrometry Data Center, 2010
##NAMES=HP
##CAS NAME=(3S,3aS)-3-Butyl-3a,4,5,6-tetrahydroisobenzofuran-1(3H)-one
##MOLFORM=C12H18O2
##CAS REGISTRY NO=124815-25-4
##MP= -300
##BP= -300
##MW= 194
##$RETENTION INDEX=0
##$CONDENSED SPECTRUM=NO
##NPOINTS= 72
##XYDATA=(XY..XY) 1 
    15          1
    26          3
    27         42
    28          9
    29         46
    30          1
    31          3
    37          1
    38          3
    39         52
    40          8
    41         78
    42          6
    43         10
    44          3
    45          1
    50          8
    51         27
    52         34
    53         56
    54          6
    55         19
    57         13
    58          1
    62          1
    63          5
    64          1
    65         22
    66          9
    67         13
    68          3
    74          1
    75          1
    76          1
    77         86
    78         22
    79        349
    80        170
    81        130
    82          9
    90          1
    91         34
    92          5
    93         13
    94          3
    95          3
    96          1
   103          1
   105          6
   106          2
   107         22
   108        999
   109        208
   110         16
   117          1
   119          2
   120          1
   121          1
   122          1
   123          1
   124          2
   134          1
   135          2
   137        129
   138         13
   148          1
   151          1
   152          2
   165          1
   166          2
   194         13
   195          2