##TITLE=Library Entry 4030
##JCAMP-DX=Revision 4.10 
##DATA TYPE=MASS SPECTRUM
##SAMPLE DESCRIPTION=Chemical Concepts
##NAMES=HP
##CAS NAME=1-Allyl-2-hydroxy-6-methyl-cyclohexanecarboxylic acid
##MOLFORM=C11H18O3
##CAS REGISTRY NO=124899-21-4
##MP= -300
##BP= -300
##MW= 198
##$RETENTION INDEX=0
##$CONDENSED SPECTRUM=NO
##NPOINTS= 125
##XYDATA=(XY..XY) 1 
    26         23
    27        457
    28         67
    29        327
    30         11
    31         92
    37          6
    38         21
    39        546
    40         83
    41        999
    42        105
    43        465
    44        130
    45        122
    46          5
    47         13
    50         23
    51         87
    52         48
    53        312
    54         99
    55        572
    56         55
    57        206
    58         27
    59         39
    60         11
    62          6
    63         28
    64          8
    65         98
    66         56
    67        371
    68         91
    69        173
    70         66
    71         77
    72          8
    73         23
    74          8
    75          7
    77        184
    78         46
    79        336
    80        111
    81        797
    82        357
    83        128
    84         33
    85         20
    86         10
    87         47
    88          3
    89          8
    91        137
    92         38
    93        386
    94        182
    95        310
    96        107
    97        145
    98         58
    99        124
   100        138
   101         20
   102          6
   103          5
   105         48
   106         20
   107         79
   108        116
   109        881
   110        184
   111        225
   112         41
   113         27
   114          7
   115         14
   116          2
   117          6
   118          5
   119         56
   120         17
   121         63
   122         34
   123        203
   124         91
   125         50
   126         30
   127        916
   128        101
   129         23
   134         26
   135         56
   136        180
   137        107
   138        205
   139        116
   140        179
   141         54
   142        256
   143         59
   144          5
   148         22
   149         12
   151         55
   152        220
   153         37
   154         30
   155         55
   156         83
   157         77
   158          5
   162         33
   163          6
   165         62
   166          6
   170         11
   180        312
   181         42
   182          4
   183         13
   198         24
   199          2