##TITLE=Library Entry 87948
##JCAMP-DX=Revision 4.10 
##DATA TYPE=MASS SPECTRUM
##SAMPLE DESCRIPTION=Chemical Concepts
##NAMES=HP
##CAS NAME=2-(2-t-Butyl-4-oxotetrahydrocyclopenta[1,3]dioxin-4a-yl)-2-hydrox
ypropionic acid, methyl ester
##MOLFORM=C15H24O6
##CAS REGISTRY NO=124899-00-9
##MP= -300
##BP= -300
##MW= 300
##$RETENTION INDEX=0
##$CONDENSED SPECTRUM=NO
##NPOINTS= 96
##XYDATA=(XY..XY) 1 
    27         57
    28          9
    29         92
    31          9
    33          9
    39         68
    40         15
    41        208
    42         19
    43        707
    44         21
    45         27
    51          7
    52          4
    53         26
    54          5
    55         51
    56          9
    57        148
    58          6
    59         35
    60          5
    61          6
    65         29
    66         25
    67        151
    68         18
    69         22
    70         13
    71         48
    72          5
    75          6
    76          4
    77         13
    78          4
    79         10
    81         22
    82          6
    83         17
    84         12
    85         12
    86          5
    87         44
    91         19
    92          6
    93         24
    94         40
    95        503
    96         34
    97          9
   103         10
   104         25
   109        110
   110         48
   111        999
   112        190
   113         95
   114          6
   116          3
   119          5
   120          7
   121          5
   127        341
   128         22
   129         17
   137         62
   138         37
   139          4
   140          3
   141          6
   142          3
   151         15
   152         63
   153         22
   154          6
   155        101
   156          8
   158          6
   167          4
   169        103
   170         37
   171          5
   183          6
   186          2
   187          5
   197         42
   198          8
   214          4
   215        118
   216         12
   241         29
   242          4
   243         11
   269          2
   299          2
   301          2