##TITLE=Library Entry 87295
##JCAMP-DX=Revision 4.10 
##DATA TYPE=MASS SPECTRUM
##SAMPLE DESCRIPTION=Chemical Concepts
##NAMES=HP
##CAS NAME=4H-1,3-Benzodioxin-4-one, hexahydro-4a,5-dimethyl-, [4as-(4a.alph
a.,5.beta.,8a.beta.)]-
##MOLFORM=C10H16O3
##CAS REGISTRY NO=124899-17-8
##MP= -300
##BP= -300
##MW= 184
##$RETENTION INDEX=0
##$CONDENSED SPECTRUM=NO
##NPOINTS= 85
##XYDATA=(XY..XY) 1 
    26         24
    27        248
    28         74
    29        168
    30         70
    31         86
    37          6
    38         23
    39        394
    40         61
    41        457
    42         63
    43         75
    44         16
    45         19
    49          2
    50         34
    51         88
    52         43
    53        219
    54         87
    55        510
    56         56
    57         25
    58          2
    59          4
    61          2
    62          8
    63         26
    64          7
    65         89
    66         42
    67        401
    68        283
    69        195
    70         34
    71         14
    72          2
    74          3
    75          2
    76          2
    77         87
    78         20
    79        113
    80         37
    81        563
    82        232
    83        217
    84         27
    85         10
    86          2
    87          2
    89          4
    90          3
    91        121
    92         17
    93         57
    94         19
    95        805
    96         71
    97         31
    98         44
    99          4
   100          3
   105          5
   107         13
   108         18
   109        116
   110        999
   111        109
   112          9
   113          1
   125         26
   126         26
   127          4
   136          2
   139          4
   140          1
   141          1
   142          1
   148          1
   153          1
   154         39
   155          6
   156          1