##TITLE=Library Entry 65768
##JCAMP-DX=Revision 4.10 
##DATA TYPE=MASS SPECTRUM
##SAMPLE DESCRIPTION=Chemical Concepts
##NAMES=HP
##CAS NAME=4a-But-3-enyl-2-t-butyl-tetrahydrocyclopenta[1,3]dioxin-4-one
##MOLFORM=C15H24O3
##CAS REGISTRY NO=124898-91-5
##MP= -300
##BP= -300
##MW= 252
##$RETENTION INDEX=0
##$CONDENSED SPECTRUM=NO
##NPOINTS= 124
##XYDATA=(XY..XY) 1 
    26         17
    27        339
    28        111
    29        549
    30         14
    31         25
    33          8
    38         14
    39        435
    40         78
    41        963
    42         89
    43        286
    44         42
    45         42
    50          8
    51         62
    52         40
    53        259
    54        107
    55        832
    56         62
    57        602
    58         40
    59          6
    60         18
    61         18
    62          5
    63         15
    64          4
    65        134
    66        125
    67        641
    68        122
    69        175
    70         29
    71        231
    72         16
    73          8
    74         18
    75          6
    77        209
    78         64
    79        482
    80        207
    81        506
    82         58
    83        109
    84         60
    85        103
    86         22
    87         82
    88         18
    89          3
    91        167
    92         42
    93        999
    94        185
    95        223
    96         33
    97         95
    98          7
    99          5
   100         18
   103         17
   104         18
   105         54
   106         13
   107        194
   108         28
   109         89
   110        158
   111        287
   112        456
   113         94
   114          6
   115         18
   119          8
   120         67
   121        735
   122        711
   123         90
   124         86
   125         19
   126         18
   127         18
   128         18
   129         18
   133          0
   134         18
   136          3
   137        617
   138         67
   139        230
   140         17
   141         37
   142         18
   143         16
   148         14
   149        308
   150         39
   151         21
   152         18
   153         18
   154         18
   155         18
   164         18
   165         18
   166        510
   167        131
   168          7
   169         18
   171         10
   193         18
   194         18
   195        179
   196         32
   197         13
   198         11
   199         15
   251          6
   252         77
   253         10
   254          8