##TITLE=Library Entry 50500
##JCAMP-DX=Revision 4.10 
##DATA TYPE=MASS SPECTRUM
##SAMPLE DESCRIPTION=Chemical Concepts
##NAMES=HP
##CAS NAME=4H-1,3-Benzodioxin-4-one, hexahydro-5-methyl-, [4aS-(4a.alpha.,5.
beta.,8a.beta.)]-
##MOLFORM=C9H14O3
##CAS REGISTRY NO=124899-15-6
##MP= -300
##BP= -300
##MW= 170
##$RETENTION INDEX=0
##$CONDENSED SPECTRUM=NO
##NPOINTS= 88
##XYDATA=(XY..XY) 1 
    26         22
    27        220
    28         45
    29        122
    30         70
    31         56
    37          7
    38         30
    39        388
    40         71
    41        423
    42         70
    43         35
    44         10
    45         12
    46          0
    47          1
    49          2
    50         28
    51         64
    52         38
    53        177
    54        142
    55        295
    56         34
    57         30
    58          2
    60          1
    61          2
    62          5
    63         17
    64          3
    65         43
    66         36
    67        319
    68        392
    69        258
    70         26
    71         14
    73          4
    74          2
    75          2
    76          1
    77         58
    78         15
    79        117
    80         51
    81        999
    82         81
    83         16
    84         14
    85          2
    86         13
    87          0
    89          0
    91         16
    92          1
    93         20
    94         34
    95        160
    96        822
    97         95
    98          8
    99          3
   107          2
   108          0
   109          0
   110          2
   111          9
   112         25
   113          3
   121          1
   122         10
   123         53
   124         10
   125         10
   126          1
   127          1
   128          0
   129          0
   139          3
   140         35
   141          4
   142          1
   152          1
   169          0
   170          7
   171          1