##TITLE=Library Entry 48126
##JCAMP-DX=Revision 4.10 
##DATA TYPE=MASS SPECTRUM
##SAMPLE DESCRIPTION=Div. of Experiment Therapeutics WRAIR, WRAMC, Washingto
n DC 20307
##NAMES=HP
##CAS NAME=5-Bromo-2-nitrophenylacetic acid
##MOLFORM=C8H6BrNO4
##CAS REGISTRY NO=124840-61-5
##MP= -300
##BP= -300
##MW= 259
##$RETENTION INDEX=0
##$CONDENSED SPECTRUM=NO
##NPOINTS= 110
##XYDATA=(XY..XY) 1 
    41         25
    42         27
    43         60
    44         85
    45        473
    46         28
    49         33
    50        253
    51        507
    52        149
    53         70
    54          8
    55         21
    57          2
    60         20
    61        122
    62        410
    63        914
    64        112
    65         28
    66         13
    67          9
    69         13
    73         20
    74         68
    75        134
    76        132
    77        666
    78        999
    79        112
    80         20
    81         14
    84          9
    85         40
    86        104
    87        125
    88        136
    89        588
    90        473
    91        316
    92         61
    93         12
    94         17
    95          5
   102          2
   103          9
   104          9
   105         93
   106        129
   107         32
   108         15
   116         10
   117         49
   118         13
   119        303
   120         24
   121          5
   131         12
   133         29
   134        510
   135         45
   136          2
   141         11
   142         19
   143        122
   144         20
   145         83
   149          8
   154         14
   155         41
   156         59
   157         92
   158         70
   159         55
   160         11
   167         24
   168         28
   169         90
   170        225
   171         82
   172        140
   173         17
   183         34
   184         11
   185         88
   186         21
   187         52
   188         15
   196          2
   197         24
   198        554
   199         44
   200        389
   201         33
   211          9
   212          8
   213        691
   214         96
   215        680
   216         69
   217         18
   242         55
   243         13
   244         53
   245          6
   258          9
   259         27
   260         20
   261         27
   262          9