##TITLE=Library Entry 33079
##JCAMP-DX=Revision 4.10 
##DATA TYPE=MASS SPECTRUM
##SAMPLE DESCRIPTION=Chemical Concepts
##NAMES=HP
##CAS NAME=2-t-Butyl-4a-(2-chloroallyl)tetrahydrocyclopenta[1,3]dioxin-4-one
##MOLFORM=C14H21ClO3
##CAS REGISTRY NO=124898-93-7
##MP= -300
##BP= -300
##MW= 272
##$RETENTION INDEX=0
##$CONDENSED SPECTRUM=NO
##NPOINTS= 156
##XYDATA=(XY..XY) 1 
    26         15
    27        228
    28         29
    29        285
    30          7
    31         13
    35          2
    36          2
    37          6
    38         23
    39        444
    40         83
    41        657
    42         61
    43        193
    44         11
    45         34
    49         29
    50         26
    51        104
    52         51
    53        182
    54         35
    55        191
    56         28
    57        442
    58         22
    59          6
    60          2
    61         21
    62          9
    63         48
    64         16
    65        360
    66        153
    67        999
    68         68
    69         61
    70         18
    71        100
    72          8
    73         14
    74          5
    75         82
    76         15
    77        295
    78         99
    79        512
    80        146
    81        350
    82         34
    83        100
    84         55
    85         22
    86          9
    87         84
    88         10
    89         42
    90          8
    91        195
    92         31
    93        102
    94         47
    95        344
    96         28
    97         12
    98          2
    99         10
   100         46
   101         51
   102         40
   103         59
   104         18
   105        280
   106        108
   107        733
   108         69
   109         23
   110         37
   111        147
   112         26
   113        206
   114         79
   115         82
   116         26
   117         11
   118          3
   119          3
   120          2
   121          7
   122         75
   123        227
   124         28
   125          6
   126          2
   127         14
   128          4
   129         19
   130          8
   131          7
   132          3
   133         15
   134          3
   135          4
   139          9
   140         10
   141        294
   142        498
   143        129
   144        161
   145         16
   149          9
   150         24
   151        341
   152         35
   153         10
   155          2
   157          5
   158         32
   159         50
   160         13
   161         16
   162          1
   167          4
   168         12
   169        559
   170         56
   171        180
   172         18
   173          1
   179          2
   181          3
   186         40
   187         12
   188         14
   189          3
   190          0
   191          0
   196          8
   197          1
   202          3
   203          0
   204          0
   205          1
   215         24
   216         18
   217         11
   218          7
   219          1
   236          2
   237        207
   238         30
   239          3
   272         15
   273          2
   274          5