##TITLE=Library Entry 50295
##JCAMP-DX=Revision 4.10 
##DATA TYPE=MASS SPECTRUM
##SAMPLE DESCRIPTION=Chemical Concepts
##NAMES=HP
##CAS NAME=Cyclopenta-1,3-dioxin-4(4aH)-one, 4a-(bromomethyl)-2-(1,1-dimethy
lethyl)tetrahydro-, [2s-(2.alpha.,4a.beta.,7a.beta.)]-
##MOLFORM=C12H19BrO3
##CAS REGISTRY NO=124898-90-4
##MP= -300
##BP= -300
##MW= 290
##$RETENTION INDEX=0
##$CONDENSED SPECTRUM=NO
##NPOINTS= 52
##XYDATA=(XY..XY) 1 
    27        121
    28         19
    29        131
    39        149
    40         42
    41        395
    42         39
    43        107
    45         19
    51         29
    52         20
    53        117
    54         16
    55         77
    56         16
    57        232
    65         23
    66         17
    67         99
    68         16
    69        131
    70         23
    71         95
    77         55
    78         15
    79        187
    80        627
    81        999
    82         72
    83         18
    85         23
    87         62
    97        134
    98         13
   125        126
   126         10
   159         53
   160        121
   161         59
   162        115
   177        123
   178          5
   179        116
   180          5
   205         42
   206          2
   207         40
   208          2
   233        222
   234         19
   235        221
   236         18