##TITLE=Library Entry 69311
##JCAMP-DX=Revision 4.10 
##DATA TYPE=MASS SPECTRUM
##SAMPLE DESCRIPTION=Chemical Concepts
##NAMES=HP
##CAS NAME=2,4-Dioxabicyclo[4.4.0]decan-5-one, 3-isobutyl-7-methyl-, (1R,3S,
6R)
##MOLFORM=C12H20O3
##CAS REGISTRY NO=124899-16-7
##MP= -300
##BP= -300
##MW= 212
##$RETENTION INDEX=0
##$CONDENSED SPECTRUM=NO
##NPOINTS= 78
##XYDATA=(XY..XY) 1 
    26          3
    27         75
    28          9
    29         61
    30          2
    31          9
    39         79
    40         16
    41        195
    42         22
    43        107
    44          4
    45         16
    50          1
    51          8
    52          3
    53         57
    54         73
    55        168
    56         16
    57         40
    58          1
    59         27
    65         12
    66         14
    67        199
    68        191
    69         81
    70         14
    71         22
    72         13
    73         52
    77         20
    78          4
    79         49
    80         23
    81        819
    82         69
    83          9
    84          4
    85          6
    86          2
    87         18
    91          6
    92          0
    93         16
    94         19
    95        388
    96        999
    97         88
    98          7
    99          1
   101          0
   105          0
   107          4
   108          0
   109          3
   110          2
   111          3
   112          9
   113          6
   121          1
   122          3
   123        786
   124         66
   125         10
   126          0
   127          0
   138          7
   139          3
   140          9
   141          7
   142          0
   169         91
   170          6
   211          1
   212          1
   213          0