##TITLE=Library Entry 5491
##JCAMP-DX=Revision 4.10 
##DATA TYPE=MASS SPECTRUM
##SAMPLE DESCRIPTION=Humboldt-Universitat zu Berlin, Department of Chemistry
, Analytical Group
##NAMES=HP
##CAS NAME=Acetic acid, 3-(adamant-2-ylidene-methoxymethyl)-, phenyl ester
##MOLFORM=C20H24O3
##CAS REGISTRY NO=124955-90-4
##MP= -300
##BP= -300
##MW= 312
##$RETENTION INDEX=0
##$CONDENSED SPECTRUM=NO
##NPOINTS= 235
##XYDATA=(XY..XY) 1 
    12          3
    13          5
    14         37
    15        337
    16          6
    17          6
    18         24
    25          0
    26          4
    27         70
    28         28
    29         95
    30          4
    31          2
    32          0
    33          1
    36          0
    37          1
    39        125
    40         18
    41        166
    43        999
    44         25
    45         36
    46          1
    47          0
    50          9
    51         33
    52         14
    53         65
    54          8
    55         95
    56          7
    57         16
    58          2
    59          9
    60          0
    61          1
    62          4
    63         34
    64         39
    65        111
    66         19
    67         59
    68          6
    69         16
    70          3
    71         12
    72          1
    73          2
    74          3
    75          9
    76         18
    77        132
    78         35
    79        110
    80         15
    81         36
    82          6
    83          6
    84          2
    85          6
    86          1
    87          3
    88          3
    89         20
    91        149
    92         65
    93        124
    94         17
    95         22
    96          3
    97          6
    98          2
    99          2
   100          1
   101          3
   102         15
   103         27
   104         11
   105         95
   106         13
   107         95
   108         16
   109          9
   110          2
   111          3
   112          1
   113          4
   115         85
   116         21
   117         29
   118         23
   119         33
   120         24
   121        253
   122         24
   123          8
   124          1
   125          2
   126          5
   127         28
   128         54
   129         44
   130         10
   131         50
   132         13
   133         30
   134          7
   135         18
   136          4
   137         49
   138          9
   139          8
   140          4
   141         40
   142         12
   143         13
   144         21
   145         41
   146         10
   147         18
   148          4
   149         12
   150          7
   151          6
   152         27
   153         36
   154         13
   155         16
   156          4
   157         28
   158         16
   159         26
   160          9
   161         16
   162          6
   163         52
   164          9
   165         31
   166          9
   167         17
   168          8
   169         13
   170          8
   171         16
   172          7
   173         11
   174         11
   175         19
   176          7
   177         21
   178         10
   179         26
   180          5
   181         28
   182         11
   183         24
   184          7
   185         10
   186          2
   187          8
   188          4
   189          9
   190          3
   191          4
   192          1
   193          2
   194          4
   195         25
   196         18
   197         14
   198          4
   199          6
   200          2
   201          6
   202          3
   203          1
   204          1
   205          1
   206          0
   207          1
   208          1
   209          8
   210          4
   211          6
   213         75
   214         15
   215         11
   216          2
   217          1
   219          1
   220          1
   221          4
   222          1
   223          6
   224          1
   225          3
   227         31
   228          7
   229         14
   230          2
   231          0
   237          6
   238         17
   239         19
   240          5
   241          3
   242          1
   243          1
   244          0
   251          0
   253         45
   255         60
   256         17
   257          4
   258          1
   265          0
   267          0
   269         27
   270         80
   271         17
   272          2
   273          0
   280          0
   281          4
   282          1
   283          0
   297          1
   298          1
   299          0
   312        269
   313         56
   314          7
   315          0