##TITLE=Library Entry 21757
##JCAMP-DX=Revision 4.10 
##DATA TYPE=MASS SPECTRUM
##SAMPLE DESCRIPTION=LAC, NIDDK, NIH, Bethesda, MD 20892
##NAMES=HP
##CAS NAME=Methyl lithocholate
##MOLFORM=C25H42O3
##CAS REGISTRY NO=1249-75-8
##MP= -300
##BP= -300
##MW= 390
##$RETENTION INDEX=0
##$CONDENSED SPECTRUM=NO
##NPOINTS= 186
##XYDATA=(XY..XY) 1 
    41        535
    43        456
    44         18
    45         48
    47          5
    49         28
    51         14
    53        138
    55        999
    57        201
    59        185
    60          2
    61          3
    65         44
    67        505
    68        157
    69        264
    70         33
    71         30
    73        165
    74        105
    75          4
    77        118
    79        471
    81        742
    82        108
    83        172
    85         84
    87        101
    88         12
    91        281
    93        449
    94        174
    95        408
    96         37
    97         99
    98          3
    99         42
   101         29
   102          2
   103         11
   105        340
   106        191
   107        394
   108        179
   109        212
   110         23
   111         58
   112          3
   113          7
   115         73
   117         62
   119        213
   120        115
   121        199
   122        106
   123        102
   124         46
   125         25
   127          4
   128         18
   129         19
   131         72
   133        198
   134        104
   135        186
   136         53
   137         30
   138         10
   139          2
   140          1
   141         24
   142         14
   143         25
   145        144
   147        192
   148         86
   149        174
   150         29
   151         23
   153          4
   154        108
   155         15
   156          2
   157         21
   158          3
   159        114
   160         67
   161        165
   162        144
   163         51
   165        174
   166         48
   167         15
   168          2
   169          5
   171         18
   173         74
   174         52
   175        113
   176         64
   177         26
   178         12
   179          4
   181          2
   183          4
   185         10
   187         56
   188         38
   189         36
   190          6
   191         13
   193          4
   195          9
   199         18
   201         93
   202         27
   203         44
   204          9
   205          4
   208         11
   209          7
   213         17
   215        778
   216        286
   217        138
   218         61
   219         18
   227          6
   229         45
   230        182
   231         50
   233         66
   234         28
   235          9
   237          4
   241          6
   243         12
   244          4
   247          2
   248         72
   249         19
   250          2
   255          8
   257        203
   258         38
   259          4
   261          1
   262         24
   263         14
   264         15
   265          2
   273          4
   276          9
   277          7
   278          6
   285         15
   289          9
   290          4
   299          8
   303          4
   315          4
   316          8
   317         15
   318         45
   319         10
   323         28
   324          5
   325         21
   326          2
   330         15
   331         11
   341         43
   342          6
   343          7
   357        109
   358         27
   359         11
   370          4
   371         17
   372        522
   373        171
   374         37
   375          8
   390         16
   391          1