##TITLE=Library Entry 62795
##JCAMP-DX=Revision 4.10 
##DATA TYPE=MASS SPECTRUM
##SAMPLE DESCRIPTION=A.A.Kutin, Moscow, Russia
##NAMES=HP
##CAS NAME=Acetamide, N-(2-methoxyethyl)-2-phenyl-
##MOLFORM=C11H15NO2
##CAS REGISTRY NO=124932-14-5
##MP= -300
##BP= -300
##MW= 193
##$RETENTION INDEX=0
##$CONDENSED SPECTRUM=NO
##NPOINTS= 116
##XYDATA=(XY..XY) 1 
    33          7
    34          0
    35          0
    36          3
    37          4
    38         18
    39         99
    40         22
    41         34
    42         48
    43         49
    44         74
    45        144
    47          0
    50         24
    51         49
    52         12
    53          5
    54          1
    55          3
    56          3
    58         98
    59        176
    60         24
    62         23
    63         60
    65        225
    66         11
    67          0
    70        154
    71          7
    72          5
    74        129
    75          8
    76          5
    77         27
    78          6
    79          7
    80          0
    81          0
    82          0
    84          2
    85          1
    86          3
    87          2
    89         71
    91        999
    92        300
    93         21
    94          2
    95          1
    96          0
    97          0
    98          0
    99          0
   100          0
   102        128
   103          7
   105         28
   106          5
   107          6
   108          1
   111          0
   112          0
   115          1
   116          1
   118        174
   119         24
   120         20
   121          2
   122          1
   123          0
   125          1
   127         13
   128          2
   129          0
   130          0
   131          1
   132          3
   133         11
   134          7
   136         90
   137          5
   138          0
   146          0
   147          1
   148          9
   149          2
   150          1
   151          0
   152          0
   153          0
   155         15
   156          1
   161        453
   162         52
   163          6
   164          1
   165          1
   166          0
   167          1
   168          0
   170          0
   172          1
   175          1
   176          0
   178         13
   179          2
   180          1
   181          0
   182          0
   191          0
   193         48
   194          6
   195          0
   197          0