##TITLE=Library Entry 64546
##JCAMP-DX=Revision 4.10 
##DATA TYPE=MASS SPECTRUM
##SAMPLE DESCRIPTION=A.A.Kutin, Moscow, Russia
##NAMES=HP
##CAS NAME=Thiophosphoric acid, o-(2-benzylthio-1-phenylethenyl)-O,O-diethyl
-
##MOLFORM=C19H23O3PS2
##CAS REGISTRY NO=124981-92-6
##MP= -300
##BP= -300
##MW= 394
##$RETENTION INDEX=0
##$CONDENSED SPECTRUM=NO
##NPOINTS= 202
##XYDATA=(XY..XY) 1 
    37          1
    38          4
    39         11
    40          1
    41          3
    42          0
    43          3
    45         21
    46          2
    47          4
    48          0
    49          0
    50          9
    51         36
    52          6
    53          0
    58          2
    59          0
    60          4
    63         63
    65        231
    66          8
    67          0
    69          8
    71          1
    73          0
    74          6
    75         18
    77        194
    78         15
    80         20
    81         21
    82          4
    84          2
    85          0
    86          2
    87          3
    89        108
    91        999
    92         55
    93         23
    95         11
    97        293
    99         16
   100          0
   102         32
   105         98
   106          8
   107          4
   108         14
   109         16
   110          1
   111          0
   113          4
   114          4
   115          9
   116          0
   117          3
   118          3
   121         75
   122         23
   123         32
   125        113
   126          8
   127          5
   128          2
   129          1
   131          3
   133         48
   134        150
   135         20
   136         10
   137          2
   138          1
   139          1
   140          1
   141          3
   142          3
   143          7
   145          1
   146          3
   147         17
   148          4
   149         12
   151        234
   152         33
   153         38
   154          3
   155          2
   157          0
   160          1
   161         20
   162         13
   163          8
   165        141
   166         29
   167         43
   168          6
   169          9
   170         11
   171         16
   172          1
   173          0
   176          1
   177          0
   178         14
   179         23
   180          6
   181          4
   182          1
   183          1
   184          0
   187          0
   188          3
   189         15
   191        468
   192         76
   193         20
   194          6
   195          8
   197          3
   198          4
   199          1
   201          0
   203          0
   207          0
   208          4
   209          6
   210          8
   211          2
   212          1
   215        316
   217          9
   218          1
   219          1
   221          9
   223        129
   224        148
   225         38
   226         14
   229         23
   230         10
   231          4
   232          0
   233          1
   236          0
   237          2
   238          0
   239          2
   241         11
   243        121
   244         14
   247        797
   249        109
   250          5
   251          1
   252          0
   256        168
   258         25
   259         11
   261          2
   267          0
   268          1
   269          7
   271        303
   272         38
   273         24
   275        136
   277         11
   278          1
   283          0
   288          0
   290          0
   292          0
   293          1
   294          2
   295          0
   298          0
   299          2
   300          2
   303        869
   304        102
   305         70
   306         10
   307          3
   323          0
   333          1
   339          0
   340          1
   348          0
   349          5
   350          1
   351          0
   361         56
   362         11
   363          3
   390          0
   394        751
   395        126
   396         82
   397         11
   398          1