##TITLE=Library Entry 67820
##JCAMP-DX=Revision 4.10 
##DATA TYPE=MASS SPECTRUM
##SAMPLE DESCRIPTION=Japan AIST/NIMC Database- Spectrum MS-NW-3941
##NAMES=HP
##CAS NAME=Isobornyl acetate
##MOLFORM=C12H20O2
##CAS REGISTRY NO=125-12-2
##MP= -300
##BP= -300
##MW= 196
##$RETENTION INDEX=1286
##$CONDENSED SPECTRUM=NO
##NPOINTS= 116
##XYDATA=(XY..XY) 1 
    13          1
    14          6
    15         41
    16          2
    17          2
    18          8
    26          4
    27         74
    28         15
    29         67
    30          2
    31          4
    32          2
    37          1
    38          6
    39         99
    40         20
    41        261
    42         19
    43        607
    44         17
    45         28
    50          7
    51         20
    52         10
    53         70
    54         12
    55        155
    56         15
    57         28
    58          4
    59          9
    60         22
    61          3
    62          2
    63          7
    64          2
    65         28
    66         18
    67        130
    68         62
    69        140
    70         25
    71         62
    72         61
    73          5
    74          1
    75          1
    77         64
    78         15
    79        109
    80         87
    81         96
    82        141
    83         80
    84         46
    85         17
    86          6
    87          2
    89          2
    90          1
    91         68
    92         99
    93        479
    94         84
    95        999
    96         82
    97         26
    98         12
    99         15
   100          4
   101          3
   102          1
   103          3
   104          2
   105         29
   106          9
   107        115
   108        237
   109        138
   110        170
   111         66
   112         10
   113         21
   114          5
   115          3
   117          1
   119          8
   120          5
   121        516
   122         55
   123         16
   124          3
   125          9
   126          5
   127          2
   128          1
   133          1
   134          2
   135         16
   136        451
   137         70
   138          6
   139         43
   140          5
   141          1
   152          3
   153         13
   154         87
   155         11
   156          1
   160          2
   171          1
   181          6
   182          1
   196          3