##TITLE=Library Entry 1010
##JCAMP-DX=Revision 4.10 
##DATA TYPE=MASS SPECTRUM
##SAMPLE DESCRIPTION=R.E.Ardrey ET AL.Pharmaceutical Mass Spectra,L.,1985
##NAMES=HP
##CAS NAME=[2,2'-Bimorphinan]-3,3',6,6'-tetrol, 7,7',8,8'-tetradehydro-4,5:4
',5'-diepoxy-17,17'-dimethyl-, (5.alpha.,6.alpha.)-(5'.alpha.,6'.alpha.)-
##MOLFORM=C34H36N2O6
##CAS REGISTRY NO=125-24-6
##MP= -300
##BP= -300
##MW= 568
##$RETENTION INDEX=2770
##$CONDENSED SPECTRUM=NO
##NPOINTS= 85
##XYDATA=(XY..XY) 1 
    26        120
    27        250
    29        200
    30        999
    31        480
    39         80
    41        110
    42        780
    43        160
    44        930
    45        100
    50         30
    51         50
    52         40
    53         60
    54         40
    55         60
    56        140
    57        150
    58        310
    59        170
    63         30
    65         40
    67         40
    68         30
    69         50
    70        190
    71         50
    72         70
    77         50
    78         20
    79         30
    80         70
    81        230
    82         80
    83         40
    84         30
    91         50
    94        120
    95         30
    96         80
   107         40
   108         40
   109         50
   110         40
   115         40
   124        200
   131         30
   132         30
   134         30
   141         30
   144         40
   145         30
   146        100
   152         30
   153         30
   160         30
   162        170
   165         30
   173         30
   181         30
   182         30
   200         30
   210         30
   215         30
   243         20
   275         50
   284         40
   285         60
   447         40
   491         30
   492         30
   498         40
   510         50
   511         50
   540         30
   549         40
   550         90
   551         60
   552         40
   566         80
   567         80
   568        570
   569        210
   570         70