##TITLE=Library Entry 11574
##JCAMP-DX=Revision 4.10 
##DATA TYPE=MASS SPECTRUM
##SAMPLE DESCRIPTION=LAC, NIDDK, NIH, Bethesda, MD 20892
##NAMES=HP
##CAS NAME=Prednisone 21-acetate
##MOLFORM=C23H28O6
##CAS REGISTRY NO=125-10-0
##MP= -300
##BP= -300
##MW= 400
##$RETENTION INDEX=0
##$CONDENSED SPECTRUM=NO
##NPOINTS= 193
##XYDATA=(XY..XY) 1 
    41        149
    43        999
    44         18
    45         12
    47          4
    49         20
    51         17
    53         74
    55        177
    56          2
    57         23
    65         41
    67        119
    68          9
    69        179
    70          3
    71         22
    73         36
    74         18
    77        111
    79        111
    81         96
    82         17
    83         24
    84         22
    85          3
    86         14
    87          6
    91        134
    93        120
    95        104
    97        100
    98          4
    99          6
   101         10
   102          8
   103         17
   105         90
   107        109
   108         16
   109        136
   110         22
   111         16
   112          2
   115         27
   117         51
   119         42
   121        250
   122         88
   123         56
   124          7
   125          5
   126          5
   127          5
   128         15
   129         17
   131         39
   133         63
   134         21
   135        150
   136         34
   137         47
   138          3
   139         27
   141         10
   142          4
   143         19
   145         57
   147        138
   148         28
   149         35
   150          5
   151         15
   152          1
   153          6
   155         10
   157         27
   159         50
   160         22
   161         51
   162         17
   163         38
   164          4
   165         16
   166          5
   167          4
   169          8
   171         23
   172          2
   173         32
   174         13
   175         24
   176          2
   177         18
   178          4
   179          2
   181          7
   182          2
   183          7
   184          3
   185         29
   186          6
   187         36
   188          4
   189         37
   190          4
   191         13
   192          1
   193          3
   195          9
   197         17
   198          2
   199         20
   200          4
   201         15
   202          8
   203         10
   204          4
   205         15
   207         10
   209          4
   211         11
   212          1
   213         20
   214          7
   215         13
   216          4
   217          7
   219          9
   221          9
   223         31
   224          2
   225         29
   226         11
   227         14
   228          5
   229         13
   230          5
   231          6
   233         13
   235          5
   236          5
   237         12
   238         10
   239         21
   240          1
   241         26
   242          8
   243         31
   244         54
   245         12
   251          1
   253         22
   254          8
   255        114
   256         67
   257         78
   258         23
   259          7
   263          5
   265          9
   267          2
   268          3
   269          1
   270         11
   271          4
   272         64
   273         13
   279          7
   281         12
   282          3
   283         17
   285         65
   286         19
   296          4
   297          4
   298         11
   299         46
   300         36
   301        125
   302         24
   314          8
   325          6
   326          6
   340         24
   341          4
   342          0
   343          0
   399          3
   400         13
   401          2
   402          0
   403          0