##TITLE=Library Entry 30592
##JCAMP-DX=Revision 4.10 
##DATA TYPE=MASS SPECTRUM
##SAMPLE DESCRIPTION=EQUINE DRUG TESTING PROG. J.D.HENION,ETAL CORNELL U, IT
HACA, NY
##NAMES=HP
##CAS NAME=Levomethorphan
##MOLFORM=C18H25NO
##CAS REGISTRY NO=125-70-2
##MP= -300
##BP= -300
##MW= 271
##$RETENTION INDEX=2160
##$CONDENSED SPECTRUM=NO
##NPOINTS= 112
##XYDATA=(XY..XY) 1 
    41         95
    42        224
    43         77
    44        155
    45        339
    51         19
    52         22
    55         57
    56         35
    57         53
    58        252
    59        999
    60         75
    63         16
    65         25
    67         28
    68         17
    69         15
    70         45
    71         23
    72         21
    73        166
    74         61
    75         21
    77         50
    78         23
    79         30
    81         22
    82         61
    83         23
    87         27
    89         16
    91         62
    92         16
    94         32
    95         22
    96         20
   102         24
   103         19
   107         30
   108         27
   114         19
   115        148
   116         37
   117         28
   120         23
   121         58
   122         43
   123         32
   127         72
   128        181
   129         78
   130         27
   131         36
   132         15
   134         26
   135         41
   139         27
   141         98
   142         38
   143         36
   144         46
   145         39
   146         44
   147         34
   148         49
   149         30
   150        387
   151         49
   152         45
   153         58
   154         31
   155         29
   156         32
   157         42
   158         50
   159         55
   160         41
   161         34
   162         45
   165         32
   166         19
   167         25
   168         17
   169         28
   170         35
   171        273
   172        137
   173         36
   174         62
   175         42
   183         30
   184         57
   185         46
   186         21
   188         16
   198         26
   199         26
   200         15
   202         18
   203         74
   211         18
   212        141
   213        125
   214        288
   215         54
   228         22
   242         25
   256         22
   270        103
   271        201
   272         38