##TITLE=Library Entry 62000
##JCAMP-DX=Revision 4.10 
##DATA TYPE=MASS SPECTRUM
##SAMPLE DESCRIPTION=A.A.Kutin, Moscow, Russia
##NAMES=HP
##CAS NAME=Tetrazole-5-acetaldehyde, 1-(4-methylphenyl)-, 4-nitrophenylhydra
zone
##MOLFORM=C16H15N7O2
##CAS REGISTRY NO=125037-80-1
##MP= -300
##BP= -300
##MW= 337
##$RETENTION INDEX=0
##$CONDENSED SPECTRUM=NO
##NPOINTS= 150
##XYDATA=(XY..XY) 1 
    33          8
    37         20
    38         82
    39        228
    40         86
    41        110
    42         67
    43        105
    44         55
    45         41
    46         21
    50        176
    51        210
    52        186
    53         91
    54         31
    55         61
    56         12
    57         15
    58          6
    59         12
    60         23
    61         18
    62         68
    63        276
    64        250
    65        404
    66         37
    67         19
    68          9
    69         10
    70          7
    71          4
    72          6
    73         14
    74         48
    75        120
    76        186
    77        356
    78        278
    79        154
    80         54
    81         18
    83         13
    85          2
    86          5
    87          6
    89         74
    91        999
    92        149
    93         31
    94          7
    95          2
   101         15
   103         88
   104        398
   105        414
   106        184
   107        295
   108         49
   114          4
   115         29
   116         78
   117        106
   118        171
   119         49
   120         26
   122        216
   123         41
   128         13
   129         30
   131        928
   132        877
   133        110
   134         16
   135          3
   136         14
   137         13
   138         38
   139          8
   142         13
   143         37
   144        117
   145        165
   146         71
   147         25
   148         11
   150        120
   151        176
   152         27
   153         51
   155          2
   156         33
   157         89
   158        115
   159         73
   160         24
   161         33
   162          6
   163          9
   165          6
   170         44
   171         80
   172        510
   173        102
   174         18
   176         14
   177         23
   178         93
   179         16
   186         11
   187         11
   195         15
   200          3
   201         10
   203         19
   204         27
   220          2
   221          2
   223          2
   229          2
   231          4
   234          2
   235          7
   244          2
   247         10
   248          7
   253          6
   260          3
   261          3
   262         33
   263          2
   267          5
   277         12
   278          5
   281         11
   282          2
   292         18
   293         17
   294        103
   295         24
   306          5
   307         45
   308         50
   309          9
   334         17
   335         17
   337        815
   338        145
   339         11