##TITLE=Library Entry 26013
##JCAMP-DX=Revision 4.10 
##DATA TYPE=MASS SPECTRUM
##SAMPLE DESCRIPTION=Chemical Concepts
##NAMES=HP
##CAS NAME=Heptanoic acid, 3-oxo-2-propyl-, methyl ester
##MOLFORM=C11H20O3
##CAS REGISTRY NO=125055-03-0
##MP= -300
##BP= -300
##MW= 200
##$RETENTION INDEX=0
##$CONDENSED SPECTRUM=NO
##NPOINTS= 72
##XYDATA=(XY..XY) 1 
    31         14
    33          2
    37          0
    38          1
    39         33
    40          8
    41         41
    42         10
    43         28
    44          6
    45         11
    46          0
    52          1
    53         13
    54          5
    55        200
    56         32
    57        999
    58         34
    59         85
    60          2
    61          0
    65          1
    66          0
    67          3
    68          1
    69         25
    70          2
    71          2
    72          0
    73         54
    74          3
    79          1
    81          2
    82          2
    83         48
    84         57
    85          8
    86          0
    87        242
    88         11
    89         13
    90          0
    91          0
    95          0
    96          0
    97          1
    98          6
    99          3
   100          0
   101         59
   102          2
   109          0
   110          0
   111         20
   112          2
   113          2
   114          1
   115         14
   116         95
   117          6
   118          0
   125          0
   130         87
   131          5
   132          0
   139          0
   140          2
   141         34
   142          3
   143         37
   144          2