##TITLE=Library Entry 33317
##JCAMP-DX=Revision 4.10 
##DATA TYPE=MASS SPECTRUM
##SAMPLE DESCRIPTION=Chemical Concepts
##NAMES=HP
##CAS NAME=Boron, 1,5-cyclooctanediyl(1H-pyrazolato-N1)(1H-pyrazole-N2)-, (t
-4)-
##MOLFORM=C14H21BN4
##CAS REGISTRY NO=125050-96-6
##MP= -300
##BP= -300
##MW= 256
##$RETENTION INDEX=0
##$CONDENSED SPECTRUM=NO
##NPOINTS= 139
##XYDATA=(XY..XY) 1 
    27        108
    28        443
    29         58
    30          1
    34         29
    36         17
    37        101
    38        170
    39        329
    40        380
    41        801
    42         97
    43          8
    44          3
    45          1
    48          3
    49         14
    50         59
    51        145
    52        176
    53        109
    54         28
    55         22
    56          4
    57          2
    58          1
    59          5
    60          2
    61          7
    62         14
    63         41
    64         47
    65         93
    66         60
    67        180
    68        999
    69        116
    70          5
    71          2
    72          6
    73          4
    74          4
    75         15
    76         39
    77         96
    78        103
    79        157
    80        149
    81        476
    82         24
    83          3
    84          2
    85          1
    86          2
    87          5
    88         10
    89         35
    90         47
    91        141
    92         43
    93         83
    94        110
    95         63
    96          7
    97          5
    98          0
    99          1
   100          1
   101          3
   102          5
   103         13
   104         43
   105         99
   106         34
   107         97
   108         85
   109         14
   110          4
   111          1
   112          1
   113          2
   114          3
   115          6
   116         13
   117         46
   118        114
   119        155
   120         58
   121         40
   122          5
   123          1
   127          1
   128          5
   129          5
   130         39
   131        232
   132        531
   133        143
   134         23
   135          2
   137          2
   138          6
   139          2
   140          1
   141          2
   142          7
   143         20
   144        132
   145        471
   146        215
   147         82
   148          8
   149          3
   154          0
   155          4
   156          2
   157          5
   158         82
   159        451
   160        522
   161         51
   162          4
   167          0
   168          1
   169          2
   170          3
   171          6
   172         14
   173         34
   174          6
   175          1
   180          0
   184          0
   185          7
   186        144
   187        729
   188        459
   189         53
   190          3