##TITLE=Library Entry 4923
##JCAMP-DX=Revision 4.10 
##DATA TYPE=MASS SPECTRUM
##SAMPLE DESCRIPTION=A.A.Kutin, Moscow, Russia
##NAMES=HP
##CAS NAME=Ethenamine, 2-[1-(4-bromophenyl)-5-tetrazolyl)-N,N-dimethyl-
##MOLFORM=C11H12BrN5
##CAS REGISTRY NO=125037-79-8
##MP= -300
##BP= -300
##MW= 293
##$RETENTION INDEX=0
##$CONDENSED SPECTRUM=NO
##NPOINTS= 170
##XYDATA=(XY..XY) 1 
    33          0
    34          0
    37         21
    38         49
    39        175
    40         49
    42        999
    43        106
    44         61
    45          5
    46          3
    50        110
    51         38
    52         45
    53         43
    54        105
    55         82
    56        116
    57        214
    58         18
    59          2
    61         15
    62         35
    63         97
    64         39
    65         12
    66         42
    67         38
    68         58
    69         53
    70         77
    71         10
    72          2
    74         45
    75         88
    76         83
    77         13
    78          5
    79         20
    80         36
    81         73
    83        785
    84         22
    85          3
    87          4
    88         11
    90        108
    91         11
    93         16
    95        122
    96         87
    97          6
    98          1
    99          1
   100          1
   102         30
   103          7
   104          3
   105          5
   106          2
   107          2
   108          3
   109          5
   110         27
   111          2
   112          0
   113          1
   114          4
   115          8
   116         13
   117         12
   118          7
   119          8
   120          1
   121          0
   122          0
   123          0
   124          2
   125          0
   127          0
   128          3
   129          7
   130          9
   131          5
   132          2
   133          1
   134          0
   140          0
   141          1
   142          7
   143         13
   144         10
   145         13
   146          4
   147          0
   149          0
   152          0
   155         55
   156         30
   157         48
   158          5
   159          4
   160          0
   167          0
   169         34
   170         35
   171         87
   172         11
   173          1
   181          4
   182          9
   183          7
   184         30
   185         10
   186         19
   187          2
   193          0
   195         14
   196          6
   197         11
   198          5
   199          1
   200          1
   206          0
   207          0
   208          1
   209          2
   210          2
   211          1
   212          1
   213          0
   214          0
   215          0
   220          0
   221          2
   223          8
   224          3
   225          6
   226          1
   227          0
   228          0
   233          0
   234          0
   235          2
   236          2
   237          7
   238          2
   239          4
   240          0
   247          0
   248          0
   249          1
   250          8
   251          3
   252          7
   253          2
   254          0
   261          0
   264         20
   265         13
   266         18
   267         10
   268          1
   290          0
   291          0
   293         23
   294          4
   295         21
   296          2
   297          0