##TITLE=Library Entry 51986
##JCAMP-DX=Revision 4.10 
##DATA TYPE=MASS SPECTRUM
##SAMPLE DESCRIPTION=ASES Database, Dalian Institute, P.R. China
##NAMES=HP
##CAS NAME=1-Phenyl-5-(2-dimethylaminovinyl)-1H-tetrazole
##MOLFORM=C11H13N5
##CAS REGISTRY NO=125037-37-8
##MP= -300
##BP= -300
##MW= 215
##$RETENTION INDEX=0
##$CONDENSED SPECTRUM=NO
##NPOINTS= 22
##XYDATA=(XY..XY) 1 
    29        146
    42        760
    43         71
    51        137
    57        267
    70         90
    77        288
    83        999
    91        121
    95         89
    96        108
   104         60
   110         29
   117         79
   131         29
   145         69
   157         90
   172        110
   173         49
   186        188
   187        268
   215        608