##TITLE=Library Entry 3268
##JCAMP-DX=Revision 4.10 
##DATA TYPE=MASS SPECTRUM
##SAMPLE DESCRIPTION=A.A.Kutin, Moscow, Russia
##NAMES=HP
##CAS NAME=1-(4-Chlorophenyl)-5-[(2-piperidin-1-yl)vinyl]-1H-tetrazole
##MOLFORM=C14H16ClN5
##CAS REGISTRY NO=125037-49-2
##MP= -300
##BP= -300
##MW= 289
##$RETENTION INDEX=0
##$CONDENSED SPECTRUM=NO
##NPOINTS= 214
##XYDATA=(XY..XY) 1 
    33          1
    34          2
    35         10
    36         54
    37         29
    38        104
    39        421
    40        165
    41        999
    42        512
    43         97
    44        111
    45          6
    46          0
    47          3
    48          2
    49         15
    50        106
    51         94
    52        165
    53        267
    54        297
    55        445
    56        126
    57         56
    58          5
    59          2
    60          6
    61         20
    62         52
    63        149
    64         64
    65         67
    66        143
    67        212
    68        820
    69        303
    70         39
    71         14
    72         10
    73         35
    74         45
    75        218
    76         54
    77         44
    78         30
    79        129
    80        197
    81        153
    82        214
    83        189
    84        179
    85         42
    86         10
    87         13
    88         17
    89         50
    90        128
    91         31
    92         22
    93         50
    94        124
    95        382
    96        559
    97         58
    98         24
    99         40
   100         11
   101         24
   102         66
   103         16
   104          7
   105         13
   106         29
   107         58
   108         71
   109         64
   110        261
   111        214
   112         26
   113         72
   114         15
   115         17
   116         17
   117         13
   118         14
   119         14
   120         25
   121         60
   122        120
   123        456
   124         56
   125         76
   126         16
   127         40
   128         11
   129         18
   130         19
   131         17
   132          8
   133         18
   134         24
   135        195
   136        173
   137         99
   138         60
   139         34
   140         22
   141         10
   142         11
   143         15
   144          7
   145          2
   146          1
   147          1
   148          4
   149         11
   150         39
   151         55
   152         33
   153         26
   154         12
   155         13
   156         22
   157         28
   158          8
   159          2
   161          0
   162          4
   163          8
   164         16
   165         18
   166         14
   167         10
   168          9
   169         23
   170         71
   171         15
   172          1
   175          1
   176          5
   177         17
   178         76
   179         43
   180         28
   181         14
   182          8
   183          8
   184         12
   185          5
   186          1
   189          0
   190          9
   191         19
   192         23
   193         14
   194         19
   195          6
   196         12
   197          6
   198          4
   199          2
   200          0
   202          2
   203         10
   204        108
   205        149
   206         66
   207         53
   208         11
   209          4
   210          2
   211          0
   215          1
   216          1
   217          5
   218         13
   219         11
   220         16
   221          7
   222          4
   223          3
   224         19
   225          9
   226         13
   227          2
   228          0
   229          1
   230          2
   232         83
   233         37
   234         30
   235         12
   236          2
   243          1
   244          1
   245          5
   246          4
   247         10
   248          2
   249          3
   255          0
   258          5
   260        193
   261         84
   262         70
   263         26
   264          3
   287          2
   289        145
   290         24
   291         45
   292          8
   293          0