##TITLE=Library Entry 46403
##JCAMP-DX=Revision 4.10 
##DATA TYPE=MASS SPECTRUM
##SAMPLE DESCRIPTION=Chemical Concepts
##NAMES=HP
##CAS NAME=2H-Isoindole-2-carboxamide, N-[4,6-bis(methylthio)-1,3,5-triazin-
2-yl]-1,3-dihydro-1,3-dioxo-
##MOLFORM=C14H11N5O3S2
##CAS REGISTRY NO=125077-85-2
##MP= -300
##BP= -300
##MW= 361
##$RETENTION INDEX=0
##$CONDENSED SPECTRUM=NO
##NPOINTS= 197
##XYDATA=(XY..XY) 1 
    26         17
    27         24
    29         10
    30          2
    31          2
    33          4
    34          2
    35          1
    36          3
    37         61
    38         98
    39         42
    40        108
    41         86
    42         27
    43         26
    44         28
    45        361
    46        252
    47        243
    48         43
    49         45
    50        526
    51         42
    52         48
    53         28
    54         20
    55          7
    56         10
    57          3
    58        102
    59         30
    60         15
    61         44
    62         22
    63         39
    64         28
    65          5
    66        111
    67         75
    68         50
    69        142
    70         93
    71          8
    72        161
    73        393
    74        576
    75        172
    76        999
    77         69
    78         15
    79          4
    80          1
    81          4
    82         15
    83          7
    84         42
    85        105
    86         26
    87         10
    88          4
    89          2
    90         39
    91          9
    92         19
    93         23
    94        388
    95         57
    96          9
    97          3
    98         37
    99        164
   100         25
   101         14
   102         15
   103        289
   104        607
   105         51
   106          3
   107          2
   108          1
   109          4
   110         29
   111          2
   112          4
   113         54
   114          4
   115          9
   116          4
   117          1
   118          1
   119          4
   120          1
   121        148
   122         14
   123          4
   124          3
   125          3
   126         15
   127          5
   128         44
   129          4
   130          8
   131         12
   132          1
   133          1
   134          0
   135         25
   136          2
   137          1
   138          4
   139          4
   140         69
   141         42
   142         10
   143          5
   144          2
   145          1
   146          7
   147        889
   148         80
   149          8
   150          1
   151          1
   152          1
   153        398
   154         33
   155         25
   156          2
   157          1
   158          1
   159          0
   160          0
   161          0
   162          0
   163          0
   164          1
   165          0
   166          7
   167        114
   168        122
   169         26
   170          8
   171          6
   172          1
   173          2
   174          9
   175          1
   176          0
   178          0
   179          0
   180        107
   181        120
   182         15
   183          7
   184          1
   185          1
   186          8
   187          1
   188          5
   189          1
   190          1
   191          0
   198          0
   199        175
   200         15
   201         16
   202          4
   203          1
   204          1
   205          0
   207          0
   208          0
   209          1
   210          0
   211          0
   212          0
   213         32
   214        964
   215        107
   216        108
   217          9
   218          3
   219          1
   222          0
   225          0
   247          1
   257          0
   262          0
   287          0
   300          0
   303          0
   318          0
   361          9
   362          1
   363          1
   364          0