##TITLE=Library Entry 3051
##JCAMP-DX=Revision 4.10 
##DATA TYPE=MASS SPECTRUM
##SAMPLE DESCRIPTION=V.A.Korolev, Moscow, Russia
##NAMES=HP
##CAS NAME=3,5-Di-tert-butyl-4-hydroxy-N,N'-bis(prop-2-en-1-yl)benzene-1-car
boximidamide
##MOLFORM=C21H32N2O
##CAS REGISTRY NO=125065-23-8
##MP= -300
##BP= -300
##MW= 328
##$RETENTION INDEX=0
##$CONDENSED SPECTRUM=NO
##NPOINTS= 169
##XYDATA=(XY..XY) 1 
    38          2
    39        137
    40         25
    41        999
    42         68
    43         60
    44          8
    45         13
    49          1
    50          2
    51          7
    52          2
    53         16
    54         28
    55         77
    56        300
    57        303
    58         14
    61          3
    63          1
    65         12
    66          2
    67         29
    68         15
    69         28
    70          8
    74          2
    77         29
    78          8
    79         21
    80         12
    81         29
    82         46
    83          7
    87          4
    89          5
    90          2
    91         41
    92          7
    93          9
    94          4
    95          2
    96         24
    97         39
    98          3
    99          4
   100          4
   101          2
   102          2
   103         16
   104         11
   105         18
   106          5
   107         17
   109          1
   113          3
   114          9
   115         52
   116         36
   117         22
   118          9
   119         12
   120          5
   121         12
   122          5
   123          9
   127         15
   128         31
   129         24
   130         23
   131         19
   132         19
   133         13
   134          6
   135          9
   136          8
   140          7
   141         15
   142         19
   143         12
   144         27
   145         13
   146         19
   147         18
   148          7
   149         20
   152          1
   153          5
   154          8
   155          5
   156         22
   157         11
   158         25
   159         13
   160         31
   161         16
   162          2
   163          1
   164          2
   165          1
   166          3
   167          2
   168          4
   169          2
   170          6
   171          5
   172         37
   173         15
   174         15
   175         10
   176          3
   178          1
   179          1
   182          2
   183          2
   184          6
   185          3
   186         22
   187          6
   188         26
   189          4
   191          1
   198          2
   199          2
   200         23
   201          9
   202         56
   203          5
   204          0
   212          1
   213          1
   214          4
   215          3
   216         38
   217         10
   218          1
   227          1
   228          1
   229          6
   230          8
   231          4
   232         41
   233          9
   235          3
   236          1
   241          1
   243          5
   244         42
   245         10
   246         12
   247          5
   257          2
   258          2
   260          1
   264          1
   269          0
   271         22
   272          6
   273         37
   274          4
   278          1
   284          3
   285          3
   286          9
   287          9
   299          2
   313         11
   327         23
   328         19