##TITLE=Library Entry 58830
##JCAMP-DX=Revision 4.10 
##DATA TYPE=MASS SPECTRUM
##SAMPLE DESCRIPTION=Chemical Concepts
##NAMES=HP
##CAS NAME=Nickel, chloro(.eta.5-2,4-cyclopentadien-1-yl)(triethylphosphine)
-
##MOLFORM=C11H20ClNiP
##CAS REGISTRY NO=125026-88-2
##MP= -300
##BP= -300
##MW= 276
##$RETENTION INDEX=0
##$CONDENSED SPECTRUM=NO
##NPOINTS= 149
##XYDATA=(XY..XY) 1 
    27         35
    29         42
    30          0
    31          0
    33          0
    34          7
    35          0
    36          1
    37          1
    38          5
    39         54
    41         30
    42          1
    43         13
    44          2
    45         22
    46          3
    47         17
    48          1
    49          3
    51          0
    53          2
    55         37
    56          2
    57         45
    58         48
    59        104
    60         17
    61        210
    62        342
    63         16
    64          2
    65         95
    66         12
    67          0
    69          6
    71          4
    72          0
    73         11
    74          1
    75         52
    76          2
    77          2
    79          0
    83          1
    84          5
    85          2
    86          9
    87          4
    88          5
    89         44
    90        999
    91         41
    92         11
    93          7
    94          6
    95          6
    96         10
    97         15
    98          5
    99          5
   100          1
   102          8
   103         57
   104          7
   105          4
   106          2
   107          1
   108          0
   113          0
   114          1
   115          8
   116         11
   117         43
   118        937
   119         55
   120         21
   121         13
   122         12
   123          1
   126          2
   127          4
   128          3
   129          2
   130          1
   131          0
   132          0
   133          2
   135          0
   136          1
   137          0
   141          0
   143          2
   144          0
   145         22
   146          4
   147         22
   148          5
   149          7
   150          2
   151          2
   152          0
   153          3
   154          7
   155          9
   156          6
   157          5
   158         48
   159          4
   160         33
   161          2
   162          7
   163          0
   164          1
   173          3
   174          0
   175          7
   176          1
   177          2
   181          4
   182          2
   183         73
   184          8
   185         11
   186          4
   187          3
   188          1
   210          0
   211          4
   212          2
   213          6
   214          1
   215          1
   219          0
   237          1
   239          7
   240          3
   241          8
   242          2
   243          2
   247          1
   249          0
   276        154
   277         18
   278        107
   279         15
   280         27
   281          4
   282          5