##TITLE=Library Entry 51885
##JCAMP-DX=Revision 4.10 
##DATA TYPE=MASS SPECTRUM
##SAMPLE DESCRIPTION=ASES Database, Dalian Institute, P.R. China
##NAMES=HP
##CAS NAME=1-(4-Bromophenyl)-5-[2-(cyclohexamethyleneamino)vinyl]-1H-tetrazo
le
##MOLFORM=C15H18BrN5
##CAS REGISTRY NO=125037-54-9
##MP= -300
##BP= -300
##MW= 347
##$RETENTION INDEX=0
##$CONDENSED SPECTRUM=NO
##NPOINTS= 38
##XYDATA=(XY..XY) 1 
    68        355
    82        999
    95        686
    96        277
   109        216
   110        315
   124        599
   137        218
   150        208
   155        119
   157        118
   169         78
   171         80
   181         48
   183         50
   184        138
   186        139
   249         99
   251         98
   262         59
   263         78
   264         70
   265         80
   276        308
   277         40
   278        310
   279         40
   290        129
   291         30
   292        128
   293         30
   305         30
   307         30
   318        140
   319        705
   321        695
   347        685
   349        687