##TITLE=Library Entry 23741
##JCAMP-DX=Revision 4.10 
##DATA TYPE=MASS SPECTRUM
##SAMPLE DESCRIPTION=V.Zaikin,Topchiev Inst.Petrochem.Synth.,Moscow
##NAMES=HP
##CAS NAME=Valeric acid, tetradecyl ester
##MOLFORM=C19H38O2
##CAS REGISTRY NO=125164-52-5
##MP= -300
##BP= -300
##MW= 298
##$RETENTION INDEX=0
##$CONDENSED SPECTRUM=NO
##NPOINTS= 101
##XYDATA=(XY..XY) 1 
    27        303
    28         84
    29        513
    30         15
    31         15
    36          5
    37          6
    38         13
    39        163
    40         41
    41        856
    42        228
    43        806
    44         79
    45         30
    46          3
    49          3
    50         10
    51         18
    52          6
    53         53
    54        104
    55        699
    56        368
    57        999
    58         56
    59         14
    60         74
    61         43
    62          2
    63          2
    65         10
    66         10
    67         97
    68        110
    69        365
    70        235
    71        214
    72         15
    73         71
    74          6
    75         20
    77         11
    78          4
    79         11
    80          6
    81         55
    82        130
    83        317
    84        159
    85        607
    86         33
    87         11
    88          3
    91          3
    94          3
    95         18
    96         49
    97        198
    98         95
    99         21
   100          7
   101         19
   102         78
   103        809
   104         56
   105          7
   109          5
   110         23
   111         99
   112         60
   113         15
   115          6
   116         21
   123          3
   124         10
   125         53
   126         38
   127         12
   129          6
   130          3
   138          4
   139         20
   140         26
   141          6
   143          6
   153          9
   154         12
   155          4
   158          9
   167          7
   168         44
   169          6
   195          3
   196         72
   197         10
   206          2
   211          2
   241          9
   242          2
   256          2