##TITLE=Library Entry 26328
##JCAMP-DX=Revision 4.10 
##DATA TYPE=MASS SPECTRUM
##SAMPLE DESCRIPTION=V.Zaikin,Topchiev Inst.Petrochem.Synth.,Moscow
##NAMES=HP
##CAS NAME=Valeric acid, hexadecyl ester
##MOLFORM=C21H42O2
##CAS REGISTRY NO=125164-54-7
##MP= -300
##BP= -300
##MW= 326
##$RETENTION INDEX=0
##$CONDENSED SPECTRUM=NO
##NPOINTS= 107
##XYDATA=(XY..XY) 1 
    27        215
    28         83
    29        461
    30         13
    31         18
    35          3
    36          8
    37          7
    38         12
    39        128
    40         33
    41        816
    42        220
    43        760
    44         40
    45         20
    50          9
    51         16
    52          7
    53         63
    54        112
    55        737
    56        335
    57        999
    58         62
    59         13
    60         71
    61         32
    62          4
    63          6
    65         10
    66         13
    67        109
    68        133
    69        428
    70        231
    71        251
    72         11
    73         56
    74          4
    75         13
    76          2
    77          7
    78          2
    79         11
    80          3
    81         65
    82        143
    83        378
    84        140
    85        679
    86         40
    87         13
    88          3
    91          4
    93          5
    95         28
    96         60
    97        231
    98         86
    99         22
   100          7
   101         20
   102        103
   103        910
   104         64
   105         11
   109          8
   110         25
   111        110
   112         54
   113         15
   115          7
   116         18
   123          3
   124         13
   125         48
   126         29
   127          9
   129          6
   130          5
   135          2
   138         10
   139         20
   140         32
   141          4
   143          8
   152          5
   153          9
   154         21
   155          3
   158          8
   166          3
   167          6
   168         13
   181          6
   182          5
   183          2
   195          3
   196         30
   197          6
   206          4
   224         64
   225         15
   268         14
   269          3
   325          3