##TITLE=Library Entry 3887
##JCAMP-DX=Revision 4.10 
##DATA TYPE=MASS SPECTRUM
##SAMPLE DESCRIPTION=V.Zaikin,Topchiev Inst.Petrochem.Synth.,Moscow
##NAMES=HP
##CAS NAME=Valeric acid, pentadecyl ester
##MOLFORM=C20H40O2
##CAS REGISTRY NO=125164-53-6
##MP= -300
##BP= -300
##MW= 312
##$RETENTION INDEX=0
##$CONDENSED SPECTRUM=NO
##NPOINTS= 123
##XYDATA=(XY..XY) 1 
    27        256
    28         44
    29        476
    30         15
    31         23
    33          4
    35          6
    36         18
    37          4
    38         16
    39        204
    40         44
    41        999
    42        250
    43        917
    44        114
    45         24
    46          7
    47          4
    49          2
    50         15
    51         19
    52         11
    53         61
    54        118
    55        797
    56        339
    57        967
    58         55
    59         23
    60         98
    61         52
    63          3
    65         18
    66          3
    67        119
    68        146
    69        388
    70        263
    71        286
    72         16
    73         92
    74          6
    75         15
    76         11
    77         13
    79         13
    80          6
    81         56
    82        152
    83        372
    84        177
    85        741
    86         50
    87         10
    89          3
    91          4
    92          3
    93          6
    94          3
    95         33
    96         71
    97        287
    98        113
    99         19
   100          8
   101         29
   102        110
   103        974
   104         50
   105         10
   106          4
   109         11
   110         18
   111        118
   112         76
   113         17
   115         13
   116         18
   117          6
   121          4
   123          6
   124         17
   125         51
   126         53
   127          9
   129          9
   135          3
   138         10
   139         25
   140         46
   141         15
   143          5
   152          6
   153         13
   154         18
   155         21
   156          5
   157          2
   158          5
   159          3
   167          5
   168         18
   169          6
   172          5
   173         50
   174          3
   180          4
   181          4
   182         31
   183          4
   184          2
   187          2
   196          3
   206          4
   208          5
   210         56
   211          8
   212          3
   240          3
   255         10
   256          7
   269          4