##TITLE=Library Entry 58308
##JCAMP-DX=Revision 4.10 
##DATA TYPE=MASS SPECTRUM
##SAMPLE DESCRIPTION=V.G.Zaikin, Petrochem. Synth. Inst., Moscow
##NAMES=HP
##CAS NAME=Butyric acid, pentadecyl ester
##MOLFORM=C19H38O2
##CAS REGISTRY NO=125164-51-4
##MP= -300
##BP= -300
##MW= 298
##$RETENTION INDEX=0
##$CONDENSED SPECTRUM=NO
##NPOINTS= 78
##XYDATA=(XY..XY) 1 
    26         11
    27        139
    28         42
    29        201
    30         13
    31          9
    36         11
    38          5
    39         85
    40         31
    41        469
    42        143
    43        995
    44         43
    45         14
    51          6
    53         31
    54         85
    55        459
    56        295
    57        488
    58         31
    60         51
    61         11
    65          5
    66          5
    67         68
    68        121
    69        376
    70        275
    71        839
    72         45
    73         27
    81         45
    82        141
    83        341
    84        183
    85        109
    86         18
    87         11
    88        109
    89        999
    90         51
    91          6
    93          6
    95         19
    96         72
    97        272
    98        118
    99         25
   100          6
   101          9
   102          2
   110         21
   111        132
   112         71
   113         11
   115          5
   124         16
   125         59
   126         49
   127          8
   137          2
   138          5
   139         21
   140         31
   141          9
   144         32
   145          4
   153          5
   154         18
   155          5
   182         48
   183          5
   210         65
   211          9
   255          9
   256          1