##TITLE=Library Entry 22879
##JCAMP-DX=Revision 4.10 
##DATA TYPE=MASS SPECTRUM
##SAMPLE DESCRIPTION=Japan AIST/NIMC Database- Spectrum MS-NW-7217
##NAMES=HP
##CAS NAME=3H-Pyrazol-3-one, 4,4'-methylenebis[1,2-dihydro-1,5-dimethyl-2-ph
enyl-
##MOLFORM=C23H24N4O2
##CAS REGISTRY NO=1251-85-0
##MP= -300
##BP= -300
##MW= 388
##$RETENTION INDEX=0
##$CONDENSED SPECTRUM=NO
##NPOINTS= 302
##XYDATA=(XY..XY) 1 
    15         22
    16          1
    26          1
    27         11
    28         23
    29         11
    30          9
    32          3
    37          1
    38          5
    39         30
    40          8
    41         21
    42         50
    43         16
    44          6
    50          5
    51         41
    52         11
    53         28
    54         11
    55         32
    56        999
    57         39
    58          4
    59          1
    62          2
    63         12
    64         17
    65         40
    66         18
    67         29
    68         25
    69          5
    70          4
    71          2
    74          2
    75          4
    76          5
    77        153
    78         21
    79         13
    80         16
    81         15
    82         32
    83          6
    84          4
    85          2
    87          1
    88          1
    89          5
    90          6
    91         38
    92         20
    93         32
    94         17
    95          6
    96         21
    97          4
    98          5
    99          1
   100          1
   101          1
   102          2
   103          6
   104         16
   105         21
   106         32
   107         12
   108         17
   109          6
   110          9
   111          4
   112          2
   113          2
   114          1
   115          9
   116          5
   117          9
   118         28
   119         21
   120         29
   121         15
   122         24
   123          7
   124          3
   125          4
   126          3
   127          6
   128          9
   129          7
   130         12
   131         12
   132         10
   133         11
   134         15
   135         18
   136         10
   137          7
   138          4
   139          3
   140          2
   141          3
   142          5
   143          7
   144         11
   145          6
   146          9
   147         17
   148         26
   149         22
   150         10
   151          6
   152          2
   153          2
   154          6
   155          3
   156          6
   157          6
   158          7
   159          7
   160          5
   161          8
   162          8
   163          9
   164          8
   165         27
   166          9
   167          6
   168          5
   169          5
   170          7
   171         10
   172         10
   173          8
   174          7
   175         11
   176         50
   177        635
   178         92
   179         10
   180         14
   181          5
   182          5
   183          9
   184          7
   185         49
   186         14
   187          9
   188         18
   189         10
   190          3
   191          3
   192          5
   193          4
   194         69
   195          9
   196          8
   197         11
   198          7
   199         10
   200         87
   201        257
   202         44
   203         13
   204          5
   205          1
   206          1
   207          2
   208          4
   209          7
   210          8
   211         12
   212          9
   213         33
   214         29
   215          9
   216          2
   217          1
   218          1
   219          1
   220          1
   221          2
   222          3
   223          7
   224          6
   225         14
   226          9
   227         11
   228          4
   229          1
   230          1
   233          1
   234          1
   235          2
   236          3
   237         19
   238         11
   239         50
   240         65
   241        114
   242         21
   243          6
   244          2
   245          1
   247          1
   248          1
   249          1
   250          3
   251          5
   252          9
   253          9
   254         52
   255         13
   256          2
   257          1
   258          1
   260          1
   261          1
   262          1
   263          1
   264          1
   265         11
   266          8
   267         31
   268        128
   269        265
   270         53
   271          7
   272          1
   273          1
   276          1
   277          1
   278          2
   279          1
   280          9
   281          3
   282          3
   283          1
   284          1
   285          1
   286          1
   288          1
   289          1
   290          2
   291          1
   292          4
   293          2
   294         12
   295          4
   296        139
   297         29
   298          5
   299          1
   300          1
   301          1
   304          2
   305          1
   311          3
   312          1
   313          1
   314          2
   315          1
   316          1
   317          1
   318          2
   319          1
   327          1
   328          1
   329          1
   330          3
   331          2
   332         23
   333          8
   334          2
   340          1
   341          1
   342          3
   343          2
   344          3
   345          3
   355          1
   356          4
   357          2
   358         13
   359          5
   360          2
   361          1
   369          1
   371          2
   372          2
   373         33
   374          9
   375          2
   384          1
   385          1
   386          2
   387         37
   388        439
   389        116
   390         21
   391          2