##TITLE=Library Entry 57431
##JCAMP-DX=Revision 4.10 
##DATA TYPE=MASS SPECTRUM
##SAMPLE DESCRIPTION=Chemical Concepts
##NAMES=HP
##CAS NAME=2-Pentene, 2-ethyldimethylsilyl-3-diethylboryl-
##MOLFORM=C13H29BSi
##CAS REGISTRY NO=125212-47-7
##MP= -300
##BP= -300
##MW= 224
##$RETENTION INDEX=0
##$CONDENSED SPECTRUM=NO
##NPOINTS= 121
##XYDATA=(XY..XY) 1 
    26         12
    27         49
    28          7
    29         35
    31         17
    37          9
    38          6
    39         25
    40         36
    41        131
    42          4
    43         36
    44          8
    45         38
    50          9
    51         28
    52          7
    53         19
    54          5
    55         15
    56          2
    57         10
    58         23
    59        400
    60         32
    61         16
    63          4
    64          4
    65         12
    66          6
    67         25
    68         14
    69         56
    70          4
    71         14
    72          6
    73        330
    74         30
    75         17
    77          5
    78         10
    79         29
    80          7
    81         15
    82          5
    83         88
    84          9
    85         21
    86         10
    87        999
    88         92
    89         42
    90          2
    91          4
    92          7
    93         27
    94          8
    95         23
    96          7
    97        194
    98         26
    99         41
   100          7
   101        507
   102         48
   103         23
   104          3
   105          5
   106          5
   107         27
   108         53
   109         36
   110          5
   111        125
   112         17
   113         34
   114          4
   115         30
   116          3
   119          2
   120          2
   121         13
   122         12
   123         25
   124          8
   125        174
   126         36
   127         27
   128          4
   133          7
   135         19
   136         73
   137         44
   138         12
   139         64
   140         36
   141         12
   149          2
   150          2
   151         10
   153         20
   154         12
   155          8
   161          2
   164          5
   165         15
   166         30
   167         96
   168         21
   169          5
   181          3
   194         46
   195        211
   196        117
   197         25
   198          4
   209          9
   223         13
   224         43
   225          9
   226          2