##TITLE=Library Entry 57303
##JCAMP-DX=Revision 4.10 
##DATA TYPE=MASS SPECTRUM
##SAMPLE DESCRIPTION=Chemical Concepts
##NAMES=HP
##CAS NAME=2-Pentene, 2-allyldimethylsilyl-3-diethylboryl-
##MOLFORM=C14H29BSi
##CAS REGISTRY NO=125212-49-9
##MP= -300
##BP= -300
##MW= 236
##$RETENTION INDEX=0
##$CONDENSED SPECTRUM=NO
##NPOINTS= 127
##XYDATA=(XY..XY) 1 
    27         88
    28          2
    29         18
    31         33
    36          3
    37         17
    38         11
    39         50
    40         63
    41        220
    42          7
    43        115
    44         19
    45         97
    46          6
    47          3
    49          3
    50         13
    51         43
    52         10
    53         28
    54          6
    55         25
    56          4
    57         18
    58         31
    59        655
    60         44
    61         23
    62          2
    63          5
    64          7
    65         19
    66          7
    67         32
    68          9
    69         42
    70          7
    71         47
    72         10
    73        424
    74         34
    75         21
    76          2
    77          5
    78          4
    79         12
    80          4
    81         17
    82          5
    83         62
    84          9
    85         46
    86          8
    87        999
    88         80
    89         37
    90          3
    91          4
    92          5
    93         15
    94          2
    95         19
    96          6
    97         87
    98         12
    99         90
   100         11
   101        553
   102         56
   103         23
   104          1
   105          3
   106          2
   107          9
   108          4
   109         18
   110          3
   111         53
   112          8
   113         20
   114          2
   115          2
   119          2
   120          1
   121          3
   122          2
   123         15
   124          3
   125         59
   126         11
   127          7
   133          2
   135          1
   136          4
   137         22
   138          4
   139         17
   140          4
   141          1
   148          1
   149          1
   150          1
   151          6
   152          4
   153          5
   154          1
   164          2
   165          9
   166          5
   167          6
   168          1
   179          3
   183          1
   193          2
   194         58
   195        209
   196         40
   197         10
   198          1
   206         20
   207         87
   208         18
   209          8
   211          2
   221          3
   236          4