##TITLE=Library Entry 13395
##JCAMP-DX=Revision 4.10 
##DATA TYPE=MASS SPECTRUM
##SAMPLE DESCRIPTION=Chemical Concepts
##NAMES=HP
##CAS NAME=2,2,6,8,12-Pentamethyl-7,9,10-trioxa-tricyclo[6.2.2.0(1,6)]dodec-
11-ene
##MOLFORM=C14H22O3
##CAS REGISTRY NO=125257-58-1
##MP= -300
##BP= -300
##MW= 238
##$RETENTION INDEX=0
##$CONDENSED SPECTRUM=NO
##NPOINTS= 197
##XYDATA=(XY..XY) 1 
    26          2
    27         53
    28          9
    29         59
    30          0
    31          6
    33          0
    34          0
    35          1
    37          1
    38          3
    39        113
    40         33
    41        318
    42         33
    43        999
    44         20
    45         13
    47          1
    48          1
    50          2
    51         13
    52          8
    53         62
    54         11
    55        176
    56         32
    57         26
    58         10
    59         14
    60          0
    61          2
    62          1
    63          4
    64          1
    65         24
    66         11
    67         71
    68         21
    69        493
    70         35
    71         57
    72          3
    73          2
    74          5
    75          2
    76          1
    77         43
    78          9
    79         51
    80         11
    81        126
    82         20
    83         38
    84         16
    85        186
    86          9
    87         14
    88          2
    89          0
    90          0
    91         44
    92          8
    93         48
    94         13
    95        112
    96         18
    97         32
    98          7
    99         18
   100          7
   101          1
   102          1
   103          3
   104          2
   105         19
   106          4
   107         54
   108         13
   109        351
   110         33
   111        170
   112        307
   113         25
   114         13
   115          4
   116          1
   117          3
   118          1
   119         20
   120          9
   121         43
   122         25
   123        149
   124         22
   125         50
   126          7
   127        230
   128         17
   129          3
   130          1
   131          4
   132          1
   133         11
   134          6
   135         45
   136         31
   137        133
   138         19
   139         27
   140          9
   141          2
   142          1
   143          1
   144          0
   145          7
   146          0
   147          7
   148          2
   149         49
   150         22
   151         13
   152         25
   153        194
   154         24
   155          2
   156          2
   157          1
   158          1
   159          5
   160          1
   161          5
   162          3
   163         35
   164          6
   165          7
   166          0
   167          2
   168          1
   169          5
   170          0
   171          0
   172          0
   173          5
   174          1
   175          4
   176          5
   177         37
   178          8
   179         13
   180          4
   181          6
   182          1
   183          0
   184          0
   185          0
   186          0
   187          2
   188          0
   189          1
   190          0
   191        721
   192         93
   193          7
   194          1
   195          7
   196          4
   197          0
   198          0
   199          0
   201          0
   202          0
   203          0
   204          1
   205         10
   206        163
   207         22
   208          0
   209          0
   210          0
   211          0
   213          0
   214          0
   215          0
   216          0
   217          0
   218          0
   219          0
   220          2
   221          0
   222          0
   223          5
   224          0
   237          0
   238         94
   239         16
   240          1