##TITLE=Library Entry 42930
##JCAMP-DX=Revision 4.10 
##DATA TYPE=MASS SPECTRUM
##SAMPLE DESCRIPTION=Chemical Concepts
##NAMES=HP
##CAS NAME=Silane, trimethyl[1-(1-methylethenyl)-1-butenyl]-, (E)-
##MOLFORM=C10H20Si
##CAS REGISTRY NO=125212-67-1
##MP= -300
##BP= -300
##MW= 168
##$RETENTION INDEX=0
##$CONDENSED SPECTRUM=NO
##NPOINTS= 107
##XYDATA=(XY..XY) 1 
    26          1
    27         24
    28          1
    29         16
    30          1
    31         17
    39         21
    40          4
    41         21
    42          3
    43         50
    44         16
    45         93
    46          5
    47          2
    50          1
    51          7
    52          1
    53         10
    54          2
    55         16
    56          5
    57         18
    58         15
    59        125
    60          9
    61          4
    63          1
    65          5
    66          2
    67         11
    68          2
    69         15
    70          4
    71          7
    72         16
    73        999
    74         72
    75         33
    76          1
    77         11
    78          2
    79         18
    80          3
    81         10
    82          2
    83         36
    84          4
    85         27
    86          4
    87         12
    88          1
    91          6
    92          1
    93         27
    94         15
    95         16
    96         44
    97        123
    98         16
    99        149
   100         18
   101         20
   102          2
   103          1
   105          2
   106          0
   107          3
   108          1
   109         15
   110          4
   111         81
   112         18
   113         57
   114          7
   115          2
   119          0
   121          2
   122          1
   123          8
   124          2
   125         17
   126         11
   127          4
   128          5
   129          1
   135          0
   137          9
   138          3
   139         59
   140          8
   141          4
   142          2
   151          4
   152          1
   153        165
   154         28
   155         23
   156          3
   157          1
   166          1
   167          2
   168        166
   169         27
   170         22
   171          3
   172          0