##TITLE=Library Entry 22611
##JCAMP-DX=Revision 4.10 
##DATA TYPE=MASS SPECTRUM
##SAMPLE DESCRIPTION=Chemical Concepts
##NAMES=HP
##CAS NAME=1,3a-Epoxy(3aH)indene, 1,4,5,6,7,7a-hexahydro-1,3,4,4,7a-pentamet
hyl-
##MOLFORM=C14H22O
##CAS REGISTRY NO=125257-62-7
##MP= -300
##BP= -300
##MW= 206
##$RETENTION INDEX=0
##$CONDENSED SPECTRUM=NO
##NPOINTS= 145
##XYDATA=(XY..XY) 1 
    26          8
    27         77
    28         20
    29         49
    30          2
    31          1
    37          2
    38          7
    39        104
    40         21
    41        586
    42        135
    43        114
    44          3
    45          2
    46          0
    49          0
    50          8
    51         19
    52          8
    53         35
    54         30
    55        362
    56        999
    57         44
    58          8
    59          1
    60          0
    61          0
    62          1
    63          5
    64          2
    65         15
    66          4
    67         26
    68         12
    69        149
    70         12
    71         14
    72          1
    73          0
    74          2
    75          1
    76          0
    77         30
    78          5
    79         25
    80         10
    81         16
    82          6
    83         47
    84        802
    85         48
    86          1
    87          0
    88          1
    89          1
    90          0
    91         33
    92          6
    93         20
    94          5
    95         12
    96          3
    97          4
    98          6
    99          1
   100          0
   101          0
   102          1
   103          4
   104          2
   105         31
   106          9
   107         39
   108          7
   109         17
   110          3
   111          1
   112          1
   113          0
   114          0
   115          4
   116          2
   117          7
   118          2
   119         17
   120          9
   121         41
   122         28
   123         31
   124          6
   125          3
   126          0
   127          1
   128          2
   129          2
   130          1
   131          5
   132          3
   133         57
   134          8
   135         86
   136         28
   137          8
   138          1
   141          0
   142          0
   143          1
   144          0
   145          3
   146          1
   147          7
   148         71
   149         29
   150          8
   151          1
   152          0
   155          0
   156          0
   157          0
   158          1
   159          1
   160          0
   161          3
   162          1
   163         10
   164          2
   165          0
   166          0
   173          5
   174          1
   175          1
   176          3
   177          1
   178          0
   188          0
   189          0
   191        108
   192         15
   194         22
   195          2
   206         21
   207          2
   208          0