##TITLE=Library Entry 8493
##JCAMP-DX=Revision 4.10 
##DATA TYPE=MASS SPECTRUM
##SAMPLE DESCRIPTION=Chemical Concepts
##NAMES=HP
##CAS NAME=4-(1-Hydroperoxy-2,2-dimethyl-6-methylene-cyclohexyl)-pent-3-en-2
-one
##MOLFORM=C14H22O3
##CAS REGISTRY NO=125284-20-0
##MP= -300
##BP= -300
##MW= 238
##$RETENTION INDEX=1477
##$CONDENSED SPECTRUM=NO
##NPOINTS= 138
##XYDATA=(XY..XY) 1 
    26          4
    27         78
    28         11
    29         84
    31         16
    38          6
    39        148
    40         58
    41        370
    42         35
    43        999
    44         26
    45         12
    50          6
    51         31
    52         18
    53        102
    54         31
    55        188
    56         29
    57         23
    58          4
    59         35
    63         13
    64          5
    65         45
    66         19
    67        112
    68         27
    69        501
    70         39
    71         16
    74          3
    75          3
    76          3
    77         73
    78         19
    79         74
    80         15
    81         77
    82         22
    83         66
    84         22
    85         33
    86          3
    89          4
    91         86
    92         18
    93         73
    94         25
    95        116
    96         24
    97         47
    98          6
    99          6
   100          4
   103         10
   104          5
   105         54
   106         10
   107         69
   108         21
   109        211
   110         33
   111        129
   112         65
   113         19
   115         12
   116          5
   117         13
   118          3
   119         53
   120         11
   121         77
   122         27
   123         94
   124         12
   125         16
   126          3
   127         12
   128          6
   129          6
   130          4
   131         14
   132          4
   133         25
   134          8
   135         59
   136         23
   137        146
   138         48
   139         76
   140          7
   141          4
   143          5
   144          3
   145         22
   146          7
   147         38
   148         10
   149         47
   150         11
   151         77
   152         16
   153         46
   154          5
   159         16
   160          4
   161         70
   162         15
   163         57
   165         26
   166          5
   175          9
   176          4
   177         66
   178         17
   179         83
   180         13
   181          4
   185          3
   187          4
   189          9
   191         21
   192          5
   193         12
   194          3
   195          6
   202         20
   203         10
   205         26
   206          5
   207         14
   208          3
   220         11
   221         32
   222         17
   223          6