##TITLE=Library Entry 12049
##JCAMP-DX=Revision 4.10 
##DATA TYPE=MASS SPECTRUM
##SAMPLE DESCRIPTION=Chemical Concepts
##NAMES=HP
##CAS NAME=Bicyclo[4.3.0]nonan-1-ol, 7,9-bis(methylene)-2,2,6-trimethyl-
##MOLFORM=C14H22O
##CAS REGISTRY NO=125257-63-8
##MP= -300
##BP= -300
##MW= 206
##$RETENTION INDEX=0
##$CONDENSED SPECTRUM=NO
##NPOINTS= 148
##XYDATA=(XY..XY) 1 
    26          2
    27         60
    28          6
    29         53
    30          1
    31          5
    37          1
    38          4
    39        113
    40         15
    41        251
    42          9
    43        999
    44         11
    45          8
    49          8
    50         41
    51         45
    52         29
    53         78
    54          7
    55        108
    56          6
    57         13
    58         21
    59          6
    60          1
    61          2
    62          4
    63         25
    64         17
    65         53
    66          8
    67         59
    68          3
    69        207
    70         13
    71          7
    72          1
    73          1
    74          6
    75          5
    76          4
    77        122
    78         33
    79        121
    80         16
    81         73
    82          7
    83         17
    84          2
    85          7
    86          3
    87          1
    88          4
    89          6
    90          4
    91        221
    92         71
    93        154
    94         20
    95        113
    96         12
    97          5
    98          1
    99          2
   101          1
   102          3
   103         21
   104         10
   105        176
   106         40
   107        254
   108         34
   109         43
   110          7
   111          6
   112          1
   115         25
   116         13
   117         40
   118          5
   119         72
   120         40
   121        119
   122         19
   123         53
   124         10
   125          2
   126          1
   127          4
   128          9
   129         12
   130          7
   131         47
   132         37
   133        280
   134         40
   135         72
   136         16
   137         19
   138          4
   139          1
   141          3
   142          3
   143          5
   144          6
   145         63
   146         15
   147         42
   148         62
   149        121
   150         33
   151          8
   152          1
   153          0
   155          1
   156          1
   157          3
   158          7
   159         44
   160         27
   161          9
   162          3
   163        106
   164         18
   165          2
   166          1
   171          1
   172          2
   173        159
   174         24
   175          4
   176          4
   177          4
   178          2
   179          0
   187          1
   188        114
   189         23
   190          2
   191        123
   192         22
   193          1
   205          1
   206         16
   207          3
   208          0