##TITLE=Library Entry 4165
##JCAMP-DX=Revision 4.10 
##DATA TYPE=MASS SPECTRUM
##SAMPLE DESCRIPTION=A.A.Kutin, Moscow, Russia
##NAMES=HP
##CAS NAME=Phosphinic acid, (2-hydroxyphenoxymethyl)octyl-
##MOLFORM=C15H25O4P
##CAS REGISTRY NO=125301-05-5
##MP= -300
##BP= -300
##MW= 300
##$RETENTION INDEX=0
##$CONDENSED SPECTRUM=NO
##NPOINTS= 169
##XYDATA=(XY..XY) 1 
    33          7
    34          1
    35          0
    36          5
    37         14
    39        343
    41        999
    43        620
    44         26
    47        186
    49         42
    50        118
    51        177
    52        280
    53         93
    55        394
    57        114
    58          5
    59          4
    61         15
    63        237
    64        104
    65        153
    67        112
    69        167
    70         10
    71         10
    72          6
    73         10
    74         18
    75         49
    77        318
    78        215
    79        132
    80        140
    81         79
    82         22
    83         43
    85         23
    86          4
    87          6
    89         48
    90         41
    91        141
    92        256
    94        167
    95         43
    96         10
    97          8
    99         47
   101         14
   102          9
   103         18
   104         39
   105        104
   107        334
   108         81
   109         62
   110         23
   112          4
   113         10
   114         10
   115         21
   117         53
   120        631
   121        175
   122         39
   123         28
   124         19
   125          4
   127          8
   128          8
   129         10
   130         11
   131         23
   132         17
   133         16
   134          9
   135         16
   136         31
   139        599
   140         60
   141         32
   142          6
   143          4
   144          4
   145          5
   146          5
   147          3
   148          5
   149         14
   150          6
   151         48
   154        473
   155         53
   156         58
   157          5
   158          3
   160          5
   161          2
   162          5
   163          6
   164          8
   166         26
   167         21
   169        699
   171         40
   172          7
   173          1
   174          2
   175          1
   176          3
   177          5
   178          1
   179          4
   180          5
   181         19
   182        119
   184        384
   185         54
   187          2
   188          2
   189          1
   190          4
   191         12
   192          3
   193          4
   194          7
   196        341
   198         34
   199          9
   200          1
   203          0
   205          0
   207          4
   208          3
   209          3
   211         37
   212          6
   213          2
   215          1
   216          2
   221          4
   222          2
   223          3
   225         68
   226          8
   227          2
   234          0
   236          3
   239         92
   240         11
   241          1
   250          1
   251          1
   252          4
   253         39
   254          3
   267          7
   277          0
   278          2
   279          5
   280          9
   282        147
   283         16
   284          2
   296          1
   300          7
   301          0