##TITLE=Library Entry 23147
##JCAMP-DX=Revision 4.10 
##DATA TYPE=MASS SPECTRUM
##SAMPLE DESCRIPTION=Chemical Concepts
##NAMES=HP
##CAS NAME=Pentanoic acid, 3-ethoxy-2-(hydroxymethyl)-3-oxopropyl ester, (-)
-
##MOLFORM=C11H20O5
##CAS REGISTRY NO=125476-52-0
##MP= -300
##BP= -300
##MW= 232
##$RETENTION INDEX=0
##$CONDENSED SPECTRUM=NO
##NPOINTS= 53
##XYDATA=(XY..XY) 1 
    26         72
    27        559
    28        217
    29        940
    30         42
    31        237
    38         19
    39        209
    40         39
    41        495
    42        130
    43        158
    44         40
    45        146
    47         27
    53         26
    54         26
    55        555
    56        222
    57        999
    58         67
    59         35
    60        357
    61         17
    71         57
    72         23
    73        315
    74         23
    75         21
    83         25
    84         80
    85        883
    86         46
    89         24
   100         22
   101        588
   102         53
   103        139
   113          9
   117         65
   118         13
   126          8
   129         17
   130        127
   131         44
   144        104
   147         65
   149         23
   158          7
   169         29
   172          8
   187         77
   190         51