##TITLE=Library Entry 71886
##JCAMP-DX=Revision 4.10 
##DATA TYPE=MASS SPECTRUM
##SAMPLE DESCRIPTION=Chemical Concepts
##NAMES=HP
##CAS NAME=Hexanoic acid, 2-ethoxycarbonyl-3-hexanoyloxypropyl ester
##MOLFORM=C18H32O6
##CAS REGISTRY NO=125476-47-3
##MP= -300
##BP= -300
##MW= 344
##$RETENTION INDEX=0
##$CONDENSED SPECTRUM=NO
##NPOINTS= 148
##XYDATA=(XY..XY) 1 
    26         12
    27        165
    28         52
    29        313
    30          8
    31         22
    38          3
    39         70
    40         20
    41        318
    42        104
    43        683
    44         24
    45         27
    46          1
    47          2
    50          1
    51          8
    52          1
    53         12
    54         16
    55        197
    56         43
    57         39
    58          9
    59         21
    60         48
    61          5
    62          1
    63          1
    65          1
    66          2
    67          8
    68         16
    69         94
    70        130
    71        553
    72         31
    73         64
    74          7
    75          3
    76          1
    77          2
    79          2
    80         16
    81          9
    82          5
    83         22
    84          7
    85         72
    86         10
    87         11
    88          2
    89          4
    95          2
    96          2
    97         12
    98        120
    99        999
   100         90
   101         64
   102          5
   103         14
   104          2
   105          3
   112         16
   113         16
   114          4
   115          6
   117         11
   118          2
   126         28
   127         14
   128          1
   129        190
   130         29
   131         24
   132          1
   138          1
   139          1
   140          6
   141          2
   142          5
   143          5
   144         15
   145          8
   146          1
   147          3
   148          1
   149         17
   150          1
   153          1
   154          8
   155          9
   156          6
   157          2
   158          1
   159          3
   164          1
   165          0
   166          1
   167          0
   168          1
   169          0
   170          1
   172        108
   173         44
   174          4
   180          0
   182          2
   183         59
   184          5
   185         19
   186         11
   187          1
   190          6
   191          9
   196          1
   197          0
   198          1
   199          6
   200          7
   201         39
   202          3
   203          0
   213          1
   214          1
   215          3
   216          5
   217          1
   218          1
   226          1
   227         34
   229        110
   230         14
   231          1
   232         20
   233          2
   242          1
   245          0
   246          1
   247          3
   248          0
   273          1
   288          6
   289          1
   299          6
   300          0