##TITLE=Library Entry 54913
##JCAMP-DX=Revision 4.10 
##DATA TYPE=MASS SPECTRUM
##SAMPLE DESCRIPTION=Chemical Concepts
##NAMES=HP
##CAS NAME=Pentanoic acid, 2-ethoxycarbonyl-3-pentanoyloxypropyl ester
##MOLFORM=C16H28O6
##CAS REGISTRY NO=125476-46-2
##MP= -300
##BP= -300
##MW= 316
##$RETENTION INDEX=0
##$CONDENSED SPECTRUM=NO
##NPOINTS= 106
##XYDATA=(XY..XY) 1 
    26         16
    27        193
    28         83
    29        502
    30         12
    31         26
    38          4
    39         79
    40         19
    41        333
    42         55
    43         47
    44          6
    45         22
    47          2
    50          1
    51          3
    52          2
    53         11
    54         12
    55        162
    56         85
    57        684
    58         32
    59         22
    60         20
    61          2
    67          3
    68          6
    69         24
    70          3
    71          8
    72          3
    73         34
    74          4
    75          3
    81          2
    82          5
    83         16
    84         30
    85        999
    86         58
    87          6
    89          3
    98          5
    99          4
   100         24
   101         60
   102          5
   103         16
   112         16
   113         11
   114          3
   115          1
   117          5
   118          1
   126         22
   127          8
   128          3
   129        157
   130         24
   131         16
   132          2
   140          2
   141          9
   142         11
   143          3
   144         12
   145          6
   147          3
   149          8
   150          1
   154          5
   157          3
   158          3
   168          4
   169         56
   170          6
   171          2
   172         69
   173         27
   174          3
   185         11
   186         12
   187         30
   188          3
   190          5
   191          4
   199          2
   200          2
   201          2
   202          4
   203          1
   213          2
   214         31
   215         73
   216          9
   217          1
   232         16
   233          4
   234          1
   271          7
   272          1
   273          1
   274          5
   275          1