##TITLE=Library Entry 85518
##JCAMP-DX=Revision 4.10 
##DATA TYPE=MASS SPECTRUM
##SAMPLE DESCRIPTION=Div. of Experiment Therapeutics WRAIR, WRAMC, Washingto
n DC 20307
##NAMES=HP
##CAS NAME=2,4-Bis[trichloromethyl]-6-[.alpha.,.alpha.,.alpha.-trifluoro-p-t
olyl]-S-trazine
##MOLFORM=C12H4Cl6F3N3
##CAS REGISTRY NO=125407-19-4
##MP= -300
##BP= -300
##MW= 457
##$RETENTION INDEX=0
##$CONDENSED SPECTRUM=NO
##NPOINTS= 123
##XYDATA=(XY..XY) 1 
    47         73
    49         34
    50         45
    51         50
    52         15
    53          6
    57         22
    62         14
    63         15
    64         13
    69         46
    73         62
    74         20
    75        105
    76         36
    77          2
    79          4
    81          7
    82        114
    83         60
    84         74
    85         61
    86         20
    87         26
    88          9
    93         10
    94         40
    95         50
    96         14
    99         17
   100         14
   101          2
   102         41
   106         15
   108        999
   109         55
   110        643
   111         40
   112        106
   113          9
   114          2
   117        147
   119        153
   120         33
   121        147
   122         32
   123          8
   125         26
   126          5
   129         29
   131         28
   132          2
   133         16
   134        139
   135         23
   136         88
   138         14
   143         15
   144         10
   145        114
   146          9
   152         85
   157          2
   163         20
   169         21
   170         46
   171         50
   181         37
   183         40
   184          8
   185         22
   190         15
   191         66
   192         26
   194        141
   195        174
   196         90
   197        102
   198          5
   203          2
   206         10
   211         26
   212         35
   213         20
   214          2
   216         26
   218         34
   220         17
   230         57
   231          2
   232         19
   253          2
   278         11
   279          2
   280          5
   387         52
   388          5
   389         65
   390         14
   391         31
   421          5
   422        581
   424        984
   425        354
   426        643
   427         85
   428        207
   429         24
   430         21
   438         11
   439          8
   440         18
   441         16
   442          5
   444          2
   457        126
   459        249
   460        121
   461        204
   462         57
   463         83
   464         12
   465         27