##TITLE=Library Entry 61037
##JCAMP-DX=Revision 4.10 
##DATA TYPE=MASS SPECTRUM
##SAMPLE DESCRIPTION=A.A.Kutin, Moscow, Russia
##NAMES=HP
##CAS NAME=Acetamide, 2-chloro-N-benzyl-N-(2,6-dimethylphenyl)-
##MOLFORM=C17H18ClNO
##CAS REGISTRY NO=125486-26-2
##MP= -300
##BP= -300
##MW= 287
##$RETENTION INDEX=0
##$CONDENSED SPECTRUM=NO
##NPOINTS= 193
##XYDATA=(XY..XY) 1 
    33          7
    34          5
    35          9
    36         41
    37          5
    38         22
    39         94
    40         79
    41         33
    42         21
    43         14
    44         16
    45          1
    46          0
    47          0
    48          5
    49         43
    50         20
    51         73
    52         27
    53         23
    54          5
    55          3
    56          1
    57          2
    58          1
    59          0
    60          1
    61          1
    62          7
    63         37
    64         21
    65        174
    66         15
    67          3
    68          0
    69          1
    70          0
    71          1
    72          0
    73          1
    74          3
    75          6
    77        151
    78         39
    79         58
    80          8
    81          1
    82          1
    83          1
    84          2
    85          0
    86          1
    87          1
    89         36
    91        999
    92         87
    93         12
    94          2
    95          1
    96          2
    97          2
    98          0
    99          0
   100          0
   101          1
   102          8
   103         37
   104         31
   105        228
   106         79
   107         29
   108          3
   109          2
   110          0
   111          1
   112          0
   113          0
   114          0
   115          6
   116         10
   117         36
   118         36
   119         24
   120         41
   121         28
   122          7
   123          1
   125          2
   126          0
   127          1
   128          3
   129          1
   130         19
   131         14
   132         86
   133         16
   134         11
   135          1
   136          1
   137          3
   138          0
   139          1
   140          0
   141          1
   142          2
   144          9
   145          9
   146         37
   147         16
   148        154
   149         15
   150          1
   151          1
   152          3
   153          1
   154          1
   155          0
   156          0
   157          0
   158          0
   159          1
   160         21
   161          4
   162          3
   163          1
   164          1
   165          8
   166          6
   167          3
   168          2
   169          0
   170          0
   171          1
   172          0
   174         17
   175          2
   176          0
   177          1
   178         10
   179          8
   180          9
   181          4
   182          6
   183          1
   184          2
   187          0
   189          0
   190          0
   191          2
   192          3
   193         12
   194         15
   195          7
   196         20
   197         23
   198          8
   199          7
   200          0
   204          0
   205          0
   206          2
   207          2
   208         23
   209         61
   210         33
   211          9
   212          1
   218          0
   219          0
   220          0
   222          0
   224          0
   232          0
   234          7
   235          1
   236          1
   237          1
   238         20
   239          3
   243          1
   250          5
   252        210
   253         44
   254          4
   272          1
   273          0
   274          0
   287        131
   288         27
   289         44
   290          8
   291          0