##TITLE=Library Entry 39915
##JCAMP-DX=Revision 4.10 
##DATA TYPE=MASS SPECTRUM
##SAMPLE DESCRIPTION=Chemical Concepts
##NAMES=HP
##CAS NAME=Boron, [1,2-ethanediolato(2-)-O,O']ethyl(methanamine)-, (t-4)-
##MOLFORM=C5H14BNO2
##CAS REGISTRY NO=125452-22-4
##MP= -300
##BP= -300
##MW= 131
##$RETENTION INDEX=0
##$CONDENSED SPECTRUM=NO
##NPOINTS= 64
##XYDATA=(XY..XY) 1 
    28        444
    29        167
    30        577
    31        398
    33          0
    34          1
    35          1
    36          8
    37         30
    38         13
    39         76
    40          3
    41        148
    42        292
    43        213
    44         63
    45        253
    46          3
    47          0
    48          8
    49          2
    50          0
    51          1
    52         15
    53         57
    54         34
    55        142
    56        389
    57         60
    58         29
    59        103
    60          1
    61          0
    64          1
    65          8
    66          6
    67         17
    68        112
    69        472
    70        649
    71        341
    72        999
    73         29
    74          4
    75          0
    80          0
    81          2
    82          4
    83          7
    84         25
    85         76
    86          3
    87          0
    88          0
    89          0
    91          0
    95          0
    96          4
    97         18
    98         78
    99        437
   100        647
   101         34
   102          4