##TITLE=Library Entry 35400
##JCAMP-DX=Revision 4.10 
##DATA TYPE=MASS SPECTRUM
##SAMPLE DESCRIPTION=NIST Mass Spectrometry Data Center
##NAMES=HP
##CAS NAME=(2E,6E,10E)-3,7,11,15-Tetramethylhexadeca-2,6,10,14-tetraen-1-yl
 formate
##MOLFORM=C21H34O2
##CAS REGISTRY NO=125456-63-5
##MP= -300
##BP= -300
##MW= 318
##$RETENTION INDEX=2234
##$CONDENSED SPECTRUM=NO
##NPOINTS= 107
##XYDATA=(XY..XY) 1 
    27          8
    29         30
    31          2
    39         30
    40         12
    41        276
    42         16
    43         37
    46          4
    51          4
    52          5
    53         65
    54          6
    55        100
    56          7
    57         48
    65         26
    66          8
    67        183
    68        198
    69        999
    70         57
    71          8
    77         50
    78          8
    79         84
    80         37
    81        407
    82         45
    83         15
    84          5
    85          9
    91         68
    92         27
    93        243
    94         38
    95        121
    96         12
    97          7
   103          5
   105         59
   106         18
   107        164
   108         33
   109         65
   110          7
   111          3
   113          3
   115          3
   117          5
   118          3
   119         68
   120         30
   121        129
   122         34
   123         88
   124         13
   131          5
   132         11
   133         67
   134         31
   135         83
   136        148
   137         72
   138          9
   145          8
   146          3
   147         37
   148         32
   149         23
   150          4
   159         12
   160          3
   161         40
   162         10
   163          7
   173          3
   175          7
   176          2
   177          5
   179          2
   187          7
   188          4
   189         22
   190          8
   191          8
   192          4
   201          4
   202          2
   203         17
   204         23
   205          7
   215          2
   216          2
   229          7
   230          2
   233          1
   236          1
   249         12
   250          3
   257          4
   258          1
   272          4
   273          1
   275          3
   318          6
   319          1