##TITLE=Library Entry 12942
##JCAMP-DX=Revision 4.10 
##DATA TYPE=MASS SPECTRUM
##SAMPLE DESCRIPTION=LAC, NIDDK, NIH, Bethesda, MD 20892
##NAMES=HP
##CAS NAME=Myo-inositol, hexaacetate
##MOLFORM=C18H24O12
##CAS REGISTRY NO=1254-38-2
##MP= -300
##BP= -300
##MW= 432
##$RETENTION INDEX=2044
##$CONDENSED SPECTRUM=NO
##NPOINTS= 133
##XYDATA=(XY..XY) 1 
    41          3
    43        999
    44         23
    45          2
    47          2
    48          1
    49          9
    51          5
    52          0
    53          2
    54          1
    55          3
    56          1
    57          4
    60         36
    61          6
    65          0
    66          1
    67          1
    68          1
    69         10
    70          3
    71          6
    72          6
    73         25
    74          1
    77          6
    78          3
    80         15
    81         19
    82          5
    83          2
    84         11
    85          7
    86          9
    87          1
    89          1
    95          0
    96          2
    97         39
    98         28
    99         10
   100          2
   101          2
   102         20
   103         34
   105         22
   106          2
   108          9
   109         67
   110         11
   111          4
   112          2
   113         10
   114          6
   115        123
   116          7
   117          1
   120          3
   123          0
   124          0
   125         20
   126        144
   127         32
   128          7
   129          1
   131          5
   132          1
   139         43
   140         33
   141          7
   142          2
   143          6
   144         18
   145         27
   146          2
   151          0
   152          2
   153          1
   157        129
   158         12
   159          1
   167         22
   168        353
   169         58
   170          8
   171          0
   173          6
   174          0
   182          3
   183          1
   185          8
   186         12
   187          2
   199         69
   200         14
   201          1
   202          0
   203          1
   210        311
   211         53
   212          7
   213          0
   216          1
   219          2
   227          4
   228         15
   229          4
   241         21
   242         11
   243          1
   245          2
   252         26
   253          3
   264          0
   270         36
   271         21
   272          3
   287          4
   288          9
   289          1
   312          0
   313          4
   329          0
   330          6
   331          6
   332          1
   373         86
   374         15
   375          3
   390          7
   391          1
   432          0