##TITLE=Library Entry 77824
##JCAMP-DX=Revision 4.10 
##DATA TYPE=MASS SPECTRUM
##SAMPLE DESCRIPTION=Chemical Concepts
##NAMES=HP
##CAS NAME=5,8,9,11-Tetrahydro-7H-6,10-diselenabenzocyclononene
##MOLFORM=C11H14Se2
##CAS REGISTRY NO=125444-55-5
##MP= -300
##BP= -300
##MW= 306
##$RETENTION INDEX=0
##$CONDENSED SPECTRUM=NO
##NPOINTS= 165
##XYDATA=(XY..XY) 1 
    26          3
    27         24
    28          5
    29          1
    30          0
    31          0
    32          1
    37          1
    38          6
    39         97
    40          7
    41         92
    42          7
    43          3
    44          1
    49          0
    50         20
    51         63
    52         30
    53         10
    54          1
    55          3
    56          1
    57          2
    59          3
    60          0
    61          1
    62          4
    63         31
    64          6
    65         22
    66          1
    67          2
    69          1
    70          0
    71          1
    72          1
    74          7
    75         11
    76         20
    77        125
    78        223
    79         22
    80          4
    81          4
    82          2
    83          2
    85          1
    86          0
    87          2
    88          0
    89         17
    90          5
    91         63
    92         11
    93         21
    94         12
    95         17
    96          3
    97          2
    98          1
    99          0
   101          3
   102         70
   103        225
   104        999
   105        100
   106          5
   107          3
   108          2
   109          1
   111          0
   115          5
   116          2
   117         12
   118          3
   119          6
   120          3
   121          7
   122          4
   123          1
   124          1
   127          0
   128          2
   129          2
   130          1
   131          1
   141          0
   143          0
   145          2
   150          0
   152          3
   153          4
   154         18
   155         10
   156         46
   157         23
   158         76
   159          5
   160         89
   162         27
   164          2
   167          1
   168          0
   169          2
   170          1
   171          0
   172          1
   174          1
   176          0
   177          2
   178          6
   179         24
   180         36
   181         61
   182         43
   183        108
   184         34
   185         22
   186          5
   187          0
   192          2
   193          2
   194         16
   195         19
   196         74
   197         50
   198        190
   199        104
   200        326
   201         30
   202        372
   203         12
   204        106
   205          3
   206         10
   252          0
   253          0
   254          1
   256          1
   257          0
   258          1
   259          1
   260          3
   261          2
   262          5
   263          1
   264          5
   265          0
   266          1
   296          0
   297          0
   298          5
   299          6
   300         25
   301         19
   302         67
   303         40
   304        118
   305         19
   306        131
   307         16
   308         40
   309          5
   310          4