##TITLE=Library Entry 7339
##JCAMP-DX=Revision 4.10 
##DATA TYPE=MASS SPECTRUM
##SAMPLE DESCRIPTION=Div. of Experiment Therapeutics WRAIR, WRAMC, Washingto
n DC 20307
##NAMES=HP
##CAS NAME=Methyl acetyl-isolithocholate
##MOLFORM=C27H44O4
##CAS REGISTRY NO=1255-51-2
##MP= -300
##BP= -300
##MW= 432
##$RETENTION INDEX=3162
##$CONDENSED SPECTRUM=NO
##NPOINTS= 135
##XYDATA=(XY..XY) 1 
    41        205
    43        999
    44         27
    45         11
    47          1
    49         12
    51          6
    53         55
    55        380
    57         62
    59         92
    61         89
    65         15
    67        188
    68         51
    69         88
    70          2
    71         14
    73         63
    74         77
    77         52
    79        216
    81        267
    83         84
    84          3
    85         20
    87         41
    88          9
    91        121
    93        179
    94         35
    95        154
    96         17
    97         21
    99         14
   101          7
   103          5
   105        112
   106         63
   107        151
   108         84
   109         74
   110         10
   111         10
   115         27
   117         23
   118          7
   119         56
   120         28
   121         60
   122         30
   123         27
   124          6
   125          5
   128          2
   129          8
   131         28
   132          3
   133         64
   134         37
   135         58
   136         11
   137          6
   141          8
   142          1
   143          7
   145         45
   147         74
   148         28
   149         49
   150          7
   151          4
   154         21
   155          2
   156          1
   157          6
   159         32
   160         20
   161         38
   162         20
   163         12
   171          5
   173         18
   174          9
   175         15
   176          9
   177          7
   185          3
   187         17
   188          9
   189         10
   191          1
   195          1
   199          5
   201         25
   202          9
   203         12
   208          5
   213          6
   215        136
   216         53
   217         24
   218          8
   229          7
   230         38
   231         12
   233          2
   241          1
   243          1
   249          1
   256          1
   257         60
   258         12
   262          6
   264          6
   275          7
   276          5
   285          1
   290          5
   317          1
   318          6
   323          5
   325          3
   326          1
   330          3
   331          1
   341         12
   357         39
   358         11
   370          2
   371          1
   372        137
   373         47
   374          8
   432          4