##TITLE=Library Entry 62373
##JCAMP-DX=Revision 4.10 
##DATA TYPE=MASS SPECTRUM
##SAMPLE DESCRIPTION=Organic Synthesis Lab, MSU, Moscow.TRC 579
##NAMES=HP
##CAS NAME=17.beta.-(4-Methylbenzenesulfonyloxy)androst-4-en-3-one
##MOLFORM=C26H34O4S
##CAS REGISTRY NO=1255-57-8
##MP= -300
##BP= -300
##MW= 442
##$RETENTION INDEX=0
##$CONDENSED SPECTRUM=NO
##NPOINTS= 210
##XYDATA=(XY..XY) 1 
    26         11
    27        121
    29        178
    31         11
    36         20
    38         16
    39        173
    40         41
    41        423
    42         49
    43        271
    44         24
    45         31
    48          7
    50         15
    51         51
    52         25
    53        147
    54         30
    55        449
    56         51
    57         72
    58         22
    59         10
    60         44
    61          8
    62          7
    63         31
    64         22
    65        193
    66         43
    67        244
    68         32
    69        109
    70         24
    71         25
    72          6
    73         37
    74          9
    75          4
    76          8
    77        302
    78         75
    79        455
    80         75
    81        219
    82         32
    83         46
    84         13
    85         15
    86          6
    87          9
    89         31
    90         24
    91        999
    92        141
    93        422
    94        183
    95        392
    96         47
    97         47
    98         13
    99         14
   100         10
   101          6
   102          7
   103         37
   104         42
   105        332
   106         85
   107        216
   108         67
   109         83
   110         27
   111         70
   112          9
   113          6
   114          9
   115         63
   116         28
   117        111
   118         45
   119        194
   120         76
   121        138
   122        200
   123        176
   124        504
   125         74
   126          7
   127         14
   128         42
   129         72
   130         28
   131        197
   132         63
   133        222
   134        157
   135         98
   136         38
   137         57
   138         42
   139         15
   141         27
   142         24
   143         58
   144         86
   145        158
   146        351
   147        776
   148        184
   149        168
   150         23
   151          8
   152          8
   153         10
   154          7
   155        115
   156         19
   157         52
   158         41
   159         91
   160         51
   161         85
   162         58
   163         64
   164         12
   165          8
   167          9
   168          6
   169         20
   170         14
   171         54
   172         34
   173         45
   174         65
   175         46
   176         66
   177         35
   178          6
   179          5
   181         12
   182          7
   183         22
   184         14
   185        127
   186         38
   187         39
   188         22
   189         45
   190         11
   195         17
   196         10
   197         21
   198          9
   199         42
   200         26
   201         20
   202          9
   203         12
   209         15
   210         11
   211         30
   212         12
   213         84
   214         25
   215         17
   216          7
   217          5
   223          9
   224         16
   225         13
   226         34
   227         72
   228        303
   229         68
   230         13
   231          7
   237         43
   238         11
   239          5
   241         20
   242         35
   243         22
   244         25
   245         81
   246         18
   251         14
   252        108
   253         57
   254         12
   255        103
   256         20
   257          8
   268         15
   269         27
   270        749
   271        166
   272         26
   287         30
   288         11
   357         41
   358         18
   400         93
   401         26
   402          9
   414          6
   427         12
   442        204
   443         63