##TITLE=Library Entry 14929
##JCAMP-DX=Revision 4.10 
##DATA TYPE=MASS SPECTRUM
##SAMPLE DESCRIPTION=Chemical Concepts
##NAMES=HP
##CAS NAME=2-Acetyl-17-(1,5-dimethylhexyl)-10,13-dimethylhexadecahydrocyclop
enta[a]phenanthren-3-one
##MOLFORM=C29H48O2
##CAS REGISTRY NO=1255-84-1
##MP= -300
##BP= -300
##MW= 428
##$RETENTION INDEX=0
##$CONDENSED SPECTRUM=NO
##NPOINTS= 291
##XYDATA=(XY..XY) 1 
    37          0
    38          2
    39         21
    40          6
    41        206
    42         36
    43        999
    44         27
    45          3
    50          1
    51          3
    52          1
    53         29
    54         13
    55        346
    56         46
    57        251
    58         12
    59          7
    60          3
    61          3
    62          2
    63          2
    64          3
    65         12
    66         10
    67        158
    68         54
    69        194
    70         39
    71        116
    72          6
    73          4
    74          1
    75          2
    76          2
    77         36
    78         11
    79        129
    80         35
    81        271
    82         45
    83        114
    84         16
    85         32
    86          1
    87          1
    88          1
    89          1
    90          2
    91         92
    92         21
    93        150
    94         57
    95        259
    96         36
    97         71
    98         10
    99          9
   100          2
   101          3
   102          2
   103          6
   104          6
   105         95
   106         56
   107        205
   108        109
   109        219
   110         31
   111         33
   112          7
   113          8
   114          2
   115          5
   116          2
   117         20
   118         12
   119         74
   120         32
   121        119
   122         88
   123         99
   124         19
   125         16
   126          6
   127         11
   128          6
   129          7
   130          6
   131         37
   132         10
   133         67
   134         31
   135         83
   136         24
   137         32
   138          7
   139          6
   140          2
   141          4
   142          2
   143         11
   144          3
   145         34
   146         13
   147         77
   148         41
   149        108
   150         38
   151         43
   152         16
   153          4
   154          1
   155          4
   156          1
   157         10
   158          6
   159         31
   160         27
   161        139
   162         59
   163         60
   164         13
   165          9
   166          2
   167          3
   168          2
   169          2
   170          1
   171          9
   172          4
   173         17
   174         14
   175         46
   176         46
   177         40
   178         10
   179          5
   180          2
   181          3
   182          1
   183          3
   184          1
   185          3
   186          1
   187         14
   188         10
   189         26
   190         20
   191          9
   192          1
   193          7
   194          2
   195          1
   196          1
   197          3
   198          1
   199          7
   200          4
   201         19
   202         17
   203        176
   204         37
   205         10
   206         11
   207          7
   208          2
   213          7
   214          2
   215         18
   216          9
   217        211
   218        125
   219         39
   220          7
   221          1
   223          0
   224          0
   225          0
   226          1
   227          2
   228          2
   229          8
   230          6
   231         35
   232         49
   233         16
   234          3
   238          0
   239          1
   240          0
   241          3
   242          1
   243          4
   244          1
   245          7
   246         25
   247         14
   248          4
   249          1
   250          0
   251          1
   253          0
   255         14
   256          7
   257         14
   258         10
   259         19
   260         11
   261          9
   262         19
   263          5
   264          1
   267          1
   269          0
   271          4
   272          3
   273         21
   274         15
   275          7
   276          6
   277          1
   279          1
   280          1
   281          2
   284          0
   285          2
   287         16
   288          5
   289          3
   292          0
   293          1
   296          1
   297          1
   299          2
   300          5
   301         50
   302         12
   304          2
   307          1
   310          1
   311          2
   313          6
   314         45
   315         91
   316        391
   317         96
   318         11
   326          0
   327          1
   328         14
   329          8
   330          4
   332          1
   337          0
   338          0
   341          1
   343          6
   344          3
   346          1
   349          4
   351          2
   352          2
   353          4
   354          3
   355          4
   357         82
   358         21
   362          0
   364          1
   365          1
   367          5
   368         29
   369         11
   370          8
   371         29
   372        150
   373         41
   384          4
   385         12
   386        741
   387        247
   388         43
   400          0
   413          1
   415          0
   417          0
   428         31
   429         10
   430          2