##TITLE=Library Entry 29173
##JCAMP-DX=Revision 4.10 
##DATA TYPE=MASS SPECTRUM
##SAMPLE DESCRIPTION=A.S.Moskovkin,I.M.Karnaukh, Russian Center on Disaster
 Medicine
##NAMES=HP
##CAS NAME=5,7-Dimethyl-1,3-diazaadamantane
##MOLFORM=C10H18N2
##CAS REGISTRY NO=125658-04-0
##MP= -300
##BP= -300
##MW= 166
##$RETENTION INDEX=0
##$CONDENSED SPECTRUM=NO
##NPOINTS= 79
##XYDATA=(XY..XY) 1 
    30         49
    36          5
    38          5
    39         89
    40         18
    41        270
    42        500
    43        190
    44         96
    45          6
    51          7
    52          6
    53         78
    54         39
    55        320
    56         98
    57        120
    58        999
    59         41
    60          4
    65         20
    66         11
    67        100
    68         87
    69        100
    70        150
    71        200
    72         17
    73          7
    77         41
    78          7
    79         55
    80         49
    81         98
    82        250
    83        110
    84        110
    85        100
    86          5
    91         28
    92          9
    93         65
    94         77
    95        120
    96        180
    97         52
    98         13
    99          3
   105          8
   106         12
   107         32
   108        220
   109        110
   110        100
   111         59
   112         73
   113          8
   119          2
   120         13
   121         22
   122        450
   123        300
   124        300
   125         36
   127          2
   134          8
   135         10
   136         64
   137         27
   138        140
   139         17
   149         39
   150          6
   151        150
   152         22
   165        120
   166        840
   167         99
   168          5