##TITLE=Library Entry 5329
##JCAMP-DX=Revision 4.10 
##DATA TYPE=MASS SPECTRUM
##SAMPLE DESCRIPTION=A.S.Moskovkin,I.M.Karnaukh, Russian Center on Disaster
 Medicine
##NAMES=HP
##CAS NAME=5,7-Dimethyl-1,3-diazaadamantan-6-one oxime
##MOLFORM=C10H17N3O
##CAS REGISTRY NO=125658-05-1
##MP= -300
##BP= -300
##MW= 195
##$RETENTION INDEX=0
##$CONDENSED SPECTRUM=NO
##NPOINTS= 108
##XYDATA=(XY..XY) 1 
    31         11
    36         15
    37          8
    38         16
    39        268
    40         83
    41        672
    42        999
    43        191
    44        158
    45         16
    50         11
    51         24
    52         38
    53        101
    54         82
    55        399
    56        138
    57         82
    58        209
    59          8
    61          6
    63          9
    64          8
    65         30
    66         52
    67         99
    68        310
    69         94
    70        140
    71         74
    72         12
    74          7
    75         12
    77         40
    78          9
    79         47
    80         71
    81         75
    82        338
    83         88
    84        163
    85         25
    86          6
    89          9
    90          8
    91         35
    92         18
    93         66
    94         94
    95         99
    96        110
    97         45
    98         13
    99          6
   103          6
   104         12
   105         17
   106         33
   107         55
   108        256
   109        194
   110        170
   111         40
   112         10
   118          8
   119         20
   120         60
   121        148
   122        402
   123        126
   124        116
   125         36
   126         13
   132         10
   133         27
   134         46
   135        496
   136        379
   137        573
   138        110
   139         23
   141          9
   147         21
   148         13
   149        166
   150         73
   151         87
   152        244
   153        119
   154         12
   161          8
   162         15
   163         28
   164         84
   165         33
   166         40
   167         10
   176          6
   177         35
   178        259
   179        685
   180        126
   181         11
   193          9
   195        451
   196         55
   197          3