##TITLE=Library Entry 37916
##JCAMP-DX=Revision 4.10 
##DATA TYPE=MASS SPECTRUM
##SAMPLE DESCRIPTION=A.S.Moskovkin,I.M.Karnaukh, Russian Center on Disaster
 Medicine
##NAMES=HP
##CAS NAME=6-Amino-5-methyl-1,3-diazaadamantane
##MOLFORM=C9H17N3
##CAS REGISTRY NO=125658-09-5
##MP= -300
##BP= -300
##MW= 167
##$RETENTION INDEX=0
##$CONDENSED SPECTRUM=NO
##NPOINTS= 88
##XYDATA=(XY..XY) 1 
    30        150
    31         11
    36          8
    39         85
    40         67
    41        360
    42        620
    43        260
    44        250
    45         15
    51          9
    52          8
    53         53
    54         74
    55        260
    56        480
    57        240
    58        510
    59         26
    60         11
    65         15
    66         14
    67         67
    68        280
    69        140
    70        999
    71        200
    72         31
    73         94
    74         45
    77         29
    78          8
    79         60
    80         68
    81        150
    82        230
    83        120
    84        330
    85         70
    86         11
    87          5
    91         16
    92         10
    93         54
    94        320
    95        180
    96        300
    97        150
    98         54
    99         24
   100         13
   101          5
   105          6
   106         18
   107         50
   108        590
   109        190
   110         83
   111         57
   112         30
   113         10
   119          6
   120         22
   121         53
   122         66
   123        140
   124        140
   125         72
   126         58
   127          9
   134          5
   135         36
   136         20
   137         73
   138         45
   139         39
   140         20
   141          8
   149         42
   150         33
   151        170
   152         27
   153         21
   165          6
   166         18
   167        920
   168        101
   169          5