##TITLE=Library Entry 96962
##JCAMP-DX=Revision 4.10 
##DATA TYPE=MASS SPECTRUM
##SAMPLE DESCRIPTION=Chemical Concepts
##NAMES=HP
##CAS NAME=1H-Pyrrole-3,4-dicarbonitrile
##MOLFORM=C6H3N3
##CAS REGISTRY NO=125666-25-3
##MP= -300
##BP= -300
##MW= 117
##$RETENTION INDEX=0
##$CONDENSED SPECTRUM=NO
##NPOINTS= 41
##XYDATA=(XY..XY) 1 
    25          5
    26          7
    27         12
    28        192
    29          4
    36         18
    37         73
    38         82
    39         55
    40         26
    41        148
    42          8
    43          8
    44          8
    49          6
    50         12
    51         41
    52         41
    53          7
    55          6
    57         11
    62        104
    63        275
    64         56
    65         27
    66         85
    67          4
    69          6
    71          7
    75          5
    76          8
    77         12
    83          4
    88         13
    89         73
    90        174
    91         12
   116          5
   117        999
   118        128
   119          6