##TITLE=Library Entry 9642
##JCAMP-DX=Revision 4.10 
##DATA TYPE=MASS SPECTRUM
##SAMPLE DESCRIPTION=MUS9 A. Mujsce, AT&T Bell Labs., Murray Hill, N.J., USA
##NAMES=HP
##CAS NAME=Ethanethioic acid, S-(10-cyanodecyl) ester
##MOLFORM=C13H23NOS
##CAS REGISTRY NO=125611-10-1
##MP= -300
##BP= -300
##MW= 241
##$RETENTION INDEX=0
##$CONDENSED SPECTRUM=NO
##NPOINTS= 153
##XYDATA=(XY..XY) 1 
    26          2
    27         23
    28         13
    29         24
    30          2
    35          1
    39         61
    40         13
    41        189
    42         47
    43        999
    44         27
    45         42
    46         20
    47         45
    48          2
    49          3
    50          1
    51          5
    52          6
    53         45
    54         64
    55        260
    56         34
    57         25
    58         16
    59         39
    60         27
    61         48
    62          3
    63          3
    64          1
    65         13
    66          8
    67         78
    68         33
    69        146
    70         21
    71         52
    72          6
    73         13
    74          7
    75          6
    76         20
    77         25
    78          3
    79         40
    80         30
    81         73
    82         82
    83        341
    84         32
    85         12
    87         43
    88          6
    89         12
    90         42
    91         18
    92          4
    93         24
    94         40
    95         28
    96        125
    97        224
    98         23
    99          4
   100          2
   101         11
   102          1
   103          8
   104          1
   105         15
   106          3
   107         13
   108         35
   109         16
   110         61
   111         43
   112          6
   113         12
   114          8
   115          5
   116          1
   117          2
   118          8
   119         11
   120         14
   121         15
   122         87
   123         22
   124         21
   125          6
   126          1
   127          6
   128          4
   129          1
   130          0
   131          3
   132          2
   134         10
   135          4
   136         57
   137         16
   138         11
   139          4
   140          1
   141          2
   142          1
   145          4
   146          1
   147          9
   148          5
   149          3
   150          7
   151          1
   152          7
   153          5
   154          1
   155          0
   159         14
   160          1
   161          1
   162         19
   163          4
   164         72
   165         15
   166         61
   167          7
   168          1
   180          3
   181          7
   182          1
   188          0
   189          3
   190         19
   191          2
   192          1
   193          0
   194          7
   195          1
   196          1
   198        190
   199         24
   200         10
   201          1
   208          7
   209          1
   223          2
   225          0
   230          0
   241          4
   242          1
   243          0