##TITLE=Library Entry 304
##JCAMP-DX=Revision 4.10 
##DATA TYPE=MASS SPECTRUM
##SAMPLE DESCRIPTION=G.R.TAILBY MONASH UNIVERSITY, CLAYTON, VICTORIA, AUSTRA
LIA.
##NAMES=HP
##CAS NAME=Cobalt, (2-butyne)decacarbonyltetra-
##MOLFORM=C14H6Co4O10
##CAS REGISTRY NO=12564-37-3
##MP= -300
##BP= -300
##MW= 570
##$RETENTION INDEX=0
##$CONDENSED SPECTRUM=NO
##NPOINTS= 24
##XYDATA=(XY..XY) 1 
    28        999
    59        310
   118        600
   149        120
   172        460
   177         50
   200        999
   228        300
   248         50
   256        210
   284        220
   290        100
   312        620
   318         80
   340         90
   346         80
   374         90
   402        110
   430        200
   458        120
   486         40
   514         60
   542         50
   570         70