##TITLE=Library Entry 69688
##JCAMP-DX=Revision 4.10 
##DATA TYPE=MASS SPECTRUM
##SAMPLE DESCRIPTION=MUS6 A. Mujsce, AT&T Bell Labs., Murray Hill, N.J., USA
##NAMES=HP
##CAS NAME=Undecanenitrile, 11-mercapto-
##MOLFORM=C11H21NS
##CAS REGISTRY NO=125611-09-8
##MP= -300
##BP= -300
##MW= 199
##$RETENTION INDEX=0
##$CONDENSED SPECTRUM=NO
##NPOINTS= 146
##XYDATA=(XY..XY) 1 
    26         12
    27        201
    29        247
    30         29
    33         10
    34         11
    35         40
    37          3
    38          9
    39        317
    40         69
    41        934
    42        209
    43        196
    44         23
    45        108
    46         41
    47        377
    48         14
    49         21
    50          9
    51         22
    52         25
    53        136
    54        305
    55        916
    56        192
    57        100
    58         33
    59         46
    60         49
    61        161
    62         10
    63         10
    65         34
    66         32
    67        212
    68        126
    69        520
    70         82
    71         26
    72          7
    73         19
    75         12
    76          6
    77         35
    78         14
    79        150
    80        224
    81        232
    82        526
    83        710
    84         69
    85         15
    86          4
    87         36
    88          8
    89         56
    90          5
    91         59
    92         12
    93         90
    94        409
    95        152
    96        678
    97        999
    98         90
   101         13
   102          6
   103         10
   105         34
   106          9
   107         44
   108        381
   109        160
   110        349
   111        104
   112          9
   113          8
   115         16
   116          5
   118          4
   119         30
   120         29
   121         21
   122        813
   123        123
   124        194
   125         26
   126          5
   127          4
   128         12
   129         11
   130          3
   131          7
   132          4
   133         11
   134         27
   136        622
   137        158
   138         47
   139         14
   140          3
   141          8
   142          8
   143          8
   145          8
   147          6
   148          9
   149          7
   150         70
   151         10
   152         29
   153         14
   154          7
   155          6
   157          6
   158          5
   159         12
   162          6
   163          8
   164         63
   166        490
   167         59
   169          5
   170         15
   171          9
   172          5
   177          5
   179          7
   180          4
   181          4
   182          7
   183          5
   184          3
   185          7
   187          2
   188          2
   189          3
   191          5
   193          4
   195          3
   198         17
   199         12
   200          7
   201          6