##TITLE=Library Entry 48064
##JCAMP-DX=Revision 4.10 
##DATA TYPE=MASS SPECTRUM
##SAMPLE DESCRIPTION=J.G.VOGEL UTAH STATE UNIVERSITY, LOGAN, UTAH, USA
##NAMES=HP
##CAS NAME=Beryllium, hexakis(chloroacetato)oxotetra-
##MOLFORM=C12H12Be4Cl6O13
##CAS REGISTRY NO=12560-98-4
##MP= -300
##BP= -300
##MW= 610
##$RETENTION INDEX=0
##$CONDENSED SPECTRUM=NO
##NPOINTS= 83
##XYDATA=(XY..XY) 1 
    18         40
    26         85
    29        250
    30        150
    31         80
    33        650
    35        130
    37        150
    48        740
    54         90
    74         50
    77         10
    78        999
    80        400
    92         38
    98         90
   101         80
   112         30
   115        110
   117         25
   120         60
   147         60
   149         30
   150         13
   152         14
   153         30
   155         20
   170         50
   173         30
   177         40
   193        100
   195         40
   197         20
   200         60
   201         40
   203         30
   205         10
   207         30
   213         30
   230        120
   232        260
   235        130
   237         55
   240         30
   243         30
   251         90
   255         60
   257         20
   260         40
   261        110
   263         20
   265        120
   267         50
   269         10
   272         20
   274         10
   275         10
   285        170
   287        340
   290        250
   293         80
   311         40
   313         25
   320        199
   323        190
   327         70
   345        175
   348        170
   351         70
   460         15
   461         25
   464         20
   465         10
   480         14
   482         10
   484         20
   485         15
   487         10
   488         10
   515        120
   517        220
   520        140
   522         50