##TITLE=Library Entry 14133
##JCAMP-DX=Revision 4.10 
##DATA TYPE=MASS SPECTRUM
##SAMPLE DESCRIPTION=Chemical Concepts
##NAMES=HP
##CAS NAME=1,3-Dioxolane, 2-(4-bromophenyl)-2,4,5-trimethyl-
##MOLFORM=C12H15BrO2
##CAS REGISTRY NO=125763-64-6
##MP= -300
##BP= -300
##MW= 270
##$RETENTION INDEX=0
##$CONDENSED SPECTRUM=NO
##NPOINTS= 141
##XYDATA=(XY..XY) 1 
    27         88
    28         94
    29         62
    30          1
    31          6
    37          3
    38         12
    39         53
    40          3
    41         64
    42         15
    43        999
    44         25
    45          8
    49          4
    50        107
    51         86
    52         15
    53         15
    54          6
    55        408
    56         39
    57         11
    58          3
    60          1
    61         16
    62         10
    63         26
    64          8
    65         10
    71          8
    72         11
    73        108
    74         39
    75        131
    76        160
    77        192
    78         24
    79          2
    80          1
    81          1
    86          1
    87          1
    88          2
    89         12
    90         18
    91         15
    92          3
    93          1
    98          2
    99          1
   100          1
   101         23
   102        101
   103        175
   104         94
   105         22
   106          2
   107          1
   113          2
   114          4
   115        277
   116         18
   117          3
   118          4
   119          4
   120          1
   122          1
   123          1
   127          1
   128          2
   129          6
   130          2
   131          3
   132          5
   133          6
   134          3
   135          1
   139          1
   143          1
   145          2
   146          2
   154          4
   155        110
   156         16
   157        112
   158         12
   159          4
   161          1
   169          9
   170          2
   171         10
   172          2
   175          1
   176         12
   177          7
   178          2
   179          2
   180          3
   181         20
   182        218
   183        879
   184        272
   185        876
   186         70
   187          4
   191          1
   197          1
   198          5
   199         19
   200          9
   201         56
   202          6
   203         41
   204          3
   211          6
   213          4
   224          2
   225         87
   226         25
   227         94
   228         23
   229          2
   234         15
   236         31
   237          2
   238         15
   239          1
   251          1
   252          2
   253          7
   254         15
   255        940
   256        127
   257        883
   258        118
   259         13
   260          1
   261          1
   269          1
   271          1