##TITLE=Library Entry 11193
##JCAMP-DX=Revision 4.10 
##DATA TYPE=MASS SPECTRUM
##SAMPLE DESCRIPTION=V.A.Korolev, Moscow, Russia
##NAMES=HP
##CAS NAME=Ethyl 3-(1-acetyl-5-amino-1,2,4-triazol-3-yl)propanoate
##MOLFORM=C9H14N4O3
##CAS REGISTRY NO=1259516-85-2
##MP= -300
##BP= -300
##MW= 226
##$RETENTION INDEX=0
##$CONDENSED SPECTRUM=NO
##NPOINTS= 75
##XYDATA=(XY..XY) 1 
    28         86
    29        357
    34         11
    36          6
    37          6
    38         18
    39         95
    40        203
    41        155
    42        181
    43        999
    44        165
    45         31
    46          1
    48          2
    50          3
    51          8
    52         32
    53         47
    54        169
    55        139
    56         47
    57        109
    58         56
    59          3
    60          8
    64          2
    66          6
    67         17
    68         52
    69         75
    70         25
    71          4
    72         18
    73          4
    76          1
    77          4
    80          1
    81         18
    82         42
    83          7
    84          5
    85          6
    86          1
    94         13
    95          3
    97         57
    98          6
    99          3
   100         15
   109         14
   110        366
   111        999
   112        159
   113          7
   123          2
   125          1
   137         11
   138         28
   139        450
   140         26
   141          1
   149         26
   153         58
   154          8
   156          2
   171          3
   181         86
   182          5
   183          3
   184        552
   185         51
   186          2
   226        125
   227         13