##TITLE=Library Entry 41261
##JCAMP-DX=Revision 4.10 
##DATA TYPE=MASS SPECTRUM
##SAMPLE DESCRIPTION=W.E. COLEMAN, US ENVIRON. PROT. AGENCY, CINCINNATI, OHI
O, USA
##NAMES=HP
##CAS NAME=4-(Dichloromethyl)-5-hydroxy-2(3H,5H)-furanone
##MOLFORM=C5H4Cl2O3
##CAS REGISTRY NO=125974-07-4
##MP= -300
##BP= -300
##MW= 182
##$RETENTION INDEX=0
##$CONDENSED SPECTRUM=NO
##NPOINTS= 100
##XYDATA=(XY..XY) 1 
    14          8
    15          6
    17          9
    25         12
    26         24
    27         39
    28         22
    29        240
    31         13
    35         37
    36         49
    37        193
    38        198
    39        539
    40         25
    41         14
    42         54
    43         50
    44         24
    45        340
    46          8
    47        125
    48         23
    49        114
    50         40
    51         35
    52         11
    53         41
    54         27
    55         79
    56          6
    59         16
    60         63
    61         56
    62         12
    63         43
    65         27
    66         12
    67         19
    71         49
    72        202
    73        999
    74        378
    75        737
    76        121
    77        139
    78          9
    82         37
    83        271
    84         41
    85         83
    86         10
    87         66
    89         49
    90         12
    91         63
    93         16
    94          6
    95          8
    97          6
   100         10
   101          7
   102         10
   103         18
   107         71
   108        101
   109        334
   110        130
   111        218
   112        132
   113         37
   114         51
   116          9
   117         93
   118         23
   119        436
   120         22
   121        141
   122          7
   123         47
   125         33
   127         10
   129         48
   131         14
   136         25
   137        164
   138         50
   139        106
   140         36
   141         21
   142          8
   147        315
   148         18
   149         93
   154         70
   155          6
   156         43
   158          9
   165         12
   167          7