##TITLE=Library Entry 8490
##JCAMP-DX=Revision 4.10 
##DATA TYPE=MASS SPECTRUM
##SAMPLE DESCRIPTION=Humboldt-Universitat zu Berlin, Department of Chemistry
, Analytical Group
##NAMES=HP
##CAS NAME=9,19-Cyclolanost-24-en-3-ol, acetate, (3.beta.)-
##MOLFORM=C32H52O2
##CAS REGISTRY NO=1259-10-5
##MP= -300
##BP= -300
##MW= 468
##$RETENTION INDEX=3389
##$CONDENSED SPECTRUM=NO
##NPOINTS= 301
##XYDATA=(XY..XY) 1 
    14          6
    15         26
    16         15
    17         32
    18         78
    26          7
    27         50
    28         49
    29        123
    30         13
    31         10
    32         16
    36         15
    38          9
    39         51
    40         16
    41        572
    42         55
    43        999
    44         74
    45         45
    46         45
    50          5
    51          9
    53         57
    54         18
    55        485
    56         65
    57        176
    58         13
    59         19
    60         29
    61         15
    63          7
    64         12
    65         25
    66         11
    67        236
    68         46
    69        752
    70         71
    71        106
    72         14
    73         31
    74          6
    77         65
    78         16
    79        185
    80         32
    81        316
    82        101
    83        133
    84         25
    85         45
    86          8
    87          9
    91        187
    92         46
    93        260
    94         83
    95        456
    96         71
    97         91
    98         19
    99         24
   100         10
   101          7
   103         15
   104         16
   105        238
   106         65
   107        311
   108         75
   109        324
   110         50
   111         59
   112         16
   113         20
   114          6
   115         23
   116         13
   117         62
   118         34
   119        225
   120        105
   121        278
   122        136
   123        181
   124         30
   125         26
   126          9
   127         19
   128         17
   129         43
   130         17
   131         96
   132         52
   133        200
   134        129
   135        221
   136         63
   137         81
   138         20
   139         10
   140          5
   141         15
   142          9
   143         32
   144         17
   145        120
   146         38
   147        196
   148         98
   149        161
   150         42
   151         26
   152          7
   153          7
   154          5
   155         12
   156          6
   157         32
   158         13
   159        104
   160         49
   161        122
   162         44
   163         80
   164         19
   165         14
   166          4
   167         13
   168          4
   169          8
   170          5
   171         29
   172         16
   173        132
   174         38
   175        140
   176         34
   177         58
   178         13
   179          7
   180          3
   181          3
   183          8
   184          4
   185         26
   186         13
   187         70
   188         32
   189         57
   190         19
   191         27
   192          9
   193          6
   195          4
   197          7
   198          3
   199         17
   200         13
   201         73
   202         68
   203         88
   204         39
   205         37
   206         21
   207          8
   209          3
   211          5
   212          3
   213         18
   214         10
   215         29
   216         13
   217         28
   218         16
   219         10
   220          6
   221          3
   225          6
   227         17
   228          6
   229         19
   230          6
   231         29
   232         15
   233          6
   234          2
   235          3
   239          5
   240          2
   241         11
   242          5
   243         16
   244          9
   245          6
   246          3
   247          3
   253          4
   254          2
   255         12
   256          5
   257         13
   258          5
   259          6
   260          3
   261          3
   262          3
   267          3
   269          6
   270          5
   271         26
   272          8
   273          4
   274          3
   275          2
   279          2
   281          4
   282          2
   283          8
   284          4
   285          6
   286         50
   287         13
   288          3
   289          2
   295         14
   296          5
   297         21
   298          6
   299          4
   300          1
   301          3
   302          3
   303          1
   309          3
   310          1
   311          9
   312          3
   313          2
   315          3
   323          5
   324          5
   325          7
   326          7
   327          3
   328          1
   329          1
   337          2
   338          2
   339         38
   340         13
   341          3
   342          2
   343          1
   351          1
   352          1
   353          1
   354          9
   355          8
   356          3
   357          6
   358          2
   365         49
   366         15
   367          3
   368          1
   369          1
   379          1
   380          0
   381          1
   382          1
   383          2
   384          5
   385          3
   386          1
   393         65
   394         21
   395          7
   396          1
   397          0
   399          4
   400          2
   406          1
   408         98
   409         34
   410         10
   411          3
   412          1
   414          2
   424          1
   425          2
   426          1
   453         13
   454          5
   455          2
   468         26
   469          9
   470          2