##TITLE=Library Entry 62209
##JCAMP-DX=Revision 4.10 
##DATA TYPE=MASS SPECTRUM
##SAMPLE DESCRIPTION=ASES Database, Dalian Institute, P.R. China
##NAMES=HP
##CAS NAME=1-Benzyl-2-cyano-3,3-dimethylpiperidine
##MOLFORM=C15H20N2
##CAS REGISTRY NO=125943-32-0
##MP= -300
##BP= -300
##MW= 228
##$RETENTION INDEX=0
##$CONDENSED SPECTRUM=NO
##NPOINTS= 13
##XYDATA=(XY..XY) 1 
    40        121
    41        288
    43         91
    55        259
    56        118
    65        130
    69         99
    83        178
    91        999
    92        148
   137        471
   159        139
   228        120