##TITLE=Library Entry 88832
##JCAMP-DX=Revision 4.10 
##DATA TYPE=MASS SPECTRUM
##SAMPLE DESCRIPTION=V.A.Korolev, Moscow, Russia
##NAMES=HP
##CAS NAME=Methyl 3-(1-acetyl-5-amino-1,2,4-triazol-3-yl)propanoate
##MOLFORM=C8H12N4O3
##CAS REGISTRY NO=1259516-84-1
##MP= -300
##BP= -300
##MW= 212
##$RETENTION INDEX=0
##$CONDENSED SPECTRUM=NO
##NPOINTS= 48
##XYDATA=(XY..XY) 1 
    38          3
    39         24
    40         25
    41         48
    42         60
    43        448
    44         21
    45          8
    52          9
    53         13
    54         82
    55         46
    56         18
    57         50
    58         25
    59         22
    66          2
    67          5
    68         25
    69         29
    70          9
    80          2
    81          8
    82         40
    83          3
    84          2
    85          1
    86          5
    94          5
    97         28
    98          1
   109          7
   110        211
   111        999
   112         68
   114          4
   137          8
   138         11
   139        229
   140         15
   153         14
   169          2
   170        465
   171         37
   172          1
   181         19
   212        108
   213         12