##TITLE=Library Entry 36955
##JCAMP-DX=Revision 4.10 
##DATA TYPE=MASS SPECTRUM
##SAMPLE DESCRIPTION=Chemical Concepts
##NAMES=HP
##CAS NAME=9,19-Cyclolanostan-3-ol, 24-methylene-, acetate, (3.beta.)-
##MOLFORM=C33H54O2
##CAS REGISTRY NO=1259-94-5
##MP= -300
##BP= -300
##MW= 482
##$RETENTION INDEX=3365
##$CONDENSED SPECTRUM=NO
##NPOINTS= 215
##XYDATA=(XY..XY) 1 
    27         14
    29         47
    39         18
    41        333
    42         18
    43        617
    44         15
    52         57
    55        776
    56         45
    57        145
    65         21
    67        259
    68         61
    69        999
    70         41
    71         80
    77         69
    78         19
    79        285
    80         46
    81        438
    82         87
    83        337
    84         56
    85         39
    91        275
    92         76
    93        619
    94        114
    95        881
    96        117
    97        178
    98         17
   103         14
   104         19
   105        364
   106        109
   107        582
   108        135
   109        585
   110         64
   111         65
   115         20
   117         95
   118         42
   119        388
   120        199
   121        500
   122        221
   123        389
   124        103
   125         43
   129         42
   130         28
   131        191
   132        100
   133        404
   134        279
   135        436
   136        114
   137        184
   138         22
   141         13
   142         19
   143         70
   144         32
   145        257
   146         80
   147        387
   148        224
   149        397
   150         81
   151         58
   157         66
   158         32
   159        321
   160        114
   161        366
   162        101
   163        303
   164         50
   165         27
   171         93
   172         42
   173        332
   174        141
   175        597
   176        118
   177        202
   178         37
   179         17
   183         16
   185         77
   186         39
   187        280
   188        126
   189        239
   190         67
   191         84
   197         16
   199         66
   200         42
   201        344
   202        266
   203        443
   204        145
   205         88
   206         22
   207         13
   211         17
   213         69
   214         45
   215        151
   216        248
   217        199
   218         89
   219        141
   220         64
   221         23
   225         17
   227         96
   228         35
   229        130
   230         34
   231         60
   232         52
   233         36
   239         18
   241         83
   242         30
   243         77
   244         23
   245         90
   246         31
   253         24
   255         98
   256         33
   257         89
   258         49
   259         33
   267         16
   269         74
   270         56
   271         54
   272         29
   273         49
   274         19
   281         29
   283         45
   285        130
   286         53
   287         26
   288         33
   289         26
   295         78
   296         29
   297        304
   298         82
   299         41
   300        348
   301        118
   302         24
   309         29
   310         12
   311         32
   315         32
   323         79
   324         50
   325         92
   326         65
   327         20
   337         29
   338         44
   339         82
   340         29
   341         17
   351         19
   353        195
   354         59
   355         38
   357         62
   358         16
   365          8
   369         16
   379        350
   380        117
   381         23
   383         27
   384         52
   385         26
   386         14
   393         12
   398         16
   399         28
   400         11
   405         11
   407        748
   408        241
   409         42
   420         18
   421         27
   422        999
   423        387
   424         75
   425         19
   436         10
   439         37
   440         16
   467        149
   468         53
   469         10
   482        175
   483         60
   484         12