##TITLE=Library Entry 57754
##JCAMP-DX=Revision 4.10 
##DATA TYPE=MASS SPECTRUM
##SAMPLE DESCRIPTION=NIST Mass Spectrometry Data Center, 1990.
##NAMES=HP
##CAS NAME=Demeton-S
##MOLFORM=C8H19O3PS2
##CAS REGISTRY NO=126-75-0
##MP= -300
##BP= -300
##MW= 258
##$RETENTION INDEX=1714
##$CONDENSED SPECTRUM=NO
##NPOINTS= 129
##XYDATA=(XY..XY) 1 
    12          0
    13          0
    14          3
    15         12
    26         25
    27        185
    28         57
    29        298
    30          7
    31          6
    32          5
    33          2
    34          4
    35         39
    36          0
    37          1
    39          2
    40          0
    41         15
    42          3
    43         21
    44          0
    45        121
    46         32
    47        102
    48          7
    49          4
    50          0
    53          2
    54          4
    55         15
    57          6
    58         32
    59        142
    60        472
    61        153
    62         30
    63         11
    64         22
    65         59
    66          4
    67          1
    71          0
    73         23
    75         73
    76          3
    77          6
    78          3
    79          4
    80          0
    81        165
    82         11
    83          5
    84          0
    85          3
    88        999
    89        141
    90         49
    91         54
    92         19
    93        117
    94          6
    95          6
    96         11
    97         47
    98         13
    99          5
   100          0
   101          0
   103          0
   105          4
   106          0
   107          2
   109        107
   110          6
   111          9
   113         23
   114        135
   115        124
   116          8
   117          6
   119          1
   121         12
   122          2
   123          3
   124          2
   126        115
   127         10
   128          7
   129          1
   137         16
   138          4
   139         14
   140          1
   141         37
   142         83
   143        104
   144          8
   145          6
   146          1
   150          0
   153          2
   155          3
   156          1
   157         11
   158          0
   159          1
   167          0
   170        128
   171         54
   172          9
   173          9
   174          1
   175          0
   183          0
   184          0
   185          6
   187          1
   197          5
   198          0
   199          0
   201          1
   213         11
   214          1
   215          1
   229          0
   258         26
   259          2
   260          2