##TITLE=Library Entry 3155
##JCAMP-DX=Revision 4.10 
##DATA TYPE=MASS SPECTRUM
##SAMPLE DESCRIPTION=NIST Mass Spectrometry Data Center, 1998.
##NAMES=HP
##CAS NAME=Methylacrylonitrile
##MOLFORM=C4H5N
##CAS REGISTRY NO=126-98-7
##MP= -300
##BP= -300
##MW= 67
##$RETENTION INDEX=603
##$CONDENSED SPECTRUM=NO
##NPOINTS= 31
##XYDATA=(XY..XY) 1 
    12          1
    13          2
    14          5
    15         12
    24          3
    25          9
    26         38
    27         97
    28         16
    32          4
    36         24
    37        162
    38        209
    39        543
    40        257
    41        999
    42         36
    48          4
    49         14
    50         41
    51        168
    52        321
    53         13
    62         22
    63         50
    64        109
    65         32
    66        232
    67        623
    68         34
    69          1