##TITLE=Library Entry 23073
##JCAMP-DX=Revision 4.10 
##DATA TYPE=MASS SPECTRUM
##SAMPLE DESCRIPTION=RADIAN CORP
##NAMES=HP
##CAS NAME=1,3-Propanediol, 2-(hydroxymethyl)-2-nitro-
##MOLFORM=C4H9NO5
##CAS REGISTRY NO=126-11-4
##MP= -300
##BP= -300
##MW= 151
##$RETENTION INDEX=0
##$CONDENSED SPECTRUM=NO
##NPOINTS= 57
##XYDATA=(XY..XY) 1 
    13          2
    15         22
    17          7
    18         16
    19        125
    25          4
    26         46
    27        224
    28        106
    29        797
    30        239
    31        795
    33          3
    37          7
    38         19
    39        143
    40         90
    41        256
    42         42
    43         78
    44         45
    45        119
    46         36
    47         25
    48         11
    49         14
    50          2
    51          1
    52          2
    53         13
    54         13
    55        140
    56        135
    57        999
    58         49
    59         14
    60          5
    61          7
    68         93
    69         48
    70          4
    71          8
    73        135
    74         99
    75         21
    76          2
    83          3
    85         36
    86         44
    87         43
    88          2
   102          3
   103         30
   104         15
   121          3
   134          1
   152          7