##TITLE=Library Entry 12174
##JCAMP-DX=Revision 4.10 
##DATA TYPE=MASS SPECTRUM
##SAMPLE DESCRIPTION=NIST Mass Spectrometry Data Center, 1990.
##NAMES=HP
##CAS NAME=4,7-Dimethyl-5-decyne-4,7-diol
##MOLFORM=C12H22O2
##CAS REGISTRY NO=126-87-4
##MP= -300
##BP= -300
##MW= 198
##$RETENTION INDEX=0
##$CONDENSED SPECTRUM=NO
##NPOINTS= 64
##XYDATA=(XY..XY) 1 
    14          2
    15         18
    16          1
    18          6
    26         16
    27        103
    28         53
    29         39
    31          9
    32          9
    38         10
    39         80
    40         21
    41        138
    42          9
    43        999
    44         30
    45         44
    50         10
    51         30
    52          9
    53         35
    54          9
    55         66
    56          5
    57         24
    58         16
    63          8
    65         33
    66         20
    67         81
    68         13
    69        132
    70         11
    71         50
    77         41
    78          8
    79         36
    81         26
    84          6
    85         21
    86         24
    87         10
    91         28
    93         42
    94         15
    95        132
    96         13
    97         14
   105         14
   107         10
   109         46
   110          6
   111         18
   112         11
   113          5
   119         16
   122          6
   123         31
   137        292
   138         25
   151          6
   155         39
   162          7