##TITLE=Library Entry 49342
##JCAMP-DX=Revision 4.10 
##DATA TYPE=MASS SPECTRUM
##SAMPLE DESCRIPTION=Japan AIST/NIMC Database- Spectrum MS-NW-5800
##NAMES=HP
##CAS NAME=2,3:4,5-Bis(2-butenylene)tetrahydrofurfural
##MOLFORM=C13H16O2
##CAS REGISTRY NO=126-15-8
##MP= -300
##BP= -300
##MW= 204
##$RETENTION INDEX=0
##$CONDENSED SPECTRUM=NO
##NPOINTS= 131
##XYDATA=(XY..XY) 1 
    14          1
    15          3
    17          2
    18          7
    26          4
    27         63
    28         14
    29         20
    30          1
    31          2
    37          2
    38          8
    39        111
    40         16
    41        120
    42          7
    43         14
    44          3
    49          1
    50         13
    51         45
    52         19
    53         61
    54        106
    55         45
    56          2
    57          5
    58          2
    61          1
    62          4
    63         14
    64          5
    65         50
    66         21
    67        111
    68         18
    69         17
    70          3
    71          2
    73          3
    74          3
    75          4
    76          5
    77        162
    78         50
    79        999
    80         87
    81         64
    82          7
    83          5
    84          1
    89          5
    90          3
    91        115
    92         20
    93         50
    94         13
    95         54
    96         47
    97        425
    98         40
    99          3
   101          1
   102          3
   103         28
   104         10
   105         31
   106          9
   107         18
   108          7
   109          7
   110          2
   113          3
   115         14
   116          6
   117         11
   118          6
   119         15
   120         21
   121         73
   122         13
   123          2
   125          1
   126          2
   127          3
   128          8
   129         16
   130          5
   131         22
   132          7
   133         11
   134          5
   135          3
   136          1
   141          4
   142          6
   143          2
   144          2
   145          3
   146          2
   147          6
   148          2
   149          1
   150          6
   151          1
   152          9
   153          3
   154          3
   155          3
   156          1
   157          6
   158          2
   159          1
   162          3
   165          2
   166          2
   167          3
   168          4
   169          3
   170          2
   171          2
   174          3
   175        605
   176         85
   177          7
   180          2
   184          4
   185          2
   186          5
   187          1
   204          2