##TITLE=Library Entry 73352
##JCAMP-DX=Revision 4.10 
##DATA TYPE=MASS SPECTRUM
##SAMPLE DESCRIPTION=RADIAN CORP
##NAMES=HP
##CAS NAME=2,4,8,10-Tetraoxaspiro[5.5]undecane
##MOLFORM=C7H12O4
##CAS REGISTRY NO=126-54-5
##MP= -300
##BP= -300
##MW= 160
##$RETENTION INDEX=0
##$CONDENSED SPECTRUM=NO
##NPOINTS= 72
##XYDATA=(XY..XY) 1 
    15          3
    26          5
    27         32
    28         10
    29        143
    30         34
    31        166
    32          6
    37          5
    38         18
    39        264
    40        136
    41        356
    42        454
    43        172
    44         85
    45         32
    47          3
    49          1
    50          7
    51         10
    52          7
    53        155
    54         66
    55        103
    56         27
    57         83
    58          9
    59         28
    60          1
    61        115
    62          2
    66          2
    67         11
    68         32
    69        610
    70        596
    71        377
    72         91
    73         23
    74          3
    75          2
    79         18
    81         28
    82        144
    83        213
    84        256
    85         41
    86          8
    87         29
    89          8
    94          6
    95         13
    96         12
    97         13
    98         23
    99        743
   100        999
   101         82
   102         12
   103          2
   111         20
   112        238
   113         25
   114          3
   115          2
   129         26
   130        125
   131          8
   142          3
   159        132
   160         11