##TITLE=Library Entry 60339
##JCAMP-DX=Revision 4.10 
##DATA TYPE=MASS SPECTRUM
##SAMPLE DESCRIPTION=NIST Mass Spectrometry Data Center
##NAMES=HP
##CAS NAME=Ethinamate
##MOLFORM=C9H13NO2
##CAS REGISTRY NO=126-52-3
##MP= -300
##BP= -300
##MW= 167
##$RETENTION INDEX=1397
##$CONDENSED SPECTRUM=NO
##NPOINTS= 89
##XYDATA=(XY..XY) 1 
    15          4
    16          7
    17          5
    25          1
    26         15
    27        116
    28         32
    29         85
    30          3
    31          7
    32          1
    37          7
    38         27
    39        373
    40        100
    41        284
    42         79
    43        282
    44        234
    45         15
    46          1
    49          5
    50         92
    51        218
    52        107
    53        456
    54        100
    55        351
    56         35
    57         18
    58          4
    59          1
    61          8
    62         56
    63         80
    64         24
    65        207
    66         99
    67        396
    68        389
    69         64
    70         26
    71          2
    73          2
    74         14
    75         10
    76         14
    77        282
    78        389
    79        472
    80        240
    81        911
    82        164
    83         49
    84          4
    85          1
    86          1
    87          2
    89         11
    91        999
    92         96
    93         57
    94         20
    95        643
    96        274
    97         26
    98          5
    99          2
   101          1
   102          7
   103         47
   104         11
   105        221
   106        734
   107        189
   108         18
   109        397
   110         28
   111          2
   112          1
   113          1
   121          2
   122          2
   123         85
   124         93
   125          9
   126          1
   136          1
   167          1