##TITLE=Library Entry 22354
##JCAMP-DX=Revision 4.10 
##DATA TYPE=MASS SPECTRUM
##SAMPLE DESCRIPTION=Japan AIST/NIMC Database- Spectrum MS-NW-1684
##NAMES=HP
##CAS NAME=Neopentyl glycol
##MOLFORM=C5H12O2
##CAS REGISTRY NO=126-30-7
##MP= -300
##BP= -300
##MW= 104
##$RETENTION INDEX=895
##$CONDENSED SPECTRUM=NO
##NPOINTS= 49
##XYDATA=(XY..XY) 1 
    14          2
    15         19
    17          3
    18         11
    19          2
    26          9
    27        138
    28         49
    29        197
    30          8
    31        297
    32         11
    33          8
    37          4
    38         10
    39        125
    40         23
    41        290
    42         20
    43        290
    44         11
    45        183
    46          5
    47          4
    49          1
    50          4
    51          6
    52          2
    53         33
    54          8
    55        724
    56        999
    57        122
    58         17
    59         26
    61          4
    67          4
    68         11
    69          7
    70          2
    71        109
    72         54
    73        633
    74         46
    75          3
    85          3
    86         21
    87          3
    89          2