##TITLE=Library Entry 28126
##JCAMP-DX=Revision 4.10 
##DATA TYPE=MASS SPECTRUM
##SAMPLE DESCRIPTION=Chemical Concepts
##NAMES=HP
##CAS NAME=Benzeneethanol, .alpha.-[2-(dimethylamino)-1-methylethyl]-.alpha.
-phenyl-
##MOLFORM=C19H25NO
##CAS REGISTRY NO=126-04-5
##MP= -300
##BP= -300
##MW= 283
##$RETENTION INDEX=1940
##$CONDENSED SPECTRUM=NO
##NPOINTS= 26
##XYDATA=(XY..XY) 1 
    44         22
    45        129
    46         10
    57          8
    58        999
    59         63
    65          2
    71          6
    74          4
    77          7
    85          5
    86         18
    87         26
    91         20
    92          4
   105         39
   106          3
   120         13
   133          4
   134          4
   149          7
   165          6
   192        128
   193         15
   197          6
   283          8