##TITLE=Library Entry 91077
##JCAMP-DX=Revision 4.10 
##DATA TYPE=MASS SPECTRUM
##SAMPLE DESCRIPTION=LAC, NIDDK, NIH, Bethesda, MD 20892
##NAMES=HP
##CAS NAME=Solasodine
##MOLFORM=C27H43NO2
##CAS REGISTRY NO=126-17-0
##MP= -300
##BP= -300
##MW= 413
##$RETENTION INDEX=3338
##$CONDENSED SPECTRUM=NO
##NPOINTS= 190
##XYDATA=(XY..XY) 1 
    41         89
    42         34
    43         73
    44         19
    45          3
    51          1
    53         23
    54         22
    55        110
    56         20
    57         41
    58         10
    59          1
    65          8
    67         55
    68         29
    69         40
    70         25
    71          7
    72          2
    73          2
    77         28
    78          3
    79         70
    81         67
    82         17
    83         16
    84         16
    85          3
    86          5
    91         67
    92         11
    93         52
    94         18
    95         39
    96         27
    97         12
    98         40
    99          2
   103          4
   104          5
   105         65
   106         14
   107         45
   108         17
   109         22
   110         23
   111         50
   113        572
   114        999
   115         64
   116          8
   117         23
   118          7
   119         32
   120         15
   121         30
   122         17
   123         11
   124         62
   125         61
   126         14
   127          2
   128          7
   129         14
   130          6
   131         27
   132          7
   133         30
   134         10
   135          9
   136         11
   137          2
   138        518
   139         79
   141         14
   142          8
   143         25
   144         10
   145         27
   146          7
   147         16
   148          9
   149          8
   150         10
   151          2
   152         37
   153          8
   154          3
   155          6
   156          4
   157         20
   158         11
   159         27
   160          9
   161         16
   162         14
   163          8
   164         14
   165          5
   166         23
   167          6
   168          9
   169          7
   170          2
   171         13
   172          5
   173         10
   174          5
   175         11
   176          8
   177          3
   178         12
   180         17
   181          3
   183          7
   184          1
   185          7
   186          3
   187          6
   188          2
   189          5
   190          1
   192          9
   193          1
   194          1
   195          1
   197         10
   198          2
   199         11
   200          2
   201          1
   206          1
   211          4
   212          3
   213          7
   214          9
   215          4
   216          1
   217          1
   225          4
   227          4
   229          0
   230          1
   231          1
   232          4
   234         11
   235          0
   237          1
   241          4
   243          1
   253         10
   254          1
   256          1
   258          2
   260          2
   267         17
   268          4
   271         15
   272          2
   282         13
   283          8
   284          1
   285          5
   286          3
   300          5
   301          2
   314          8
   328          2
   342          4
   355          1
   356          5
   357          7
   358          0
   370         10
   371          2
   384         27
   385         77
   386         19
   387          2
   394          1
   396          5
   398          9
   399          3
   411          1
   412         16
   413         99
   414         47
   415          8
   416          1