##TITLE=Library Entry 39391
##JCAMP-DX=Revision 4.10 
##DATA TYPE=MASS SPECTRUM
##SAMPLE DESCRIPTION=Japan AIST/NIMC Database- Spectrum MS-NW-4335
##NAMES=HP
##CAS NAME=Dipentaerythritol
##MOLFORM=C10H22O7
##CAS REGISTRY NO=126-58-9
##MP= -300
##BP= -300
##MW= 254
##$RETENTION INDEX=0
##$CONDENSED SPECTRUM=NO
##NPOINTS= 142
##XYDATA=(XY..XY) 1 
    14          1
    15          9
    17          9
    18         41
    19          7
    26          8
    27         87
    28         35
    29        134
    30         35
    31        343
    32         11
    33          3
    36          1
    37          5
    38          7
    39        143
    40         51
    41        418
    42        194
    43        309
    44         28
    45         45
    46          2
    47         34
    49         11
    50          3
    51          4
    52          3
    53         82
    54        114
    55        270
    56         38
    57        341
    58         34
    59         12
    60          6
    61          9
    63          1
    65          3
    66          1
    67          8
    68         16
    69        193
    70        233
    71        999
    72         83
    73         29
    74         29
    75          3
    77          4
    78          1
    79          7
    80          2
    81         16
    82        212
    83        305
    84         34
    85         32
    86         10
    87        230
    88         59
    89        142
    90          8
    91          5
    92          2
    93          7
    94          2
    95          5
    96          3
    97          3
    98          2
    99        105
   100         60
   101        337
   102         27
   103          4
   104          2
   105          2
   106          1
   107          2
   108          1
   109          6
   110          2
   111          2
   112          1
   113          6
   114          1
   115          2
   117          6
   118          1
   119        349
   120         25
   121          5
   122         15
   123          3
   124          1
   125          2
   126          1
   127          2
   128          1
   129          1
   131         13
   132          1
   133          2
   134          1
   135          9
   136          1
   137        593
   138         34
   139         13
   140          7
   141          3
   142          1
   143          1
   145          1
   147        280
   148         19
   149         68
   150          5
   151          1
   152          1
   157          2
   158          2
   159          1
   162          1
   163          1
   165          1
   169          1
   170          2
   173         17
   174          2
   175          1
   176          1
   187          2
   188         64
   189         11
   190          4
   205          2
   206         11
   207          2
   255          5