##TITLE=Library Entry 28818
##JCAMP-DX=Revision 4.10 
##DATA TYPE=MASS SPECTRUM
##SAMPLE DESCRIPTION=M. RYSKA, MS LAB., PHARM. BIOCHEM. RES. INST., PRAGUE,
 CZECH.
##NAMES=HP
##CAS NAME=2-Propanamine, N-methyl-1-[4-[2-(1-piperidyl)ethoxy]phenyl]-
##MOLFORM=C17H28N2O
##CAS REGISTRY NO=126002-09-3
##MP= -300
##BP= -300
##MW= 276
##$RETENTION INDEX=0
##$CONDENSED SPECTRUM=NO
##NPOINTS= 27
##XYDATA=(XY..XY) 1 
    41        120
    42        110
    43         30
    44         60
    54         20
    55        100
    56         80
    57         30
    58        999
    59         30
    69         30
    70         30
    82         20
    83         40
    84        120
    85        450
    86         30
    96         40
    97         20
    98        510
    99         30
   110         20
   111         20
   112         80
   113         90
   219        130
   220         20