##TITLE=Library Entry 30412
##JCAMP-DX=Revision 4.10 
##DATA TYPE=MASS SPECTRUM
##SAMPLE DESCRIPTION=Organic Synthesis Lab, MSU, Moscow.TRC 994
##NAMES=HP
##CAS NAME=7-Amino-4-chloro-3-[2-(2-methoxyethoxy)ethoxyl]-1H-2-benzopyran-1
-one
##MOLFORM=C14H16ClNO5
##CAS REGISTRY NO=126062-24-6
##MP= -300
##BP= -300
##MW= 313
##$RETENTION INDEX=0
##$CONDENSED SPECTRUM=NO
##NPOINTS= 120
##XYDATA=(XY..XY) 1 
    41          5
    43         28
    45         65
    50          5
    51          9
    52          8
    53          4
    54          4
    58          7
    59        999
    60         30
    62          1
    64          6
    65         17
    69         11
    73         10
    74          5
    75         34
    76         36
    77         14
    78          3
    83          7
    84          4
    85          2
    86          2
    87          3
    89          3
    90         22
    91         22
    92         13
    95          2
    97          9
    99         30
   100          4
   101          6
   102         55
   103        981
   104        103
   105         23
   109          2
   110          2
   111         22
   112          5
   113          2
   117         10
   118          4
   119         21
   120        112
   121          5
   125          2
   126         34
   127          5
   128          8
   129          5
   130          4
   131          3
   132         12
   133          7
   135          2
   137          6
   138        266
   139         29
   140         77
   141         16
   146          7
   148        111
   149         14
   154         44
   155         11
   156         12
   157          1
   160          4
   161          3
   162          3
   164          4
   166        111
   167         13
   168         44
   169          6
   170          1
   174          4
   176         26
   177         19
   178          2
   181          3
   182        280
   183        151
   184        105
   185         56
   188          5
   191          3
   194          4
   195          4
   196          4
   203          2
   204         26
   205          2
   208          5
   210        136
   211        375
   212         88
   213        128
   214          7
   216          1
   224          3
   225          9
   226         10
   232         16
   233          4
   237          2
   238          2
   240         25
   242          3
   253          4
   312          1
   313        229
   314         34
   315         64
   316         15
   317          1