##TITLE=Library Entry 21969
##JCAMP-DX=Revision 4.10 
##DATA TYPE=MASS SPECTRUM
##SAMPLE DESCRIPTION=G. Lange, Inst. Org. Chem., Univ. Wurzburg, Germany
##NAMES=HP
##CAS NAME=1,4-Dioxaspiro[2.4]heptan-5-one, 7,7-dimethyl-
##MOLFORM=C7H10O3
##CAS REGISTRY NO=126091-79-0
##MP= -300
##BP= -300
##MW= 142
##$RETENTION INDEX=0
##$CONDENSED SPECTRUM=NO
##NPOINTS= 38
##XYDATA=(XY..XY) 1 
    37          5
    38         14
    39        155
    40         47
    41        401
    42        146
    43         70
    44         10
    45          3
    50          7
    51          9
    52          4
    53         22
    54          8
    55         88
    56        999
    57         98
    58          5
    59          3
    67         12
    68          5
    69         36
    70         74
    71         10
    72          3
    73          4
    75          4
    82          3
    83         45
    84          7
    85         11
    86         12
    95          4
    99          5
   113         31
   114          4
   142          2
   143          0