##TITLE=Library Entry 21289
##JCAMP-DX=Revision 4.10 
##DATA TYPE=MASS SPECTRUM
##SAMPLE DESCRIPTION=NIST Mass Spectrometry Data Center
##NAMES=HP
##CAS NAME=Ginsenoyne E
##MOLFORM=C17H22O2
##CAS REGISTRY NO=126146-63-2
##MP= -300
##BP= -300
##MW= 258
##$RETENTION INDEX=2160
##$CONDENSED SPECTRUM=NO
##NPOINTS= 188
##XYDATA=(XY..XY) 1 
    26          4
    27         85
    28         11
    29        113
    30          3
    31          4
    37          2
    38          5
    39        116
    40         15
    41        381
    42         51
    43        300
    44         13
    45          3
    49          5
    50         50
    51         62
    52         20
    53         70
    54         27
    55        999
    56         71
    57        206
    58          9
    59          5
    60          1
    61         18
    62         81
    63        189
    64         33
    65         87
    66         20
    67        150
    68         25
    69        179
    70         27
    71         27
    72          2
    73         12
    74        101
    75        130
    76        145
    77        232
    78         56
    79        113
    80         20
    81        133
    82         26
    83         73
    84          8
    85         13
    86         11
    87         16
    88          9
    89        140
    90         89
    91        290
    92         41
    93         62
    94         37
    95         55
    96         11
    97         20
    98         11
    99          7
   100          3
   101         29
   102        249
   103        469
   104         80
   105        168
   106         27
   107        102
   108         68
   109         56
   110         18
   111         20
   112          2
   113          3
   114          4
   115        197
   116         78
   117        229
   118        285
   119        167
   120         70
   121         76
   122         13
   123         21
   124          3
   125          2
   126          2
   127        114
   128         90
   129        102
   130         37
   131        336
   132        386
   133        160
   134         37
   135         23
   136         12
   137          3
   138          1
   139          4
   140          1
   141         69
   142         20
   143         34
   144         38
   145        163
   146         58
   147         92
   148         22
   149         15
   150          2
   151          2
   152          4
   153         14
   154         12
   155         28
   156         10
   157         42
   158         23
   159        108
   160         41
   161         44
   162         13
   163          4
   164          1
   165          7
   166          2
   167          6
   168          5
   169         19
   170          8
   171         18
   172          8
   173        117
   174         25
   175         20
   176          3
   177          2
   178          3
   179          3
   180          1
   181          4
   182          4
   183         13
   184          4
   185          9
   186          4
   187         38
   188          8
   189          4
   191          1
   193          1
   195          1
   196          1
   197          8
   198          1
   199          3
   200          1
   201         17
   202          3
   203          9
   204          1
   211          3
   212          1
   213          1
   214          1
   215          9
   216          2
   217          1
   225          1
   229         18
   230          4
   231         14
   232          2
   239          1
   240          1
   241          2
   243          4
   244          1
   257          3
   258          5
   259          1