##TITLE=Library Entry 18453
##JCAMP-DX=Revision 4.10 
##DATA TYPE=MASS SPECTRUM
##SAMPLE DESCRIPTION=Institute of Organic Chemistry, USSR, 1990
##NAMES=HP
##CAS NAME=Ditetrazolo[1,5-a:5',1'-c]pyrazine
##MOLFORM=C4H2N8
##CAS REGISTRY NO=126229-04-7
##MP= -300
##BP= -300
##MW= 162
##$RETENTION INDEX=0
##$CONDENSED SPECTRUM=NO
##NPOINTS= 18
##XYDATA=(XY..XY) 1 
    40         55
    44          9
    51         35
    52        109
    53        999
    54        769
    55         29
    64          5
    65          7
    78         11
    79         80
    80          9
   106         96
   107         18
   134         23
   135          6
   162        107
   163         21