##TITLE=Library Entry 64191
##JCAMP-DX=Revision 4.10 
##DATA TYPE=MASS SPECTRUM
##SAMPLE DESCRIPTION=Tox21 Consortium/NIST Mass Spectrometry Data Center, 20
12
##NAMES=HP
##CAS NAME=(4-Benzylphenoxy)(trimethyl)silane
##MOLFORM=C16H20OSi
##CAS REGISTRY NO=1262139-41-2
##MP= -300
##BP= -300
##MW= 256
##$RETENTION INDEX=0
##$CONDENSED SPECTRUM=NO
##NPOINTS= 171
##XYDATA=(XY..XY) 1 
    15          1
    27          2
    29          3
    31          1
    38          1
    39         11
    40          1
    41          3
    42          2
    43         25
    44          9
    45         75
    46          5
    47          9
    50          7
    51         21
    52          5
    53          6
    54          1
    55          9
    56          1
    57          5
    58          8
    59         15
    60          2
    61          5
    62          3
    63         17
    64          5
    65         52
    66          4
    67          2
    68          2
    69          3
    70          2
    71          2
    72          2
    73        209
    74         22
    75         56
    76         13
    77         32
    78         10
    79          6
    80          2
    81          3
    82          7
    83          7
    84          1
    85          5
    86          2
    87          3
    88          2
    89         28
    91        999
    92         80
    93          6
    94          4
    95          4
    96          1
    97          1
    98          1
    99          3
   100          1
   101          3
   102          8
   103          8
   104          7
   105         16
   106          2
   107         13
   109          3
   110          1
   111          3
   112          3
   113         13
   114          2
   115         33
   116          4
   117          2
   118          1
   119         16
   120         80
   123          2
   125          1
   126          6
   127         15
   128         28
   129         11
   130          1
   131          3
   132          1
   133          5
   134          2
   135         61
   136          8
   137          9
   138          2
   139         16
   140          3
   141          7
   142          1
   143          2
   144          1
   145          5
   146          1
   147         11
   148          4
   149         20
   150         10
   151         15
   152         56
   153         37
   154         14
   155         24
   156          3
   157          1
   159          1
   161          7
   162          2
   163        141
   164         40
   165        143
   166         32
   167         24
   168          4
   169          1
   171          1
   175          1
   176          2
   177          5
   178         13
   179         48
   180          9
   181         10
   182          3
   183         10
   184          2
   185          1
   193          1
   195          2
   196          1
   197          1
   205          1
   207          2
   209          1
   211          5
   212          1
   213          2
   221          1
   223          3
   224          1
   225         38
   226          8
   227          2
   235          1
   237          1
   238          1
   239          7
   241        335
   242         71
   243         18
   244          2
   253          1
   254          1
   255         62
   256        585
   257        132
   258         34
   259          5
   260          1