##TITLE=Library Entry 89870
##JCAMP-DX=Revision 4.10 
##DATA TYPE=MASS SPECTRUM
##SAMPLE DESCRIPTION=Chemical Concepts
##NAMES=HP
##CAS NAME=Piperazine-2,5-dione, 1,4-dimethyl-3-(4-methyl-3-piperazinyl)meth
yl-
##MOLFORM=C12H18N4O4
##CAS REGISTRY NO=126266-54-4
##MP= -300
##BP= -300
##MW= 282
##$RETENTION INDEX=0
##$CONDENSED SPECTRUM=NO
##NPOINTS= 42
##XYDATA=(XY..XY) 1 
    27         16
    28         77
    29          4
    30         39
    40          1
    41         33
    42        784
    43         89
    44        702
    45         21
    54         24
    55         50
    56         71
    57         56
    58         39
    68          1
    69          1
    70         10
    71         31
    83         21
    84          1
    85         57
    97          1
    98          1
    99          6
   112          6
   113        999
   114         75
   125         30
   126          6
   127          4
   128         43
   129          1
   140          7
   141        336
   142         47
   153          1
   154        585
   155         65
   282         69
   283          9
   284          0