##TITLE=Library Entry 59273
##JCAMP-DX=Revision 4.10 
##DATA TYPE=MASS SPECTRUM
##SAMPLE DESCRIPTION=Chemical Concepts
##NAMES=HP
##CAS NAME=4-Pentynoic acid, phenylmethyl ester
##MOLFORM=C12H12O2
##CAS REGISTRY NO=126378-11-8
##MP= -300
##BP= -300
##MW= 188
##$RETENTION INDEX=0
##$CONDENSED SPECTRUM=NO
##NPOINTS= 102
##XYDATA=(XY..XY) 1 
    26          8
    27         90
    28          5
    29          7
    36          3
    37          3
    38         16
    39        115
    40         19
    41         57
    42         15
    43         28
    44         39
    45          4
    49          3
    50         42
    51        116
    52         46
    53        326
    54         63
    55         22
    56         36
    57          7
    58          2
    60          5
    61          3
    62         10
    63         41
    64         14
    65        152
    66         42
    67         27
    68          6
    69         15
    70          9
    71          6
    73          3
    74          7
    75          5
    76         10
    77        115
    78         37
    79        101
    80         18
    81        146
    82         41
    83          9
    84         12
    85          3
    86          4
    89         67
    90        189
    91        999
    92        108
    93         11
    94         19
    95          4
    97         11
    98         11
    99          5
   102          3
   103          6
   104         74
   105         96
   106         18
   107         63
   108        286
   109         23
   110          4
   111         19
   115         19
   116         11
   117         23
   118         25
   119          6
   121          7
   122          4
   127          7
   128         56
   129         72
   130         14
   131         31
   132         16
   133         54
   134         10
   135          7
   141          7
   142         12
   143         15
   144          7
   145         46
   146         67
   147          7
   148          2
   156          3
   158          3
   159         48
   160         47
   161          8
   187          6
   188         18
   189          3