##TITLE=Library Entry 58546
##JCAMP-DX=Revision 4.10 
##DATA TYPE=MASS SPECTRUM
##SAMPLE DESCRIPTION=Chemical Concepts
##NAMES=HP
##CAS NAME=Carbamic acid, N-[2-(1,1-dimethylethyldimethylsilyloxy)-1-methoxy
)propyl-, methyl ester
##MOLFORM=C12H27NO4Si
##CAS REGISTRY NO=126307-43-5
##MP= -300
##BP= -300
##MW= 277
##$RETENTION INDEX=0
##$CONDENSED SPECTRUM=NO
##NPOINTS= 172
##XYDATA=(XY..XY) 1 
    26          3
    27         16
    29         39
    30         10
    31         42
    33          2
    37          0
    38          1
    39         18
    40          4
    41         50
    42         66
    43         43
    44         10
    45         42
    46          3
    47         25
    48          1
    49          0
    50          1
    51          3
    52          1
    53          3
    54          8
    55         14
    56         31
    57         34
    58         61
    59        241
    60         22
    61         34
    62          2
    63          1
    65          0
    67          2
    68          3
    69          3
    70          6
    71         13
    72         13
    73        448
    74         47
    75        241
    76         16
    77         13
    78          1
    79          1
    80          2
    81          1
    82          5
    83         12
    84          6
    85         11
    86         14
    87         22
    88         10
    89        999
    90         83
    91         53
    92          3
    93          1
    95          1
    96          1
    97          2
    98          3
    99         16
   100         44
   101         23
   102         24
   103         23
   104          5
   105         17
   106          2
   107          2
   109          0
   110          0
   111          1
   112          2
   113          2
   114         20
   115         72
   116         12
   117          5
   118        469
   119         24
   120          3
   121         96
   122          9
   123          4
   124          0
   125          0
   126          0
   127          1
   128         44
   129         21
   130         35
   131         24
   132        152
   133         19
   134          7
   135          2
   139          0
   140          0
   141          4
   142          3
   143          1
   144          3
   145         42
   146          6
   147         11
   148          2
   149         15
   150          1
   151          0
   152          0
   153          0
   154          0
   155          3
   156        108
   157         13
   158         12
   159         60
   160          9
   161          3
   163          2
   164          0
   165          0
   167          0
   168          0
   169          0
   170          1
   171          0
   172          2
   173          1
   174          8
   175          1
   176          0
   177          1
   186          2
   187          3
   188        357
   189         46
   190         18
   191          5
   192          1
   198          2
   202          0
   203         23
   204          4
   205          2
   206          2
   207          1
   210          1
   214          9
   215          1
   216          0
   218          1
   219          0
   220         66
   221          9
   222          3
   223          0
   229          2
   230         16
   231          2
   232          1
   244          0
   245          9
   246         25
   247          4
   248          1
   262          2