##TITLE=Library Entry 40662
##JCAMP-DX=Revision 4.10 
##DATA TYPE=MASS SPECTRUM
##SAMPLE DESCRIPTION=Chemical Concepts
##NAMES=HP
##CAS NAME=d-Mannitol, 1-O-hexyl-
##MOLFORM=C12H26O6
##CAS REGISTRY NO=126403-06-3
##MP= -300
##BP= -300
##MW= 266
##$RETENTION INDEX=0
##$CONDENSED SPECTRUM=NO
##NPOINTS= 135
##XYDATA=(XY..XY) 1 
    26         24
    27        276
    28         50
    29        376
    30         14
    31        268
    33          1
    36          0
    37          1
    38          4
    39        105
    40         22
    41        388
    42         78
    43        966
    44        175
    45        265
    46          9
    47         13
    49          6
    50          4
    51          7
    52          4
    53         26
    54         13
    55        169
    56        115
    57        310
    58         39
    59         22
    60        152
    61        499
    62         18
    63          7
    65          6
    66          4
    67         16
    68          7
    69        102
    70         16
    71        102
    72         22
    73        999
    74        167
    75         91
    76          4
    77          9
    78          1
    79          6
    80          2
    81         11
    82         16
    83        121
    84         62
    85        434
    86         57
    87         53
    88          9
    89         16
    90          1
    91        171
    92          8
    93          4
    94          3
    95          5
    96          6
    97         39
    98         13
    99         25
   100          7
   101         27
   102         13
   103        633
   104         51
   105         23
   106          1
   107          0
   108          0
   109         24
   110          7
   111         17
   112          7
   113         68
   114         17
   115        145
   116         24
   117         49
   118          4
   119          2
   121         10
   122          3
   123          1
   125          0
   127         10
   128          7
   129         18
   130         13
   131          5
   132          3
   133        264
   134         13
   135          2
   136          1
   137          0
   138          2
   140          3
   141          6
   142          0
   144          2
   145        110
   146         27
   147          9
   149          2
   151          3
   155          1
   157        111
   158         43
   159          7
   161          0
   165          4
   169         35
   170          8
   175        110
   176         12
   177          1
   183          1
   187         21
   188          4
   199          4
   205         75
   206          8
   207          0
   217         51
   218          7
   267          5