##TITLE=Library Entry 88275
##JCAMP-DX=Revision 4.10 
##DATA TYPE=MASS SPECTRUM
##SAMPLE DESCRIPTION=Chemical Concepts
##NAMES=HP
##CAS NAME=.beta.-d-Mannofuranoside, hexyl, cyclic 2,3:5,6-bis(ethylboronate
)
##MOLFORM=C16H30B2O6
##CAS REGISTRY NO=126403-05-2
##MP= -300
##BP= -300
##MW= 340
##$RETENTION INDEX=0
##$CONDENSED SPECTRUM=NO
##NPOINTS= 168
##XYDATA=(XY..XY) 1 
    26          5
    27         40
    28          9
    29         52
    31          7
    35         51
    37         16
    38          1
    39         19
    40          5
    41         64
    42         22
    43        199
    44          7
    45          5
    47         60
    49         50
    51         12
    52          2
    53         12
    54          7
    55         36
    56         20
    57         51
    58          3
    59          2
    60          3
    65          2
    66          2
    67          6
    68         13
    69         29
    70         30
    71         20
    72          2
    73          8
    77          2
    78          1
    79          4
    80          2
    81         31
    82         19
    83         58
    84        431
    85        113
    86        279
    87          8
    88         48
    91          1
    93          2
    94          2
    95          7
    96         18
    97         30
    98        126
    99        337
   100         19
   101         12
   102          2
   103          2
   105          1
   107          2
   108          3
   109         15
   110        241
   111        999
   112        133
   113         34
   114          4
   115         12
   116          1
   117          2
   119         11
   121          9
   122          3
   123         26
   124         88
   125         78
   126         24
   127         42
   128         72
   129         52
   130          3
   131          6
   133          8
   134          2
   135          4
   136         11
   137         36
   138         44
   139        109
   140         46
   141         89
   142         11
   143          4
   144          4
   145          1
   149          3
   150          3
   151          9
   152          9
   153         26
   154         40
   155         10
   156         68
   157        272
   158         21
   159          4
   160          1
   161          3
   162          2
   163          5
   164          2
   165          8
   166          5
   167         12
   168         10
   169          3
   170          6
   171         14
   172          1
   174          2
   175          7
   176          1
   177          2
   178          2
   179          4
   180         21
   181         38
   182          9
   183         20
   184          2
   185          1
   188          2
   189          7
   190          1
   191          1
   193          1
   194          1
   195          3
   196          2
   197          1
   199          1
   201          2
   206          1
   207         11
   208         16
   209         39
   210         23
   211          6
   212         10
   213          4
   221          3
   225          1
   227          1
   237          1
   238          5
   239          9
   240         21
   241         81
   242         12
   243          1
   263          1
   267          1
   277          6
   278          2
   281          2
   311          1