##TITLE=Library Entry 41002
##JCAMP-DX=Revision 4.10 
##DATA TYPE=MASS SPECTRUM
##SAMPLE DESCRIPTION=Chemical Concepts
##NAMES=HP
##CAS NAME=d-Mannitol, 1-O-heptyl-
##MOLFORM=C13H28O6
##CAS REGISTRY NO=126403-07-4
##MP= -300
##BP= -300
##MW= 280
##$RETENTION INDEX=0
##$CONDENSED SPECTRUM=NO
##NPOINTS= 169
##XYDATA=(XY..XY) 1 
    26          4
    27         87
    28         24
    29         41
    30          4
    31         85
    33          0
    36          0
    37          0
    38          1
    39         37
    40         16
    41        224
    42         46
    43        256
    44         75
    45        121
    46          4
    47          5
    49          2
    50          0
    51          2
    52          1
    53         15
    54          7
    55        145
    56         65
    57        808
    58         44
    59         11
    60         81
    61        297
    62          9
    63          3
    65          2
    66          2
    67         14
    68         11
    69         84
    70         47
    71         61
    72         13
    73        999
    74        135
    75         75
    76          2
    77          5
    78          1
    79          4
    80          2
    81         15
    82          8
    83         33
    84          9
    85        128
    86         42
    87         44
    88          7
    89         12
    90          1
    91        135
    92          5
    93          3
    94          1
    95          6
    96         18
    97        124
    98         43
    99         83
   100          7
   101          6
   102          7
   103        560
   104         45
   105         21
   106          0
   107          1
   108          1
   109          4
   110          8
   111         30
   112         10
   113         20
   114          8
   115         87
   116         18
   117         40
   118          3
   119          2
   120          0
   121          9
   122          1
   123         12
   124          3
   125          3
   126          1
   127         42
   128          8
   129         58
   130          8
   131          2
   133        264
   134         16
   135          4
   136          1
   137          1
   139          1
   140          1
   141         12
   142          3
   143          9
   144          8
   145          8
   146         20
   147          9
   148          1
   149          0
   150          0
   151          2
   152          0
   153          1
   154          2
   155          1
   156          1
   157          5
   158          5
   159         66
   160          7
   161          1
   163          0
   165          4
   169          2
   170          1
   171         57
   172         21
   173         12
   174          1
   175          3
   176          0
   179          0
   183         11
   184          3
   185         10
   186          2
   187          2
   189         43
   190          5
   191          0
   197          1
   198          0
   199          0
   201          9
   202          1
   203          6
   204          0
   205          2
   213          1
   215          1
   217          1
   219         30
   220          3
   221          0
   231         22
   232          2
   233          4
   245          4
   246          0
   281          3
   282          0