##TITLE=Library Entry 28947
##JCAMP-DX=Revision 4.10 
##DATA TYPE=MASS SPECTRUM
##SAMPLE DESCRIPTION=P. VAINIOTALO, DEPT. CHEM., UNIV. JOENSUU, JOENSUU, FIN
LAND
##NAMES=HP
##CAS NAME=2-Methyliminoperhydro-1,3-oxazine
##MOLFORM=C5H10N2O
##CAS REGISTRY NO=126442-19-1
##MP= -300
##BP= -300
##MW= 114
##$RETENTION INDEX=0
##$CONDENSED SPECTRUM=NO
##NPOINTS= 24
##XYDATA=(XY..XY) 1 
    15         88
    26         25
    27         70
    29         61
    30        344
    39         19
    40         17
    41         52
    42         95
    43         14
    44         10
    54         11
    55         60
    56        191
    57        165
    58        999
    59         32
    69         15
    84         24
    85         28
    86         37
   113         41
   114        540
   115         41