##TITLE=Library Entry 58050
##JCAMP-DX=Revision 4.10 
##DATA TYPE=MASS SPECTRUM
##SAMPLE DESCRIPTION=M. RYSKA, MS LAB., PHARM. BIOCHEM. RES. INST., PRAGUE,
 CZECH.
##NAMES=HP
##CAS NAME=Propanol, 3-[4-[.alpha.-(2-chlorophenyl)-3-chlorobenzyl]-1-pipera
zinyl]-
##MOLFORM=C20H24Cl2N2O
##CAS REGISTRY NO=126517-30-4
##MP= -300
##BP= -300
##MW= 378
##$RETENTION INDEX=0
##$CONDENSED SPECTRUM=NO
##NPOINTS= 105
##XYDATA=(XY..XY) 1 
    36         11
    39         24
    40         31
    41        163
    42        440
    43        310
    44        300
    45         58
    50         11
    51         15
    52         21
    53        112
    54        380
    55        240
    56        530
    57        220
    58        320
    59         22
    63         22
    68         31
    69         71
    70        280
    71        112
    72        200
    73         28
    74         13
    75         27
    76         10
    77         16
    81         22
    82         60
    83         44
    84         77
    85         64
    86         43
    87        190
    88        999
    89         62
    90         17
    96         22
    97         82
    98        220
    99        360
   100        158
   101        170
   102        560
   103         91
   104         13
   110         10
   111         38
   112         61
   113        320
   114         77
   115         37
   116         45
   124         17
   125         79
   126         18
   127         20
   128         16
   129         10
   137         11
   138         22
   139         24
   140         12
   141         21
   142         48
   143        200
   144         16
   151         10
   162         23
   163         82
   164        186
   165        460
   166        105
   198         36
   199        139
   200         90
   201         68
   202         28
   228         13
   234         44
   235        143
   236         53
   237         93
   238         20
   239         21
   240         24
   242         15
   250         18
   252         12
   261         18
   262         76
   263        100
   264         66
   265         59
   266         19
   267         13
   275         22
   276         37
   277         21
   278         24
   333         14
   378         21
   380         14