##TITLE=Library Entry 4754
##JCAMP-DX=Revision 4.10 
##DATA TYPE=MASS SPECTRUM
##SAMPLE DESCRIPTION=M. RYSKA, MS LAB., PHARM. BIOCHEM. RES. INST., PRAGUE,
 CZECH.
##NAMES=HP
##CAS NAME=1-Piperazineethanol, [4-[.alpha.-(2-chlorophenyl)-3-chlorobenzyl]
-
##MOLFORM=C19H22Cl2N2O
##CAS REGISTRY NO=126517-29-1
##MP= -300
##BP= -300
##MW= 364
##$RETENTION INDEX=0
##$CONDENSED SPECTRUM=NO
##NPOINTS= 112
##XYDATA=(XY..XY) 1 
    35        180
    36         50
    37         70
    38         90
    39         40
    40         40
    41        290
    42        999
    43        290
    44        360
    45        200
    50         20
    51         30
    53         20
    54        140
    55        360
    56        920
    57        270
    58        860
    59         30
    63         40
    68         60
    69        100
    70        230
    71        100
    72        150
    73        140
    74        380
    75         70
    76         20
    77         30
    81         20
    82         60
    83         80
    84        120
    85         90
    86        250
    87        120
    88        460
    89        110
    90         20
    96         20
    97        130
    98        180
    99        180
   100        190
   101         50
   102         60
   103         40
   111         60
   112         20
   115         40
   124         20
   125        100
   126         30
   127         70
   128        110
   129        420
   130         40
   137         20
   138         40
   139         50
   140         20
   151         20
   162         50
   163        180
   164        360
   165        910
   166        180
   167         20
   178         20
   193         20
   198         70
   199        300
   200        210
   201        140
   202         60
   228         30
   234        160
   235        590
   236        190
   237        370
   238         70
   239         70
   240         60
   242         20
   261         30
   262        160
   263        200
   264        130
   265        120
   266         30
   267         20
   275         70
   276        120
   277         80
   278         80
   279         30
   318         20
   319         20
   320         20
   321         20
   332         50
   333        200
   334        100
   335        130
   336         50
   337         20
   363         20
   364         70
   365         30
   366         50