##TITLE=Library Entry 29537
##JCAMP-DX=Revision 4.10 
##DATA TYPE=MASS SPECTRUM
##SAMPLE DESCRIPTION=Chemical Concepts
##NAMES=HP
##CAS NAME=Propanedioic acid, oxo-, ethyl methyl ester
##MOLFORM=C6H8O5
##CAS REGISTRY NO=126542-89-0
##MP= -300
##BP= -300
##MW= 160
##$RETENTION INDEX=0
##$CONDENSED SPECTRUM=NO
##NPOINTS= 66
##XYDATA=(XY..XY) 1 
    24          0
    25          4
    26         55
    27        539
    28         93
    29        298
    30         96
    31        183
    33         36
    34          0
    37          0
    39          0
    40          2
    41          6
    42         13
    43         76
    44         49
    45        275
    46          8
    47          1
    49          0
    54          0
    55          1
    56         31
    57        115
    59        999
    60        294
    61         39
    62          1
    68          3
    69          2
    71          0
    73         12
    74          1
    75          0
    76          1
    77          9
    78          0
    79          0
    80          1
    81          1
    82          2
    86          1
    87          9
    88        129
    89          5
    90          1
    91          0
    94          0
    96          0
   100          0
   101          0
   102          0
   103          0
   105          0
   107          0
   108          0
   115          1
   116          0
   119          0
   133          0
   142          0
   146          0
   147          0
   160          3
   161          0