##TITLE=Library Entry 72070
##JCAMP-DX=Revision 4.10 
##DATA TYPE=MASS SPECTRUM
##SAMPLE DESCRIPTION=M. RYSKA, MS LAB., PHARM. BIOCHEM. RES. INST., PRAGUE,
 CZECH.
##NAMES=HP
##CAS NAME=1-[.alpha.-(2-Chlorophenyl)-3-chlorobenzyl]-4-methylpiperazine
##MOLFORM=C18H20Cl2N2
##CAS REGISTRY NO=126517-28-0
##MP= -300
##BP= -300
##MW= 334
##$RETENTION INDEX=0
##$CONDENSED SPECTRUM=NO
##NPOINTS= 75
##XYDATA=(XY..XY) 1 
    41         80
    42        430
    43        340
    44        400
    54         40
    55        160
    56        820
    57        180
    58        340
    63         20
    69         40
    70        310
    71        110
    72        140
    73         20
    75         30
    77         20
    82         30
    84         30
    85         60
    89         40
    97         40
    98        130
    99        999
   100         60
   101         10
   103         10
   111         10
   113         10
   115         10
   125         60
   127         20
   138         30
   139         30
   152         10
   162         20
   163        110
   164        180
   165        510
   166        100
   198         20
   199        130
   200         80
   201         60
   202         20
   223         30
   228         60
   230         20
   235         80
   236         20
   237         50
   240         80
   242         30
   261         40
   262        310
   263        300
   264        240
   265        180
   266         50
   267         30
   271         20
   275         60
   276        140
   277        120
   278        100
   279         60
   280         20
   290         10
   319         10
   333         20
   334        140
   335         40
   336         80
   337         30
   338         20