##TITLE=Library Entry 62084
##JCAMP-DX=Revision 4.10 
##DATA TYPE=MASS SPECTRUM
##SAMPLE DESCRIPTION=Asinex Ltd, Moscow, Russia
##NAMES=HP
##CAS NAME=1H-1,2,3-Triazole-4-carboxamide, 5-amino-1-benzyl-N-phenyl-
##MOLFORM=C16H15N5O
##CAS REGISTRY NO=126537-91-5
##MP= -300
##BP= -300
##MW= 293
##$RETENTION INDEX=0
##$CONDENSED SPECTRUM=NO
##NPOINTS= 191
##XYDATA=(XY..XY) 1 
    33          0
    34          1
    37          2
    38         13
    39        103
    40         51
    41         43
    42         14
    43         73
    44         10
    45          2
    50         22
    51         86
    52         21
    53         15
    54         17
    55         84
    57         17
    58          1
    59          0
    60          0
    61          1
    62          7
    63         42
    64         26
    65        219
    66         28
    67          8
    68         34
    69         10
    70          5
    71          6
    73         15
    74          4
    75          6
    76         15
    77        175
    78         24
    79         14
    80          3
    81          5
    82          3
    83          4
    84          2
    85          1
    86          0
    87          1
    88          1
    89         36
    91        999
    92        150
    93        138
    94         13
    95          4
    96          1
    97          2
    98          1
    99          0
   100          0
   101          2
   102          7
   103         54
   104        133
   106        105
   107          8
   108          2
   109          4
   110          1
   111          8
   112          3
   113          2
   114          1
   115          2
   116         11
   117         36
   118         36
   119         43
   120         31
   121          3
   122          0
   123          1
   124          1
   125          1
   126          0
   128         78
   129         21
   130          8
   131         14
   132         65
   133        446
   134         37
   135          3
   136          0
   137          1
   139          7
   140          0
   141          0
   142          1
   143          5
   144         11
   145         54
   146         40
   147         29
   149          3
   150          0
   151          0
   152          1
   153          1
   154          0
   155          0
   156          2
   157          4
   158          5
   159          4
   160         28
   161          5
   162          2
   163          0
   164          0
   165          2
   166          0
   167          1
   168          0
   169          0
   170          0
   171         20
   172          6
   173         27
   174          8
   175          1
   176          0
   177          0
   178          0
   179          0
   180          4
   181          2
   182          1
   183          0
   186          0
   187          0
   188          1
   189          0
   190          0
   191          1
   192          0
   193          2
   194          1
   195          0
   199          0
   200          0
   201         21
   202          3
   203          0
   204          0
   205          0
   206          0
   207          2
   208          4
   209          1
   210          0
   211          0
   216          0
   217          1
   218          2
   219         11
   220          3
   221          1
   222          0
   231          0
   232          1
   233          1
   234          0
   236         38
   237          6
   238          0
   246          0
   247          6
   248          1
   249          0
   261          0
   262          0
   264          3
   265          0
   266          0
   283          0
   292         11
   293        379
   294         72
   295          7
   296          0
   301          0