##TITLE=Library Entry 16757
##JCAMP-DX=Revision 4.10 
##DATA TYPE=MASS SPECTRUM
##SAMPLE DESCRIPTION=Chemical Concepts
##NAMES=HP
##CAS NAME=1-Bromo-7-octanol
##MOLFORM=C8H17BrO
##CAS REGISTRY NO=126680-20-4
##MP= -300
##BP= -300
##MW= 208
##$RETENTION INDEX=0
##$CONDENSED SPECTRUM=NO
##NPOINTS= 103
##XYDATA=(XY..XY) 1 
    26          4
    27        110
    28         25
    29         72
    30          3
    31         21
    38          2
    39         68
    40         13
    41        251
    42         50
    43        163
    44        179
    45        999
    46         39
    47          3
    50          2
    51          4
    52          2
    53         21
    54         14
    55        200
    56         72
    57         53
    58         14
    59          5
    63          1
    65          3
    66          2
    67         45
    68         19
    69        182
    70         10
    71         13
    72          1
    73          2
    75          1
    77          3
    78          1
    79          4
    80          1
    81         16
    82         16
    83         25
    84         53
    85         43
    86          3
    91          3
    92          1
    93          4
    94          1
    95        192
    96         13
    97          3
    99          1
   106          1
   107         13
   108          1
   109         13
   110          6
   111         36
   112          3
   113         14
   114          1
   115          1
   117          1
   119          2
   121          4
   122          1
   123          2
   124          1
   126          1
   133         10
   134          1
   135         37
   136          2
   137         24
   138          1
   147          4
   148        153
   149         25
   150        141
   151          9
   161          1
   162         19
   163          5
   164         25
   165          5
   166          7
   167          2
   175         12
   176          1
   177         13
   178          1
   190         13
   191          2
   192         13
   193         61
   194          4
   195         61
   196          4
   207          3
   209          3