##TITLE=Library Entry 4956
##JCAMP-DX=Revision 4.10 
##DATA TYPE=MASS SPECTRUM
##SAMPLE DESCRIPTION=P. VAINIOTALO, DEPT. CHEM., UNIV. JOENSUU, JOENSUU, FIN
LAND
##NAMES=HP
##CAS NAME=2H-1,3-Oxazine, 2-ethyltetrahydro-2-methyl-
##MOLFORM=C7H15NO
##CAS REGISTRY NO=126681-44-5
##MP= -300
##BP= -300
##MW= 129
##$RETENTION INDEX=0
##$CONDENSED SPECTRUM=NO
##NPOINTS= 27
##XYDATA=(XY..XY) 1 
    27        130
    29        140
    30        360
    31        420
    39         80
    41        310
    42        999
    43        120
    44         50
    54         50
    55        170
    56        680
    57        120
    58         90
    59        700
    70        130
    72        160
    84        520
    85        930
    86         90
    98        100
    99        220
   100        840
   101         50
   114        110
   128         60
   129         30