##TITLE=Library Entry 96842
##JCAMP-DX=Revision 4.10 
##DATA TYPE=MASS SPECTRUM
##SAMPLE DESCRIPTION=Chemical Concepts
##NAMES=HP
##CAS NAME=Dodecanoic acid, 3-hydroxy-, ethyl ester
##MOLFORM=C14H28O3
##CAS REGISTRY NO=126679-28-5
##MP= -300
##BP= -300
##MW= 244
##$RETENTION INDEX=1743
##$CONDENSED SPECTRUM=NO
##NPOINTS= 134
##XYDATA=(XY..XY) 1 
    25         36
    27        377
    28          9
    30         27
    31          6
    38          1
    39         44
    40         11
    41        277
    42         69
    43        255
    44         63
    45         62
    46          2
    47         18
    48          0
    51          1
    52          1
    53         17
    54         26
    55        183
    56         47
    57         95
    58         17
    59          5
    60         93
    61         76
    62          2
    63          1
    65          2
    66          3
    67         44
    68         25
    69         85
    70         57
    71        318
    72         12
    73         21
    74          1
    75         67
    76          2
    77          2
    79          7
    80          3
    81         42
    82         21
    83         73
    84         28
    85         22
    86          4
    87         10
    88        230
    89        177
    90          8
    91          2
    93          3
    94          3
    95         29
    96         41
    97         41
    98         20
    99         11
   100          4
   101         28
   102          5
   103          1
   107          2
   108          2
   109          9
   110         13
   111          8
   112          6
   113          5
   114          7
   115         29
   116         11
   117        999
   118         57
   119          9
   120          1
   121          1
   122          1
   123          8
   124          4
   125          4
   126          1
   127          9
   128          9
   129          8
   130          5
   131          2
   132          1
   133          1
   135          1
   136          4
   137          8
   138         38
   139         13
   140          1
   141          5
   142          6
   143          9
   144          2
   145          0
   147          1
   151          3
   152          4
   153          1
   154          2
   155         53
   156          9
   157         12
   158          3
   159          0
   161          1
   162          4
   163         10
   165          1
   169          2
   170          2
   171          1
   172          1
   179          1
   180         29
   181         27
   182          3
   183          3
   197          2
   199         16
   200          2
   215          1
   226         12
   227          3
   243          2