##TITLE=Library Entry 16094
##JCAMP-DX=Revision 4.10 
##DATA TYPE=MASS SPECTRUM
##SAMPLE DESCRIPTION=K. Kirk, LC, NIDDK, NIH, Bethesda, MD 20892
##NAMES=HP
##CAS NAME=2-Chlorohistidine
##MOLFORM=C6H8ClN3O2
##CAS REGISTRY NO=126663-37-4
##MP= -300
##BP= -300
##MW= 189
##$RETENTION INDEX=0
##$CONDENSED SPECTRUM=NO
##NPOINTS= 121
##XYDATA=(XY..XY) 1 
    41         78
    42        100
    43        139
    44        999
    45        134
    46         70
    47         27
    48         12
    49         15
    50         12
    51         33
    52         93
    53         48
    54        140
    55         55
    56         34
    57         38
    58         12
    59         10
    60         21
    61         28
    62         17
    63         18
    64         22
    65         13
    66         14
    67         15
    68          9
    69         28
    70         10
    71         12
    72         17
    73         35
    74        100
    75         28
    76         13
    77         29
    78         52
    79         20
    80         20
    81        171
    82         45
    83         14
    84          7
    85          7
    86         11
    87          7
    88         29
    89         46
    90         20
    91         19
    92          7
    93          7
    94          6
    95          7
    96          7
    97          9
    98          7
    99         30
   100         50
   101         10
   102          9
   103         10
   104          4
   105          8
   106         23
   107         10
   108         30
   109         21
   110          6
   111          5
   112          2
   113          2
   114          2
   115        348
   116        840
   117        155
   118        268
   119         17
   120          4
   121          5
   122          4
   123          4
   124         20
   125          4
   126          3
   127          9
   128         10
   129          7
   130          3
   133          0
   136          1
   137          7
   138          2
   139          3
   141          4
   142          0
   143         17
   144         32
   145         13
   146         11
   147          3
   149          5
   153          0
   154          2
   155          2
   156          3
   157          0
   159          0
   160          2
   162          1
   168          1
   169          0
   171          1
   173          5
   174          1
   189         49
   190          6
   191         16
   192          1
   194          1