##TITLE=Library Entry 25953
##JCAMP-DX=Revision 4.10 
##DATA TYPE=MASS SPECTRUM
##SAMPLE DESCRIPTION=NIST Mass Spectrometry Data Center
##NAMES=HP
##CAS NAME=(2E,8Z)-Deca-2,8-dien-4,6-diyn-1-yl 3-methylbutanoate
##MOLFORM=C15H18O2
##CAS REGISTRY NO=126665-85-8
##MP= -300
##BP= -300
##MW= 230
##$RETENTION INDEX=1889
##$CONDENSED SPECTRUM=NO
##NPOINTS= 80
##XYDATA=(XY..XY) 1 
    27         14
    29         31
    39         54
    40          8
    41        160
    42         22
    43         99
    44          7
    50         21
    51         76
    52         17
    53         14
    57        999
    58         47
    59         10
    62         37
    63        125
    64         29
    65         37
    69         41
    74         63
    75        111
    76         56
    77        125
    78         51
    85        494
    86         54
    87         52
    88         23
    89        109
    90         21
    91         91
    92         12
    98         18
    99         14
   100          9
   101         35
   102        119
   103         60
   104          8
   105         20
   109         10
   113         23
   114          7
   115        184
   116         46
   117        201
   118         38
   119         18
   126         29
   127        207
   128        308
   129        415
   130         45
   131         56
   132          8
   141         12
   144         11
   145        162
   146        161
   147         27
   148          4
   158          4
   159         29
   160          8
   161          9
   169          6
   173        150
   174         25
   175          5
   187        137
   188         56
   189          8
   201         10
   215         30
   216          4
   229          6
   230        125
   231         21
   232          2