##TITLE=Library Entry 94061
##JCAMP-DX=Revision 4.10 
##DATA TYPE=MASS SPECTRUM
##SAMPLE DESCRIPTION=NIST Mass Spectrometry Data Center
##NAMES=HP
##CAS NAME=(Z)-Deca-8-en-4,6-diyn-1-yl 3-methylbutanoate
##MOLFORM=C15H20O2
##CAS REGISTRY NO=126693-81-0
##MP= -300
##BP= -300
##MW= 232
##$RETENTION INDEX=1832
##$CONDENSED SPECTRUM=NO
##NPOINTS= 159
##XYDATA=(XY..XY) 1 
    26          1
    27         16
    28          2
    29         30
    30          1
    31          2
    37          1
    38          3
    39         61
    40          9
    41        156
    42         28
    43         83
    44          4
    45          9
    49          1
    50         26
    51         89
    52         27
    53         38
    54          3
    55         39
    56         12
    57        425
    58         20
    59         14
    60          7
    61          7
    62         34
    63        126
    64         30
    65        102
    66         13
    67         10
    68          2
    69         49
    70          3
    71         12
    72          1
    73          2
    74         55
    75         92
    76         81
    77        323
    78        114
    79         38
    80          4
    81          3
    82          1
    83         12
    84          3
    85        212
    86         26
    87         34
    88         15
    89         81
    90         53
    91        235
    92         42
    93         17
    94          3
    95          2
    96          1
    97          2
    98          9
    99          6
   100          3
   101         19
   102        146
   103        153
   104         40
   105        192
   106         64
   107         22
   108          4
   109          2
   110          2
   111          5
   113          6
   114         14
   115        999
   116        161
   117         85
   118         13
   119         45
   120         26
   121         12
   122          2
   123          1
   124         35
   125          4
   126          7
   127        259
   128        719
   129        631
   130        940
   131        132
   132         15
   133         52
   134         27
   135         10
   136          1
   139          4
   141          2
   142          2
   143         10
   144          4
   145         18
   146         10
   147        427
   148        160
   149         23
   150          2
   151          1
   155          1
   156          1
   157          6
   158          2
   159          8
   160          3
   161         44
   162         12
   163          5
   164          3
   165          1
   169          1
   171          5
   172          2
   173          5
   174          3
   175        162
   176         76
   177         12
   178          1
   184          1
   185          1
   186          1
   187          4
   188          2
   189         77
   190         32
   191          4
   192          1
   199          3
   200          1
   201          2
   202          1
   203          9
   204          4
   205          1
   213          1
   215          1
   217         82
   218         13
   219          1
   231          5
   232        129
   233         21
   234          2