##TITLE=Library Entry 21049
##JCAMP-DX=Revision 4.10 
##DATA TYPE=MASS SPECTRUM
##SAMPLE DESCRIPTION=A.A.Kutin, Moscow, Russia
##NAMES=HP
##CAS NAME=3-Cyclohexenecarboxylic acid, 6,6-dimethyl-4-(4-morpholyl)-2-oxo-
, methyl ester
##MOLFORM=C14H21NO4
##CAS REGISTRY NO=126750-27-4
##MP= -300
##BP= -300
##MW= 267
##$RETENTION INDEX=0
##$CONDENSED SPECTRUM=NO
##NPOINTS= 158
##XYDATA=(XY..XY) 1 
    33         45
    34          3
    36         10
    39        568
    40        176
    41        539
    42        277
    43        230
    44         77
    45         72
    46          2
    47          1
    49          0
    50         23
    51         67
    52         98
    53        269
    55        999
    56        239
    57        108
    58         54
    59        119
    60          7
    62          8
    63         28
    65         98
    67        600
    68        322
    69        211
    70        144
    71         50
    72         20
    74          8
    75         18
    77        172
    78         58
    79        136
    80         93
    81        157
    82        238
    83        386
    84        132
    85        349
    86         73
    87         11
    89         10
    90          9
    91         60
    92         32
    93         62
    94        179
    95        254
    96        679
    97        122
    98         19
    99          6
   100          1
   101         11
   102          1
   103          1
   104         12
   105         18
   106         55
   107         75
   108        169
   109        311
   110        132
   111         68
   112         47
   113         12
   114          8
   115          5
   117          7
   118         12
   120         49
   121         30
   122         70
   123        210
   124         78
   125        240
   126         48
   127         19
   128          7
   129          6
   131          1
   132          7
   133         10
   134         45
   135         39
   136         81
   137         89
   138         50
   139         11
   140          5
   146          4
   147          7
   148         19
   150        189
   152        193
   153        602
   154         74
   155          9
   160          2
   161          9
   162         10
   163         12
   164         80
   165         97
   166         66
   167         13
   168          0
   171         22
   172          3
   175          0
   176         19
   177         11
   178         39
   180        298
   181         59
   182          5
   190          3
   191          3
   192         29
   193        138
   194         52
   195          5
   202          1
   205          1
   206          5
   208         80
   209         14
   210          3
   211          1
   220         36
   221          6
   222          3
   223          6
   224         49
   225         22
   226          1
   234          5
   236        115
   237         19
   238         14
   239         19
   249          2
   250         10
   252        382
   253         49
   254          7
   263          1
   264          1
   265          7
   266         18
   267        355
   268         56
   269          6
   283          1