##TITLE=Library Entry 46016
##JCAMP-DX=Revision 4.10 
##DATA TYPE=MASS SPECTRUM
##SAMPLE DESCRIPTION=Dmitri Zagorevskii, University of Missouri-Columbia, Co
lumbia, MO
##NAMES=HP
##CAS NAME=3-Bromo-2-formylanisole
##MOLFORM=C8H7BrO2
##CAS REGISTRY NO=126712-07-0
##MP= -300
##BP= -300
##MW= 214
##$RETENTION INDEX=0
##$CONDENSED SPECTRUM=NO
##NPOINTS= 110
##XYDATA=(XY..XY) 1 
    25          3
    26         38
    27         42
    29        137
    30          9
    31        109
    36          9
    37        194
    38        253
    39        217
    41         11
    42          7
    43         35
    44         26
    45         10
    46         10
    49         56
    50        462
    51        229
    52         59
    53         85
    54          8
    55         11
    60         15
    61        142
    62        302
    63        818
    64        300
    65         80
    66         32
    73         59
    74        298
    75        999
    76        619
    77        707
    78        204
    79        157
    80         24
    81         14
    82         12
    85          7
    86          7
    87          6
    89         65
    90         49
    91        156
    92        312
    93         26
   103        169
   104         70
   105         49
   106         37
   107        115
   108         11
   116         19
   117         49
   118        465
   119        107
   120         72
   121          6
   128         12
   129         10
   130         12
   131         19
   133         18
   134        114
   135        112
   136          9
   141          8
   142         26
   143        136
   144         33
   145        131
   146          9
   154        212
   155        192
   156        268
   157        214
   158         62
   159         26
   160          6
   168        103
   169         39
   170        339
   171         62
   172        521
   173         48
   174        288
   175         21
   182        312
   183        143
   184        327
   185        206
   186         23
   187         64
   188         11
   196        298
   197        432
   198        447
   199        643
   200        173
   201        226
   202         21
   212          7
   213        781
   214        995
   215        863
   216        952
   217         79
   218          3