##TITLE=Library Entry 77088
##JCAMP-DX=Revision 4.10 
##DATA TYPE=MASS SPECTRUM
##SAMPLE DESCRIPTION=V.Zaikin,Topchiev Inst.Petrochem.Synth.,Moscow
##NAMES=HP
##CAS NAME=Benzenepropanoic acid, heptyl ester
##MOLFORM=C16H24O2
##CAS REGISTRY NO=126831-82-1
##MP= -300
##BP= -300
##MW= 248
##$RETENTION INDEX=0
##$CONDENSED SPECTRUM=NO
##NPOINTS= 106
##XYDATA=(XY..XY) 1 
    27         22
    28         10
    29         72
    30          3
    31          3
    35          2
    36         12
    37         12
    38         30
    39        121
    40         26
    41        249
    42         68
    43        225
    44         32
    45         22
    46          2
    48          3
    49         11
    50         69
    51        150
    52         44
    53         31
    54         14
    55        146
    56         64
    57        452
    58         23
    60          6
    61         12
    62         21
    63         50
    64         13
    65        113
    66         13
    67         14
    68         10
    69         39
    70         26
    71         16
    72         28
    73         15
    74         35
    75         31
    76         36
    77        213
    78        196
    79        115
    80          6
    81          4
    82          4
    83         12
    84          4
    85          6
    86          4
    87          3
    88          2
    89         26
    90         13
    91        909
    92         87
    93          5
    94          3
    95          5
    96          3
    97         12
    98         30
    99          8
   101          6
   102         44
   103        149
   104        999
   105        366
   106         39
   107        154
   108         13
   109          3
   111          5
   117          4
   118          4
   119          3
   120          3
   121          3
   122          4
   127          3
   130          7
   131         47
   132         82
   133         84
   134         10
   135          2
   139         10
   140          2
   141          2
   143          2
   145          3
   146          2
   147          7
   148          9
   149         30
   150        462
   151         59
   152          6
   248         98
   249         19
   250          2