##TITLE=Library Entry 42039
##JCAMP-DX=Revision 4.10 
##DATA TYPE=MASS SPECTRUM
##SAMPLE DESCRIPTION=NIST Mass Spectrometry Data Center
##NAMES=HP
##CAS NAME=Disulfide, 1-(1-propenyldithio)propyl propyl, (Z)-
##MOLFORM=C9H18S4
##CAS REGISTRY NO=126876-37-7
##MP= -300
##BP= -300
##MW= 254
##$RETENTION INDEX=1810
##$CONDENSED SPECTRUM=NO
##NPOINTS= 75
##XYDATA=(XY..XY) 1 
    27         24
    33          2
    34          2
    39         93
    40          7
    41        241
    42          7
    43        174
    44          9
    45        227
    46         18
    47         59
    48          2
    49          3
    50          2
    58         23
    59         33
    60          5
    61        119
    62          6
    63          7
    64         32
    66         11
    71         72
    72         33
    73        999
    74        132
    75         89
    76          9
    77         11
    78          4
    79         19
    81         10
    82          3
    83         22
    87         22
    92          1
    97         11
   101         38
   102          2
   103         17
   104          9
   105        790
   106         99
   107        180
   108         31
   109         13
   110          2
   113         33
   114          9
   115         25
   116         23
   118         11
   119          7
   120          2
   134          1
   136          1
   138          5
   141          1
   145          3
   146          1
   147        657
   148         54
   149        712
   150         53
   151         59
   152          3
   181          4
   211         11
   212          2
   221          1
   254         21
   255          5
   256          5
   257          2