##TITLE=Library Entry 37309
##JCAMP-DX=Revision 4.10 
##DATA TYPE=MASS SPECTRUM
##SAMPLE DESCRIPTION=CBDCOM/ERDEC, Edgewood, MD
##NAMES=HP
##CAS NAME=2-Chloroethyl, isoamyl sulfide
##MOLFORM=C7H15ClS
##CAS REGISTRY NO=126823-30-1
##MP= -300
##BP= -300
##MW= 166
##$RETENTION INDEX=0
##$CONDENSED SPECTRUM=NO
##NPOINTS= 72
##XYDATA=(XY..XY) 1 
    30          5
    32          7
    34          6
    35         13
    38         19
    39        201
    40         11
    41        360
    42        208
    43        299
    44         13
    45        128
    46         93
    47        108
    48          7
    49         45
    50          5
    51         24
    52          7
    53         31
    54         25
    55        572
    56         33
    57         36
    58         50
    59        103
    60         54
    61        183
    62         20
    63        129
    64         12
    65         39
    67          9
    68          4
    69         60
    70        999
    71         96
    72          2
    73         41
    74          5
    75          3
    80          3
    81          7
    82          5
    84          4
    85          4
    87          5
    88          3
    91          2
    94          2
    95         10
    96         13
    97         12
    98          7
    99          2
   100          2
   103          3
   109         71
   110          5
   111         29
   113          2
   117          2
   123         24
   125          9
   128          2
   131         13
   164          4
   166        160
   167         20
   168         50
   169          3
   170          2