##TITLE=Library Entry 58284
##JCAMP-DX=Revision 4.10 
##DATA TYPE=MASS SPECTRUM
##SAMPLE DESCRIPTION=NIST Mass Spectrometry Data Center
##NAMES=HP
##CAS NAME=1-(1-(Methylthio)propyl)-2-propyldisulfane
##MOLFORM=C7H16S3
##CAS REGISTRY NO=126876-22-0
##MP= -300
##BP= -300
##MW= 196
##$RETENTION INDEX=1431
##$CONDENSED SPECTRUM=NO
##NPOINTS= 71
##XYDATA=(XY..XY) 1 
    27         16
    28          2
    29          5
    35          2
    37          1
    38          2
    39         36
    40          3
    41        269
    42         13
    43         45
    44          3
    45         74
    46         18
    47         51
    48          5
    49         30
    50          1
    51          1
    53          2
    55         16
    56          1
    57          2
    58         11
    59         18
    60          3
    61        149
    62          5
    63          7
    64         13
    65          3
    66          2
    69          2
    70          1
    71         12
    72          6
    73         91
    74         23
    75          8
    76          3
    77          3
    78          3
    79         40
    80          4
    81          4
    83          1
    87          3
    88         11
    89        999
    90         50
    91         48
    92          4
    93          3
    97          1
   101          3
   105          1
   106          1
   107          4
   108          2
   109          1
   111          1
   112          1
   113          1
   120          1
   121          3
   122          1
   125          3
   149          3
   167          1
   196          4
   198          1