##TITLE=Library Entry 92802
##JCAMP-DX=Revision 4.10 
##DATA TYPE=MASS SPECTRUM
##SAMPLE DESCRIPTION=NIST Mass Spectrometry Data Center
##NAMES=HP
##CAS NAME=6-Ethyl-4,5,7-trithia-2,8-decadiene
##MOLFORM=C9H16S3
##CAS REGISTRY NO=126876-28-6
##MP= -300
##BP= -300
##MW= 220
##$RETENTION INDEX=1603
##$CONDENSED SPECTRUM=NO
##NPOINTS= 68
##XYDATA=(XY..XY) 1 
    27          8
    29          3
    37          3
    38          9
    39        119
    40         10
    41        364
    42         17
    45        146
    46         18
    47         42
    48          1
    49          2
    53         12
    54          1
    55         55
    58         14
    59         83
    60         13
    61         42
    63          2
    64         21
    65          5
    67          7
    69         60
    70          4
    71         37
    72         25
    73        563
    74         43
    75         29
    76          2
    77          2
    78          4
    79         32
    81        189
    82         12
    85         11
    86          1
    87         40
    88          3
    89          3
    90          1
    91          3
    99         10
   100          2
   101          4
   103         12
   104         15
   105         29
   106         17
   107          8
   115        999
   116         72
   117         46
   118          3
   119          2
   137         29
   138         15
   139          4
   140          3
   179         52
   180          4
   181          7
   182          1
   220          9
   221          1
   222          2