##TITLE=Library Entry 41030
##JCAMP-DX=Revision 4.10 
##DATA TYPE=MASS SPECTRUM
##SAMPLE DESCRIPTION=ASES Database, Dalian Institute, P.R. China
##NAMES=HP
##CAS NAME=1,1-Dimethyl-5-trimethylsilyl-1-silacyclohex-3-ene
##MOLFORM=C10H22Si2
##CAS REGISTRY NO=126810-74-0
##MP= -300
##BP= -300
##MW= 198
##$RETENTION INDEX=0
##$CONDENSED SPECTRUM=NO
##NPOINTS= 29
##XYDATA=(XY..XY) 1 
    31        101
    43        489
    45        249
    55        168
    59        588
    69        159
    72        128
    73        999
    81        109
    83        409
    85        251
    95        178
    96        310
    97        169
    98        311
   109        307
   110        270
   122        150
   124        200
   125        140
   129         99
   131        119
   153        149
   155        109
   168        140
   179         99
   181        270
   196        179
   198         69