##TITLE=Library Entry 42801
##JCAMP-DX=Revision 4.10 
##DATA TYPE=MASS SPECTRUM
##SAMPLE DESCRIPTION=NIST Mass Spectrometry Data Center
##NAMES=HP
##CAS NAME=6-Ethyl-4,5,7,8-tetrathiaundecane
##MOLFORM=C9H20S4
##CAS REGISTRY NO=126876-35-5
##MP= -300
##BP= -300
##MW= 256
##$RETENTION INDEX=1800
##$CONDENSED SPECTRUM=NO
##NPOINTS= 48
##XYDATA=(XY..XY) 1 
    27         21
    38          1
    40          4
    42         10
    43        232
    44          9
    46         15
    47         29
    48          2
    49          2
    58          8
    64         21
    66          5
    73        999
    74         76
    76          6
    78          4
    79         19
    81          2
    92          2
    97          8
   105         53
   106         14
   107        138
   108         16
   109         15
   110          2
   116          1
   139          7
   140          2
   141          1
   148          3
   149        809
   150         69
   151         75
   152          6
   153          2
   169          1
   176          1
   178          3
   179          1
   181          1
   182         14
   183          1
   184          2
   256          6
   257          1
   258          2