##TITLE=Library Entry 53733
##JCAMP-DX=Revision 4.10 
##DATA TYPE=MASS SPECTRUM
##SAMPLE DESCRIPTION=CYA 0034
##NAMES=HP
##CAS NAME=Demeclocycline
##MOLFORM=C21H21ClN2O8
##CAS REGISTRY NO=127-33-3
##MP= -300
##BP= -300
##MW= 464
##$RETENTION INDEX=0
##$CONDENSED SPECTRUM=NO
##NPOINTS= 159
##XYDATA=(XY..XY) 1 
    39         25
    40         29
    41         51
    42        241
    43         78
    44        834
    45        111
    46        454
    51         15
    52         12
    53         26
    54         10
    55         77
    56         32
    57        123
    58        683
    59         25
    63         11
    65         17
    67         18
    68         35
    69         73
    70         66
    71        139
    72         50
    74         35
    77         14
    79         10
    80         13
    81         15
    82         56
    83         18
    84        999
    85        152
    86         22
    93         10
    94         14
    95         12
    96         16
    97         34
    98        188
    99         51
   100         40
   101         12
   109         11
   110         11
   112         28
   113         20
   114         10
   115         28
   117         17
   121         10
   123         14
   124         16
   125         12
   126         29
   127         45
   128         11
   136         21
   137         13
   138         16
   139         22
   141         12
   147         11
   149         18
   150         11
   151         18
   152         53
   153         50
   154         26
   155         23
   163         11
   164         12
   165         19
   166         15
   167         15
   168         24
   169         26
   170         95
   171         18
   172         12
   173         10
   178         11
   180         12
   181         36
   182         11
   183         38
   185         14
   194         62
   195         23
   196         18
   197         18
   198         10
   207         22
   208         19
   209         28
   210         13
   215         13
   220         12
   221         38
   222         12
   223         18
   225         10
   231         17
   232         10
   233         13
   234         18
   235         16
   236         10
   237         10
   247         10
   259         14
   260         24
   261         20
   262         12
   264         31
   276         13
   277         14
   279         11
   288         15
   289         13
   316         13
   330         13
   333         21
   334         14
   348         13
   350         79
   351        118
   352         45
   353         39
   358         19
   359         11
   360         10
   384         34
   385         12
   386         41
   389         12
   402         11
   403         12
   404        100
   405         24
   406         36
   419         11
   421        251
   422         54
   423         87
   424         16
   429         35
   430         59
   431         24
   432         18
   446         67
   447         46
   448         33
   449         15
   464        236
   465         57
   466         83
   467         17