##TITLE=Library Entry 14632
##JCAMP-DX=Revision 4.10 
##DATA TYPE=MASS SPECTRUM
##SAMPLE DESCRIPTION=Chemical Concepts
##NAMES=HP
##CAS NAME=Methyl abietate
##MOLFORM=C21H32O2
##CAS REGISTRY NO=127-25-3
##MP= -300
##BP= -300
##MW= 316
##$RETENTION INDEX=2379
##$CONDENSED SPECTRUM=NO
##NPOINTS= 211
##XYDATA=(XY..XY) 1 
    27        154
    28        104
    29        261
    30         23
    31         34
    33          8
    37          9
    38         16
    39        143
    40         60
    41        668
    42         81
    43        999
    44        138
    45         94
    50         16
    51         42
    52         25
    53        130
    54         43
    55        548
    56         97
    57        162
    58         75
    59        198
    60         27
    61         13
    64         14
    65         79
    66         24
    67        221
    68         42
    69        201
    70         94
    71         94
    72         17
    73         53
    74         20
    75         15
    76         17
    77        207
    78        115
    79        330
    80         90
    81        368
    82         63
    83         97
    84         41
    85         64
    86         33
    87         91
    88         21
    89         22
    90         13
    91        577
    92        172
    93        351
    94         53
    95        201
    96         41
    97         90
    98         28
    99         38
   100         16
   101         77
   102         25
   103         55
   104         51
   105        610
   106        114
   107        202
   108         51
   109        340
   110         42
   111         35
   112         34
   113         28
   114         46
   115        246
   116         72
   117        204
   118         52
   119        200
   120         82
   121        932
   122        107
   123        163
   124         26
   125         25
   126         13
   127         47
   128        134
   129        185
   130         60
   131        353
   132         59
   133        252
   134        140
   135        183
   136        392
   137         63
   138         29
   139         25
   140         14
   141        111
   142         78
   143        196
   144         49
   145        149
   146         93
   147        102
   148        172
   149        135
   150         27
   151         27
   152         30
   153         63
   154         33
   155         82
   156         37
   157        145
   158         46
   159        121
   160         57
   161         71
   162         25
   163         23
   164          8
   165         41
   166         28
   167         38
   168         22
   169         55
   170         23
   171         94
   172         30
   173        106
   174         28
   175         51
   176         12
   177         17
   178         20
   179         20
   180         62
   181         99
   182         20
   183         60
   184         23
   185        229
   186         74
   187        129
   188         50
   189         29
   190         11
   191         14
   192         20
   193         17
   194         17
   195         24
   196         11
   197         61
   198         22
   199         90
   200         35
   201         70
   202         22
   203         11
   204          7
   205         12
   206         15
   207         29
   208         30
   209         33
   210         19
   211         40
   212         21
   213        349
   214         90
   215         22
   216         12
   223         18
   225         20
   226         26
   227         59
   228         34
   229         17
   231          8
   237         45
   238         17
   239        477
   240        103
   241        563
   242        136
   243         20
   254         32
   255         80
   256        891
   257        387
   258         73
   259         12
   266         13
   273        142
   274         32
   287         22
   288         11
   300         25
   301        159
   302         36
   316        970
   317        251
   318         32