##TITLE=Library Entry 55246
##JCAMP-DX=Revision 4.10 
##DATA TYPE=MASS SPECTRUM
##SAMPLE DESCRIPTION=NIST Mass Spectrometry Data Center, 1990.
##NAMES=HP
##CAS NAME=1,3-Dichlorotetrafluoroacetone
##MOLFORM=C3Cl2F4O
##CAS REGISTRY NO=127-21-9
##MP= -300
##BP= -300
##MW= 198
##$RETENTION INDEX=0
##$CONDENSED SPECTRUM=NO
##NPOINTS= 74
##XYDATA=(XY..XY) 1 
    12          9
    13          1
    14          1
    16          0
    19          1
    20          1
    24          4
    28          2
    29          0
    31        193
    32          1
    35         53
    36          7
    37         17
    38          1
    40          3
    43          6
    47         29
    48          1
    50        259
    51          4
    55          7
    58          3
    59          2
    62          3
    63          3
    66         75
    67          2
    68         22
    69         14
    71          1
    72          1
    74          8
    78        150
    79          5
    80          1
    81          1
    85        999
    87        326
    88          4
    93         14
    94         20
    95          0
    96          6
    97          2
    99          1
   100          9
   101         44
   103         25
   105          4
   109          1
   111          1
   113         43
   114          1
   115         12
   128          1
   129          1
   135        172
   137         50
   138          1
   151         18
   153         14
   155          2
   163        264
   164         17
   165         82
   166          2
   170         35
   172         19
   173          0
   174          3
   198         16
   200         12
   202          1