##TITLE=Library Entry 65779
##JCAMP-DX=Revision 4.10 
##DATA TYPE=MASS SPECTRUM
##SAMPLE DESCRIPTION=NIST Mass Spectrometry Data Center, 1990.
##NAMES=HP
##CAS NAME=.beta.-Pinene
##MOLFORM=C10H16
##CAS REGISTRY NO=127-91-3
##MP= -300
##BP= -300
##MW= 136
##$RETENTION INDEX=979
##$CONDENSED SPECTRUM=NO
##NPOINTS= 76
##XYDATA=(XY..XY) 1 
    14          3
    15         19
    26         18
    27        214
    28         32
    29         79
    30          2
    37          5
    38         29
    39        318
    40         66
    41        609
    42         28
    43         55
    44          1
    45          0
    50         28
    51         82
    52         43
    53        134
    54         19
    55         73
    56          6
    57          3
    58          4
    61          2
    62          9
    63         29
    64          9
    65         85
    66         30
    67        133
    68         44
    69        350
    70         19
    74          3
    75          3
    77        275
    78         57
    79        274
    80        125
    81         29
    82         14
    83          0
    86          1
    87          1
    89          7
    91        308
    92        152
    93        999
    94        127
    95         20
    96          1
   101          0
   102          2
   103         10
   104          5
   105         30
   106          7
   107         48
   108         17
   109          2
   115          7
   116          2
   117          6
   119         10
   121        113
   122         10
   123          0
   128          0
   131          0
   132          2
   133          0
   134          1
   136         79
   137          9