##TITLE=Library Entry 15914
##JCAMP-DX=Revision 4.10 
##DATA TYPE=MASS SPECTRUM
##SAMPLE DESCRIPTION=NIST Mass Spectrometry Data Center, 1998.
##NAMES=HP
##CAS NAME=N,N-Dimethylacetamide
##MOLFORM=C4H9NO
##CAS REGISTRY NO=127-19-5
##MP= -300
##BP= -300
##MW= 87
##$RETENTION INDEX=883
##$CONDENSED SPECTRUM=NO
##NPOINTS= 39
##XYDATA=(XY..XY) 1 
    13          1
    14          7
    15         52
    16          1
    18         15
    25          1
    26          4
    27         12
    28         36
    29         10
    30         66
    31          3
    37          1
    38          4
    39          8
    40         26
    41         44
    42        295
    43        490
    44        999
    45        222
    46          8
    51          3
    52          6
    53          1
    54          8
    55          7
    56         31
    57          3
    58         19
    59          1
    68          1
    70          1
    72        220
    73          8
    74          1
    87        664
    88         38
    89          2