##TITLE=Library Entry 77978
##JCAMP-DX=Revision 4.10 
##DATA TYPE=MASS SPECTRUM
##SAMPLE DESCRIPTION=E. White V, SmithKline Corp.
##NAMES=HP
##CAS NAME=Acetic acid, sodium salt
##MOLFORM=C2H3NaO2
##CAS REGISTRY NO=127-09-3
##MP= -300
##BP= -300
##MW= 82
##$RETENTION INDEX=0
##$CONDENSED SPECTRUM=NO
##NPOINTS= 33
##XYDATA=(XY..XY) 1 
    23         22
    27          9
    28         22
    29         10
    37          7
    38         10
    39         30
    40          8
    41         23
    42         53
    43        402
    44        202
    45         32
    46         26
    55          8
    57          8
    58        156
    59          7
    60         22
    62         28
    67         80
    91          5
   105        999
   106         32
   107         11
   111          1
   119          2
   121          3
   122         25
   123          2
   145          3
   187          9
   269          1