##TITLE=Library Entry 12365
##JCAMP-DX=Revision 4.10 
##DATA TYPE=MASS SPECTRUM
##SAMPLE DESCRIPTION=NIST Mass Spectrometry Data Center
##NAMES=HP
##CAS NAME=Trimethadione
##MOLFORM=C6H9NO3
##CAS REGISTRY NO=127-48-0
##MP= -300
##BP= -300
##MW= 143
##$RETENTION INDEX=1033
##$CONDENSED SPECTRUM=NO
##NPOINTS= 49
##XYDATA=(XY..XY) 1 
    14          1
    15         15
    25          1
    26          6
    27         29
    28         36
    29         20
    30          4
    31          4
    37          6
    38         15
    39        112
    40         35
    41        151
    42        220
    43        999
    44         31
    45          6
    50          1
    51          1
    52          2
    53          5
    54          5
    55          9
    56         79
    57         36
    58        317
    59         76
    60          3
    66          1
    68          1
    69          8
    70         49
    71          2
    72          1
    82          1
    84          2
    98          2
    99          2
   100         20
   101          1
   115          6
   127          5
   128        120
   129          7
   130          1
   143        332
   144         24
   145          3