##TITLE=Library Entry 9439
##JCAMP-DX=Revision 4.10 
##DATA TYPE=MASS SPECTRUM
##SAMPLE DESCRIPTION=A.A.Kutin, Moscow, Russia
##NAMES=HP
##CAS NAME=Acetamide, N-[4-[(2-thiazolylamino)sulfonyl]phenyl]-
##MOLFORM=C11H11N3O3S2
##CAS REGISTRY NO=127-76-4
##MP= -300
##BP= -300
##MW= 297
##$RETENTION INDEX=0
##$CONDENSED SPECTRUM=NO
##NPOINTS= 230
##XYDATA=(XY..XY) 1 
    33          2
    34          3
    35          2
    36         18
    37         42
    38         92
    39        228
    40         73
    41         74
    42         91
    43        999
    44         64
    45        380
    46         26
    47         20
    48         17
    49         58
    50        267
    51        334
    52        653
    53         95
    55        365
    56         20
    57         46
    58         83
    59         24
    60         73
    61         14
    62         31
    63        126
    64        134
    65        477
    66         65
    67         12
    68          8
    69         24
    70         22
    71         35
    72         18
    73         32
    74         19
    75         31
    76         42
    77         40
    78        143
    79        763
    80         81
    81         21
    82         14
    83          9
    84          8
    85         11
    86          4
    87          7
    88          5
    89         11
    90         44
    91        133
    92        361
    93        288
    94         25
    95          7
    96         11
    97         12
    98         17
    99        125
   100         97
   101         14
   102          8
   103          5
   104         25
   105         22
   106         34
   108        389
   109         41
   110          5
   111         10
   112          8
   113          6
   114          3
   115          3
   116          8
   117          7
   118         23
   119         18
   120          9
   121         14
   122          5
   123         10
   124         16
   125         12
   126          4
   127          5
   128          2
   129          8
   130          3
   131         14
   132         20
   134        658
   135        153
   136         31
   137          9
   139         23
   140        151
   141         18
   142          9
   143          2
   144          3
   145          4
   146          8
   147         21
   148          5
   149         10
   150         41
   151         10
   152          2
   153          2
   154          3
   156        183
   157         97
   158         18
   159          6
   160          1
   161          8
   162          3
   163         12
   164          7
   165          3
   166          2
   167          5
   168          1
   169          1
   170          1
   171          5
   172         12
   173          3
   174          2
   175          1
   176          1
   177          2
   178          0
   180          1
   182         10
   183          3
   184          1
   185          2
   186          1
   188          3
   189          3
   190         39
   191         93
   192         14
   193          5
   194          2
   195          1
   196          3
   198        370
   199         50
   200         23
   201          7
   202          5
   203          1
   204          1
   205          1
   206          5
   207          0
   209          0
   210          1
   212          1
   213          2
   214          3
   215          2
   216          4
   217          2
   218          5
   219          1
   220          0
   221          1
   222          1
   223          0
   225          0
   227          2
   228          1
   229          2
   230          2
   232        220
   233        530
   234         80
   235         29
   236          3
   237          0
   238          0
   240          0
   241          1
   245          1
   246          3
   247          0
   249          0
   254          0
   255         38
   256          7
   257          5
   258          1
   260          0
   263          0
   264          0
   266          1
   267          0
   268          0
   273          0
   275          2
   277          1
   278          0
   279          1
   280          0
   281          1
   282          3
   283          1
   284          5
   285          3
   286          0
   287          0
   288          0
   297        138
   298         21
   299         14
   300          8
   301          4
   302          2
   303          1