##TITLE=Library Entry 60966
##JCAMP-DX=Revision 4.10 
##DATA TYPE=MASS SPECTRUM
##SAMPLE DESCRIPTION=C.R.ENZELL SWEDISH TOBACCO CO., STOCKHOLM, SWEDEN
##NAMES=HP
##CAS NAME=.beta.,.epsilon.-Carotene-3,3'-diol, (3R,3'R,6'R)-
##MOLFORM=C40H56O2
##CAS REGISTRY NO=127-40-2
##MP= -300
##BP= -300
##MW= 568
##$RETENTION INDEX=0
##$CONDENSED SPECTRUM=NO
##NPOINTS= 518
##XYDATA=(XY..XY) 1 
    12          6
    13          9
    14         28
    15         75
    16         14
    17         73
    18        175
    19          4
    20          2
    24          3
    25         10
    26         48
    27        111
    28         96
    29        164
    30          5
    31         23
    32          5
    36          5
    37         15
    38         33
    39         21
    40         36
    41        500
    42         28
    43        363
    44         21
    45         28
    46          9
    47          2
    48          2
    49         11
    50         54
    51         98
    52         44
    53        141
    54         21
    55        463
    56         38
    57        213
    58         13
    59         36
    60          7
    61         13
    62         28
    63         61
    64         21
    65        129
    66         29
    67        238
    68         23
    69        338
    70         26
    71         54
    72          5
    73         12
    74         19
    75         12
    76         13
    77        250
    78         70
    79        313
    80         65
    81        375
    82         56
    83        135
    84         19
    85         89
    86         11
    87          9
    88          6
    89         33
    90         19
    91        999
    92        288
    93        425
    94         61
    95        325
    96         46
    97         55
    98         13
    99         12
   100          8
   101          8
   102         17
   103         69
   104         39
   105        688
   106        275
   107        413
   108         70
   109        275
   110         39
   111         39
   112         11
   113         11
   114          6
   115        124
   116         63
   117        175
   118         60
   119        688
   120        158
   121        413
   122         73
   123        175
   124         28
   125         31
   126         14
   127         41
   128        141
   129        213
   130        108
   131        313
   132        109
   133        375
   134         86
   135        263
   136         40
   137         79
   138         91
   139         43
   140         17
   141        119
   142        145
   143        313
   144        135
   145        513
   146        116
   147        213
   148         49
   149         94
   150         23
   151         50
   152         43
   153         64
   154         46
   155        138
   156        149
   157        375
   158        143
   159        300
   160         75
   161        101
   162         24
   163         43
   164         19
   165         85
   166         51
   167         85
   168         55
   169        200
   170         93
   171        238
   172         83
   173        275
   174         64
   175        213
   176         44
   177         40
   178         46
   179         89
   180         56
   181        118
   182         71
   183        187
   184         71
   185        153
   186         59
   187        116
   188         34
   189         45
   190         23
   191         70
   192         49
   193         99
   194         73
   195        148
   196         76
   197         20
   198         65
   199        103
   200         38
   201         88
   202         28
   203         43
   204         23
   205         41
   206         44
   207        103
   208         58
   209        213
   210         64
   211        125
   212         50
   213         53
   214         19
   215         36
   216         18
   217         54
   218         28
   219         56
   220         35
   221         88
   222         49
   223        105
   224         46
   225         66
   226         25
   227         30
   228         15
   229         25
   230         20
   231         31
   232         23
   233         41
   234         25
   235         71
   236         29
   237         74
   238         29
   239         50
   240         21
   241         34
   242         15
   243         20
   244         13
   245         20
   246         39
   247         20
   248         44
   249         19
   250         38
   251         20
   252         29
   253         15
   254         21
   255         11
   256         25
   257         15
   258         39
   259         20
   260         39
   261         20
   262         40
   263         19
   264         40
   265         18
   266         25
   267         10
   268         15
   269         19
   270         25
   271         28
   272         28
   273         15
   274         14
   275         41
   276         19
   277         28
   278         14
   279         20
   280          9
   281         14
   282          8
   283         20
   284         17
   285         26
   286         13
   287         17
   288         10
   289         21
   290         10
   291         20
   292          9
   293         13
   294          8
   295         10
   296         11
   297         20
   298         11
   299         10
   300          7
   301         10
   302          6
   303         13
   304          7
   305         13
   306          7
   307         10
   308          7
   309         16
   310          7
   311         10
   312          7
   313          7
   314          5
   315          8
   316          5
   317          8
   318          6
   319         11
   320          6
   321         10
   322          8
   323         19
   324        413
   325         15
   326          9
   327          8
   328          4
   329         10
   330          5
   331         15
   332          7
   333          9
   334          6
   335          8
   336         12
   337         19
   338         50
   339         19
   340          6
   341          7
   342          4
   343          7
   344         11
   345         10
   346          6
   347         13
   348          8
   349         21
   350         11
   351         11
   352         13
   353          7
   354          5
   355          5
   356          4
   357         13
   358          6
   359          8
   360          6
   361          8
   362         15
   363         10
   364          6
   365          7
   366          6
   367          3
   368          2
   369          3
   370          3
   371          4
   372          3
   373          6
   374          7
   375         14
   376          8
   377          7
   378          5
   379          4
   380          4
   381          4
   382          4
   383          7
   384          5
   385          4
   386          3
   387          4
   388          3
   389          3
   390          3
   391          4
   392        289
   393         10
   394          9
   395          7
   396          4
   397         13
   398          8
   399          7
   400          5
   401          7
   402          7
   403          4
   404          4
   405          8
   406         11
   407          4
   408          3
   409          3
   410         12
   411          9
   412          8
   413          7
   414          5
   415         13
   416          7
   417          3
   418          3
   419          2
   420          8
   421          3
   422          2
   423          5
   424          4
   425          3
   426          5
   427          5
   428         19
   429         23
   430         25
   431         10
   432          5
   433          2
   434          2
   435          1
   436          2
   437          2
   438          2
   439          2
   440          5
   441          3
   442          5
   443          7
   444         88
   445         33
   446          8
   447          3
   448          1
   450          1
   452          2
   453          2
   454          2
   455          2
   456          6
   457          5
   458        116
   459         41
   460         15
   461          5
   462         51
   463         19
   464          4
   465          2
   466          1
   467          1
   468          2
   469          2
   470          5
   471         13
   472          8
   473          4
   474          8
   475          6
   476         81
   477         31
   478          7
   479          2
   480          2
   481          2
   482          2
   483          1
   484          2
   485          1
   486          2
   487          2
   488          3
   489         11
   490          6
   491          3
   492          4
   493          2
   494          2
   495          2
   496          2
   497          1
   502          1
   504          4
   505          2
   506          1
   507          1
   508          1
   509          1
   512          3
   513          2
   516          1
   517          2
   518          2
   519          1
   520          2
   521          2
   522          2
   530          2
   531          2
   532         12
   533          7
   534          6
   535          7
   536          4
   537          2
   538          2
   546          2
   547          2
   548         15
   549         11
   550        313
   551        133
   552         48
   553         13
   554          4
   555          1
   564          4
   565          3
   566         23
   567         12
   568        225