##TITLE=Library Entry 16801
##JCAMP-DX=Revision 4.10 
##DATA TYPE=MASS SPECTRUM
##SAMPLE DESCRIPTION=NIST Mass Spectrometry Data Center, 1990.
##NAMES=HP
##CAS NAME=2-Propanol, 1-chloro-
##MOLFORM=C3H7ClO
##CAS REGISTRY NO=127-00-4
##MP= -300
##BP= -300
##MW= 94
##$RETENTION INDEX=703
##$CONDENSED SPECTRUM=NO
##NPOINTS= 33
##XYDATA=(XY..XY) 1 
    14         17
    15         66
    16          4
    19         51
    25          7
    26         34
    27        140
    28         34
    29        186
    30          9
    31         64
    32          7
    35          7
    36         10
    37         23
    38         30
    39         76
    40         19
    41         91
    42         62
    43        270
    44          7
    45        999
    46         23
    47          9
    48         12
    49         55
    50         10
    51         18
    57         16
    58         14
    79        108
    81         37