##TITLE=Library Entry 31955
##JCAMP-DX=Revision 4.10 
##DATA TYPE=MASS SPECTRUM
##SAMPLE DESCRIPTION=Chemical Concepts
##NAMES=HP
##CAS NAME=Titanium, trichlorocyclopentadienyl-
##MOLFORM=C5H5Cl3Ti
##CAS REGISTRY NO=1270-98-0
##MP= -300
##BP= -300
##MW= 218
##$RETENTION INDEX=0
##$CONDENSED SPECTRUM=NO
##NPOINTS= 129
##XYDATA=(XY..XY) 1 
    26          3
    27          5
    28          4
    29          1
    35          2
    36          2
    37          7
    38         27
    39        185
    40          8
    41          3
    42          3
    43          2
    46          1
    47          2
    48         19
    49          2
    50          2
    61          5
    62         15
    63         37
    64         10
    65        999
    66         53
    67          1
    71          2
    72          4
    73          8
    74          1
    75          1
    77          1
    78          1
    79          1
    81         10
    82          9
    83        118
    84         14
    85         52
    86         20
    87          9
    88          2
    91          5
    93          1
    95          3
    96          1
    97          1
   105          1
   106          1
   107          6
   108         11
   109          8
   110         10
   111          5
   112         10
   113          6
   114          1
   116         11
   117         10
   118        118
   119         17
   120         83
   121         32
   122         49
   123         15
   124         16
   125          2
   129          1
   132          2
   143          1
   144          1
   145          5
   146         19
   147         30
   148        126
   149         27
   150         49
   151          8
   152          4
   153          9
   154          2
   155         10
   156          5
   157          8
   158          3
   159          4
   160          1
   162          1
   164          2
   165          1
   166          1
   167          4
   169          2
   170          1
   174          1
   176          1
   178          3
   179          1
   180          6
   181         36
   182         82
   183        308
   184         88
   185        209
   186         36
   187         42
   188          6
   189          3
   190          1
   192          1
   197          1
   200          2
   201          1
   202          5
   204          3
   211          2
   212          2
   213         14
   214          3
   215          7
   216         43
   217         42
   218        451
   219         91
   220        445
   221         63
   222        153
   223         19
   224         24
   225          2