##TITLE=Library Entry 60099
##JCAMP-DX=Revision 4.10 
##DATA TYPE=MASS SPECTRUM
##SAMPLE DESCRIPTION=Chemical Concepts
##NAMES=HP
##CAS NAME=2-(Benzyloxymethoxy)propanal oxime
##MOLFORM=C11H15NO3
##CAS REGISTRY NO=127029-39-4
##MP= -300
##BP= -300
##MW= 209
##$RETENTION INDEX=0
##$CONDENSED SPECTRUM=NO
##NPOINTS= 103
##XYDATA=(XY..XY) 1 
    26          2
    27         16
    28         27
    29         12
    30          4
    31          7
    37          0
    38          2
    39         32
    40          3
    41         28
    42          6
    43         15
    44         12
    45         11
    46          3
    50          9
    51         31
    52          8
    53          3
    54         18
    55         14
    56         22
    57         11
    58          6
    59          2
    60          1
    61          0
    62          4
    63         16
    64          6
    65         69
    66          4
    67          0
    68          0
    69          1
    70          2
    71         25
    72         87
    73        415
    74         18
    75          5
    76          3
    77         45
    78         12
    79         57
    80          4
    81          1
    82          0
    83          1
    84          3
    85          1
    86         61
    87          6
    88          5
    89         21
    90         31
    91        999
    92        133
    93          9
    94          0
    95          1
    96          0
    97          1
    98          0
    99          0
   101          0
   102         25
   103         12
   104          1
   105         17
   106          3
   107         65
   108         14
   109          1
   110          0
   117          1
   118          4
   119         25
   120         28
   121          6
   122          0
   123          1
   131          1
   132          0
   133          0
   134          2
   135         21
   136         15
   137          1
   148          0
   161          1
   162          8
   163          5
   164         11
   165          4
   166          2
   167          0
   179          2
   191          2
   192          8
   193          1
   208          0