##TITLE=Library Entry 18295
##JCAMP-DX=Revision 4.10 
##DATA TYPE=MASS SPECTRUM
##SAMPLE DESCRIPTION=MPI,43536-G0981,21-AUG-66 (ID=2, PURITY=4)
##NAMES=HP
##CAS NAME=Chromium, bis(.eta.6-benzene)-
##MOLFORM=C12H12Cr
##CAS REGISTRY NO=1271-54-1
##MP= -300
##BP= -300
##MW= 208
##$RETENTION INDEX=0
##$CONDENSED SPECTRUM=NO
##NPOINTS= 84
##XYDATA=(XY..XY) 1 
    27         16
    28         90
    29          1
    31          1
    32          3
    36          0
    37          1
    38          5
    39         70
    40         16
    41          2
    42          0
    43          0
    44          7
    48          0
    49          1
    50         81
    51        145
    52        999
    53        106
    54         24
    55          1
    56          2
    57          0
    58          0
    62          2
    63         14
    64          1
    65          0
    66          1
    67          1
    68          1
    69          0
    71          0
    73          0
    74         12
    75         10
    76         31
    77        134
    78        658
    79         44
    80          3
    81          0
    82          1
    83          0
    84          1
    89          0
    90          1
    91          2
    92          1
    93          1
    94          1
    95          0
    97          0
   101          1
   102          0
   103          7
   104         22
   105          6
   107          0
   108          0
   115          0
   117          0
   118          0
   121          0
   127          1
   128         18
   129         19
   130        336
   131         57
   132         10
   133          0
   135          0
   153          1
   154          1
   155          0
   189          0
   200          0
   206         12
   207          5
   208        253
   209         56
   210         11
   211          0