##TITLE=Library Entry 10209
##JCAMP-DX=Revision 4.10 
##DATA TYPE=MASS SPECTRUM
##SAMPLE DESCRIPTION=A.A.Kutin, Moscow, Russia
##NAMES=HP
##CAS NAME=Acetamide, 2-(4-tolyloxy)-N-(4-acetylphenyl)-
##MOLFORM=C17H17NO3
##CAS REGISTRY NO=127221-10-7
##MP= -300
##BP= -300
##MW= 283
##$RETENTION INDEX=0
##$CONDENSED SPECTRUM=NO
##NPOINTS= 180
##XYDATA=(XY..XY) 1 
    34         13
    36         12
    37         22
    38         81
    39        349
    40        179
    41        124
    42        100
    43        999
    44         75
    45         14
    46          3
    47          0
    48          6
    49         10
    50        149
    51        268
    52        161
    53        118
    54         18
    55         25
    56          7
    57         22
    58         33
    59          4
    60          9
    61         16
    62         62
    63        258
    64        223
    65        558
    66         48
    67          8
    68          4
    69          9
    70          3
    71          5
    73          7
    74         26
    75         35
    76         97
    77        476
    78        186
    79        238
    80         32
    81          8
    82          4
    83          4
    84          2
    85          3
    86          5
    87         11
    88         34
    89         92
    90        147
    91        983
    92        200
    93        182
    94         16
    95          3
    96          1
    97          1
    98          2
    99          1
   100          1
   101          2
   102         10
   103         15
   104         86
   105        155
   106        136
   107        314
   108        327
   109         27
   110          3
   111          0
   112          0
   113          1
   114          0
   115          4
   116          4
   117          7
   118         40
   119        239
   120        145
   121        342
   122        150
   123         17
   124          2
   125          1
   126          1
   127          3
   128          4
   129          1
   130          4
   131          6
   132        104
   133         63
   134        193
   135         50
   136          6
   137          0
   138          1
   139          1
   140          0
   141          1
   142          1
   143          0
   144          3
   146         35
   147         49
   148        504
   149         56
   150          4
   151          2
   152          3
   153          2
   154          0
   155          1
   157          0
   159          6
   160         38
   161         11
   162         46
   163          6
   164          0
   165          1
   166          3
   167          3
   168          0
   169          1
   170          0
   171          1
   172          0
   174          2
   175          4
   176         34
   177         43
   178          4
   179          1
   180          1
   181          1
   182          0
   183          0
   184          0
   185          0
   186          0
   193          0
   194          0
   195          0
   196          1
   197          0
   199          0
   208          0
   210          0
   211          0
   212          0
   219          0
   222          0
   223          0
   224          1
   225          4
   226          0
   229          0
   237          0
   238          0
   240          0
   241          0
   254          0
   264          2
   266         18
   267         11
   268         47
   269          9
   270          0
   282         32
   283        192
   284         35
   285          4
   286          0