##TITLE=Library Entry 47021
##JCAMP-DX=Revision 4.10 
##DATA TYPE=MASS SPECTRUM
##SAMPLE DESCRIPTION=Humboldt-Universitat zu Berlin, Department of Chemistry
, Analytical Group
##NAMES=HP
##CAS NAME=N-[2-Hydrazono-4-(4-methoxyphenyl)-1H,2H-pyrimidin-1-yl]-benzamid
e
##MOLFORM=C18H17N5O2
##CAS REGISTRY NO=127252-15-7
##MP= -300
##BP= -300
##MW= 335
##$RETENTION INDEX=0
##$CONDENSED SPECTRUM=NO
##NPOINTS= 204
##XYDATA=(XY..XY) 1 
    12          2
    13          3
    14         12
    15         61
    16         40
    17         68
    18        132
    25          1
    26         19
    27         53
    28        114
    29         44
    30         10
    31          8
    32          4
    37         10
    38         27
    39         74
    40         17
    41         35
    42         33
    43         88
    44         42
    45          9
    46          2
    47          3
    49          6
    50        114
    51        330
    52         54
    53         35
    54          9
    55         21
    56          7
    57         14
    58          5
    59          2
    60         10
    61         10
    62         32
    63         96
    64         53
    65         32
    66         11
    67         14
    68          8
    69        164
    70         15
    71          8
    72          2
    73         15
    74         38
    75         52
    76         89
    77        999
    78         96
    79         33
    80          5
    81          5
    82          2
    83          5
    84          3
    85          8
    86          5
    87         12
    88         22
    89        108
    90         74
    91         58
    92         35
    93          8
    94         12
    95          4
    96          2
    97          3
    98          3
    99          5
   100         14
   101         29
   102         65
   103         68
   105        986
   106         85
   107         14
   108          5
   109          3
   110          1
   111          3
   112          2
   113          5
   114         23
   115         41
   116         58
   117         46
   118         63
   119         37
   120          6
   121         43
   122          6
   125          1
   126          3
   127         12
   128         17
   129         17
   130         22
   131         58
   132         51
   133         48
   134        297
   135         28
   136          4
   139          1
   140          3
   141         11
   142         37
   143         44
   144         55
   145         34
   146         10
   147          3
   148          4
   149          2
   153          3
   154          4
   155         19
   156          8
   157         15
   158         30
   159         77
   160         25
   161         27
   162          4
   163          1
   168          1
   169          3
   170         10
   171         63
   172         29
   173         12
   174         86
   175         37
   176          5
   178          1
   183          2
   184          3
   185         44
   186         85
   187         90
   188         12
   189          2
   190          1
   198          1
   199          1
   200         23
   201         22
   202        117
   203         27
   204          3
   213          1
   214          0
   215         27
   216         12
   217          3
   218         46
   219          6
   220          1
   226          0
   227          0
   228          1
   230         14
   231          2
   232          0
   241          1
   242          0
   243          0
   261          0
   262          0
   263          0
   274          0
   276          3
   277          1
   278          0
   289          1
   290          0
   291          1
   292          1
   293          0
   301          0
   302          1
   303          3
   304         28
   305          7
   306          3
   307          0
   317          0
   318          1
   320         40
   321          9
   322          1
   333          0
   335         78
   336         17
   337          2
   338          0