##TITLE=Library Entry 62310
##JCAMP-DX=Revision 4.10 
##DATA TYPE=MASS SPECTRUM
##SAMPLE DESCRIPTION=Chemical Concepts
##NAMES=HP
##CAS NAME=2-Azetidinecarbothioic acid, 1-(phenylmethyl)-, S-phenyl ester, (
S)-
##MOLFORM=C17H17NOS
##CAS REGISTRY NO=127382-21-2
##MP= -300
##BP= -300
##MW= 283
##$RETENTION INDEX=0
##$CONDENSED SPECTRUM=NO
##NPOINTS= 24
##XYDATA=(XY..XY) 1 
    27         19
    28         12
    39         62
    41         23
    42         45
    45          8
    50         13
    51         35
    54          8
    55         12
    63         26
    65        148
    66         12
    69         18
    77         18
    89         25
    90         23
    91        999
    92         78
   109         82
   110         15
   117         23
   146        748
   147         77