##TITLE=Library Entry 114736
##JCAMP-DX=Revision 4.10 
##DATA TYPE=MASS SPECTRUM
##SAMPLE DESCRIPTION=A.Pleshkova, Nesmeyanov Inst.Org.Elem.Cpds, Moscow
##NAMES=HP
##CAS NAME=N-Methylalanine, 2TMS derivative
##MOLFORM=C10H25NO2Si2
##CAS REGISTRY NO=127381-09-3
##MP= -300
##BP= -300
##MW= 247
##$RETENTION INDEX=0
##$CONDENSED SPECTRUM=NO
##NPOINTS= 40
##XYDATA=(XY..XY) 1 
    45         61
    46          3
    47          2
    59         19
    60          5
    61          2
    73        558
    74         49
    75         71
    76          5
    77        137
    78         10
    79          5
    87         50
    88          9
    89          2
   100         66
   101         12
   102          3
   110         78
   111         23
   112         10
   113          2
   130        999
   131        123
   132         56
   133          7
   147        188
   148         30
   149         16
   150          2
   204         26
   205          5
   206          2
   232         12
   233          3
   234          2
   247          9
   248          3
   249          2