##TITLE=Library Entry 28718
##JCAMP-DX=Revision 4.10 
##DATA TYPE=MASS SPECTRUM
##SAMPLE DESCRIPTION=A.A.Kutin, Moscow, Russia
##NAMES=HP
##CAS NAME=Oxane, 4-(1-hydroxy-2-dimethylaminoethyl)-4-(3,4-dimethoxyphenyl)
-
##MOLFORM=C17H27NO4
##CAS REGISTRY NO=127489-89-8
##MP= -300
##BP= -300
##MW= 309
##$RETENTION INDEX=0
##$CONDENSED SPECTRUM=NO
##NPOINTS= 183
##XYDATA=(XY..XY) 1 
    33          0
    34          0
    35          0
    36          1
    37          1
    38          3
    39         18
    40          8
    41         22
    42         61
    43         41
    44         76
    45         76
    46         27
    47          0
    50          6
    51         14
    52          6
    53         13
    55         19
    56         11
    58        999
    59         37
    60          1
    62          2
    63          8
    64          4
    65         15
    66          3
    67          3
    68          1
    69          3
    70          5
    71          3
    72          5
    73          2
    74          4
    75          3
    76          6
    77         28
    78         11
    79         12
    80          3
    81          2
    82          2
    83          6
    84          1
    85          2
    86          5
    88        156
    89         15
    90          6
    91         24
    92          5
    93          2
    94          3
    95          3
    96          1
    97          0
    98          0
    99          0
   100          0
   101          1
   102          6
   103         12
   104          4
   105         11
   106          4
   107          7
   108          2
   109          2
   110          0
   111          0
   112          0
   113          0
   115         14
   116          5
   117          7
   118          5
   119          7
   120          5
   121          8
   122          2
   123          2
   124          2
   125          0
   126          0
   127          2
   128          4
   129          4
   130          1
   131          6
   132          4
   133          9
   134          4
   135          6
   136          1
   137          2
   138          2
   139          3
   140          0
   141          1
   142          0
   143          1
   144          2
   145          6
   146          4
   147          6
   148          3
   149          4
   150          4
   151         16
   152          2
   153          0
   154          0
   156          0
   157          0
   158          1
   159          4
   160          8
   161          6
   162          5
   163         20
   164          3
   165         10
   166          1
   167          0
   168          0
   169          0
   170          0
   171          0
   172          0
   173          1
   174          1
   175          2
   176          2
   177          5
   178          2
   179          0
   180          0
   181          0
   185          0
   186          0
   187          0
   188          0
   189          2
   190          1
   191          7
   192          3
   193          2
   194          0
   195          0
   197          0
   202          0
   203          1
   204          0
   205          0
   206          0
   207          0
   210          1
   211          0
   218          0
   219          1
   220          1
   221          5
   222          1
   224          0
   234          0
   235          0
   236          0
   241          2
   242          0
   248          0
   251          0
   253          1
   254          0
   258          3
   259          0
   266          0
   267          0
   268          0
   309          1
   310          0