##TITLE=Library Entry 52945
##JCAMP-DX=Revision 4.10 
##DATA TYPE=MASS SPECTRUM
##SAMPLE DESCRIPTION=V.G.Zaikin, TIPS, Russian Acad. Sci.
##NAMES=HP
##CAS NAME=1,1-Di(but-3-enyl)-1-silacyclobutane
##MOLFORM=C11H20Si
##CAS REGISTRY NO=127597-52-8
##MP= -300
##BP= -300
##MW= 180
##$RETENTION INDEX=0
##$CONDENSED SPECTRUM=NO
##NPOINTS= 39
##XYDATA=(XY..XY) 1 
    41         60
    42         65
    43        380
    44         60
    45        100
    53         65
    54         38
    55        260
    56         60
    57        125
    58         28
    59         35
    69        140
    70        200
    71        160
    79         60
    80         40
    81         70
    82        205
    83        999
    84        110
    85        156
    95        115
    96        405
    97        528
    98        110
   103         35
   109        110
   110         80
   111        127
   124        468
   125        230
   126         50
   137        280
   138         60
   139         25
   152         75
   153         18
   180          1