##TITLE=Library Entry 88470
##JCAMP-DX=Revision 4.10 
##DATA TYPE=MASS SPECTRUM
##SAMPLE DESCRIPTION=Chemical Concepts
##NAMES=HP
##CAS NAME=.alpha.-d-Lyxofuranoside, methyl, cyclic 2,3-(ethylboronate)
##MOLFORM=C8H15BO5
##CAS REGISTRY NO=127619-19-6
##MP= -300
##BP= -300
##MW= 202
##$RETENTION INDEX=0
##$CONDENSED SPECTRUM=NO
##NPOINTS= 103
##XYDATA=(XY..XY) 1 
    25          0
    26         10
    27         70
    28         23
    29        118
    30          5
    31        104
    33         24
    37          0
    38          3
    39         53
    40          9
    41         61
    42         38
    43        121
    44         26
    45        339
    46          6
    47          0
    51          1
    52          3
    53         16
    54         28
    55         63
    56         38
    57        254
    58         50
    59         34
    60          3
    61         84
    62          0
    65          0
    66          3
    67         16
    68         87
    69        139
    70         74
    71         56
    72          3
    73         71
    74         71
    75          7
    76          0
    77          1
    79          0
    80          0
    81          3
    82         56
    83        220
    84         39
    85        102
    86         67
    87         31
    88          1
    89          1
    91          7
    95         13
    96         55
    97         34
    98         85
    99        124
   100         12
   101          9
   103          0
   104          2
   105          5
   107          0
   108          3
   109         18
   110        228
   111        999
   112        224
   113        473
   114         30
   115          6
   116          3
   117         12
   118          0
   123         17
   124         68
   125         40
   126         10
   127         27
   128          4
   129          6
   130          1
   138          0
   139          5
   140         32
   141        215
   142        418
   143         63
   144          5
   146          1
   152          3
   153         13
   154          0
   155          0
   169          0
   170         43
   171        167
   172         21
   173          2