##TITLE=Library Entry 120
##JCAMP-DX=Revision 4.10 
##DATA TYPE=MASS SPECTRUM
##SAMPLE DESCRIPTION=Chemical Concepts
##NAMES=HP
##CAS NAME=Tungsten, ethyltris(.eta.3-2-propenyl)-
##MOLFORM=C11H20W
##CAS REGISTRY NO=127649-22-3
##MP= -300
##BP= -300
##MW= 336
##$RETENTION INDEX=0
##$CONDENSED SPECTRUM=NO
##NPOINTS= 215
##XYDATA=(XY..XY) 1 
    26        584
    27        999
    28        564
    30          8
    36          8
    37         46
    38         59
    39        539
    40         76
    41        250
    42        101
    49          1
    50          7
    51         13
    52         10
    54         11
    62          5
    63         20
    64          2
    65          6
    66          1
    68          3
    73          8
    74          1
    75          4
    76          1
    77         12
    78         15
    79          1
    80          2
    87          4
    89          1
    91         16
    92          6
    96          3
    97          5
    98          0
    99          2
   103          2
   104          2
   105         12
   106          8
   110          3
   111          6
   115          1
   117          4
   119         12
   120          9
   123          9
   124          6
   125          6
   128         11
   129         35
   130         48
   131         37
   132         10
   134          3
   135         29
   136         60
   137         65
   138         35
   139         12
   140          1
   141         21
   142         66
   143         97
   144         91
   145         38
   146          7
   147         12
   148         49
   149        127
   150        138
   151         94
   152         28
   153          8
   154          7
   155         11
   156         21
   157         23
   158         20
   159         10
   160          4
   161          5
   162         20
   163         40
   164         41
   165         21
   166         10
   167          7
   168          1
   182         12
   183          9
   184         14
   186         22
   195         17
   196         19
   197         25
   198         12
   199         23
   200         11
   206         10
   207         78
   208        153
   209        157
   210        149
   211         90
   212        127
   213         23
   214          2
   218         24
   219         88
   220        275
   221        264
   222        354
   223        179
   224        255
   225         96
   226         17
   227          1
   230          7
   231         52
   232        125
   233        258
   234        328
   235        329
   236        327
   237        214
   238        219
   239         31
   240         53
   241          2
   242          2
   243         11
   244         25
   245        155
   246        256
   247        359
   248        357
   249        278
   250        269
   251        106
   252        128
   253         14
   254         19
   255          6
   256         27
   257        153
   258        385
   259        429
   260        747
   261        631
   262        926
   263        419
   264        623
   265        143
   266        227
   267         23
   268         41
   269         12
   270         40
   271         77
   272        154
   273        225
   274        357
   275        259
   276        403
   277        191
   278        285
   279         65
   280        155
   281         27
   282         50
   283         45
   284         77
   285        180
   286        479
   287        482
   288        613
   289        403
   290        652
   291        315
   292        403
   293        128
   294        237
   295         63
   296         65
   297         76
   298        198
   299        242
   300        616
   301        409
   302        643
   303        254
   304        665
   305        252
   306        600
   307        201
   308        567
   309         55
   310        261
   311         26
   315          3
   322          1
   323          2
   324          7
   325          2
   329          0
   334         89
   335         54
   336        124
   337         16
   338        102
   339         11
   340          0