##TITLE=Library Entry 2124
##JCAMP-DX=Revision 4.10 
##DATA TYPE=MASS SPECTRUM
##SAMPLE DESCRIPTION=Chemical Concepts
##NAMES=HP
##CAS NAME=Tungsten, (2,4-pentanedionato-O,O')tris(.eta.3-2-propenyl)-
##MOLFORM=C14H22O2W
##CAS REGISTRY NO=127649-16-5
##MP= -300
##BP= -300
##MW= 406
##$RETENTION INDEX=0
##$CONDENSED SPECTRUM=NO
##NPOINTS= 232
##XYDATA=(XY..XY) 1 
    26        107
    27        393
    28        167
    29         73
    36         13
    37         83
    38        143
    39        970
    40        228
    41        999
    42        181
    43        529
    44         12
    49          8
    50         52
    51        108
    52         39
    53        181
    54        166
    55         82
    56         11
    62         12
    63         39
    64         12
    65        162
    66         70
    67        400
    68         36
    69         75
    74         10
    77        180
    78         42
    79        278
    80         65
    81        124
    82         24
    83         12
    84         23
    85         18
    89          7
    91        300
    92         49
    93        130
    94         70
    95         32
    96         10
   100         10
   103         25
   104         11
   105        115
   106         61
   107        102
   108         29
   109         29
   115         24
   116         12
   117         24
   119         42
   120         17
   121         13
   128         12
   129         12
   131         25
   132          7
   133         24
   134         17
   147          8
   148         11
   149         12
   167          7
   168          8
   180         12
   181         14
   182         13
   200          5
   209          7
   210          4
   211          5
   212          8
   213         10
   214         15
   215         10
   216         15
   217          8
   218          8
   223         10
   224         18
   225         23
   226         28
   227         20
   228         22
   229         15
   230         11
   231          8
   232         11
   233          9
   234         10
   235          9
   236         18
   237         34
   238         42
   239         32
   240         32
   241         43
   242         35
   243         26
   244         11
   245         23
   246          9
   247         10
   248         21
   249         58
   250         60
   251         67
   252         59
   253        101
   254        106
   255        114
   256         93
   257         82
   258         70
   259         30
   260         10
   261         17
   262         16
   263         61
   264         30
   265         58
   266         19
   267         90
   268         36
   269         65
   270         21
   271         45
   272          7
   273         22
   274         21
   275         33
   276         49
   277         62
   278         52
   279        101
   280         93
   281        156
   282         93
   283         98
   284         63
   285         57
   286          8
   287         22
   288         16
   289         69
   290         37
   291        115
   292         67
   293        182
   294        110
   295        185
   296        100
   297        138
   298         29
   299         73
   300         20
   301         41
   302         37
   303         66
   304         29
   305         99
   306         40
   307        140
   308         73
   309        190
   310         43
   311        123
   312         19
   313         74
   314         23
   315         64
   316         34
   317         76
   318         31
   319        121
   320         30
   321        112
   322         44
   323         96
   324          3
   325         57
   326          7
   327         23
   328         14
   329         42
   330         16
   331         45
   332         12
   333         67
   334         36
   335        121
   336         69
   337        118
   338         23
   339         91
   340         12
   341         44
   342         25
   343         74
   344         23
   345         75
   346         23
   347         51
   348         23
   349         27
   350         12
   351         17
   357         13
   358          8
   359         29
   360         66
   361        116
   362        121
   363        232
   364        179
   365        219
   366         70
   367        154
   368         18
   404         79
   405         72
   406        114
   407         16
   408         93
   409         14