##TITLE=Library Entry 51409
##JCAMP-DX=Revision 4.10 
##DATA TYPE=MASS SPECTRUM
##SAMPLE DESCRIPTION=Chemical Concepts
##NAMES=HP
##CAS NAME=3-Methyl-8-oxabicyclo[3.2.1]oct-6-en-3-ol
##MOLFORM=C8H12O2
##CAS REGISTRY NO=127617-38-3
##MP= -300
##BP= -300
##MW= 140
##$RETENTION INDEX=0
##$CONDENSED SPECTRUM=NO
##NPOINTS= 91
##XYDATA=(XY..XY) 1 
    26         29
    27        253
    28         56
    29        212
    30         11
    31         96
    37         10
    38         30
    39        371
    40         60
    41        211
    42         63
    43        938
    44         50
    45         41
    46          5
    47          5
    48          6
    49          5
    50         48
    51         97
    52         44
    53        259
    54        452
    55        276
    56         43
    57        151
    58        284
    59        358
    60         17
    61         14
    62         10
    63         20
    64          6
    65         38
    66         32
    67         70
    68        205
    69        108
    70         48
    71        100
    72         14
    73         10
    74          7
    75          7
    76          4
    77        130
    78         47
    79        272
    80        126
    81        945
    82        999
    83        422
    84         64
    85         87
    86         12
    87         24
    88          5
    89          5
    91         58
    92         12
    93        265
    94         78
    95         85
    96        146
    97        281
    98         60
    99         10
   100          3
   103          6
   104          8
   105         11
   107        252
   108         25
   109         17
   110          4
   111         76
   112         29
   113          5
   121         39
   122        254
   123         42
   124          7
   125         63
   126          8
   127          3
   138          8
   139         13
   140        401
   141         40
   142          5