##TITLE=Library Entry 14361
##JCAMP-DX=Revision 4.10 
##DATA TYPE=MASS SPECTRUM
##SAMPLE DESCRIPTION=Chemical Concepts
##NAMES=HP
##CAS NAME=Tungsten, tris(.pi.-allyl)(.eta.-3-acetato)-
##MOLFORM=C11H18O2W
##CAS REGISTRY NO=127649-15-4
##MP= -300
##BP= -300
##MW= 366
##$RETENTION INDEX=0
##$CONDENSED SPECTRUM=NO
##NPOINTS= 203
##XYDATA=(XY..XY) 1 
    26         42
    27        134
    36          8
    37         44
    38         67
    39        503
    40          4
    41        260
    42         17
    43        999
    44         23
    45         36
    50         27
    51         17
    52         15
    53         36
    54         45
    60         18
    62          8
    63          8
    65         26
    66         16
    67        109
    68          9
    77         15
    78         21
    79         44
    80         29
    81         21
    82          2
    91          8
    92          8
    93         16
   105          1
   108          0
   129          7
   136          8
   137          8
   144          7
   148          7
   149         15
   150         10
   151          8
   167          8
   169          6
   170          7
   171          7
   182          7
   184          7
   186          8
   195          8
   196          7
   197          8
   198         23
   199         16
   200         24
   201         10
   202         17
   207          4
   208         29
   209         41
   210         17
   211         29
   212         43
   213         43
   214         46
   215         24
   216         39
   217         16
   218          7
   219         12
   220         44
   221         27
   222         34
   223         47
   224        103
   225         71
   226         76
   227         52
   228         53
   229         17
   230         15
   231         13
   232         23
   233         39
   234         31
   235         70
   236        104
   237        191
   238        190
   239        206
   240        149
   241        125
   242         77
   243         34
   244         12
   245         24
   246         27
   247         41
   248         58
   249        163
   250        187
   251        200
   252        205
   253        290
   254        197
   255        125
   256        112
   257         74
   258         52
   259         62
   260         48
   261         68
   262         70
   263        118
   264        127
   265        187
   266         69
   267        147
   268         52
   269         62
   270         23
   271         41
   272         15
   273         66
   274         73
   275        178
   276        290
   277        390
   278        456
   279        526
   280        471
   281        620
   282        374
   283        417
   284        115
   285        188
   286         32
   287         44
   288         31
   289         45
   290         40
   291         66
   292         51
   293        122
   294        130
   295        147
   296        144
   297        143
   298        112
   299        135
   300        121
   301        119
   302        113
   303        120
   304        105
   305         85
   306         73
   307         61
   308         74
   309         45
   310         51
   311         27
   312         40
   313         14
   314          8
   315         29
   316         14
   317         38
   318         23
   319         35
   320        281
   321        215
   322        434
   323        243
   324        463
   325        105
   326        198
   327         42
   328          7
   334         20
   335          8
   336         29
   337         13
   338         30
   340         24
   341          8
   342          7
   344          7
   346         24
   347         16
   348         24
   349          8
   350         23
   360         10
   361          7
   362         24
   364        149
   365         92
   366        186
   367         24
   368        123
   369         14