##TITLE=Library Entry 54841
##JCAMP-DX=Revision 4.10 
##DATA TYPE=MASS SPECTRUM
##SAMPLE DESCRIPTION=Chemical Concepts
##NAMES=HP
##CAS NAME=1H-Cyclopenta[c]furan-1,4(3H)-dione, tetrahydro-
##MOLFORM=C7H8O3
##CAS REGISTRY NO=127708-95-6
##MP= -300
##BP= -300
##MW= 140
##$RETENTION INDEX=0
##$CONDENSED SPECTRUM=NO
##NPOINTS= 76
##XYDATA=(XY..XY) 1 
    26        141
    27        407
    28        239
    29        213
    30          9
    31         15
    33          3
    34          5
    36          1
    37         12
    38         35
    39        402
    40         11
    41        139
    42         86
    43         49
    44          8
    45          6
    47          1
    48          1
    49          3
    50         24
    51         43
    52         27
    53        188
    54        510
    55        491
    56        170
    57         71
    58          4
    59          3
    61          2
    62          5
    63          8
    64          2
    65         25
    66         24
    67        171
    68        269
    69         27
    70         11
    71          8
    72          1
    73          1
    74          1
    77          2
    79          2
    81         51
    82         71
    83         43
    84         38
    85        999
    86         53
    87          6
    93          1
    94          5
    95         10
    96         83
    97         11
    98          3
    99          6
   100          1
   107          1
   108          1
   110          2
   111          9
   112         38
   113          4
   122          1
   127          1
   128          1
   138          1
   139          3
   140        395
   141         40
   142          4