##TITLE=Library Entry 78030
##JCAMP-DX=Revision 4.10 
##DATA TYPE=MASS SPECTRUM
##SAMPLE DESCRIPTION=Chemical Concepts
##NAMES=HP
##CAS NAME=Acetic acid, 9-selena-bicyclo[3.3.1]non-6-en-2-yl ester
##MOLFORM=C10H14O2Se
##CAS REGISTRY NO=127745-70-4
##MP= -300
##BP= -300
##MW= 246
##$RETENTION INDEX=0
##$CONDENSED SPECTRUM=NO
##NPOINTS= 147
##XYDATA=(XY..XY) 1 
    26          6
    27         90
    28         16
    29         33
    31          5
    37          2
    38         10
    39        159
    40         21
    41        145
    42         17
    43        716
    44         22
    45         15
    50         20
    51         66
    52         33
    53         73
    54         11
    55         61
    56          4
    57         27
    58          2
    60         10
    61          3
    62          5
    63         22
    64          5
    65         88
    66         68
    67         95
    68         11
    69         10
    70          4
    71          9
    73          2
    74          6
    75          5
    76          6
    77        170
    78        135
    79        332
    80         49
    81         50
    82          7
    83         33
    84          3
    85          2
    87          2
    89          9
    90          8
    91        130
    92         35
    93         74
    94         28
    95         76
    96         14
    97          6
   101          2
   102          5
   103         54
   104         62
   105        999
   106        131
   107         16
   108         18
   109          9
   110          3
   111          2
   115          4
   116          4
   117         12
   118          9
   119         17
   120         11
   121         22
   122         26
   123         92
   124         12
   128          4
   129         10
   130         15
   131         18
   132         21
   133         37
   134         10
   135         11
   136          1
   137          3
   139          2
   141         15
   142         14
   143         41
   144         10
   145         82
   146         12
   147         34
   148          4
   149         26
   150          3
   154          4
   155         12
   156         18
   157         24
   158         25
   159         46
   160         12
   161         15
   162          4
   163          2
   167          3
   168          3
   169          8
   170          1
   171         17
   172          3
   173          7
   174          2
   175          6
   176          2
   177          2
   180          6
   181          4
   182         59
   183         65
   184        151
   185         43
   186        275
   187         64
   188         57
   189         12
   199          2
   200          2
   201          6
   202          3
   203         11
   204          4
   205          3
   240          3
   242         30
   243         28
   244         76
   245         11
   246        151
   247         20
   248         30
   249          5