##TITLE=Library Entry 24394
##JCAMP-DX=Revision 4.10 
##DATA TYPE=MASS SPECTRUM
##SAMPLE DESCRIPTION=Chemical Concepts
##NAMES=HP
##CAS NAME=Decane, 1-bromo-2-methyl-
##MOLFORM=C11H23Br
##CAS REGISTRY NO=127839-47-8
##MP= -300
##BP= -300
##MW= 234
##$RETENTION INDEX=0
##$CONDENSED SPECTRUM=NO
##NPOINTS= 73
##XYDATA=(XY..XY) 1 
    26         10
    27        137
    28         39
    29        250
    30          6
    38          4
    39        122
    40         28
    41        596
    42        165
    43        812
    44         28
    50          2
    51          7
    52          4
    53         43
    54         24
    55        379
    56        201
    57        999
    58         47
    65          6
    66          2
    67         27
    68         15
    69        353
    70         75
    71        620
    72         35
    77          4
    79          3
    81          6
    83         88
    84         24
    85        477
    86         33
    91         13
    93          5
    95          6
    96          2
    97         30
    98         10
    99        151
   100         11
   106         20
   107          7
   109          6
   112          5
   113         51
   114          4
   119          2
   120          4
   121         48
   122          5
   123         45
   126          3
   135         10
   140          5
   141         33
   142          3
   149        221
   150         13
   151        218
   152         12
   154          3
   155         99
   156         12
   163         17
   165         17
   177          1
   179          1
   234          3
   236          3