##TITLE=Library Entry 47485
##JCAMP-DX=Revision 4.10 
##DATA TYPE=MASS SPECTRUM
##SAMPLE DESCRIPTION=V.A.Korolev, Moscow, Russia
##NAMES=HP
##CAS NAME=2-[Amino(2-cyano-3-phenyloxiran-2-yl)methylidene]malononitrile
##MOLFORM=C13H8N4O
##CAS REGISTRY NO=1278952-94-5
##MP= -300
##BP= -300
##MW= 236
##$RETENTION INDEX=0
##$CONDENSED SPECTRUM=NO
##NPOINTS= 126
##XYDATA=(XY..XY) 1 
    36          9
    37         38
    38        181
    39        282
    40         83
    41         45
    42         10
    43         27
    44         20
    45          4
    48          1
    49         21
    50        250
    51        588
    52        152
    53         88
    54         96
    55         25
    56          3
    57         11
    60          3
    61         30
    62         99
    63        227
    64        144
    65        114
    66         80
    67         38
    68          5
    69          3
    70          2
    71          4
    73         13
    74         66
    75         60
    76        119
    77        999
    78        195
    79        151
    80          8
    81          1
    82         29
    83          6
    84          2
    85          6
    86         13
    87         15
    88         30
    89        544
    90        403
    91        177
    92         88
    93          6
    94          8
    95          2
    99          9
   100         12
   101         20
   102         26
   103         63
   104         98
   105        379
   106        143
   107         21
   111          3
   112          2
   113          2
   114          9
   115         30
   116         98
   117         58
   118        126
   119         10
   126          9
   127         48
   128        123
   129         23
   130          4
   131          5
   132         15
   138          2
   139          7
   140         24
   141          8
   142         25
   143          9
   144         11
   145         12
   146          7
   150          2
   151          1
   152          2
   153         43
   154        328
   155        686
   156         89
   157          4
   158          7
   164          7
   165         34
   166         21
   167          8
   171         14
   172          3
   180        159
   181        144
   182        600
   183         78
   184          3
   191          7
   192          7
   193         15
   194         46
   195          7
   207         78
   208         56
   209         27
   210          7
   211          2
   218          1
   219         24
   220         17
   235         17
   236        369
   237         55
   238          3