##TITLE=Library Entry 43751
##JCAMP-DX=Revision 4.10 
##DATA TYPE=MASS SPECTRUM
##SAMPLE DESCRIPTION=Chemical Concepts
##NAMES=HP
##CAS NAME=Boron, [2-[[dimethyl(1-methyl-1-butenyl)silyl]thio]benzenethiolat
o(2-)]ethyl-, (t-4)-
##MOLFORM=C15H23BS2Si
##CAS REGISTRY NO=127855-40-7
##MP= -300
##BP= -300
##MW= 306
##$RETENTION INDEX=0
##$CONDENSED SPECTRUM=NO
##NPOINTS= 195
##XYDATA=(XY..XY) 1 
    26          2
    27         20
    29         17
    30          0
    31         14
    36          1
    37          7
    38          2
    39         19
    40          4
    41         13
    42          1
    43         71
    44          9
    45         70
    46          4
    47          2
    49          1
    50          8
    51         21
    52          2
    53          9
    54          1
    55         11
    56          1
    57          6
    58         32
    59         88
    60          7
    61          4
    62          1
    63          7
    64          2
    65         12
    66          3
    67         10
    68          2
    69         27
    70          3
    71          8
    72          4
    73        999
    74         83
    75         35
    76          5
    77         21
    78          3
    79          3
    80          0
    81          9
    82          5
    83         37
    84          5
    85          7
    86          6
    87         17
    88          2
    89          4
    90          1
    91         20
    92          2
    93          4
    94          0
    95          5
    96          4
    97        156
    98         19
    99          9
   100          1
   101          2
   102          1
   103          1
   104          1
   105          4
   106          1
   107          3
   108          7
   109          9
   110          1
   111         98
   112         11
   113          6
   114          1
   115          4
   116          0
   117          1
   118          1
   119          4
   120          2
   121          3
   122          0
   123          2
   124          1
   125          7
   126         43
   127          6
   128          3
   129          1
   130          0
   131          1
   132          2
   133          5
   134          2
   135          0
   136          3
   137          3
   138          0
   139          0
   140          0
   141          0
   143          0
   144          1
   145          3
   146          1
   147          2
   149          1
   150          1
   151         58
   152         23
   153          6
   154          1
   155          1
   156          0
   157          1
   158          0
   159          0
   161          0
   163          2
   164          1
   165          3
   166          2
   167          1
   168          6
   169          3
   170          1
   171          0
   175          1
   176          2
   177          0
   178          0
   179          1
   180          1
   181          0
   182          0
   183         22
   184          3
   185          2
   188          0
   189          3
   190          1
   191          1
   192          0
   193          0
   194          0
   195          0
   197          1
   198          0
   199          0
   201          0
   202          0
   203          1
   204          2
   205          0
   207          1
   208         10
   209         42
   210          7
   211          5
   212          0
   218          1
   219          1
   221          0
   222          0
   223          1
   232          0
   233          2
   234          0
   235          0
   247          0
   261          1
   262          0
   263          0
   276        171
   277        760
   278        168
   279        102
   280         17
   281          4
   282          0
   291          0
   305         10
   306         43
   307         10
   308          6
   309          1