##TITLE=Library Entry 98119
##JCAMP-DX=Revision 4.10 
##DATA TYPE=MASS SPECTRUM
##SAMPLE DESCRIPTION=Chemical Concepts
##NAMES=HP
##CAS NAME=Malonic acid, 2-methyl-2-pentyl-
##MOLFORM=C9H16O4
##CAS REGISTRY NO=127839-45-6
##MP= -300
##BP= -300
##MW= 188
##$RETENTION INDEX=0
##$CONDENSED SPECTRUM=NO
##NPOINTS= 100
##XYDATA=(XY..XY) 1 
    26         12
    27        208
    28         33
    29        202
    30          6
    31         20
    37          0
    38          4
    39        133
    40         15
    41        421
    42         50
    43        154
    44         34
    45         64
    46          3
    47          2
    50          3
    51          6
    52          3
    53         38
    54         15
    55        216
    56         83
    57         33
    58         13
    59         68
    60          8
    63          2
    65          7
    66          2
    67         24
    68         36
    69        134
    70         16
    71         23
    72        225
    73         32
    74         95
    75          3
    77          4
    78          0
    79          3
    81          9
    82         13
    83         15
    84         27
    85         14
    86         22
    87        566
    88         31
    89          2
    93          0
    94          9
    95         19
    96         16
    97         26
    98         18
    99         32
   100        868
   101         77
   102          8
   103          1
   107          1
   108          1
   109          5
   110          0
   111          3
   112          1
   113         42
   114         18
   115          2
   117          2
   118        999
   119         50
   120          8
   123          4
   124         29
   125         26
   126         15
   127         30
   128          5
   129          2
   131          3
   137          3
   141          7
   142         77
   143         12
   144         62
   145         15
   146          1
   151          3
   152         15
   153          1
   155          1
   159          2
   169          0
   170          5
   171          4
   189          0