##TITLE=Library Entry 82139
##JCAMP-DX=Revision 4.10 
##DATA TYPE=MASS SPECTRUM
##SAMPLE DESCRIPTION=Organic Synthesis Lab, MSU, Moscow.TRC 1156
##NAMES=HP
##CAS NAME=1-Benzoyl-4,5-dihydro-4,4,5,5-tetramethyl-3-phenyl-1H-pyrazole
##MOLFORM=C20H22N2O
##CAS REGISTRY NO=127958-29-6
##MP= -300
##BP= -300
##MW= 306
##$RETENTION INDEX=0
##$CONDENSED SPECTRUM=NO
##NPOINTS= 186
##XYDATA=(XY..XY) 1 
    37          0
    38          1
    39         32
    40          5
    41         71
    42         23
    43         16
    44          0
    49          0
    50         21
    51        108
    52          9
    53         17
    54          2
    55         18
    56         26
    57         14
    58          4
    59          0
    61          0
    62          2
    63         11
    64          3
    65         13
    66          1
    67          6
    68          3
    69         11
    70          5
    71          3
    73          0
    74          5
    75          9
    76         29
    77        656
    78         60
    79          8
    80          1
    81          3
    82          9
    83          4
    84          3
    85          0
    86          0
    87          1
    88          0
    89          9
    90          4
    91         66
    92          5
    93          0
    94          0
    95          0
    96          0
    97          1
    98          6
    99          0
   100          0
   101          2
   102          8
   103         30
   104        126
   105        999
   106        182
   107         10
   108          0
   109          0
   111          1
   112          3
   113          1
   114          1
   115         67
   116         30
   117         13
   118          3
   119         13
   120          1
   122          2
   123          0
   126          1
   127         13
   128         50
   129         39
   130         14
   131         32
   132          5
   133          0
   134          0
   139          2
   140          0
   141         20
   142         22
   143         44
   144         77
   145         59
   146          8
   147        142
   148         14
   149          0
   151          0
   152          1
   153          0
   154          0
   155          2
   156          2
   157         12
   158          5
   159          3
   160         10
   161          1
   162          0
   163          0
   164          0
   165          5
   166          0
   167          0
   168          0
   169          0
   170          2
   171          3
   172          3
   173          6
   174          0
   178          0
   179          0
   180          2
   184          4
   185          5
   186          4
   187          5
   188          4
   189          0
   190          0
   191          0
   193          0
   199          0
   200          0
   201         43
   202          7
   203          1
   204          1
   205          0
   206          1
   207          0
   208          0
   215          0
   218          0
   219          0
   220          0
   222          0
   223          6
   224          0
   229          0
   231          0
   232          1
   233          0
   234          0
   235          0
   236          0
   241          1
   245          0
   246          0
   247          0
   248          1
   249          0
   250        137
   251         25
   252          2
   261          0
   262          1
   263          2
   264          0
   275          5
   276          2
   289          1
   290          6
   291        514
   292        115
   293         13
   294          0
   304          0
   305          4
   306        668
   307        169
   308         20
   309          1