##TITLE=Library Entry 11731
##JCAMP-DX=Revision 4.10 
##DATA TYPE=MASS SPECTRUM
##SAMPLE DESCRIPTION=Div. of Experiment Therapeutics WRAIR, WRAMC, Washingto
n DC 20307
##NAMES=HP
##CAS NAME=9-Bromo-10-[2-pyrimidylamino]-deoxoartemisinin
##MOLFORM=C19H26BrN3O4
##CAS REGISTRY NO=127971-94-2
##MP= -300
##BP= -300
##MW= 439
##$RETENTION INDEX=0
##$CONDENSED SPECTRUM=NO
##NPOINTS= 232
##XYDATA=(XY..XY) 1 
    41        315
    42         55
    43        999
    44         29
    45         64
    46         29
    47          8
    49         23
    50          6
    51         26
    52         40
    53        234
    54         51
    55        307
    56         23
    57         43
    58         62
    59         22
    60          5
    61          4
    63          6
    64          3
    65         52
    66         27
    67        153
    68         93
    69        166
    70          4
    71        230
    73         14
    74          3
    75         62
    77         86
    78         26
    79        400
    80        200
    81        226
    82         80
    83         54
    84         33
    85         33
    86         16
    87          4
    89          5
    90          4
    91        118
    92         27
    93        158
    94         66
    95        288
    96        638
    97         78
    98          5
    99         34
   100          6
   101          6
   103         11
   104          7
   105        122
   106        102
   107        128
   108        164
   109        193
   110         26
   111         46
   112          8
   113         33
   115         12
   116          6
   117         21
   118         17
   119        124
   120         88
   121        503
   122        146
   123         70
   124        978
   125        128
   127         10
   128          7
   129         11
   130          7
   131         40
   133        301
   134        500
   135        232
   136         54
   137         40
   138        179
   139         39
   141         12
   142          4
   143         13
   144         10
   145         36
   146         88
   147         99
   148         75
   149        133
   150         42
   151         56
   152         12
   153          5
   155          9
   156          3
   157         12
   158         26
   159         39
   160         67
   161        228
   162        105
   163         46
   164         11
   165         45
   166         19
   167         15
   168          3
   169          3
   170          6
   171         15
   172         37
   173         41
   174         76
   175         66
   176         16
   177         47
   178         12
   179         38
   180          7
   181         67
   182          8
   183          5
   184          8
   185          8
   186         16
   187         23
   188         33
   189         38
   190         12
   191         18
   192          4
   193         11
   195          6
   196          3
   198          6
   199          8
   200         15
   201         34
   202         10
   203         14
   204          4
   205         26
   206          4
   207         68
   208         11
   209         35
   210          6
   211         23
   212         11
   213         32
   214         19
   215         28
   216         14
   217         44
   218         12
   219         80
   220          6
   221         14
   222          3
   224          5
   225          3
   226         22
   227          8
   228         17
   229        124
   231        134
   232         25
   233         48
   234          7
   235          3
   237          9
   238          6
   239          3
   240          5
   241          8
   242         44
   243         20
   244         15
   245          3
   251          5
   252          4
   253        129
   254         23
   255         41
   256         63
   257         13
   258          4
   266          4
   268          3
   269         15
   270         14
   271         38
   272         21
   273          5
   282          4
   284          4
   287        175
   288         17
   289        175
   290         23
   298         16
   299          4
   300         24
   301          5
   309          3
   310         22
   311          5
   312          6
   313         15
   314         35
   315         25
   316         10
   318          5
   327         46
   328         26
   329          4
   360         32
   361          7
   439         16
   440          4
   441         16
   442          3