##TITLE=Library Entry 81963
##JCAMP-DX=Revision 4.10 
##DATA TYPE=MASS SPECTRUM
##SAMPLE DESCRIPTION=Organic Synthesis Lab, MSU, Moscow.TRC 1175
##NAMES=HP
##CAS NAME=1-Benzoyl-4,5-dihydro-4,4-dimethyl-3,5,5-triphenyl-1H-pyrazole
##MOLFORM=C30H26N2O
##CAS REGISTRY NO=127958-28-5
##MP= -300
##BP= -300
##MW= 430
##$RETENTION INDEX=0
##$CONDENSED SPECTRUM=NO
##NPOINTS= 162
##XYDATA=(XY..XY) 1 
    38          3
    39         15
    40          1
    41         31
    42          7
    43          9
    44          3
    45          4
    50         11
    51         68
    52          6
    53         12
    55          5
    56          3
    57          8
    59          1
    60          1
    62          1
    63          6
    64          2
    65          6
    69          2
    71          2
    73          1
    74          4
    75          7
    76         23
    77        521
    78         54
    79          6
    83          2
    87          3
    89          7
    90          2
    91         82
    92          9
   101          4
   102          5
   103         63
   104        244
   105        999
   106         71
   107          5
   112          1
   113          2
   115         51
   116         34
   117          9
   118         16
   119         14
   120          3
   126          4
   127         10
   128         14
   129         27
   130         17
   131         80
   132          8
   139          8
   140          1
   141          4
   142          1
   144        169
   145        124
   146         23
   147        185
   148         14
   149          4
   151          4
   152         15
   153          4
   163          6
   164          6
   165         91
   166         25
   167         16
   168          2
   176          3
   177          3
   178         22
   179         10
   180        123
   181         25
   182         14
   183          2
   189         11
   190          5
   191         16
   192          6
   193         11
   194          3
   195          1
   201          1
   202         19
   203         22
   204         18
   205         17
   206         17
   207         10
   208         11
   209          3
   215          3
   217          2
   218          2
   219          9
   220         10
   221          6
   222         74
   223         14
   232          4
   233          2
   234          8
   235          3
   239          4
   240          1
   247          1
   248          5
   249         25
   250        695
   251         99
   252         17
   253          4
   254          1
   255          1
   263          3
   264          6
   265         15
   266          6
   267         18
   268          7
   269         95
   270         16
   271          1
   276          1
   278          1
   279          2
   280          1
   281          4
   282          5
   283          5
   284          1
   285          2
   286          2
   294          1
   296          4
   309          7
   310          5
   311          2
   324          1
   325        349
   326         92
   327         17
   328          1
   353         28
   354          7
   410          1
   415          7
   416          2
   429          2
   430        200
   431         68
   432         11