##TITLE=Library Entry 66032
##JCAMP-DX=Revision 4.10 
##DATA TYPE=MASS SPECTRUM
##SAMPLE DESCRIPTION=Chemical Concepts
##NAMES=HP
##CAS NAME=2-Propaneamide, 3-fluoro-N-phenyl-
##MOLFORM=C9H8FNO
##CAS REGISTRY NO=127977-41-7
##MP= -300
##BP= -300
##MW= 165
##$RETENTION INDEX=0
##$CONDENSED SPECTRUM=NO
##NPOINTS= 94
##XYDATA=(XY..XY) 1 
    27         14
    28         10
    29          2
    30          1
    31          2
    33          1
    37         10
    38         31
    39        116
    40         18
    41         11
    42          3
    43          2
    44         14
    45        125
    46          4
    47          1
    49          1
    50         19
    51         48
    52         23
    53         12
    54          8
    55          1
    56          0
    57          1
    58          0
    59          0
    60          1
    61          3
    62          9
    63         34
    64         28
    65        122
    66         93
    67          9
    68          0
    69          0
    70          0
    71          2
    72          4
    73        532
    74         24
    75          5
    76          5
    77         42
    78          5
    79          0
    81          0
    83          1
    87          0
    88          1
    89          3
    90          4
    91         13
    92         35
    93        999
    94        105
    95          4
    96          0
    97          0
   101          0
   103          0
   104          2
   105          0
   107          1
   108          1
   109          5
   110          0
   115          0
   116          2
   117          7
   118          3
   119          2
   120          4
   121          1
   123          1
   124          4
   125          0
   128          0
   134          0
   135          2
   136          6
   137         28
   138          3
   144          1
   145          1
   146          2
   148          0
   149          0
   164          2
   165        378
   166         50
   167          3