##TITLE=Library Entry 11701
##JCAMP-DX=Revision 4.10 
##DATA TYPE=MASS SPECTRUM
##SAMPLE DESCRIPTION=Div. of Experiment Therapeutics WRAIR, WRAMC, Washingto
n DC 20307
##NAMES=HP
##CAS NAME=9-Bromo-10-[2-pyridylamino]-deoxoartemisinin
##MOLFORM=C20H27BrN2O4
##CAS REGISTRY NO=127971-93-1
##MP= -300
##BP= -300
##MW= 438
##$RETENTION INDEX=0
##$CONDENSED SPECTRUM=NO
##NPOINTS= 232
##XYDATA=(XY..XY) 1 
    41        261
    42          6
    43        999
    44         21
    45        137
    46         69
    47         10
    49         24
    50         33
    51        113
    52         74
    53        121
    54         26
    55        230
    56         19
    57         39
    58         51
    59         18
    60         15
    61          9
    62         11
    63         29
    64         14
    65         80
    66         48
    67        273
    68         31
    69        104
    71        178
    73         10
    74          8
    75          6
    76          8
    77         79
    78        443
    79        301
    80        101
    81        146
    82         71
    83         39
    84         27
    85         26
    86         17
    89         19
    90         13
    91        222
    92         43
    93        127
    94        330
    95        352
    96         38
    97         35
    99         29
   100         17
   101          5
   103         11
   104         10
   105        223
   106         35
   107        160
   108         11
   109        131
   110         17
   111         36
   112          6
   113         28
   115         14
   116          8
   117         30
   118         31
   119        212
   120         31
   121        359
   122         66
   123        819
   124         58
   125         63
   127         10
   128          8
   129         17
   130         13
   131         61
   132         43
   133        544
   134         64
   135        164
   136        135
   137         40
   138         16
   139         19
   141         13
   142          6
   143         16
   144         22
   145         95
   146         31
   147        138
   148         25
   149        122
   150         32
   151         43
   152          7
   153          6
   154          6
   155         10
   156         11
   157         35
   158         23
   159         78
   160         31
   161        174
   162         51
   163         38
   164          9
   165         87
   166         12
   167         28
   168          6
   169         11
   170          8
   171         56
   172         23
   173         73
   174         29
   175         77
   176         18
   177         47
   178         17
   179         34
   180         26
   181         10
   182          5
   183         18
   184          7
   185         24
   186         10
   187         40
   188         11
   189         50
   190         11
   191         17
   192          5
   193         24
   194          6
   195         14
   197         14
   198          7
   199         27
   200         12
   201         34
   203         28
   204          5
   205         17
   206          5
   207        152
   209         56
   211         50
   212         22
   213         31
   214         25
   215         20
   217         44
   218         17
   219         94
   220         12
   221         16
   223         13
   225         49
   226         27
   227         36
   229        120
   231        116
   232         19
   233        131
   234         21
   235         23
   236          5
   237         24
   238          8
   239         16
   240          7
   241        226
   242         43
   243         24
   245          6
   248          6
   251         12
   252          5
   253        259
   254         77
   255         60
   256         18
   257          6
   265         12
   266          5
   267         16
   269         30
   270         44
   271         33
   272          6
   281          7
   283          6
   284          8
   285          6
   287         84
   289         85
   290         10
   295          5
   297         16
   298          5
   299         23
   300          6
   308          9
   309         19
   310         10
   311         15
   312         77
   313        107
   314         30
   315         12
   316          5
   326         29
   327         10
   329          6
   358         22
   359         53
   360         12
   436          7
   438         13
   439          1
   440         13
   441          1