##TITLE=Library Entry 66063
##JCAMP-DX=Revision 4.10 
##DATA TYPE=MASS SPECTRUM
##SAMPLE DESCRIPTION=Chemical Concepts
##NAMES=HP
##CAS NAME=3-Butenamide, 4,4-difluoro-N-phenyl-
##MOLFORM=C10H9F2NO
##CAS REGISTRY NO=127977-38-2
##MP= -300
##BP= -300
##MW= 197
##$RETENTION INDEX=0
##$CONDENSED SPECTRUM=NO
##NPOINTS= 117
##XYDATA=(XY..XY) 1 
    24          0
    26         11
    27         67
    29          1
    30          0
    31          3
    33          2
    37          6
    38         28
    39        175
    40          7
    41         17
    42          4
    43          0
    45          0
    46          0
    47          0
    49          0
    50         28
    51        250
    52         30
    53          5
    54          7
    55          6
    56          1
    57         10
    58          2
    59          0
    61          1
    62          8
    63         44
    64         65
    65        245
    66        111
    67         10
    68          0
    69          1
    71          0
    73          1
    74          5
    75         29
    76         50
    77        802
    78         43
    79          3
    80          0
    81          0
    83          0
    84          0
    85          0
    88          2
    89          1
    90          7
    91         60
    92        383
    93        999
    94         73
    95          3
    96          2
    97          5
    99          0
   101          4
   102          2
   103          3
   104         14
   105          3
   106          8
   107          1
   109          1
   114          1
   115          0
   116          0
   117          4
   118          6
   119        104
   120        551
   121         45
   122          3
   125          3
   126          0
   127          2
   128          6
   129          1
   130         11
   131          1
   132          2
   133          3
   134          0
   135          2
   141          1
   142          3
   146          1
   147          1
   148         41
   149          7
   150          2
   151          1
   152          0
   153          0
   154          2
   155          0
   157          0
   166          1
   167          0
   168          3
   169          2
   170          0
   173          1
   176          0
   177          2
   178          3
   179          1
   180          1
   196          1
   197        280
   198         37
   199          4