##TITLE=Library Entry 14636
##JCAMP-DX=Revision 4.10 
##DATA TYPE=MASS SPECTRUM
##SAMPLE DESCRIPTION=Exported from NIST MS Search
##NAMES=HP
##CAS NAME=Pregnane-3,20-dione, (5.beta.)-
##MOLFORM=C21H32O2
##CAS REGISTRY NO=128-23-4
##MP= -300
##BP= -300
##MW= 316
##$RETENTION INDEX=2630
##$CONDENSED SPECTRUM=NO
##NPOINTS= 125
##XYDATA=(XY..XY) 1 
    41        318
    43        999
    44         20
    45         79
    53         88
    55        397
    56         14
    57         28
    65         18
    67        267
    68         99
    69        130
    71        178
    77        101
    78         17
    79        246
    80         65
    81        319
    82         27
    83         50
    84        377
    85        117
    91        180
    92         21
    93        230
    94         79
    95        288
    96         21
    97         42
   105        173
   106         50
   107        217
   108         99
   109        151
   110         43
   111         43
   117         26
   118         14
   119        130
   120        115
   121        209
   122        172
   123        121
   124         72
   125         14
   131         72
   132         50
   133         99
   134         59
   135        101
   136         21
   137         50
   143         26
   144          7
   145         86
   146         28
   147        115
   148         21
   149         57
   157         30
   158         17
   159        115
   160         27
   161        114
   162         27
   163         28
   171         23
   172         14
   173         59
   174         50
   175        101
   176        159
   177         28
   185         15
   186         14
   187         43
   188         36
   189         50
   199         28
   200          2
   201         28
   202         13
   203         28
   211         14
   213        173
   214         21
   215         57
   216          7
   217         21
   227         28
   228        105
   229         36
   230          7
   231        156
   232         42
   233         28
   241         21
   243         26
   244         26
   245         43
   246        551
   247         79
   255         73
   256         21
   257         14
   258        108
   259         28
   269         36
   270         14
   271         21
   272        130
   273         57
   274         13
   281         27
   282          7
   283         94
   284         17
   298        535
   299        112
   300         14
   301         88
   302         14
   316        821
   317        180
   319         28