##TITLE=Library Entry 69651
##JCAMP-DX=Revision 4.10 
##DATA TYPE=MASS SPECTRUM
##SAMPLE DESCRIPTION=DR GLENN PATTERSON
##NAMES=HP
##CAS NAME=Cholesta-8,24-dien-3-ol, (3.beta.,5.alpha.)-
##MOLFORM=C27H44O
##CAS REGISTRY NO=128-33-6
##MP= -300
##BP= -300
##MW= 384
##$RETENTION INDEX=3170
##$CONDENSED SPECTRUM=NO
##NPOINTS= 186
##XYDATA=(XY..XY) 1 
    39        140
    40         30
    41        829
    42         70
    43        360
    51         30
    53        120
    54         50
    55        779
    56         90
    57        250
    58        250
    59         30
    65         60
    67        420
    68         90
    70        110
    71        130
    74        110
    75         30
    77        170
    78         80
    79        370
    80         80
    81        579
    82        150
    83        250
    84         50
    85         80
    87         70
    91        470
    92         90
    93        440
    94        110
    95        509
    96        999
    97        170
    98         40
    99         30
   103         30
   104         30
   105        480
   106        120
   107        539
   108        140
   109        380
   110         80
   111        100
   115         70
   116         40
   117        160
   118         70
   119        390
   120        130
   121        330
   122        150
   123        180
   124         60
   125         60
   127         30
   128         20
   129        140
   130         70
   131        280
   132        130
   133        330
   134        150
   135        300
   136        130
   137        150
   138         30
   141         60
   142         50
   143        170
   144         70
   145        300
   146        100
   147        360
   148         90
   149        170
   150         70
   151         70
   155         70
   156         40
   157        150
   158         60
   159        230
   160         70
   161        240
   162         60
   163         90
   164         30
   165         40
   167         30
   169         60
   170         30
   171        130
   172         50
   173        160
   174         50
   175        100
   176         30
   177         60
   181         30
   183         60
   184         30
   185        110
   186         40
   187        110
   188         30
   189         70
   191         40
   195         30
   197         60
   198         30
   199        110
   200         40
   201        110
   202         30
   203         70
   204         40
   205         90
   211         80
   212         30
   213        300
   214         70
   215        110
   216         30
   217         80
   218         70
   219         70
   225         30
   227        100
   228         60
   229        240
   230         60
   231        220
   232         70
   233         30
   239         50
   241         50
   243         70
   244         30
   245         80
   246        130
   247         70
   253         50
   255        100
   256         30
   257         90
   258         60
   259         60
   260         30
   269         80
   270         40
   271        200
   272         70
   273        100
   274         30
   283         30
   285         60
   287         30
   297         40
   298         30
   299         60
   300         60
   301         30
   302         30
   313         30
   327         30
   341         30
   351         90
   352         30
   358         30
   366         50
   367         80
   368         40
   369        519
   370        150
   371         30
   380         30
   382        130
   383         60
   384        979
   385        320
   386         70