##TITLE=Library Entry 14520
##JCAMP-DX=Revision 4.10 
##DATA TYPE=MASS SPECTRUM
##SAMPLE DESCRIPTION=R. I. REED UNIVERSITY OF GLASGOW
##NAMES=HP
##CAS NAME=Pregnan-3.alpha.-ol-20-one
##MOLFORM=C21H34O2
##CAS REGISTRY NO=128-20-1
##MP= -300
##BP= -300
##MW= 318
##$RETENTION INDEX=2642
##$CONDENSED SPECTRUM=NO
##NPOINTS= 248
##XYDATA=(XY..XY) 1 
    40         18
    41        376
    42         53
    43        999
    44         24
    45         28
    50          6
    51         12
    52          5
    53        107
    54         25
    55        336
    56         28
    57         52
    58         21
    59          7
    60          1
    61          2
    62          1
    63          3
    64          2
    65         37
    66         25
    67        281
    68         86
    69        114
    70         20
    71        230
    72         12
    73          2
    74          2
    75          3
    76          0
    77        118
    78         36
    79        280
    80         68
    81        336
    82         46
    83         66
    84        339
    85        100
    86         12
    87          1
    89          4
    90          1
    91        223
    92         47
    93        273
    94        143
    95        323
    96         33
    97         36
    98         10
    99          6
   100          3
   101          1
   102          3
   103         10
   104         10
   105        224
   106         89
   107        269
   108        137
   109        140
   110         19
   111         30
   112          4
   113          3
   114          0
   115         13
   116          7
   117         35
   118         28
   119        131
   120         96
   121        191
   122         77
   123         60
   124         19
   125         11
   126          1
   127          2
   128          9
   129         12
   130          7
   131         58
   132         51
   133        121
   134         78
   135        119
   136         33
   137         25
   138          8
   139          4
   140          1
   141          4
   142          4
   143         16
   144          9
   145         95
   146         35
   147        145
   148         51
   149         80
   150         15
   151          9
   152          2
   153          1
   154          1
   155          3
   156          3
   157         21
   158         11
   159         84
   160         41
   161        111
   162         45
   163         35
   164          9
   165         10
   166          3
   167          1
   168          0
   169          4
   170          2
   171         19
   172         13
   173         62
   174         37
   175         72
   176         35
   177         19
   178          6
   179          3
   180          1
   181          0
   182          1
   183          3
   184          1
   185         18
   186         11
   187         47
   188         28
   189         30
   190         27
   191         27
   192         13
   193          5
   194          1
   195          1
   196          0
   197          5
   198          1
   199         17
   200         11
   201         57
   202         19
   203         23
   204         35
   205         18
   206          6
   207          2
   208          0
   211          8
   212          4
   213         37
   214         18
   215        309
   216         91
   217         52
   218         14
   219          6
   220          2
   225          7
   226          4
   227         33
   228         19
   229         77
   230        106
   231         30
   232          9
   233         23
   234         15
   235          3
   236          0
   237          0
   238          0
   239          4
   240          6
   241         10
   242         86
   243         27
   244         15
   245         25
   246         74
   247         16
   248         11
   249          1
   250          1
   253         12
   254          5
   255         28
   256         16
   257         79
   258         29
   259         14
   260         21
   261          9
   262          1
   263          0
   264          0
   265          3
   266          1
   267         26
   268          6
   269          3
   270          1
   271          7
   272         11
   273          9
   274         12
   275          5
   276          1
   281          1
   282         26
   283         12
   284          6
   285        100
   286         21
   287          5
   288          1
   289          0
   298          7
   299          4
   300        392
   301         92
   302         15
   303         13
   304          3
   305          0
   314          0
   315          0
   316          7
   317          2
   318         83
   319         20
   320          2