##TITLE=Library Entry 78300
##JCAMP-DX=Revision 4.10 
##DATA TYPE=MASS SPECTRUM
##SAMPLE DESCRIPTION=RADIAN CORP
##NAMES=HP
##CAS NAME=4,5'-Dibenzamido-1,1'-iminodianthraquinone
##MOLFORM=C42H25N3O6
##CAS REGISTRY NO=128-89-2
##MP= -300
##BP= -300
##MW= 667
##$RETENTION INDEX=0
##$CONDENSED SPECTRUM=NO
##NPOINTS= 40
##XYDATA=(XY..XY) 1 
    12          3
    14        110
    15          4
    16         38
    17          7
    18         12
    20          1
    32          3
    34          3
    77        178
    78          5
    89          6
    90          5
   105        999
   106         69
   138          3
   139         21
   140          6
   154          1
   164         16
   166          6
   173          3
   174          1
   182          3
   198          1
   200          3
   201          2
   202          2
   210          1
   212          2
   238          3
   239          6
   240          3
   258          1
   327         11
   328          3
   342          4
   343          4
   361          6
   363          2