##TITLE=Library Entry 210
##JCAMP-DX=Revision 4.10 
##DATA TYPE=MASS SPECTRUM
##SAMPLE DESCRIPTION=Humboldt-Universitat zu Berlin, Department of Chemistry
, Analytical Group
##NAMES=HP
##CAS NAME=2,5-Pyrrolidinedione, 1-bromo-
##MOLFORM=C4H4BrNO2
##CAS REGISTRY NO=128-08-5
##MP= -300
##BP= -300
##MW= 177
##$RETENTION INDEX=0
##$CONDENSED SPECTRUM=NO
##NPOINTS= 66
##XYDATA=(XY..XY) 1 
    12         10
    13         22
    14         62
    15         35
    16         16
    17         46
    18        131
    24          7
    25         31
    26        244
    27        352
    28        999
    29         64
    30          9
    31          1
    32          2
    36          4
    37          9
    38         19
    39         18
    40         25
    41         32
    42        188
    43         51
    44         22
    45          2
    50          3
    51         13
    52         18
    53         21
    54         21
    55        256
    56        425
    57         21
    58          2
    67          1
    70        218
    71         11
    72          1
    79         18
    80         69
    81         20
    82         18
    83          1
    93         18
    94          8
    95         17
    96          8
    97          2
    98         95
    99          4
   106          2
   107          7
   108          3
   109          5
   121         22
   122          2
   123         21
   124          2
   149         18
   151         16
   177        171
   178          9
   179        163
   180          8
   181          1