##TITLE=Library Entry 80233
##JCAMP-DX=Revision 4.10 
##DATA TYPE=MASS SPECTRUM
##SAMPLE DESCRIPTION=Japan AIST/NIMC Database- Spectrum MS-NW-8509
##NAMES=HP
##CAS NAME=Bicyclo[3.1.1]hept-2-ene-2-ethanol, 6,6-dimethyl-
##MOLFORM=C11H18O
##CAS REGISTRY NO=128-50-7
##MP= -300
##BP= -300
##MW= 166
##$RETENTION INDEX=1202
##$CONDENSED SPECTRUM=NO
##NPOINTS= 99
##XYDATA=(XY..XY) 1 
    15          3
    18          3
    26          3
    27        105
    28         17
    29         72
    30          4
    31         46
    32          1
    38          4
    39        122
    40         20
    41        245
    42         13
    43        130
    44          6
    45          7
    50          9
    51         40
    52         19
    53         86
    54         10
    55         96
    56          9
    57         10
    58          1
    59          2
    62          3
    63         13
    64          4
    65         56
    66         29
    67         71
    68         27
    69         56
    70          8
    71          2
    74          1
    75          2
    76          1
    77        164
    78         49
    79        260
    80         39
    81         46
    82         11
    83          9
    84          1
    85          1
    89          4
    90          2
    91        246
    92        180
    93        208
    94         27
    95         20
    96          4
    97          3
    98          1
   100          1
   101          1
   102          2
   103         42
   104         14
   105        999
   106        101
   107         76
   108          8
   109          7
   110          7
   111          2
   115          9
   116          4
   117         16
   118          8
   119         39
   120         16
   121         61
   122        101
   123         17
   124          4
   125          1
   128          1
   129          1
   131          7
   132          1
   133         78
   134          9
   135         51
   136          8
   137          2
   138          1
   147          2
   148          9
   149          1
   151         27
   152          3
   166         32
   167          4