##TITLE=Library Entry 39738
##JCAMP-DX=Revision 4.10 
##DATA TYPE=MASS SPECTRUM
##SAMPLE DESCRIPTION=A.A.Kutin, Moscow, Russia
##NAMES=HP
##CAS NAME=7-Oxabicyclo[2.2.1]heptane, 2,5-diethoxy-1,4-bis(trifluoromethyl)
-
##MOLFORM=C12H16F6O3
##CAS REGISTRY NO=128097-71-2
##MP= -300
##BP= -300
##MW= 322
##$RETENTION INDEX=0
##$CONDENSED SPECTRUM=NO
##NPOINTS= 172
##XYDATA=(XY..XY) 1 
    33          4
    34          0
    39         62
    40         12
    41         27
    42         34
    43        208
    44        264
    45        102
    47        140
    49          7
    50          6
    51         40
    52          6
    53         28
    55         37
    56          7
    57         33
    58         10
    59         64
    60          3
    61          2
    63          8
    64          9
    65         22
    66          4
    67         10
    69        134
    72        999
    73         45
    75        109
    76         18
    77         70
    78          5
    79          5
    81         15
    83         37
    84          6
    85          8
    86          4
    87          7
    88          7
    89         21
    90         15
    91         87
    93         34
    95         26
    96          2
    97         12
    99         11
   101         23
   103        135
   104         14
   105         48
   106          8
   107         11
   108         12
   109         15
   110          2
   111          7
   112          5
   113         33
   114         19
   115        122
   117         32
   119        146
   120          8
   121         16
   122          8
   123         31
   125         46
   126          6
   127          9
   128         20
   129          3
   131         61
   132          7
   133         24
   134         10
   135         38
   136         19
   137         15
   138         12
   139         35
   141         45
   142          2
   143          7
   145          5
   147          2
   149         18
   151        162
   152         12
   153         24
   154          7
   155         13
   156          2
   157          5
   159          9
   161         18
   162          4
   163         24
   164          2
   165          3
   166          7
   167         11
   169         42
   170          3
   171         12
   172          0
   173          2
   175          0
   177          7
   179        166
   180         14
   181         11
   182         10
   183         14
   185         27
   186          2
   187          3
   189          3
   191         33
   192          2
   193          1
   195          0
   196          0
   197          1
   199         14
   200          5
   201         28
   202          9
   203          5
   204          3
   205         21
   207         26
   208          5
   209         21
   210         23
   211         24
   212          2
   213          0
   215          1
   217          0
   219          5
   220          6
   221         11
   222          1
   225          0
   227          6
   228          5
   229         17
   230          5
   231          6
   232          0
   233          3
   235          0
   239          0
   247          9
   248          4
   249          4
   253          0
   255          0
   256          0
   257          1
   259          1
   276         65
   277          9
   278          2
   279          0
   303          0
   322         16
   323          1