##TITLE=Library Entry 98494
##JCAMP-DX=Revision 4.10 
##DATA TYPE=MASS SPECTRUM
##SAMPLE DESCRIPTION=Exported from NIST MS Search
##NAMES=HP
##CAS NAME=Thiazolium, 5-hydroxy-3-methyl-2-phenyl-, hydroxide, inner salt
##MOLFORM=C10H9NOS
##CAS REGISTRY NO=1280-28-0
##MP= -300
##BP= -300
##MW= 191
##$RETENTION INDEX=0
##$CONDENSED SPECTRUM=NO
##NPOINTS= 16
##XYDATA=(XY..XY) 1 
    50         60
    51        170
    69         60
    77        430
    78         50
   118        999
   119        100
   121        619
   122         70
   123         30
   163        420
   164         50
   165         30
   191        470
   192         60
   193         30