##TITLE=Library Entry 11755
##JCAMP-DX=Revision 4.10 
##DATA TYPE=MASS SPECTRUM
##SAMPLE DESCRIPTION=D. HEBEL, LC, NIDDK, NIH, Bethesda, MD 20892
##NAMES=HP
##CAS NAME=Benzenethanamine, N-acetyl-3-fluoro-4-hydroxy-.alpha.-methoxycarb
onyl-
##MOLFORM=C12H14FNO4
##CAS REGISTRY NO=128070-15-5
##MP= -300
##BP= -300
##MW= 255
##$RETENTION INDEX=0
##$CONDENSED SPECTRUM=NO
##NPOINTS= 147
##XYDATA=(XY..XY) 1 
    41         20
    42          4
    43        999
    44        455
    45        109
    46          7
    47          8
    48          2
    49          9
    50         61
    51        221
    52         17
    53         13
    54          4
    55         11
    56          9
    57         60
    58          5
    59         41
    60        319
    61         10
    62          7
    63         15
    64          5
    65          5
    66          2
    67          2
    69        158
    70         17
    71         16
    72          3
    73          4
    74         19
    75         13
    76          9
    77        136
    78         17
    79          7
    80          2
    81          7
    82          3
    83         16
    84          5
    85          4
    86          5
    88        440
    89         63
    90          6
    91          9
    92          2
    93          1
    94          2
    95         14
    96         18
    97         12
    98          3
    99         94
   100          4
   101          2
   102          7
   103          3
   104          6
   105         19
   106          7
   107         16
   108          9
   109         31
   110          3
   111          2
   112          6
   113          2
   114          2
   115          1
   116          5
   117          2
   118          1
   119          1
   120          1
   121          1
   122          2
   123          5
   124          9
   125        472
   126         59
   127          4
   130          4
   131         18
   132          4
   133          2
   134          4
   135          4
   136         18
   137         19
   138         23
   139         77
   140          8
   141          2
   142          1
   143          0
   144          0
   145          0
   146          0
   147          1
   148          1
   149          2
   150          5
   151         14
   152         15
   153         31
   154        110
   155         13
   156          1
   159          0
   162          1
   163          1
   164          7
   165        160
   166         18
   167          4
   168          6
   169          1
   192          0
   193          1
   194          1
   195         10
   196        357
   197         41
   198          4
   199          1
   203          0
   204          2
   205          0
   209          0
   213          0
   214          1
   215          1
   221          3
   222          1
   223          4
   224          3
   225          0
   232          1
   237          1
   238          0
   255         13
   256          6
   257          1