##TITLE=Library Entry 64939
##JCAMP-DX=Revision 4.10 
##DATA TYPE=MASS SPECTRUM
##SAMPLE DESCRIPTION=A. Brossi, LC, NIDDK, NIH, Bethesda, MD 20892
##NAMES=HP
##CAS NAME=Chromone, 2-[2-[3,5-dibenzyloxyphenyl]ethenyl]-5,6,7,8-tetrametho
xy-
##MOLFORM=C35H32O8
##CAS REGISTRY NO=128191-04-8
##MP= -300
##BP= -300
##MW= 580
##$RETENTION INDEX=0
##$CONDENSED SPECTRUM=NO
##NPOINTS= 101
##XYDATA=(XY..XY) 1 
    41          6
    43         13
    45          2
    50          4
    51          7
    52          2
    53          3
    55          4
    57          4
    62          2
    63          9
    64          3
    65         74
    66          3
    69         26
    77          5
    79          2
    81          2
    82          2
    83          6
    84          3
    89         16
    90          9
    91        999
    92         70
    93          3
    95          2
    97          2
    99          6
   103          2
   105          3
   115         16
   116          3
   117          2
   123          4
   127         19
   128          5
   129          3
   131          4
   137          2
   139          5
   140          3
   141          3
   143          3
   144          2
   145          4
   152          2
   153          3
   155          2
   157          2
   165          4
   167          3
   168         10
   169          3
   171          3
   173          2
   179          2
   181         10
   182          2
   183         42
   184          3
   185          6
   195          2
   196          2
   197         12
   211         33
   212          3
   213          7
   225          6
   227          8
   241          5
   253          2
   262          2
   263          2
   274          3
   283          6
   291          2
   297          7
   311          5
   325          3
   327          2
   339          6
   353          2
   355         82
   356         15
   370          8
   383          6
   385          8
   387          2
   400          6
   402          2
   459          3
   474          6
   489         18
   490          6
   565         92
   566         35
   567          5
   580        187
   581         71
   582         17