##TITLE=Library Entry 29354
##JCAMP-DX=Revision 4.10 
##DATA TYPE=MASS SPECTRUM
##SAMPLE DESCRIPTION=Drug Lab
##NAMES=HP
##CAS NAME=Escitalopram
##MOLFORM=C20H21FN2O
##CAS REGISTRY NO=128196-01-0
##MP= -300
##BP= -300
##MW= 324
##$RETENTION INDEX=0
##$CONDENSED SPECTRUM=NO
##NPOINTS= 118
##XYDATA=(XY..XY) 1 
    41          5
    42         34
    43         10
    44         10
    45         24
    46          1
    50          1
    51          2
    55          1
    56         10
    57         12
    58        999
    59         37
    62          1
    63          3
    64          1
    68          1
    69          1
    70          6
    71         22
    72          2
    73         12
    74          2
    75          7
    76          1
    77          1
    81          1
    82          1
    83          3
    84         18
    85          2
    86          5
    87          2
    88          3
    89          3
    94          1
    95         17
    96          2
   101          3
   102          1
   103          1
   105          1
   107          1
   109         13
   110          1
   113          1
   114          6
   115         10
   116          6
   120          1
   123         10
   124          1
   127          2
   128          3
   129          2
   131          1
   133          4
   135          1
   140          4
   141          1
   142          1
   143          1
   144          1
   146          1
   150          1
   152          2
   153          1
   154          1
   156          3
   157          4
   158          2
   159          1
   163          3
   164          2
   168          1
   169          1
   170          4
   171          1
   175          1
   177          1
   181          5
   182          6
   183         19
   184          4
   188          2
   189          2
   190         24
   191          4
   193          1
   194          2
   195          4
   196          1
   200          2
   201          1
   206          1
   207          3
   208         38
   209         12
   210          2
   211          1
   218         11
   219          4
   220         13
   221         13
   222          3
   234          2
   235          1
   236          1
   237         11
   238         49
   239          8
   240          1
   245          1
   260          1
   295          2
   323          1
   324         31
   325          7