##TITLE=Library Entry 61732
##JCAMP-DX=Revision 4.10 
##DATA TYPE=MASS SPECTRUM
##SAMPLE DESCRIPTION=Chemical Concepts
##NAMES=HP
##CAS NAME=Boron, (N-methylbenzenemethanamine)tris(trifluoromethyl)-, (t-4)-
##MOLFORM=C11H11BF9N
##CAS REGISTRY NO=128353-58-2
##MP= -300
##BP= -300
##MW= 339
##$RETENTION INDEX=0
##$CONDENSED SPECTRUM=NO
##NPOINTS= 138
##XYDATA=(XY..XY) 1 
    26          1
    27         11
    28         25
    29          1
    30        149
    31         10
    33          0
    36          0
    37          0
    38          6
    39         77
    40          7
    41         21
    42         89
    43         23
    44        193
    45          4
    46          0
    48          0
    49          6
    50         12
    51         38
    52         12
    53          2
    54          0
    55          0
    57          1
    58          6
    59          5
    60         24
    61          0
    62          7
    63         35
    64         11
    65        159
    66          9
    67          0
    68          0
    69         18
    70          0
    72          0
    74          1
    75          6
    76         20
    77         28
    78         43
    79          9
    80          3
    81          1
    83          0
    85          3
    86          0
    87          0
    88          0
    89         42
    90         20
    91        999
    92        124
    93          5
    94          0
    98          1
    99          6
   100          0
   101          0
   102          0
   103          0
   104          4
   105          2
   106          2
   107          3
   108          0
   109          7
   110          8
   114          0
   115          0
   116          0
   117          1
   118          6
   119          1
   120        328
   121        137
   122         10
   123          0
   124          0
   125          0
   126          0
   127          0
   130          0
   131          0
   132          3
   133          0
   134          0
   135          0
   136          0
   139          0
   140         17
   141         49
   142          3
   147          0
   148          1
   149          0
   150          1
   151         38
   152          8
   153          3
   154          6
   155          2
   156          0
   157          1
   160          1
   162         14
   163          0
   165          0
   166          0
   167          1
   168          7
   169          6
   170         18
   171        125
   172         12
   173          0
   180          0
   182         27
   183          2
   191          0
   200          1
   201         15
   202          0
   221          1
   269          0
   270          0
   289          0
   299          4
   300         22
   301          2
   338         17
   339         76
   340          8