##TITLE=Library Entry 49463
##JCAMP-DX=Revision 4.10 
##DATA TYPE=MASS SPECTRUM
##SAMPLE DESCRIPTION=Chemical Concepts
##NAMES=HP
##CAS NAME=Boron, (methanamine)tris(trifluoromethyl)-, (t-4)-
##MOLFORM=C4H5BF9N
##CAS REGISTRY NO=128353-61-7
##MP= -300
##BP= -300
##MW= 249
##$RETENTION INDEX=0
##$CONDENSED SPECTRUM=NO
##NPOINTS= 50
##XYDATA=(XY..XY) 1 
    27          0
    28         41
    29          3
    30        207
    31         45
    33          0
    39          0
    40          2
    41          0
    42          1
    43          0
    45         12
    46         54
    48          3
    49         20
    50          1
    51          4
    57          2
    58         14
    59          8
    60         36
    61          0
    62          0
    64         34
    65          0
    69         31
    75          0
    76          3
    77          6
    78         29
    79        224
    80        999
    81         11
    90          1
    91          0
    92          0
    95          0
    96          4
    97          0
    98          0
    99          8
   109          0
   110          3
   111          0
   112          3
   129          0
   130          8
   229          3
   230         23
   231          3