##TITLE=Library Entry 67740
##JCAMP-DX=Revision 4.10 
##DATA TYPE=MASS SPECTRUM
##SAMPLE DESCRIPTION=Chemical Concepts
##NAMES=HP
##CAS NAME=1-[4-Hydroxymethyl-5-(2-mercaptoethyl)tetrahydrofuran-2-yl]-1H-py
rimidine-2,4-dione
##MOLFORM=C11H16N2O4S
##CAS REGISTRY NO=128453-39-4
##MP= -300
##BP= -300
##MW= 272
##$RETENTION INDEX=0
##$CONDENSED SPECTRUM=NO
##NPOINTS= 137
##XYDATA=(XY..XY) 1 
    25          9
    26         99
    27        343
    28        282
    29        171
    30         12
    31        269
    33         10
    34         18
    35         47
    37          8
    38         34
    39        339
    40        244
    41        795
    42        282
    43        202
    44         68
    45        152
    46         42
    47        358
    48         12
    49         13
    50         16
    51         40
    52         38
    53        207
    54        129
    55        347
    56         56
    57        153
    58         24
    59         74
    60         46
    61        202
    62         15
    63         20
    64          5
    65         91
    66         40
    67        405
    68        216
    69        706
    70        202
    71         72
    72         17
    73        171
    74         20
    75         14
    76          3
    77         40
    78         10
    79        264
    80         67
    81        669
    82        126
    83        192
    84         42
    85        128
    86         59
    87        179
    88         33
    89         20
    90          3
    91         68
    92         26
    93         31
    94         22
    95        999
    96        124
    97        213
    98         33
    99        619
   100         48
   101        517
   102         36
   103         23
   104          4
   105          2
   106          4
   107          9
   108         69
   109        216
   110         23
   111         14
   112        388
   113        418
   114         44
   115        183
   116        101
   117         95
   118         10
   119          3
   120         13
   121          3
   122         14
   123          5
   124          3
   125         92
   126         26
   127         77
   128         12
   129         86
   130          9
   131         20
   132          5
   133          3
   134          3
   135          2
   136          4
   137          2
   138          8
   139         34
   140          6
   141         15
   142        444
   143        600
   144         69
   145         29
   146          3
   148          4
   149          7
   150          8
   151          9
   154          6
   158          2
   159          5
   160        232
   161        417
   162         45
   163         21
   164          3
   192          1
   193          3
   240          1
   241          4
   272          0