##TITLE=Library Entry 6404
##JCAMP-DX=Revision 4.10 
##DATA TYPE=MASS SPECTRUM
##SAMPLE DESCRIPTION=Chemical Concepts
##NAMES=HP
##CAS NAME=Isopropyl 5(4H)-oxo-3-(2,4,6-trimethylphenyl)-1,2,4-oxadiazole-4-
carboxylate
##MOLFORM=C15H18N2O4
##CAS REGISTRY NO=128422-52-6
##MP= -300
##BP= -300
##MW= 290
##$RETENTION INDEX=0
##$CONDENSED SPECTRUM=NO
##NPOINTS= 109
##XYDATA=(XY..XY) 1 
    33         10
    34          2
    36          1
    37          3
    39        128
    41        244
    43        999
    46          1
    48          1
    50          9
    51         36
    52         13
    53         15
    55          9
    56          3
    57          6
    58          7
    59          4
    60          2
    61          2
    62          5
    63         19
    65         34
    66          7
    67          3
    68          5
    69          7
    70         11
    71          3
    72          2
    73          2
    74          6
    76          9
    77         49
    78         14
    79          9
    80          2
    81          1
    83          1
    84          1
    86          8
    87          3
    89         12
    91         60
    93          4
    95          1
    99          1
   101          4
   102          9
   103         32
   104         13
   105          9
   106          4
   107          1
   112          1
   113          1
   114          2
   115         28
   116         17
   117         24
   118         11
   119         11
   120          7
   121          2
   127          1
   128          9
   130         99
   131         15
   132         21
   133         11
   134          3
   135          2
   136          1
   140          2
   141          2
   143         73
   144         49
   145        131
   146         23
   147          3
   149          1
   156          1
   157          4
   159        112
   160        120
   161         24
   162          2
   170          1
   171          5
   172          3
   173          1
   174          1
   186         34
   187         33
   188          5
   189          7
   190          1
   202          2
   203          4
   204         18
   205          3
   206          1
   231          1
   246          2
   248          2
   287          1
   288          2
   290         41
   291          6