##TITLE=Library Entry 21005
##JCAMP-DX=Revision 4.10 
##DATA TYPE=MASS SPECTRUM
##SAMPLE DESCRIPTION=Chemical Concepts
##NAMES=HP
##CAS NAME=3,7,11-Tridecatrienoic acid, methyl ester, (Z,E,E)-
##MOLFORM=C14H22O2
##CAS REGISTRY NO=128461-68-7
##MP= -300
##BP= -300
##MW= 222
##$RETENTION INDEX=0
##$CONDENSED SPECTRUM=NO
##NPOINTS= 129
##XYDATA=(XY..XY) 1 
    26          6
    27        133
    28          5
    29        197
    30          3
    31          6
    33          1
    38          4
    39        205
    40         19
    41        329
    42         19
    43         47
    44          2
    45         15
    50          6
    51         22
    52         16
    53        125
    54        265
    55        999
    56         46
    57          8
    58          2
    59        196
    60          5
    61          3
    63          5
    64          0
    65         34
    66         29
    67        549
    68         94
    69         26
    70          1
    71        318
    72         42
    73          6
    74         48
    75         16
    76          0
    77         77
    78         26
    79        226
    80         57
    81        155
    82         56
    83         12
    84         15
    85         15
    87         13
    88         11
    89          3
    91        133
    92         48
    93        570
    94        117
    95         69
    96         24
    97          9
    98          5
    99          5
   100          9
   101          3
   102          2
   103          2
   104          3
   105         27
   106         29
   107        201
   108         66
   109        168
   110         16
   111          7
   112          0
   113         68
   114         73
   115          7
   117         12
   118          3
   119         29
   120         11
   121         32
   122         32
   123          7
   124          0
   125         13
   126          5
   127          5
   131          4
   133         23
   134         10
   135        104
   136         15
   137          3
   138          3
   139          4
   140         19
   141          4
   145          0
   146          8
   147         18
   148        125
   149         37
   150          5
   151          0
   152          8
   153         13
   154         32
   155          7
   161          9
   162         15
   163         11
   164          0
   165          2
   166         12
   167         15
   168          2
   173          4
   175          1
   179          6
   180          5
   189          1
   190          7
   191          6
   193         11
   194          0
   207          0
   222          4