##TITLE=Library Entry 58651
##JCAMP-DX=Revision 4.10 
##DATA TYPE=MASS SPECTRUM
##SAMPLE DESCRIPTION=Chemical Concepts
##NAMES=HP
##CAS NAME=Magnesium, bis(.eta.<5>-2,4-cyclopentadien-1-yl)-
##MOLFORM=C10H10Mg
##CAS REGISTRY NO=1284-72-6
##MP= -300
##BP= -300
##MW= 154
##$RETENTION INDEX=0
##$CONDENSED SPECTRUM=NO
##NPOINTS= 81
##XYDATA=(XY..XY) 1 
    23          0
    25         75
    26         71
    27         15
    31         16
    32          4
    33          6
    36          2
    37         19
    38         40
    39        169
    40         96
    41          5
    42          4
    43          0
    48          1
    49         33
    50         11
    51         16
    52          2
    53          0
    56          1
    58          1
    60          3
    61         16
    62         31
    63         36
    64         11
    65        163
    66        290
    67         17
    68          0
    71          1
    72          1
    73          0
    74          0
    75          1
    76          1
    77         17
    78          3
    79          0
    86          1
    87          0
    88          7
    89        999
    90        181
    91        143
    92          8
    93          0
    94          0
    95          0
    97          0
    98          0
    99          0
   101          1
   102          3
   103          5
   104          0
   114          0
   115          7
   116          0
   121          4
   122          0
   123          4
   124          0
   125          1
   126          1
   127         18
   128         37
   129         34
   130         21
   131          1
   141          0
   142          0
   143          0
   153          0
   154        564
   155        133
   156         87
   157          9
   158          0