##TITLE=Library Entry 48805
##JCAMP-DX=Revision 4.10 
##DATA TYPE=MASS SPECTRUM
##SAMPLE DESCRIPTION=Chemical Concepts
##NAMES=HP
##CAS NAME=3-Cyclohexene-1-carboxylic acid, 6-hydroxy-, ethyl ester, trans-(
.+-.)-
##MOLFORM=C9H14O3
##CAS REGISTRY NO=128435-46-1
##MP= -300
##BP= -300
##MW= 170
##$RETENTION INDEX=0
##$CONDENSED SPECTRUM=NO
##NPOINTS= 78
##XYDATA=(XY..XY) 1 
    25         17
    27        171
    28          2
    29        238
    30          6
    31         45
    38         10
    39        143
    40         26
    41        188
    42         23
    43         62
    44         15
    45         28
    47         23
    50         11
    51         34
    52         17
    53         58
    54        302
    55         92
    56          6
    57         29
    60         17
    61          7
    63          6
    65         25
    66         32
    67        168
    68         55
    69         38
    70         65
    71         90
    72          5
    73         29
    74         11
    75          9
    77         75
    78        368
    79        999
    80         83
    81         47
    82         10
    83         20
    86         10
    87         10
    88        107
    89         10
    93          6
    94         10
    95         91
    96         86
    97         74
    98          8
    99         23
   101         10
   105          9
   106         27
   107         45
   108          8
   113          3
   114          6
   116         47
   117          4
   123         72
   124         58
   125        155
   126         11
   127          3
   137         11
   142          9
   151         27
   152        199
   153         19
   169          0
   170         12
   171          1
   172          0