##TITLE=Library Entry 32598
##JCAMP-DX=Revision 4.10 
##DATA TYPE=MASS SPECTRUM
##SAMPLE DESCRIPTION=Chemical Concepts
##NAMES=HP
##CAS NAME=3,7,12-Tridecatrienoic acid, methyl ester, (Z,E)-
##MOLFORM=C14H22O2
##CAS REGISTRY NO=128461-67-6
##MP= -300
##BP= -300
##MW= 222
##$RETENTION INDEX=0
##$CONDENSED SPECTRUM=NO
##NPOINTS= 113
##XYDATA=(XY..XY) 1 
    26          5
    27        104
    29        122
    30          3
    31          7
    38          3
    39        172
    40         20
    41        406
    42         25
    43         77
    44          2
    45          9
    50          4
    51         16
    52         13
    53        109
    54        207
    55        515
    56         22
    57          8
    58          2
    59        172
    60          6
    61          3
    63          4
    65         37
    66         30
    67        999
    68         83
    69         24
    70          2
    71        152
    72         55
    73          4
    74         38
    75         12
    77         50
    78         23
    79        161
    80         95
    81        199
    82         80
    83         17
    84         32
    85         24
    86          2
    87         12
    88         10
    91         69
    92         31
    93        155
    94         98
    95         53
    96         17
    97          9
    98          9
    99          9
   100         11
   101          4
   104          4
   105         28
   106         54
   107        101
   108         45
   109        143
   110         15
   111         10
   112          2
   113         78
   114        105
   115         11
   117          4
   119         20
   120         20
   121         50
   122         18
   123          7
   125          3
   126         18
   127          7
   131          7
   133         18
   134          8
   135         46
   136         16
   137          3
   138          2
   139          5
   140         18
   141          4
   146          6
   147         11
   148         98
   149         36
   150          4
   152          3
   153          5
   154          9
   155          3
   161          5
   162         10
   163          4
   165          3
   166          5
   167          4
   173          4
   179          3
   180         11
   181          5
   190          5
   191          5
   193          4