##TITLE=Library Entry 24431
##JCAMP-DX=Revision 4.10 
##DATA TYPE=MASS SPECTRUM
##SAMPLE DESCRIPTION=Chemical Concepts
##NAMES=HP
##CAS NAME=Propanoic acid, 2,2-dimethyl-, 5-(acetylthio)-3-[(3,4-dihydro-2,4
-dioxo-1(2H)-pyrimidinyl)methoxy]pentyl ester, (R)-
##MOLFORM=C17H26N2O6S
##CAS REGISTRY NO=128435-65-4
##MP= -300
##BP= -300
##MW= 386
##$RETENTION INDEX=0
##$CONDENSED SPECTRUM=NO
##NPOINTS= 140
##XYDATA=(XY..XY) 1 
    26         14
    27        101
    28         91
    29        183
    30         12
    31          9
    35          4
    38          5
    39        107
    40         38
    41        367
    42         85
    43        795
    44         24
    45         39
    46         21
    47         33
    51          7
    52         15
    53         48
    54         38
    55        117
    56         32
    57        999
    58         45
    59         40
    60         11
    61         26
    63          3
    65         13
    66          8
    67        138
    68         34
    69         56
    70         41
    71         18
    72         13
    73         21
    74         11
    75          7
    76          5
    77          4
    81          4
    82        723
    83         72
    84         63
    85        109
    86         36
    87         27
    88          8
    89          9
    95          9
    96         17
    97         14
    98         15
    99         78
   100         43
   101        216
   102         48
   103         25
   104          2
   105          3
   110          3
   111          5
   112         47
   113        253
   114         19
   115          9
   116          3
   117         51
   118          4
   119          5
   125        281
   126        203
   127         85
   128         13
   129         11
   130         11
   131         42
   132          4
   133          4
   139          3
   141         42
   142          7
   143         68
   144         36
   145          7
   146          2
   147          6
   149          3
   152          4
   153          9
   154          3
   155          9
   157          4
   158          8
   159         65
   160          6
   161          6
   168         24
   169         17
   170          2
   171          2
   172          2
   181          4
   183          6
   185         13
   186          4
   187          2
   199          9
   201         22
   202          2
   203         28
   204          3
   209          5
   211          3
   214          3
   215         18
   219          9
   223          4
   225          4
   227          5
   229          3
   231          4
   233         20
   234          2
   241          4
   242          8
   243          7
   244          4
   245         33
   246          5
   247          2
   275         28
   276          4
   311          9
   343          4
   344          6
   386          2
   387          1