##TITLE=Library Entry 15913
##JCAMP-DX=Revision 4.10 
##DATA TYPE=MASS SPECTRUM
##SAMPLE DESCRIPTION=A.A.Kutin, Moscow, Russia
##NAMES=HP
##CAS NAME=Acetamide, N-(1-methyl-3-phenylpropyl)-
##MOLFORM=C12H17NO
##CAS REGISTRY NO=128442-57-9
##MP= -300
##BP= -300
##MW= 191
##$RETENTION INDEX=0
##$CONDENSED SPECTRUM=NO
##NPOINTS= 95
##XYDATA=(XY..XY) 1 
    37          1
    38          8
    39         93
    40         12
    41         50
    42        124
    43        477
    44        999
    45         43
    46          0
    50         31
    51         92
    52         25
    53         16
    54         16
    55          8
    56         24
    57         21
    58        139
    59         14
    60         92
    61          3
    62          9
    63         38
    64         11
    65        139
    66          9
    67          1
    68          1
    69          0
    70          8
    72        242
    73         11
    74          8
    75          8
    76         11
    77        123
    78         67
    79         53
    80          4
    81          0
    82          0
    83          0
    84          1
    86        143
    87        770
    88         39
    89         28
    91        385
    92         43
    93          3
    94          0
    96          1
    98          2
   100         43
   101          4
   102         12
   103         56
   104         67
   105         46
   106          9
   107          4
   108          0
   113          0
   115         56
   117        405
   118         43
   119          3
   120          6
   121          0
   126          0
   127          3
   128          8
   129          9
   130         10
   131         40
   132        139
   133         18
   134         22
   135          2
   136          0
   143          0
   144          1
   145          0
   146          2
   147          1
   148          5
   149          2
   150          0
   174          0
   176          1
   177          0
   191        143
   192         22
   193          2