##TITLE=Library Entry 64318
##JCAMP-DX=Revision 4.10 
##DATA TYPE=MASS SPECTRUM
##SAMPLE DESCRIPTION=LAC, NIDDK, NIH, Bethesda, MD 20892
##NAMES=HP
##CAS NAME=2-Oxo-3-phenylpropionic acid, 4'-benzyloxy-
##MOLFORM=C16H14O4
##CAS REGISTRY NO=128437-99-0
##MP= -300
##BP= -300
##MW= 270
##$RETENTION INDEX=0
##$CONDENSED SPECTRUM=NO
##NPOINTS= 67
##XYDATA=(XY..XY) 1 
    41          6
    43          0
    44          4
    45         31
    46          0
    50         10
    51         27
    52         15
    53          4
    62          6
    63         26
    64         11
    65         96
    66          9
    74          0
    75          3
    76          5
    77         36
    78         41
    79          8
    80          3
    81          2
    82          2
    89         29
    90         20
    91        999
    92         83
    93          5
    94          2
    99          2
   105          9
   106         14
   107         12
   120          1
   121          3
   122          3
   127          3
   128          5
   133         24
   134          4
   152          3
   165          4
   167          0
   178          4
   179          1
   180          2
   181          3
   195          2
   197         26
   198          6
   211         10
   212         19
   213         26
   214          4
   224         18
   225          3
   227          1
   228          1
   242          6
   252          2
   254          2
   258          2
   259          1
   269          0
   270        330
   271         58
   272         10