##TITLE=Library Entry 80589
##JCAMP-DX=Revision 4.10 
##DATA TYPE=MASS SPECTRUM
##SAMPLE DESCRIPTION=A.A.Kutin, Moscow, Russia
##NAMES=HP
##CAS NAME=Quinoline-2,4(1H,3H)-dione, 3-azido-3-ethyl-1-methyl-
##MOLFORM=C12H12N4O2
##CAS REGISTRY NO=128564-91-0
##MP= -300
##BP= -300
##MW= 244
##$RETENTION INDEX=0
##$CONDENSED SPECTRUM=NO
##NPOINTS= 117
##XYDATA=(XY..XY) 1 
    33          5
    37         10
    38         31
    39         95
    40         36
    41         48
    42         33
    43         19
    44         26
    45          1
    50         78
    51        101
    52         43
    53         25
    54         33
    55         19
    56         20
    57          8
    58          5
    59          0
    61          7
    62         25
    63        102
    64         95
    65         27
    66         25
    67         25
    69         76
    70          6
    71          4
    72          4
    73         22
    74         29
    75         47
    76        104
    77        261
    78        239
    79         33
    80          6
    81          4
    82          4
    83          8
    84          1
    85          3
    86          3
    87          6
    88         11
    89         27
    90        125
    91         35
    92         77
    93          8
    94          0
    95          2
    97          2
    98          0
    99          2
   100          2
   102         41
   104        963
   105        999
   106         86
   107          6
   111          2
   113          1
   114          3
   115         16
   116         31
   117         18
   118         14
   119          7
   120          3
   121          5
   127          3
   128          8
   129         10
   130         41
   131         40
   132        122
   133        624
   134         78
   135          6
   141          1
   142          3
   143          6
   144         15
   146         88
   147         11
   149         10
   157          2
   158          8
   159         37
   161        382
   162         37
   163          3
   171          2
   172          7
   173         13
   174         19
   175          6
   184          1
   186         24
   187        106
   188         25
   189          5
   199          2
   200         11
   201         10
   202         19
   203         13
   204          1
   215          0
   216          5
   217          1
   218          0
   244         77
   245         10