##TITLE=Library Entry 50922
##JCAMP-DX=Revision 4.10 
##DATA TYPE=MASS SPECTRUM
##SAMPLE DESCRIPTION=Chemical Concepts
##NAMES=HP
##CAS NAME=2-Cyclopentene-1-carboxamide, 2-methyl-N-phenyl-
##MOLFORM=C13H15NO
##CAS REGISTRY NO=128535-01-3
##MP= -300
##BP= -300
##MW= 201
##$RETENTION INDEX=0
##$CONDENSED SPECTRUM=NO
##NPOINTS= 114
##XYDATA=(XY..XY) 1 
    26          4
    27         83
    28          2
    29         30
    30          1
    37          2
    38         11
    39        120
    40         19
    41        165
    42          9
    43          7
    44          2
    50         14
    51         71
    52         27
    53        152
    54         17
    55         43
    56          4
    57          8
    62          2
    63         16
    64         21
    65         99
    66         79
    67        373
    68         22
    69          7
    70          1
    71          5
    74          3
    75          2
    76          5
    77        228
    78         27
    79        263
    80        127
    81        999
    82        540
    83         48
    84          2
    85          2
    86          1
    89          1
    90          2
    91         37
    92         91
    93        699
    94         69
    95          6
    96          3
    97          5
    98          2
    99          1
   103          6
   104          5
   105          3
   106          6
   107         11
   108        366
   109        109
   110         12
   111          4
   113          1
   115          2
   117          3
   118          3
   119        102
   120        122
   121         17
   122         10
   123          2
   124          1
   125          1
   128          1
   129          1
   130          4
   131         10
   132          2
   133          1
   135          2
   137          1
   141          1
   142          1
   143          2
   144          3
   146          1
   147          1
   148          2
   149          1
   153          1
   156          3
   157          8
   158          6
   159          1
   160          1
   161          1
   162          1
   165          3
   167          1
   170          1
   172          9
   173         24
   174          3
   180          1
   184          1
   186         29
   187          6
   188          1
   200          7
   201        775
   202        114
   203         13