##TITLE=Library Entry 97356
##JCAMP-DX=Revision 4.10 
##DATA TYPE=MASS SPECTRUM
##SAMPLE DESCRIPTION=G. Lange, Inst. Org. Chem., Univ. Wurzburg, Germany
##NAMES=HP
##CAS NAME=1,3-Methanopentalene, 1,2,3,5-tetrahydro-
##MOLFORM=C9H10
##CAS REGISTRY NO=128600-88-4
##MP= -300
##BP= -300
##MW= 118
##$RETENTION INDEX=0
##$CONDENSED SPECTRUM=NO
##NPOINTS= 41
##XYDATA=(XY..XY) 1 
    37          6
    38         26
    39        182
    40         25
    41         19
    44          9
    50         51
    51        110
    52         34
    53         21
    57         77
    58         46
    61          7
    62         33
    63         95
    64         18
    65        105
    66         17
    74         16
    75         15
    76         16
    77        102
    78         68
    79         13
    86          5
    87          7
    89         55
    90         19
    91        320
    92         35
   102         32
   103        135
   104         12
   105          5
   113         27
   114          6
   115        484
   116        110
   117        999
   118        350
   119         29