##TITLE=Library Entry 114084
##JCAMP-DX=Revision 4.10 
##DATA TYPE=MASS SPECTRUM
##SAMPLE DESCRIPTION=G. Lange, Inst. Org. Chem., Univ. Wurzburg, Germany
##NAMES=HP
##CAS NAME=1,3-Methano-1H-indene-4,5-dicarboxylic acid, 2,3,3a,6-tetrahydro-
, dimethyl ester
##MOLFORM=C14H16O4
##CAS REGISTRY NO=128600-92-0
##MP= -300
##BP= -300
##MW= 248
##$RETENTION INDEX=0
##$CONDENSED SPECTRUM=NO
##NPOINTS= 129
##XYDATA=(XY..XY) 1 
    38          5
    39        121
    40         14
    41         66
    43         20
    44         15
    45         38
    47          9
    50         32
    51        118
    52         44
    53         85
    54         59
    55         42
    56          5
    57         15
    58          7
    59        506
    60         11
    62         12
    63         77
    64         63
    65         94
    66         22
    67         33
    69         29
    71         22
    74         11
    75         36
    76         44
    77        236
    78         91
    79         48
    80          5
    85          5
    87         11
    88          8
    89         60
    90         38
    91        232
    92         45
    93         11
    94          6
    95          6
   101         32
   102         76
   103        127
   104         31
   105        257
   106         31
   107          6
   111          5
   113         11
   114         21
   115        390
   116         99
   117        184
   118         58
   119         38
   120          7
   121          9
   125          5
   126         24
   127        259
   128        588
   129        999
   130        544
   131        140
   132         18
   133         29
   134          7
   135         12
   141         17
   142         25
   143         97
   144         35
   145        246
   146         42
   147         29
   148          5
   149         26
   150         10
   151          5
   154          6
   155         79
   156        142
   157        883
   158        170
   159         42
   160         13
   161         39
   162         20
   163        101
   164         10
   171         12
   172         14
   173         53
   174         20
   175         13
   176         14
   177         15
   179         33
   183         19
   184         82
   185         30
   186         20
   187         44
   188        145
   189        908
   190        148
   191         17
   199         34
   200          7
   201         82
   202         11
   203         14
   207         45
   208          5
   213         22
   214         28
   215        203
   216        187
   217        283
   218         39
   219          5
   233          5
   247          7
   248        291
   249         45