##TITLE=Library Entry 16636
##JCAMP-DX=Revision 4.10 
##DATA TYPE=MASS SPECTRUM
##SAMPLE DESCRIPTION=A.A.Kutin, Moscow, Russia
##NAMES=HP
##CAS NAME=Pyrimidine-2,4,6(1H,3H,5H)-trione, 1,3-diethyl-5-[(1,3-diethyl-2,
4,6-trioxoperhydro-5-pyrimidinyl)methylene]-
##MOLFORM=C17H22N4O6
##CAS REGISTRY NO=128644-14-4
##MP= -300
##BP= -300
##MW= 378
##$RETENTION INDEX=0
##$CONDENSED SPECTRUM=NO
##NPOINTS= 95
##XYDATA=(XY..XY) 1 
    39        116
    40         11
    41         29
    42        207
    43        114
    44        999
    45        105
    52        189
    53        108
    54         52
    55         54
    56        171
    57         40
    65         44
    66         78
    67         23
    68         53
    69         89
    70        299
    71         29
    72         63
    77         33
    78         31
    79         67
    80        240
    81        117
    82        111
    83         79
    85        103
    86         94
    91         45
    92         41
    93         62
    94        110
    95         88
    96         70
    97         47
    98        125
    99         59
   108         56
   109        213
   110         91
   111         52
   112         39
   113         61
   114         39
   115        155
   120         61
   123         45
   124        186
   125         46
   126         78
   128        119
   136         62
   137         94
   138         17
   141         36
   142         36
   143         99
   152         36
   153         73
   154        363
   155         76
   156         97
   164        286
   165         24
   167        113
   168         64
   169         42
   180         94
   181        107
   182        292
   183         59
   184        254
   185        107
   192        102
   195        447
   196         97
   197        259
   206          7
   207         24
   208        302
   209         62
   235        129
   236         70
   237         50
   263        555
   264         88
   279         27
   305         60
   306         24
   307         17
   350         27
   378        682
   379        128