##TITLE=Library Entry 42665
##JCAMP-DX=Revision 4.10 
##DATA TYPE=MASS SPECTRUM
##SAMPLE DESCRIPTION=NIST Mass Spectrometry Data Center, 2010
##NAMES=HP
##CAS NAME=d-Mannose, 2,3,4,5,6-pentakis-O-(trimethylsilyl)-, o-methyloxyme,
 (1E)-
##MOLFORM=C22H55NO6Si5
##CAS REGISTRY NO=128705-61-3
##MP= -300
##BP= -300
##MW= 569
##$RETENTION INDEX=1885
##$CONDENSED SPECTRUM=NO
##NPOINTS= 224
##XYDATA=(XY..XY) 1 
    15          3
    27          2
    28          7
    29         10
    30          3
    31          9
    32          4
    39          1
    41          7
    42          1
    43         10
    44          9
    45         62
    46          4
    47          7
    48          1
    49          1
    52          1
    53          2
    54          3
    55          7
    56          1
    57          3
    58          7
    59         39
    60          4
    61          4
    66          1
    67          1
    68          1
    69          3
    70          3
    71          2
    72         15
    73        999
    74         85
    75         78
    76          4
    77          5
    79          1
    81          1
    82          2
    83          3
    84          3
    85          3
    86          2
    87          3
    88          5
    89         63
    90          5
    91          2
    96          2
    97          2
    98          1
    99          3
   100         15
   101         15
   102          9
   103        224
   104         21
   105         17
   106          2
   107          1
   111          2
   112          1
   113          4
   114          5
   115          5
   116          7
   117         97
   118          9
   119         11
   120          1
   121          1
   126          2
   127          4
   128          3
   129         62
   130         13
   131         29
   132          5
   133         96
   134         12
   135          7
   136          1
   140          1
   141          2
   142          3
   143         11
   144          2
   145          5
   146          2
   147        354
   148         55
   149         33
   150          4
   151          1
   152          1
   153          1
   154          2
   155          1
   156          2
   157         42
   158          8
   159          7
   160        226
   161         41
   162         10
   163         12
   164          2
   165          1
   168          1
   169          4
   170          1
   171          1
   172         13
   173          7
   174          3
   175          7
   176          1
   177          8
   178          2
   179          1
   180          1
   182          1
   186          4
   187          2
   188          3
   189         39
   190         11
   191         18
   192          3
   193          2
   196          1
   200          3
   201         61
   202         11
   203          8
   204         62
   205        298
   206         57
   207         30
   208          5
   209          1
   210          1
   214          4
   215          2
   216          2
   217        116
   218         24
   219         11
   220          2
   221          9
   222          2
   223          1
   228          1
   229         25
   230          8
   231          7
   232          3
   233         14
   234          5
   235          7
   236          2
   242          3
   243          4
   244          3
   245          2
   246          3
   247          2
   248          1
   259          2
   260          1
   261          1
   262          1
   265          1
   268          7
   269          2
   270          1
   273          2
   274          4
   275          2
   277         10
   278          3
   279          2
   280          1
   291         15
   292          4
   293          2
   300          2
   302          4
   303          2
   304          2
   305         10
   306          4
   307         11
   308          2
   309          2
   315          1
   316          1
   317          1
   318          1
   319        257
   320         74
   321         39
   322          8
   323          2
   328          1
   331          1
   332          2
   333          1
   334          1
   337          2
   338          1
   342          2
   344          6
   345          2
   347          1
   358          1
   365          2
   374          1
   376          2
   377          1
   448          1