##TITLE=Library Entry 80501
##JCAMP-DX=Revision 4.10 
##DATA TYPE=MASS SPECTRUM
##SAMPLE DESCRIPTION=Chemical Concepts
##NAMES=HP
##CAS NAME=4-Hydroxy-4-methyl-6-phenyltetrahydropyran-2-one
##MOLFORM=C12H14O3
##CAS REGISTRY NO=128720-71-8
##MP= -300
##BP= -300
##MW= 206
##$RETENTION INDEX=0
##$CONDENSED SPECTRUM=NO
##NPOINTS= 103
##XYDATA=(XY..XY) 1 
    26         13
    27         96
    28         21
    29         69
    30          3
    31         59
    37          5
    38         23
    39        183
    40         25
    41         69
    42        135
    43        596
    44         19
    45         13
    49          3
    50        109
    51        292
    52         85
    53         39
    54         14
    55         36
    56          7
    57         91
    58        445
    59         33
    60          6
    61          5
    62         22
    63         75
    64         18
    65         65
    66          6
    67          4
    69         11
    71         11
    72         33
    73          6
    74         39
    75         38
    76         47
    77        484
    78        281
    79        189
    80         12
    82         35
    83          9
    84          3
    85         30
    86          4
    87         12
    89         34
    90          9
    91        122
    92         13
    93          2
    94          2
    98          2
    99          3
   100          6
   101          6
   102         48
   103        224
   104        827
   105        999
   106        126
   107        304
   108         22
   115         41
   116         10
   117         24
   118          6
   119          4
   120         14
   121          4
   126          2
   127         16
   128         35
   129         31
   130          4
   131         21
   132          5
   141          4
   142          2
   143          5
   144          3
   145         38
   146         13
   147          8
   159         10
   160        208
   161         24
   163          2
   164          6
   171          6
   173         18
   178         15
   179          2
   187          3
   188        248
   189         36
   190          3
   206          5