##TITLE=Library Entry 42667
##JCAMP-DX=Revision 4.10 
##DATA TYPE=MASS SPECTRUM
##SAMPLE DESCRIPTION=NIST Mass Spectrometry Data Center, 2010
##NAMES=HP
##CAS NAME=d-Galactose, 2,3,4,5,6-pentakis-O-(trimethylsilyl)-, o-methyloxym
e, (1E)-
##MOLFORM=C22H55NO6Si5
##CAS REGISTRY NO=128705-64-6
##MP= -300
##BP= -300
##MW= 569
##$RETENTION INDEX=1898
##$CONDENSED SPECTRUM=NO
##NPOINTS= 237
##XYDATA=(XY..XY) 1 
    15          2
    26          1
    27          2
    28          4
    29          7
    30          2
    31          6
    32          3
    39          1
    41          6
    42          1
    43          8
    44          9
    45         58
    46          3
    47          6
    53          2
    54          3
    55          8
    56          1
    57          3
    58          7
    59         37
    60          3
    61          4
    66          1
    67          1
    68          1
    69          3
    70          2
    71          2
    72         15
    73        999
    74         84
    75         67
    76          3
    77          3
    81          1
    82          2
    83          3
    84          2
    85          3
    86          2
    87          3
    88          4
    89         60
    90          5
    91          3
    96          3
    97          2
    98          1
    99          3
   100         15
   101         16
   102          9
   103        265
   104         26
   105         17
   106          2
   111          2
   112          1
   113          4
   114          5
   115          6
   116          7
   117         99
   118         10
   119         10
   120          1
   121          1
   126          2
   127          3
   128          3
   129         64
   130         12
   131         29
   132          5
   133         88
   134         11
   135          7
   136          1
   140          1
   141          2
   142          3
   143         13
   144          2
   145          5
   146          2
   147        360
   148         56
   149         34
   150          4
   151          2
   152          1
   154          2
   155          1
   156          1
   157         42
   158          8
   159          7
   160        144
   161         32
   162          8
   163         12
   164          2
   165          1
   168          1
   169          5
   170          1
   171          1
   172         13
   173          7
   174          2
   175          7
   176          1
   177          9
   178          2
   179          1
   180          1
   182          2
   185          1
   186          5
   187          2
   188          3
   189         43
   190         11
   191         20
   192          3
   193          2
   196          1
   200          1
   201         51
   202         11
   203          9
   204         74
   205        336
   206         68
   207         32
   208          4
   209          1
   210          1
   214          5
   215          2
   216          3
   217        175
   218         36
   219         17
   220          3
   221          8
   222          2
   223          1
   228          1
   229         26
   230         11
   231          7
   232          3
   233         12
   234          5
   235         10
   236          2
   237          1
   240          1
   242          2
   243          3
   244          3
   245          3
   246          4
   247          4
   248          1
   249          1
   256          1
   259          2
   260          1
   261          1
   262          2
   263          1
   265          1
   268          6
   269          2
   270          1
   273          2
   274          3
   275          1
   276          1
   277         13
   278          5
   279          2
   288          1
   291         15
   292          5
   293          3
   294          1
   300          2
   302          3
   303          1
   304          3
   305         12
   306          5
   307         16
   308          5
   309          3
   310          1
   315          1
   316          1
   317          1
   318          2
   319        282
   320         84
   321         41
   322          8
   323          2
   328          1
   331          1
   332          2
   333          2
   334          1
   335          1
   337          1
   342          3
   343          1
   344          8
   345          3
   346          1
   347          2
   349          1
   358          1
   365          2
   366          1
   374          1
   376          2
   377          1
   379          1
   402          1
   405          1
   409          1
   432          1
   480          1