##TITLE=Library Entry 7779
##JCAMP-DX=Revision 4.10 
##DATA TYPE=MASS SPECTRUM
##SAMPLE DESCRIPTION=Chemical Concepts
##NAMES=HP
##CAS NAME=d-Glucitol, 1-S-decyl-1-thio-
##MOLFORM=C16H34O5S
##CAS REGISTRY NO=128708-96-3
##MP= -300
##BP= -300
##MW= 338
##$RETENTION INDEX=0
##$CONDENSED SPECTRUM=NO
##NPOINTS= 115
##XYDATA=(XY..XY) 1 
    27        168
    28         73
    29        421
    31        157
    39        100
    40          5
    41        657
    42        164
    43        999
    44        119
    45        271
    46         29
    47        110
    48         50
    49         15
    53         47
    54         42
    55        642
    56        215
    57        815
    58         87
    59        103
    60        184
    61        761
    62         29
    63         22
    67         92
    68         80
    69        407
    70        150
    71        429
    72         54
    73        633
    74        115
    75         78
    76         31
    77         56
    79          1
    81         59
    82         59
    83        347
    84        119
    85        396
    86        238
    87        601
    88         56
    89        147
    90          1
    91         80
    95         29
    96         19
    97        291
    98         82
    99        142
   100          1
   101         82
   102         19
   103        266
   104         42
   105          5
   110         12
   111        321
   112         89
   113         19
   114         15
   115        450
   116         35
   117         17
   127         14
   128         42
   129        717
   130         54
   131         33
   132         28
   133        317
   134         14
   140         92
   141          1
   143          7
   145         26
   146         43
   147        615
   148         40
   159          1
   171         10
   172          1
   173        415
   174        103
   175         63
   187        526
   188        438
   189        171
   190         31
   201          1
   203          1
   216         24
   217        273
   218         36
   219          1
   229        336
   230         66
   231         22
   247          3
   259         17
   271        354
   272         70
   273         19
   277         24
   284         54
   285          1
   289         78
   302        122
   303         19
   320         38
   321          5