##TITLE=Library Entry 19391
##JCAMP-DX=Revision 4.10 
##DATA TYPE=MASS SPECTRUM
##SAMPLE DESCRIPTION=J. Klune, Insect Chem. Ecol. Lab., USDA, Beltsville, MD
 20705
##NAMES=HP
##CAS NAME=11-Dodecen-1-ol difluoroacetate
##MOLFORM=C14H24F2O2
##CAS REGISTRY NO=128792-45-0
##MP= -300
##BP= -300
##MW= 262
##$RETENTION INDEX=0
##$CONDENSED SPECTRUM=NO
##NPOINTS= 133
##XYDATA=(XY..XY) 1 
    41        890
    42        168
    43        224
    44         13
    45         11
    47          2
    49          2
    50          2
    51        144
    52          8
    53        103
    54        333
    55        999
    56        222
    57        163
    58          8
    59          9
    60         10
    61          6
    63          1
    65         20
    66         64
    67        509
    68        524
    69        618
    70        148
    71         77
    72          4
    73          3
    77         11
    78          4
    79         43
    80         67
    81        573
    82        713
    83        630
    84         87
    85         68
    86          4
    87          1
    91          5
    92          0
    93         14
    94         35
    95        436
    96        548
    97        476
    98         56
    99         13
   100          0
   101          2
   105          1
   107          7
   108         17
   109        261
   110        299
   111        265
   112         28
   113          5
   119          1
   121          6
   122         13
   123        139
   124        163
   125         89
   126          9
   127          3
   129          2
   131          0
   133          1
   135          6
   136          7
   137         97
   138        117
   139         30
   140          3
   141          2
   147          0
   149         10
   150          2
   151         27
   152         12
   153          8
   154          1
   155          1
   161          0
   163          1
   164          3
   165         35
   166        231
   167         72
   168          7
   169          1
   177          0
   179          8
   180          3
   181          1
   185          1
   193          4
   194          2
   205          4
   206          1
   207          5
   208          1
   211          3
   218          0
   219          3
   220          1
   221         13
   222          3
   223          2
   225          0
   227          2
   231          0
   232          0
   233          5
   234          2
   235          6
   236          1
   241          2
   244          1
   245          3
   246          2
   247          8
   248          1
   249          0
   250          0
   259          2
   260          1
   261         16
   262         30
   263          3
   264          0