##TITLE=Library Entry 42762
##JCAMP-DX=Revision 4.10 
##DATA TYPE=MASS SPECTRUM
##SAMPLE DESCRIPTION=NIST Mass Spectrometry Data Center, 2010
##NAMES=HP
##CAS NAME=d-Glucose, 2,3,4,5,6-pentakis-O-(trimethylsilyl)-, o-methyloxyme,
 (1Z)-
##MOLFORM=C22H55NO6Si5
##CAS REGISTRY NO=128705-73-7
##MP= -300
##BP= -300
##MW= 569
##$RETENTION INDEX=1883
##$CONDENSED SPECTRUM=NO
##NPOINTS= 251
##XYDATA=(XY..XY) 1 
    15          1
    27          2
    28         21
    29          9
    30          1
    31          5
    32          3
    39          1
    41          7
    42          1
    43          7
    44          8
    45         51
    46          4
    47          6
    52          1
    53          2
    54          3
    55          8
    56          1
    57          3
    58          6
    59         38
    60          3
    61          4
    66          1
    67          2
    68          1
    69          2
    70          3
    71          2
    72         16
    73        999
    74         84
    75         68
    76          4
    77          4
    80          1
    81          1
    82          4
    83          4
    84          2
    85          3
    86          5
    87          4
    88          4
    89         49
    90          4
    91          2
    97          1
    98          2
    99          4
   100         14
   101         18
   102          9
   103        186
   104         18
   105         28
   106          3
   107          1
   110          1
   111          2
   112          2
   113          5
   114         14
   115          8
   116          8
   117        114
   118         11
   119         11
   120          1
   121          1
   126          2
   127          5
   128          6
   129         77
   130         18
   131         33
   132          6
   133         90
   134         12
   135          7
   136          1
   139          1
   140          1
   141          2
   142          5
   143         16
   144          3
   145         10
   146          3
   147        422
   148         66
   149         40
   150          4
   151          2
   152          1
   154          2
   155          2
   156          2
   157         52
   158         12
   159          7
   160        290
   161         48
   162         14
   163         13
   164          2
   165          1
   168          2
   169          3
   170          1
   171          1
   172         16
   173          8
   174          4
   175          7
   176          1
   177          8
   178          1
   179          1
   180          1
   182          1
   185          1
   186          4
   187          2
   188          2
   189         52
   190         13
   191         25
   192          4
   193          2
   196          1
   198          1
   200          2
   201         50
   202         11
   203          9
   204         83
   205        357
   206         70
   207         35
   208          4
   209          1
   210          4
   211          1
   214          2
   215          3
   216         11
   217        145
   218         31
   219         13
   220          2
   221         10
   222          2
   223          1
   228          2
   229         30
   230         11
   231         15
   232          4
   233          7
   234          5
   235          1
   240          1
   241          1
   242          2
   243          3
   244          4
   245          2
   246          5
   247          2
   248          1
   254          1
   256          2
   257          1
   259          1
   260          1
   261          1
   262          8
   263          2
   264          1
   265          2
   268          4
   269          4
   270          2
   271          1
   274          8
   275          3
   276          2
   277         13
   278          5
   279          2
   288          1
   290          1
   291         21
   292          6
   293          4
   294          1
   300          3
   301          1
   302          6
   303          2
   304          3
   305         16
   306          7
   307         16
   308          4
   309          2
   315          1
   316          1
   317          1
   318          3
   319        359
   320        105
   321         51
   322         10
   323          2
   328          1
   330          1
   331          1
   332          4
   333          3
   334          1
   336          1
   342          2
   343          3
   344          6
   345          2
   346          1
   358          2
   359          1
   364          9
   365          5
   366          2
   367          1
   374          2
   375          1
   376          3
   377          1
   389          1
   390          1
   393          1
   402          1
   432          1
   433          1
   434          1
   448          1
   464          1
   466          1
   467          1