##TITLE=Library Entry 20389
##JCAMP-DX=Revision 4.10 
##DATA TYPE=MASS SPECTRUM
##SAMPLE DESCRIPTION=Institute of Organic Chemistry, USSR, 1990
##NAMES=HP
##CAS NAME=2-Isopropyl-4-methyl-1,3,2-oxathiaborinane
##MOLFORM=C7H15BOS
##CAS REGISTRY NO=128767-59-9
##MP= -300
##BP= -300
##MW= 158
##$RETENTION INDEX=0
##$CONDENSED SPECTRUM=NO
##NPOINTS= 30
##XYDATA=(XY..XY) 1 
    53         66
    54        126
    55        999
    56        146
    57        429
    58         80
    59        286
    60        371
    61        371
    69         94
    70         69
    71         74
    72        543
    73        200
    87         74
    88        286
    89        203
    91         74
   101         77
   102         74
   103         97
   106        114
   115         69
   116        100
   117         66
   124         54
   143         80
   157        100
   158        237
   159         43