##TITLE=Library Entry 26930
##JCAMP-DX=Revision 4.10 
##DATA TYPE=MASS SPECTRUM
##SAMPLE DESCRIPTION=H.Budzikiewicz ET AL.Org.Mass Spectr.,27,489 (1992)
##NAMES=HP
##CAS NAME=2,3-Di(2,2-dimethylethyl)thiophene-1,1-dioxide
##MOLFORM=C12H20O2S
##CAS REGISTRY NO=128788-12-5
##MP= -300
##BP= -300
##MW= 228
##$RETENTION INDEX=0
##$CONDENSED SPECTRUM=NO
##NPOINTS= 131
##XYDATA=(XY..XY) 1 
    41        253
    42         20
    43         69
    44         41
    45         18
    46          3
    47          3
    48         23
    49          3
    50         20
    51         52
    52         20
    53         66
    54          9
    55         69
    56         17
    57        999
    58         54
    59         11
    60          1
    61          5
    62          9
    63         43
    64         52
    65         77
    66         19
    67         51
    68          5
    69         89
    70         22
    71          5
    73          3
    74          9
    75         14
    76          5
    77        127
    78         43
    79        107
    80         23
    81         41
    82          5
    83         14
    84          3
    85         11
    86          9
    87          9
    88          1
    89         12
    90          6
    91        247
    92         43
    93        271
    94         37
    95         35
    96          9
    97         18
    98          5
    99          9
   101          5
   102          9
   103         37
   104         14
   105        134
   106         49
   107        232
   108        242
   109         45
   110         11
   111         31
   112         11
   113          9
   114         14
   115         22
   116         11
   117         30
   118         14
   119        123
   120         26
   121        136
   122         34
   123         57
   124         60
   125         26
   126         14
   127         34
   128          9
   129         11
   130          5
   131         13
   132          7
   133        157
   134        154
   135         39
   136          5
   137         11
   138          5
   139         11
   140          1
   141          5
   142          5
   143         25
   144          2
   145          9
   146         14
   147         30
   148         22
   149        526
   150         66
   151         11
   153         11
   154         31
   155         45
   156          5
   157          5
   161          3
   162          5
   163         14
   164         23
   165         18
   170          1
   171         22
   172          7
   181          4
   195          2
   211          5
   213        142
   214         19
   215          5
   228         65
   229         13
   230          2