##TITLE=Library Entry 25053
##JCAMP-DX=Revision 4.10 
##DATA TYPE=MASS SPECTRUM
##SAMPLE DESCRIPTION=Chemical Concepts
##NAMES=HP
##CAS NAME=d-Glucitol, 1-S-heptyl-1-thio-
##MOLFORM=C13H28O5S
##CAS REGISTRY NO=128708-93-0
##MP= -300
##BP= -300
##MW= 296
##$RETENTION INDEX=0
##$CONDENSED SPECTRUM=NO
##NPOINTS= 146
##XYDATA=(XY..XY) 1 
    26         45
    27        299
    28         16
    29        509
    30         30
    31        255
    33          3
    34          5
    35         17
    36          5
    37          7
    38         12
    39        134
    40         37
    41        735
    42        142
    43        484
    44         93
    45        205
    46         42
    47        131
    48         75
    49         35
    50         30
    51         41
    52         78
    53         51
    54         32
    55        680
    56        261
    57        999
    58         49
    59         79
    60        180
    61        761
    62         38
    63         25
    64          3
    65         17
    66         10
    67         41
    68         44
    69        216
    70        227
    71        147
    72         22
    73        588
    74        105
    75         58
    76         17
    77         64
    78         20
    79         83
    80          6
    81         34
    82         12
    83         57
    84         10
    85        142
    86        149
    87        360
    88         30
    89         99
    90         10
    91         60
    92          3
    93          8
    94          5
    95         11
    96         33
    97        185
    98        163
    99         70
   100          9
   101         49
   102         19
   103        160
   104         22
   105          8
   107          2
   109          4
   110          8
   111        120
   112         15
   113          9
   114         13
   115        256
   116         25
   117         12
   119          5
   120          2
   123          4
   124          3
   125          4
   127         13
   128         19
   129        336
   130         41
   131        218
   132         76
   133        114
   134          7
   135          3
   143          3
   144          3
   145        191
   146        165
   147        209
   148         22
   149          4
   156          3
   159          7
   160          3
   161          5
   162          3
   163          3
   167          5
   171          3
   174         12
   175         90
   176         12
   177          5
   185          2
   187        102
   188         17
   189          5
   199          4
   200          3
   201          2
   205          4
   216          2
   217         16
   218          2
   229        102
   230         15
   231          6
   235          4
   242         13
   243          4
   247         17
   248          3
   260         38
   261          3
   275          5
   278         12
   279          4