##TITLE=Library Entry 68830
##JCAMP-DX=Revision 4.10 
##DATA TYPE=MASS SPECTRUM
##SAMPLE DESCRIPTION=M. Cojocaru, Dep. Chem., Bar-Ilan Univ., Israel
##NAMES=HP
##CAS NAME=Cyclohexane, 1-(nitromethyl)-1-(2-propenylthio)-
##MOLFORM=C10H17NO2S
##CAS REGISTRY NO=128869-47-6
##MP= -300
##BP= -300
##MW= 215
##$RETENTION INDEX=0
##$CONDENSED SPECTRUM=NO
##NPOINTS= 61
##XYDATA=(XY..XY) 1 
    53         33
    54         11
    55         62
    59         14
    65         18
    67        256
    68         27
    69         12
    71         30
    72         10
    73         81
    74         21
    75         17
    77         25
    79         80
    80         35
    81        300
    82         38
    83         11
    84         10
    85         27
    87        217
    88         14
    89         38
    91         34
    93        124
    94         49
    95        999
    97         30
    99         32
   101         15
   109         14
   113         34
   115         46
   119         30
   121         34
   125         12
   126        229
   127         98
   128         14
   129         65
   135         52
   142         42
   147         14
   155        505
   156         55
   157         26
   159         63
   163         18
   167         18
   169        513
   170         80
   171         34
   185        162
   186         21
   187         10
   214         23
   215         59
   216        215
   217         26
   218         11