##TITLE=Library Entry 49211
##JCAMP-DX=Revision 4.10 
##DATA TYPE=MASS SPECTRUM
##SAMPLE DESCRIPTION=Dennis Rohrbaugh, CBDCOM/ERDEC, Edgewood, MD
##NAMES=HP
##CAS NAME=O-Ethyl S-vinyl methylphosphonothioate
##MOLFORM=C5H11O2PS
##CAS REGISTRY NO=128869-81-8
##MP= -300
##BP= -300
##MW= 166
##$RETENTION INDEX=0
##$CONDENSED SPECTRUM=NO
##NPOINTS= 24
##XYDATA=(XY..XY) 1 
    60        107
    61         31
    63         78
    65         78
    73         16
    77         58
    78         29
    79        999
    80         82
    81         18
    95        127
    96         25
    97         26
   107        108
   108        153
   121         29
   122         23
   123         33
   124         13
   138         23
   140         27
   166         88
   167         16
   168          4