##TITLE=Library Entry 71397
##JCAMP-DX=Revision 4.10 
##DATA TYPE=MASS SPECTRUM
##SAMPLE DESCRIPTION=A.A.Kutin, Moscow, Russia
##NAMES=HP
##CAS NAME=4H-Chromen-4-one, 2,3-dihydro-2,2-dimethyl-7-[2-(1-piperidyl)etho
xy]-
##MOLFORM=C18H25NO3
##CAS REGISTRY NO=128890-42-6
##MP= -300
##BP= -300
##MW= 303
##$RETENTION INDEX=0
##$CONDENSED SPECTRUM=NO
##NPOINTS= 110
##XYDATA=(XY..XY) 1 
    38          0
    39          5
    40          2
    41         26
    42         24
    43          6
    44         12
    45          0
    50          0
    51          2
    52          0
    53          3
    54          4
    55         34
    56         19
    57          3
    58          1
    59          0
    63          3
    64          0
    65          1
    66          0
    67          2
    68          3
    69         13
    70         13
    71          1
    72          0
    77          1
    78          1
    79          2
    80          1
    81          1
    82          6
    83         14
    84          3
    89          0
    91          6
    92          1
    93          0
    94          0
    95          1
    96         14
    98        999
    99         64
   100          1
   103          0
   105          1
   106          0
   107          3
   108          3
   109          0
   110          8
   111          9
   112         11
   113          1
   115          0
   117          0
   118          0
   119          6
   120          3
   121          2
   122          0
   123          1
   124          0
   127          0
   129          0
   130          0
   131          0
   132          0
   133          0
   134          0
   135          1
   136          2
   137          3
   138          0
   144          1
   145          0
   146          0
   147          1
   148          1
   149          3
   150          0
   151          0
   160          1
   161          1
   162          0
   163          2
   164          0
   171          1
   175          1
   176          1
   177          4
   178          0
   189          2
   190          1
   191          0
   192          1
   193          0
   197          0
   203          2
   205          0
   219          0
   232          0
   246          0
   301          0
   302          3
   303         34
   304          5
   305          0