##TITLE=Library Entry 26012
##JCAMP-DX=Revision 4.10 
##DATA TYPE=MASS SPECTRUM
##SAMPLE DESCRIPTION=Chemical Concepts
##NAMES=HP
##CAS NAME=1,3-Dioxan-4-one, 2-(1,1-dimethylethyl)-6-methyl-5-methylene-, ci
s-(.+-.)-
##MOLFORM=C10H16O3
##CAS REGISTRY NO=128973-66-0
##MP= -300
##BP= -300
##MW= 184
##$RETENTION INDEX=0
##$CONDENSED SPECTRUM=NO
##NPOINTS= 82
##XYDATA=(XY..XY) 1 
    25          7
    26         79
    27        477
    28         76
    29        370
    30          9
    31         29
    37         15
    38         32
    39        570
    40         58
    41        756
    42         81
    43        453
    44         42
    45        215
    46          6
    49          6
    50         32
    51         54
    52         40
    53        370
    54        867
    55        265
    56         78
    57        999
    58         46
    59         20
    67         12
    68         12
    69        204
    70         56
    71        221
    72         78
    73          8
    75         10
    77         13
    81        694
    82        209
    83        149
    84         28
    85         32
    86         20
    87        867
    88         53
    89          4
    91          4
    93          5
    95         10
    96          6
    97         52
    98         63
    99        156
   100         75
   101          8
   105         12
   107          4
   109          4
   110          4
   111         23
   112          5
   113          4
   115         10
   123          4
   124          3
   125         50
   126          6
   127        614
   128         71
   129         13
   138          7
   139          5
   140         11
   141          9
   142          2
   153          7
   169          4
   171          2
   182          6
   183          6
   185         14
   186          2