##TITLE=Library Entry 13690
##JCAMP-DX=Revision 4.10 
##DATA TYPE=MASS SPECTRUM
##SAMPLE DESCRIPTION=Chemical Concepts
##NAMES=HP
##CAS NAME=.alpha.-d-Galactopyranose, 6-O-[5-O-acetyl-2,3-O-(ethylborylene)-
.beta.-d-lyxofuranosyl]-1,2:3,4-bis-O-(1-methylethylidene)-
##MOLFORM=C21H33BO11
##CAS REGISTRY NO=128902-54-5
##MP= -300
##BP= -300
##MW= 472
##$RETENTION INDEX=0
##$CONDENSED SPECTRUM=NO
##NPOINTS= 226
##XYDATA=(XY..XY) 1 
    27         45
    28         28
    29         62
    30          2
    31         46
    35          1
    36          6
    37          1
    38          2
    39         32
    40          8
    41         77
    42         23
    43        999
    44         29
    45         25
    46          1
    47          2
    50          1
    51          2
    52          2
    53         15
    54          7
    55         88
    56         16
    57         75
    58         26
    59        135
    60         10
    61          7
    62          0
    63          0
    65          1
    66          1
    67          4
    68         36
    69         73
    70         21
    71         66
    72          6
    73         43
    74          2
    75          1
    76          1
    77          1
    78          0
    79          1
    81        151
    82         16
    83         36
    84         18
    85         75
    86         13
    87          8
    89          1
    91          0
    92          0
    93          1
    94          1
    95         11
    96         16
    97         32
    98         32
    99         47
   100        132
   101         26
   102          2
   103         12
   104          3
   105          1
   107          2
   108          1
   109         31
   110         32
   111        105
   112         16
   113         58
   114         12
   115         12
   116          1
   117          2
   118          0
   119          0
   121          1
   122          2
   123         47
   124        180
   125         34
   126         14
   127         50
   128         10
   129         13
   130          1
   131          1
   132          1
   133          0
   134          0
   135          0
   136          1
   137          7
   138         23
   139         16
   140         11
   141         27
   142          9
   143          8
   144          1
   145          8
   146          0
   148          0
   149         21
   150          3
   151          1
   152          4
   153         15
   154         20
   155         79
   156         13
   157          5
   159          0
   164          0
   165          2
   166          2
   167         12
   168          5
   169          8
   170          8
   171         18
   172          1
   173          3
   175          0
   177          0
   178          1
   179          1
   181          0
   182          2
   183         13
   184         44
   185         24
   186          3
   187          7
   188          0
   195          0
   197          1
   198          2
   199          4
   200          0
   201          5
   203          0
   207          0
   210          0
   211          5
   212         55
   213        204
   214         23
   215          6
   216          0
   224          0
   225          2
   227          2
   228          0
   229          4
   230          0
   231          5
   232          1
   233          1
   239          0
   240          1
   241          5
   242          1
   243          3
   245         19
   246          3
   253          0
   254          1
   255          0
   257          1
   259          3
   271          1
   273         12
   274          1
   275          0
   279          4
   280          1
   282          0
   283          1
   285          1
   289          2
   293          1
   296          0
   297          1
   298          1
   299          2
   301          1
   311          1
   312          1
   313          0
   314          1
   326          0
   328          0
   329          2
   331          2
   339          0
   340          0
   341          1
   353          1
   354          5
   355          3
   356          2
   369          0
   370          1
   371          0
   384          0
   385          2
   396          2
   397          1
   398          0
   399          2
   413          0
   414          0
   456         16
   457         61
   458         11
   459          2
   472          1
   473          0