##TITLE=Library Entry 8205
##JCAMP-DX=Revision 4.10 
##DATA TYPE=MASS SPECTRUM
##SAMPLE DESCRIPTION=Chemical Concepts
##NAMES=HP
##CAS NAME=.alpha.-d-Galactopyranose, 6-O-.beta.-d-lyxofuranosyl-1,2:3,4-bis
-O-(1-methylethylidene)-
##MOLFORM=C17H28O10
##CAS REGISTRY NO=128902-57-8
##MP= -300
##BP= -300
##MW= 392
##$RETENTION INDEX=0
##$CONDENSED SPECTRUM=NO
##NPOINTS= 205
##XYDATA=(XY..XY) 1 
    24          7
    26         40
    27        126
    28        111
    29        192
    30         52
    31        189
    33          0
    34          1
    36          1
    37          5
    38          7
    39         66
    40         18
    41        152
    42         51
    43        999
    44         61
    45         94
    46          3
    47         10
    49          3
    50          4
    51          4
    52          4
    53         32
    54         16
    55        122
    56         36
    57        199
    58         91
    59        601
    60         55
    61         64
    62          2
    63          1
    65          2
    66          2
    67          7
    68         30
    69        295
    70         28
    71        328
    72         26
    73        242
    74         16
    75          6
    76          1
    77          5
    78          2
    79          6
    80          5
    81        285
    82         27
    83         53
    84         71
    85        352
    86         48
    87         31
    88          2
    89          8
    91          4
    92          0
    93          3
    94          3
    95         23
    96          9
    97        109
    98         48
    99        117
   100        237
   101         81
   102          9
   103         23
   104          5
   105          2
   106          1
   107          5
   108          1
   109         90
   110         11
   111         21
   112          5
   113        147
   114         28
   115         59
   116         10
   117          9
   118          1
   119          3
   120          1
   121          3
   123          5
   124          3
   125          8
   126         17
   127        293
   128         25
   129         44
   130          6
   131         14
   132          5
   133         44
   134          4
   135          2
   136          1
   137          3
   138          1
   139         31
   140          3
   141         16
   142         17
   143         26
   144         11
   145         89
   146          6
   147          1
   149          6
   150          2
   151          4
   152          2
   153          4
   155         19
   156          7
   157          9
   158          1
   159          4
   160          0
   161          3
   163          1
   165          1
   167         10
   168          2
   169         23
   170          3
   171         26
   172          2
   173         65
   174          5
   175          3
   181          2
   183          1
   184          8
   185        113
   186         12
   187        106
   188          8
   189          5
   191          1
   195          1
   197          2
   199         11
   200          2
   201         10
   202         11
   203        107
   204         13
   205          1
   209          1
   213          3
   214          1
   215          6
   223          2
   227          4
   228          1
   229          3
   231        126
   232         13
   233          4
   234          1
   241          1
   243          8
   244          4
   245        174
   246         17
   247          4
   257          9
   258          2
   259          7
   260          1
   261          8
   262          1
   267          0
   271          0
   272          1
   273          6
   274          4
   275          1
   285          1
   287          5
   289         54
   290          8
   291          0
   299          2
   301          1
   302          7
   303          4
   304          0
   315          2
   316          1
   344          1
   361          2
   377         25
   378          3
   379          0