##TITLE=Library Entry 11175
##JCAMP-DX=Revision 4.10 
##DATA TYPE=MASS SPECTRUM
##SAMPLE DESCRIPTION=Chemical Concepts
##NAMES=HP
##CAS NAME=.beta.-D-Lyxofuranoside, methyl, cyclic 2,3-(ethylboronate) 5-ace
tate
##MOLFORM=C10H17BO6
##CAS REGISTRY NO=128902-52-3
##MP= -300
##BP= -300
##MW= 244
##$RETENTION INDEX=0
##$CONDENSED SPECTRUM=NO
##NPOINTS= 121
##XYDATA=(XY..XY) 1 
    24          1
    26         17
    27         85
    28         45
    29        126
    30          5
    31         37
    32          5
    33         26
    37          3
    38          2
    39         77
    40         24
    41         79
    42         57
    43        999
    44         39
    45        311
    46          5
    50          3
    51          4
    52          6
    53         23
    54         21
    55         88
    56         23
    57        121
    58         75
    59         32
    60          3
    61         40
    62          2
    63          1
    65          2
    66          3
    67         10
    68         60
    69         73
    70         62
    71         53
    72          3
    73         37
    74          8
    75          3
    76          0
    77          2
    78          1
    79          1
    81         14
    82         20
    83         92
    84         19
    85         53
    86         36
    87         24
    88          1
    89          2
    90          1
    94          4
    95         28
    96        115
    97         29
    98         78
    99         79
   100         12
   101          1
   103         12
   104          1
   105          1
   106          1
   107          2
   108          3
   109         14
   110        115
   111        404
   112         66
   113        102
   114          7
   115         10
   117          5
   118          1
   120          1
   121          3
   122          3
   123        104
   124        388
   125         66
   126          9
   127         24
   128          5
   129          3
   130          3
   137          6
   138         28
   139          7
   140         26
   141         86
   142        105
   143         22
   144          2
   152          2
   153          5
   154         32
   155        119
   156         14
   157          2
   168          0
   170         22
   171        101
   172         11
   173          2
   181          1
   182          1
   183         13
   184         38
   185          6
   211          1
   212          6
   213         14
   214          2
   215          1