##TITLE=Library Entry 13687
##JCAMP-DX=Revision 4.10 
##DATA TYPE=MASS SPECTRUM
##SAMPLE DESCRIPTION=Chemical Concepts
##NAMES=HP
##CAS NAME=.alpha.-d-Glucofuranose, 3-O-[5-O-acetyl-2,3-O-(ethylborylene)-.b
eta.-d-lyxofuranosyl]-1,2:5,6-bis-O-(1-methylethylidene)-
##MOLFORM=C21H33BO11
##CAS REGISTRY NO=128902-55-6
##MP= -300
##BP= -300
##MW= 472
##$RETENTION INDEX=0
##$CONDENSED SPECTRUM=NO
##NPOINTS= 224
##XYDATA=(XY..XY) 1 
    24          0
    26          2
    27         19
    28          7
    29         25
    30          1
    31         23
    38          0
    39         19
    41         57
    42         17
    43        999
    44         24
    45         11
    51          1
    52          1
    53          9
    54          3
    55        168
    56         11
    57         45
    58         10
    59         91
    60          5
    61         14
    62          0
    63          0
    65          1
    66          1
    67          2
    68         22
    69         53
    70         12
    71         36
    72         33
    73         75
    74          3
    75          0
    76          0
    77          1
    78          0
    79          1
    80          1
    81         37
    82          9
    83         17
    84          8
    85         35
    86         11
    87          3
    89          0
    91          0
    92          0
    93          1
    94          0
    95          7
    96         12
    97         34
    98         26
    99         45
   100         33
   101        430
   102         23
   103          4
   104          0
   105          0
   107          1
   108          1
   109         14
   110         23
   111         98
   112          8
   113         31
   114          4
   115         26
   116          1
   117          1
   119          0
   121          0
   122          1
   123         30
   124        117
   125         45
   126          7
   127         44
   128          7
   129         23
   130          1
   131          1
   133          0
   135          0
   136          0
   137          4
   138         11
   139          7
   140          9
   141         25
   142          3
   143          7
   144          0
   145          1
   149          1
   150          0
   151          2
   152         10
   153         43
   154         13
   155         54
   156          7
   157          4
   158          0
   159          1
   163          0
   164          0
   165          2
   166          1
   167          6
   168          1
   169          5
   170          5
   171         20
   172          2
   173          4
   174          0
   175          8
   176          0
   177          0
   178          0
   179          0
   180          0
   181          0
   182          2
   183         11
   184         13
   185         12
   186          1
   187          4
   188          0
   191          0
   193          0
   195          1
   196          0
   197          1
   198          0
   199          1
   201          2
   202          0
   203          0
   205          0
   207          0
   208          0
   209          0
   210          0
   211          3
   212        115
   213        480
   214         48
   215          9
   216          0
   217          0
   221          1
   222          0
   223          0
   224          0
   225          0
   226          0
   227          0
   228          0
   229          2
   230          0
   231          3
   232          0
   237          0
   239          0
   240          0
   241          0
   242          0
   243          1
   244          0
   245          0
   253          0
   254          0
   255          0
   257          0
   259          0
   261          0
   271          2
   272          1
   273          6
   274          0
   279          0
   283          0
   285          0
   287          0
   289          0
   296          0
   297          0
   311          0
   312          0
   313          1
   314          0
   315          0
   339          1
   340          0
   341          0
   354          0
   355          2
   356          0
   357          0
   370          1
   371          5
   372          0
   397          0
   398          1
   399          5
   400          1
   414          0
   419          0
   454          0
   455          1
   456          8
   457         38
   458          9
   459          1