##TITLE=Library Entry 67088
##JCAMP-DX=Revision 4.10 
##DATA TYPE=MASS SPECTRUM
##SAMPLE DESCRIPTION=Chemical Concepts
##NAMES=HP
##CAS NAME=.beta.-d-Lyxofuranoside, phenyl
##MOLFORM=C11H14O5
##CAS REGISTRY NO=128902-56-7
##MP= -300
##BP= -300
##MW= 226
##$RETENTION INDEX=0
##$CONDENSED SPECTRUM=NO
##NPOINTS= 92
##XYDATA=(XY..XY) 1 
    26          7
    27         41
    29         90
    30          8
    31        106
    37          3
    38         12
    39         82
    40          2
    41         53
    42         22
    43         68
    44         17
    45         78
    46          1
    47          7
    49          4
    50         14
    51         52
    52          6
    53          7
    54          1
    55         34
    56         14
    57        114
    58         16
    59         20
    60         23
    61         56
    62          6
    63         15
    64          7
    65         64
    66         59
    67          5
    68          6
    69         45
    70          2
    71         99
    72          4
    73        171
    74         16
    75          6
    76          4
    77        108
    78         26
    79         25
    80          1
    83          1
    84          9
    85         83
    86         15
    87         14
    88          3
    89          4
    90          0
    91         19
    92          2
    93         11
    94        999
    95        101
    96          7
    97         23
   101          1
   103         11
   104          1
   105          1
   107         46
   108          4
   114         30
   115         40
   116          2
   119         27
   120          2
   121          7
   122          3
   123          5
   131         13
   132         60
   133         51
   134          4
   135         12
   136         12
   137          3
   147         10
   148          1
   159          6
   160          0
   177          7
   178          0
   226         23
   227          2