##TITLE=Library Entry 10731
##JCAMP-DX=Revision 4.10 
##DATA TYPE=MASS SPECTRUM
##SAMPLE DESCRIPTION=Chemical Concepts
##NAMES=HP
##CAS NAME=.alpha.-d-Glucofuranose, 3-O-.beta.-d-lyxofuranosyl-1,2:5,6-bis-O
-(1-methylethylidene)-
##MOLFORM=C17H28O10
##CAS REGISTRY NO=128902-58-9
##MP= -300
##BP= -300
##MW= 392
##$RETENTION INDEX=0
##$CONDENSED SPECTRUM=NO
##NPOINTS= 232
##XYDATA=(XY..XY) 1 
    25          1
    26         13
    27         79
    29         90
    30         13
    31        191
    33         11
    35          1
    36         11
    37          1
    38          3
    39         53
    41        181
    42         54
    43        999
    44         47
    45        270
    46          8
    47          9
    49          4
    50          2
    51          2
    52          2
    53         25
    54          8
    55        119
    56         22
    57        220
    58         52
    59        644
    60         53
    61        105
    62          4
    63          3
    65          6
    66          1
    67          9
    68         36
    69        169
    70         32
    71        247
    72        101
    73        334
    74         29
    75         12
    76          5
    77          5
    78          1
    79          4
    80          8
    81         77
    82         11
    83         66
    84         36
    85        312
    86         75
    87         37
    88          4
    89         87
    90          4
    91          9
    92          3
    93          6
    94          3
    95         14
    96          4
    97         85
    98         26
    99         93
   100         84
   101        877
   102         55
   103         32
   104          7
   105          5
   107          4
   108          1
   109         81
   110         12
   111         23
   112          5
   113        131
   114        113
   115        130
   116         11
   117         14
   118          1
   119          5
   121          3
   122          4
   123         10
   124          2
   125         17
   126         21
   127        345
   128         31
   129         85
   130         11
   131         46
   132         10
   133        110
   134          6
   135          4
   136          1
   137          2
   138          1
   139          9
   140          2
   141         11
   142         18
   143         35
   144         14
   145         72
   146          6
   147          2
   149         67
   150          7
   151          3
   152          1
   153          4
   154          1
   155         16
   156          6
   157         14
   158         16
   159         59
   160          6
   161          4
   163          1
   165          1
   167         44
   168          8
   169         17
   170          2
   171          6
   172         23
   173         98
   174          8
   175          6
   176          1
   177          2
   179          1
   181          2
   183          2
   184          1
   185         66
   186         15
   187        327
   188         33
   189          6
   191         12
   192          2
   193          3
   197          2
   199          7
   200          1
   201          7
   202          5
   203         57
   204          6
   205          3
   207          1
   209          1
   211          0
   213          6
   214          6
   215         10
   216          2
   217          2
   219          1
   221          1
   227          4
   228          1
   229          2
   230          1
   231        101
   232         13
   233          7
   234          1
   235          1
   241          1
   242          2
   243          5
   244         40
   245        246
   246         31
   247          7
   249          1
   255          0
   257          3
   258          1
   259          3
   261         84
   262         11
   263          2
   269          0
   271          7
   272         17
   273          8
   274          1
   275          5
   276          2
   277          1
   279         14
   280          2
   281          1
   285          0
   286          1
   287          2
   289         71
   290         11
   291          2
   293          1
   301          4
   302         28
   303          7
   304          1
   305          0
   316          1
   319          2
   329          1
   331          3
   332          1
   334          1
   335          1
   336          2
   344          9
   345          2
   361          1
   377         65
   378         12
   379          2