##TITLE=Library Entry 39830
##JCAMP-DX=Revision 4.10 
##DATA TYPE=MASS SPECTRUM
##SAMPLE DESCRIPTION=Chemical Concepts
##NAMES=HP
##CAS NAME=l-Valine, N-(3-methyl-1-oxobutyl)-, methyl ester
##MOLFORM=C11H21NO3
##CAS REGISTRY NO=128901-59-7
##MP= -300
##BP= -300
##MW= 215
##$RETENTION INDEX=0
##$CONDENSED SPECTRUM=NO
##NPOINTS= 73
##XYDATA=(XY..XY) 1 
    30         28
    31         35
    33         24
    37          0
    38          3
    39         72
    40         14
    41        234
    42         53
    43        157
    44         35
    45          6
    50          0
    51          2
    52          2
    53         13
    54         13
    55        111
    56         59
    57        354
    58         20
    59         50
    60         35
    61          0
    67          3
    68          9
    69         34
    70         44
    71         21
    72        999
    73         53
    74          7
    82         11
    83         21
    84         13
    85        193
    86         18
    87          1
    88        102
    89         26
    90          7
    96          3
    97          0
    98         20
    99         14
   100          1
   101          4
   102         83
   103          6
   112         11
   113         23
   114         39
   115         12
   116          9
   124         10
   125          0
   126          4
   130         35
   131          9
   132          7
   139          0
   140          4
   141         51
   142          4
   144         11
   156         91
   157         11
   158          0
   168          4
   173         32
   174          3
   182          0
   184          4