##TITLE=Library Entry 32159
##JCAMP-DX=Revision 4.10 
##DATA TYPE=MASS SPECTRUM
##SAMPLE DESCRIPTION=Dmitri Zagorevskii, University of Ottawa, Ontario, Cana
da
##NAMES=HP
##CAS NAME=Carbic anhydride
##MOLFORM=C9H8O3
##CAS REGISTRY NO=129-64-6
##MP= -300
##BP= -300
##MW= 164
##$RETENTION INDEX=0
##$CONDENSED SPECTRUM=NO
##NPOINTS= 43
##XYDATA=(XY..XY) 1 
    26         29
    27         42
    29          6
    38         15
    39        148
    40         59
    41         20
    43          6
    44          6
    45         20
    46          5
    50         11
    51         34
    52         16
    53         12
    54         15
    55         52
    56          9
    57         12
    62          3
    63         31
    64         13
    65        110
    66        999
    67         59
    69          6
    70          2
    71          3
    77         15
    78         13
    79          9
    89         10
    90          8
    91        294
    92        137
    93         10
    99         36
   119         35
   120         48
   121          3
   129          3
   149          3
   164         25