##TITLE=Library Entry 96767
##JCAMP-DX=Revision 4.10 
##DATA TYPE=MASS SPECTRUM
##SAMPLE DESCRIPTION=Chemical Concepts
##NAMES=HP
##CAS NAME=1,3-Butadienecyclopentadienylvanadium dicarbonyl
##MOLFORM=C11H11O2V
##CAS REGISTRY NO=129002-03-5
##MP= -300
##BP= -300
##MW= 226
##$RETENTION INDEX=0
##$CONDENSED SPECTRUM=NO
##NPOINTS= 111
##XYDATA=(XY..XY) 1 
    25          1
    26         10
    27         26
    28        133
    29          1
    36          1
    37          2
    38          3
    39         48
    40          3
    41          0
    48          0
    49          2
    50          9
    51        175
    52         11
    53         23
    54         28
    55          3
    58          8
    62          0
    63          1
    64         10
    65          5
    66          2
    67          1
    70          0
    71          1
    72          0
    75          1
    76         58
    77          9
    78          6
    79          2
    80          0
    83          0
    85         31
    86          1
    87          1
    88         25
    89         62
    90        228
    91          8
    92          0
    99          4
   100          3
   101          2
   102          5
   103          3
   104          0
   105          1
   109          0
   111          0
   112          1
   113          3
   114          7
   115         17
   116        999
   117         71
   118          2
   119          0
   121          0
   126          1
   127          1
   128          1
   129          4
   130          0
   132          1
   133          0
   139          0
   140          5
   141         11
   142          1
   143          3
   144         19
   145          1
   146          0
   151          0
   152          0
   153          2
   154          1
   155          3
   159          0
   160          0
   163          0
   164          0
   165          1
   166          2
   167          3
   168          0
   169          5
   170        269
   171         27
   172          1
   174          0
   178          1
   179          0
   180          1
   181         60
   182          7
   187          0
   197          1
   198         63
   199          8
   200          0
   206          0
   219          0
   221          1
   226         42
   227          4
   228          0