##TITLE=Library Entry 7722
##JCAMP-DX=Revision 4.10 
##DATA TYPE=MASS SPECTRUM
##SAMPLE DESCRIPTION=Div. of Experiment Therapeutics WRAIR, WRAMC, Washingto
n DC 20307
##NAMES=HP
##CAS NAME=Ethyl .alpha.-hydroxymyristate
##MOLFORM=C16H32O3
##CAS REGISTRY NO=129086-73-3
##MP= -300
##BP= -300
##MW= 272
##$RETENTION INDEX=0
##$CONDENSED SPECTRUM=NO
##NPOINTS= 103
##XYDATA=(XY..XY) 1 
    41        606
    43        999
    44        131
    45         57
    47         68
    48          0
    49          1
    51          2
    53         44
    55        905
    57        933
    58         37
    59          8
    60          3
    61          0
    65          2
    67        197
    69        808
    71        267
    72         18
    73         26
    75        100
    76         73
    77          5
    79         17
    81        126
    83        772
    85        191
    86         12
    87          8
    89         31
    90         11
    91          2
    93          9
    95        107
    97        727
    98         52
    99         39
   101         29
   104        356
   105          9
   106          0
   107          1
   109         46
   111        357
   112         12
   113         85
   114          7
   115          8
   117         42
   118          6
   121          0
   123         26
   125        178
   126          5
   127         31
   128          3
   129          3
   130          1
   137         13
   138          3
   139         26
   141         30
   142          1
   143          4
   146         10
   151          4
   152          7
   153          5
   154          4
   155         14
   156         11
   157          3
   159         46
   160          2
   161          0
   165          1
   167          2
   169          1
   170          3
   173         10
   180         37
   181          6
   182          2
   183          1
   185          2
   197         25
   199        458
   200          9
   201          0
   208          2
   213         13
   226          6
   227         18
   228          1
   229          1
   242          1
   243          1
   244         10
   245          0
   271         15
   272         52
   273          8