##TITLE=Library Entry 66304
##JCAMP-DX=Revision 4.10 
##DATA TYPE=MASS SPECTRUM
##SAMPLE DESCRIPTION=Chemical Concepts
##NAMES=HP
##CAS NAME=2-Furanacetamide, .alpha.-methyl-N-phenyl-
##MOLFORM=C13H13NO2
##CAS REGISTRY NO=129196-81-2
##MP= -300
##BP= -300
##MW= 215
##$RETENTION INDEX=0
##$CONDENSED SPECTRUM=NO
##NPOINTS= 13
##XYDATA=(XY..XY) 1 
    39         46
    41         11
    65         81
    66         23
    67         46
    77         92
    78          9
    93        999
    94         74
    95        197
    96         13
   215         69
   216          9