##TITLE=Library Entry 56267
##JCAMP-DX=Revision 4.10 
##DATA TYPE=MASS SPECTRUM
##SAMPLE DESCRIPTION=NIST Mass Spectrometry Data Center
##NAMES=HP
##CAS NAME=Clenbuterol, TMS derivative
##MOLFORM=C15H26Cl2N2OSi
##CAS REGISTRY NO=129138-61-0
##MP= -300
##BP= -300
##MW= 348
##$RETENTION INDEX=1975
##$CONDENSED SPECTRUM=NO
##NPOINTS= 235
##XYDATA=(XY..XY) 1 
    15          1
    27          2
    28          3
    29         23
    30        267
    31          5
    39          7
    41         51
    42         16
    43         11
    44          8
    45         45
    46          4
    47         12
    48          1
    49          1
    50          1
    51          3
    52          3
    53          2
    54          2
    55         10
    56         16
    57        145
    58         16
    59         11
    60          3
    61          5
    62          2
    63          6
    64          1
    65          3
    66          1
    67          1
    68          2
    69          2
    70         18
    71         19
    72         10
    73        321
    74         45
    75         62
    76          7
    77          6
    78          2
    79          2
    80          1
    81          1
    82          2
    83          1
    84          3
    86        999
    87         76
    88          7
    89         10
    90          6
    91          3
    92          1
    93          6
    94          2
    95          4
    96          1
    97          2
    98          1
    99          3
   100          3
   101          2
   102          6
   103          3
   104          8
   105          3
   106          2
   107          1
   109          1
   111          2
   112          1
   113          2
   114          5
   115          5
   116         13
   117         13
   118          3
   119          1
   120          1
   122          1
   123          4
   124          6
   125          5
   126          3
   127          4
   128          1
   129          2
   130          5
   131          9
   132         18
   133          4
   134          1
   135          1
   136          1
   137          1
   138          9
   139          3
   140          9
   141          2
   142          2
   143          1
   144          1
   145          1
   146          1
   147          1
   148          1
   149          1
   150          2
   151         13
   152          8
   153          8
   154          5
   155          2
   156          1
   157          1
   158          1
   159          3
   160          3
   161          5
   162          2
   163          2
   164          1
   165          7
   166         18
   167          7
   168         12
   169          3
   170          3
   171          1
   172          2
   173          1
   174         18
   175          3
   176         11
   177          2
   178          3
   179          1
   180          1
   181          1
   182          3
   183          1
   184          1
   185          1
   186          8
   187         25
   188         15
   189         17
   190          8
   191          5
   192          2
   193          3
   194          1
   195          1
   196          3
   197          1
   198          2
   199          1
   200          1
   201          4
   202          4
   203          9
   204          3
   205          4
   206          1
   207          2
   208          2
   209          1
   210          2
   211          1
   212         22
   213          4
   214          8
   215          1
   216          1
   218          1
   220          1
   223          1
   224          1
   225          1
   226          2
   227          4
   228          3
   229          2
   230          2
   231          1
   232          6
   233          1
   234          4
   235          1
   236          1
   240          2
   241          2
   242          1
   243         36
   244          5
   245         23
   246         14
   247          6
   248          9
   249          2
   250          2
   256          1
   257          1
   258          1
   259          3
   260         10
   261          4
   262         96
   263         18
   264         62
   265         11
   266         12
   267          2
   274          1
   275          1
   276          1
   277         15
   278          3
   279          9
   280          2
   281          2
   333          6
   334          1
   335          4
   336          1
   337          1
   348          2
   349          1
   350          1
   351          1