##TITLE=Library Entry 36942
##JCAMP-DX=Revision 4.10 
##DATA TYPE=MASS SPECTRUM
##SAMPLE DESCRIPTION=Japan AIST/NIMC Database- Spectrum MS-IW-6985
##NAMES=HP
##CAS NAME=S,S'-(Thiodi-p-phenylene) bis(2-methyl-2-propenethioate)
##MOLFORM=C20H18O2S3
##CAS REGISTRY NO=129283-82-5
##MP= -300
##BP= -300
##MW= 386
##$RETENTION INDEX=0
##$CONDENSED SPECTRUM=NO
##NPOINTS= 112
##XYDATA=(XY..XY) 1 
    27          1
    28          7
    32          1
    36          1
    38          1
    39         23
    40          5
    41        363
    42         11
    43          7
    44          2
    45          4
    50          1
    51          1
    55          5
    56          2
    57          9
    58          2
    59          3
    63          5
    64          1
    65          3
    67          2
    68          1
    69        999
    70         54
    71          9
    74          1
    76          1
    77          2
    78          1
    81          3
    82          5
    83          4
    84          1
    85          5
    86          1
    91          1
    93          1
    95          4
    96          5
    97          6
    98          1
    99          2
   107          1
   108          9
   109          3
   110          2
   111          4
   112          1
   113          1
   114          1
   115          2
   121          1
   123          2
   124          1
   125          2
   126          1
   127          2
   134          2
   135          1
   137          1
   138          1
   139          3
   140          3
   141          3
   142          1
   147          3
   148          1
   149          4
   151          1
   152          3
   153          1
   160          1
   165          1
   169          1
   170          1
   171          9
   172          2
   173          1
   176          1
   182          1
   183          2
   184          8
   185          2
   186          1
   203          2
   204          3
   205          1
   214          2
   215          4
   216          4
   217          2
   218          1
   248          1
   249          2
   250          1
   289          1
   317         24
   318         17
   319          6
   320          2
   330          5
   331          1
   358         11
   359          3
   360          2
   386        471
   387        114
   388         77
   389         14
   390          5