##TITLE=Library Entry 36964
##JCAMP-DX=Revision 4.10 
##DATA TYPE=MASS SPECTRUM
##SAMPLE DESCRIPTION=Institute of Organic Chemistry, USSR, 1990
##NAMES=HP
##CAS NAME=Perfluoro[2-(1-ethylidenepropyl)toluene]
##MOLFORM=C12F16
##CAS REGISTRY NO=129246-68-0
##MP= -300
##BP= -300
##MW= 448
##$RETENTION INDEX=0
##$CONDENSED SPECTRUM=NO
##NPOINTS= 51
##XYDATA=(XY..XY) 1 
    69        999
    70          8
    93         20
    98          4
   100          4
   117         19
   119         27
   122          4
   124          4
   129          4
   141         31
   148         13
   153          6
   155         44
   160         12
   167          8
   172         14
   179         18
   180          7
   191         23
   203         21
   210         50
   217         10
   222         29
   229         24
   241        344
   242         32
   260         60
   261          6
   272         56
   279         81
   280          7
   291        362
   292         36
   307          3
   310         34
   315         12
   317          4
   329        169
   330         17
   341         52
   342          4
   360         14
   365          8
   379        514
   380         58
   417          5
   429        359
   430         46
   448        525
   449         72