##TITLE=Library Entry 95152
##JCAMP-DX=Revision 4.10 
##DATA TYPE=MASS SPECTRUM
##SAMPLE DESCRIPTION=A.A.Kutin, Moscow, Russia
##NAMES=HP
##CAS NAME=Furazan, 3-phenyl-4-azoxy-
##MOLFORM=C16H10N6O3
##CAS REGISTRY NO=129282-42-4
##MP= -300
##BP= -300
##MW= 334
##$RETENTION INDEX=0
##$CONDENSED SPECTRUM=NO
##NPOINTS= 202
##XYDATA=(XY..XY) 1 
    34          0
    36          2
    37         19
    38         72
    39        227
    40        108
    41         37
    42          8
    43         16
    44         29
    45          3
    49          9
    50        196
    51        486
    52         93
    53         32
    54          7
    55         16
    56          9
    57         16
    60          3
    61         26
    62        146
    63        192
    64        199
    65        397
    66         21
    67          4
    68          4
    69         12
    70         23
    71          8
    74         61
    75        145
    76        279
    77        865
    78         64
    79          7
    80          8
    81          9
    82          3
    83          6
    85          4
    87         60
    88        280
    89        214
    90        119
    91        147
    92         19
    93        107
    94         17
    96         20
    97          6
    98          3
    99          8
   100         13
   101         44
   102         93
   103        360
   104         82
   105         65
   106         19
   107          3
   109          4
   111          5
   112         10
   113         11
   114        301
   115        999
   116        145
   117         46
   118         25
   119        373
   120         55
   121          7
   122          2
   123          1
   125          3
   127         73
   128         26
   129        210
   130         49
   131         84
   132         58
   133         27
   134          3
   135          8
   136          2
   139          4
   140          2
   141         39
   142         24
   143        108
   144         42
   145        115
   146         43
   147          3
   149          9
   150          2
   152          4
   153          3
   154         21
   155         25
   156          7
   157         18
   158          7
   159         24
   160          7
   161         14
   162         12
   163          1
   164          1
   165          5
   166          3
   167          3
   168          4
   169         19
   170          2
   171         46
   173        941
   174         87
   175         21
   176          3
   177          1
   178          3
   179          1
   180          1
   181          4
   182          5
   183          2
   184          1
   185         14
   186          2
   187          2
   188         11
   189         48
   190         16
   191          6
   192          1
   193          6
   194          1
   196          1
   198          6
   199          4
   201          1
   204          7
   205          8
   206          6
   207          3
   211          1
   214          2
   215          8
   216        664
   217        125
   218         21
   219          7
   220          6
   221          3
   223          5
   229          0
   230          5
   231          4
   232          5
   233         14
   234          1
   235          1
   236          0
   239          1
   243          2
   244         18
   245         22
   246         14
   247          2
   248          3
   249          2
   253          1
   256          2
   257         16
   258          4
   259          1
   261          1
   262          1
   263          2
   267          1
   273         15
   274         14
   275          2
   282          1
   283          4
   286          3
   287          3
   296          1
   297          1
   317         58
   318         55
   319          8
   320          5
   324          1
   334        322
   335         61
   336          4
   338          1