##TITLE=Library Entry 35531
##JCAMP-DX=Revision 4.10 
##DATA TYPE=MASS SPECTRUM
##SAMPLE DESCRIPTION=Chemical Concepts
##NAMES=HP
##CAS NAME=2-t-Butyl-5-isopropyl-6-methyl[1,3]dioxan-4-one
##MOLFORM=C12H22O3
##CAS REGISTRY NO=129287-66-7
##MP= -300
##BP= -300
##MW= 214
##$RETENTION INDEX=0
##$CONDENSED SPECTRUM=NO
##NPOINTS= 87
##XYDATA=(XY..XY) 1 
    26          8
    27        265
    28         32
    29        323
    30          8
    31         17
    37          4
    38         12
    39        264
    40         45
    41        864
    42         87
    43        318
    44         16
    45        220
    46          4
    49          0
    50          4
    51         13
    52          5
    53         62
    54         13
    55        222
    56         79
    57        386
    58         21
    59         77
    60          2
    62          1
    63          2
    65          7
    66          3
    67         48
    68         31
    69        999
    70         65
    71        122
    72          7
    73         13
    74          0
    77          2
    78          2
    79          5
    80          0
    81          7
    82          9
    83        300
    84        978
    85         92
    86         22
    87        162
    88          7
    89          1
    93          2
    95          5
    96          0
    97          0
    98          4
    99          2
   100          0
   101         19
   102          1
   109          0
   110          2
   111        814
   112         66
   113         18
   114          2
   115          0
   126          0
   127          4
   128         12
   129         11
   130          0
   136          0
   137          0
   138          0
   139         13
   140          0
   141          1
   149          0
   157        186
   158         15
   159          0
   170          0
   213          1
   215          0