##TITLE=Library Entry 23861
##JCAMP-DX=Revision 4.10 
##DATA TYPE=MASS SPECTRUM
##SAMPLE DESCRIPTION=V.A.Korolev, Moscow, Russia
##NAMES=HP
##CAS NAME=2-[(4-Bromophenyl)amino]-5,5-dimethyl-4-oxohex-2-enoic acid
##MOLFORM=C14H16BrNO3
##CAS REGISTRY NO=1292813-53-6
##MP= -300
##BP= -300
##MW= 325
##$RETENTION INDEX=0
##$CONDENSED SPECTRUM=NO
##NPOINTS= 140
##XYDATA=(XY..XY) 1 
    37         35
    38        107
    39        272
    40        157
    41        753
    42        139
    43        232
    44         55
    45        167
    46          3
    50        282
    51        151
    52         58
    53        107
    54         19
    55        109
    57        999
    58         53
    61         20
    62         61
    63        173
    64         74
    65         85
    66         25
    67         29
    68         68
    69         94
    70         14
    71         24
    73         14
    74        103
    75        284
    76        314
    77        112
    78         25
    79         21
    80         12
    81         32
    82         19
    83         18
    85         65
    86         12
    87         17
    88         44
    89        264
    90        129
    91         75
    92         27
    93         97
    94         12
    95          8
    96          4
    97          8
    98          6
    99          3
   100          8
   101          2
   102         21
   103          8
   104          9
   105         10
   109          4
   110          6
   111         13
   112          8
   114         50
   115        134
   116        139
   117        209
   118         25
   119         21
   127          2
   129          7
   130          8
   131          7
   133         11
   137          1
   143        288
   144         69
   145        141
   146         15
   147          2
   155        134
   156         19
   157        134
   158         15
   159          1
   160          3
   161         27
   162          3
   167          9
   169         17
   170         17
   171        178
   172         35
   173         21
   174          4
   182         26
   183          3
   184         30
   185          5
   186          3
   189        428
   190         47
   194         50
   195         44
   196         64
   197         46
   198         21
   199          4
   200          6
   210          1
   222        554
   223         63
   224        550
   225         57
   226         59
   236          6
   238          5
   240         40
   241         11
   242         40
   243         11
   250        134
   251         12
   252        131
   253         11
   267          3
   268        299
   269         41
   270        295
   271         40
   272          4
   280          5
   282         15
   284         10
   325        166
   326         32
   327        161
   328         31