##TITLE=Library Entry 62004
##JCAMP-DX=Revision 4.10 
##DATA TYPE=MASS SPECTRUM
##SAMPLE DESCRIPTION=Chemical Concepts
##NAMES=HP
##CAS NAME=3-Hydroxybutanoic acid, 2-(.alpha.-butylbenzyl)-
##MOLFORM=C15H22O3
##CAS REGISTRY NO=129287-80-5
##MP= -300
##BP= -300
##MW= 250
##$RETENTION INDEX=0
##$CONDENSED SPECTRUM=NO
##NPOINTS= 121
##XYDATA=(XY..XY) 1 
    26          1
    27         28
    28          4
    29         26
    39         23
    40          1
    41         45
    42          3
    43         40
    44         11
    45         55
    46          1
    50          4
    51         20
    52          4
    53          7
    55         15
    56          3
    57          9
    62          1
    63          7
    64          1
    65         17
    66          2
    67          3
    68          2
    69         13
    70          2
    71          3
    73          1
    74          1
    75          3
    76          4
    77         67
    78         38
    79         27
    80          1
    81          3
    83          2
    84          1
    85          2
    86         20
    87          4
    89          6
    90          2
    91        999
    92        110
    93          6
    94          1
    97          1
   101          1
   102         15
   103        143
   104         84
   105        111
   106          9
   107         46
   108          3
   111          1
   113          1
   114          1
   115         45
   116         14
   117         72
   118         20
   119          6
   120          4
   121          2
   125          1
   126          1
   127          7
   128         16
   129         36
   130         13
   131        514
   132         40
   133         12
   134          2
   135          1
   139          1
   141          8
   142          3
   143         12
   144         11
   145         60
   146         73
   147        221
   148        448
   149        201
   150         19
   151          1
   155          1
   157          8
   158          3
   159          6
   160          2
   161          6
   162          1
   163          3
   167          1
   171          1
   172          5
   173          1
   175         50
   176          7
   177          1
   185          1
   186          8
   187         14
   188         12
   189          2
   190          7
   191          1
   203          7
   204          1
   205          2
   206         10
   207          1
   232         22
   233          3
   250          1