##TITLE=Library Entry 21442
##JCAMP-DX=Revision 4.10 
##DATA TYPE=MASS SPECTRUM
##SAMPLE DESCRIPTION=Chemical Concepts
##NAMES=HP
##CAS NAME=5-But-3-enyl-2-t-butyl-6-methyl[1,3]dioxan-4-one
##MOLFORM=C13H22O3
##CAS REGISTRY NO=129287-75-8
##MP= -300
##BP= -300
##MW= 226
##$RETENTION INDEX=0
##$CONDENSED SPECTRUM=NO
##NPOINTS= 92
##XYDATA=(XY..XY) 1 
    26         15
    27        327
    28         50
    29        433
    30         11
    31         16
    37          4
    38         16
    39        390
    40         59
    41        653
    42         58
    43        300
    44         19
    45        201
    46          5
    50          9
    51         24
    52         14
    53        136
    54        688
    55        999
    56         57
    57        486
    58         25
    59          8
    60          1
    61          0
    62          1
    63          5
    65         21
    66         29
    67        272
    68        145
    69        106
    70         18
    71        134
    72          9
    73          7
    74          1
    75          1
    76          1
    77         27
    78          6
    79         61
    80         22
    81        409
    82         30
    83         12
    84          3
    85         54
    86         40
    87        149
    88          8
    91         10
    92          0
    93         16
    94         33
    95        312
    96        203
    97         33
    98         13
    99         11
   100          0
   105          3
   107          4
   108          0
   109          1
   110          0
   111          9
   112          7
   113          2
   115          9
   116          0
   117          1
   122         11
   123        750
   124         68
   125         32
   126          4
   127          0
   128          1
   129          0
   130          3
   131          0
   139          0
   140         51
   141         84
   142          6
   143          1
   169          5
   170          0