##TITLE=Library Entry 65627
##JCAMP-DX=Revision 4.10 
##DATA TYPE=MASS SPECTRUM
##SAMPLE DESCRIPTION=ORMSBG,10(7)550(1975); K. H. PANNELL
##NAMES=HP
##CAS NAME=Ferrocene, (chlorocarbonyl)-
##MOLFORM=C11H9ClFeO
##CAS REGISTRY NO=1293-79-4
##MP= -300
##BP= -300
##MW= 248
##$RETENTION INDEX=0
##$CONDENSED SPECTRUM=NO
##NPOINTS= 9
##XYDATA=(XY..XY) 1 
    64        130
    91        100
    92        999
   121         70
   155         90
   156        530
   183        260
   213         90
   248        570