##TITLE=Library Entry 109235
##JCAMP-DX=Revision 4.10 
##DATA TYPE=MASS SPECTRUM
##SAMPLE DESCRIPTION=A.A.Kutin, Moscow, Russia
##NAMES=HP
##CAS NAME=Propenoic acid, 2-cyano-3-methylamino-3-methylthio-, ethyl ester
##MOLFORM=C8H12N2O2S
##CAS REGISTRY NO=129392-58-1
##MP= -300
##BP= -300
##MW= 200
##$RETENTION INDEX=0
##$CONDENSED SPECTRUM=NO
##NPOINTS= 140
##XYDATA=(XY..XY) 1 
    35          1
    37          3
    38         24
    39         22
    40         18
    41         24
    42        215
    43         65
    44         16
    45        199
    46         66
    47        118
    48         23
    49          9
    50          5
    51         30
    52        170
    53         77
    54        104
    55         45
    56         48
    57         42
    58         99
    59         35
    60          9
    61         70
    62          4
    63          6
    64         16
    65         72
    66        251
    67         72
    68        209
    69         32
    70        229
    71         60
    72         40
    73         22
    74         64
    75        224
    76         19
    77         66
    78         32
    79        353
    80        324
    81        494
    82        643
    83        116
    84         67
    85         64
    86        105
    87         19
    88         83
    89          6
    90          5
    91          5
    92          4
    93         49
    94         18
    95        153
    96         49
    97         75
    98         79
    99         84
   100         97
   101         17
   102          3
   103          9
   104          2
   105          2
   107        348
   108         33
   109         17
   110         39
   111         80
   112         73
   113         35
   114         13
   115          3
   116          6
   117          2
   118          1
   119          3
   120          1
   121          6
   122          4
   124        168
   125        999
   126         96
   127        267
   128        356
   129         42
   130         20
   131         24
   132         11
   133          2
   134          1
   135          1
   137          1
   138          1
   139          7
   140          2
   141         15
   142          2
   143          2
   144          1
   145          5
   146          1
   147          0
   149          2
   150          1
   151          7
   152         71
   153        212
   154         85
   155        241
   156         29
   157         31
   158          3
   159          3
   160         34
   161          3
   162          2
   163          1
   165          1
   167          9
   168          1
   171          5
   172          4
   173          4
   178          0
   183          1
   185          4
   195          1
   196          1
   197          2
   200        467
   201         51
   202         25
   203          2