##TITLE=Library Entry 29160
##JCAMP-DX=Revision 4.10 
##DATA TYPE=MASS SPECTRUM
##SAMPLE DESCRIPTION=Institute of Organic Chemistry, USSR, 1990
##NAMES=HP
##CAS NAME=2-tert-Butyl-6-diethylaminomethylphenol
##MOLFORM=C15H25NO
##CAS REGISTRY NO=129537-65-1
##MP= -300
##BP= -300
##MW= 235
##$RETENTION INDEX=0
##$CONDENSED SPECTRUM=NO
##NPOINTS= 54
##XYDATA=(XY..XY) 1 
    41         33
    42         12
    44         32
    51          7
    56         17
    57         11
    58        999
    59         32
    65         13
    72        235
    73         92
    74         92
    77         35
    78          8
    79         15
    86         47
    89        145
    91         70
    92          5
    96          8
   103         83
   104          8
   105         32
   107         23
   110          7
   115         17
   117         12
   119         71
   120         11
   121         27
   123         10
   128          5
   131          7
   133         14
   135         22
   145         10
   147        194
   148         25
   149         26
   150          9
   161         17
   162         16
   163        496
   164         71
   178         12
   190         10
   192         45
   193         20
   206         11
   220        419
   221         58
   234         13
   235        489
   236         81