##TITLE=Library Entry 57101
##JCAMP-DX=Revision 4.10 
##DATA TYPE=MASS SPECTRUM
##SAMPLE DESCRIPTION=Institute of Organic Chemistry, USSR, 1990
##NAMES=HP
##CAS NAME=2-[(2-Cyano-3,3-di-methylcyclopropyl)methyl]-2-methyl-1,3-dioxola
ne
##MOLFORM=C11H17NO2
##CAS REGISTRY NO=129549-91-3
##MP= -300
##BP= -300
##MW= 195
##$RETENTION INDEX=0
##$CONDENSED SPECTRUM=NO
##NPOINTS= 25
##XYDATA=(XY..XY) 1 
    41         46
    42         15
    43        377
    44         13
    45         13
    53         14
    55          7
    58         10
    59         51
    65          8
    66         17
    67         18
    79          7
    81         12
    87        999
    88         49
    93          8
    94         22
   102         11
   108         16
   109          8
   122         10
   136          7
   150          6
   180         26