##TITLE=Library Entry 71315
##JCAMP-DX=Revision 4.10 
##DATA TYPE=MASS SPECTRUM
##SAMPLE DESCRIPTION=Japan AIST/NIMC Database- Spectrum MS-IW-1795
##NAMES=HP
##CAS NAME=3-Undecylthiophene
##MOLFORM=C15H26S
##CAS REGISTRY NO=129607-86-9
##MP= -300
##BP= -300
##MW= 238
##$RETENTION INDEX=0
##$CONDENSED SPECTRUM=NO
##NPOINTS= 96
##XYDATA=(XY..XY) 1 
    27         15
    28          7
    29         30
    32          2
    39         18
    40          2
    41         64
    42          7
    43         45
    44          2
    45         31
    47          2
    51          4
    52          1
    53         23
    54          3
    55         28
    56          4
    57         13
    58          4
    59          2
    63          1
    65          8
    66          3
    67         11
    68          1
    69          8
    70          2
    71          6
    73          1
    77         11
    78          5
    79          7
    80          1
    81          3
    82          1
    83          2
    84         11
    85         32
    86          3
    87          2
    91          6
    92          1
    93          4
    94          1
    95          3
    96          2
    97        442
    98        999
    99         93
   100         49
   101          3
   105          3
   107          2
   109          4
   110         13
   111        152
   112         19
   113          8
   114          1
   119          1
   121          2
   123          7
   124          3
   125          9
   126          4
   127          1
   133          1
   135          1
   137          1
   139         18
   140         15
   141          3
   142          1
   153          9
   154          7
   155          1
   167          4
   168          4
   169          1
   177          1
   181          5
   182          3
   183          1
   191          6
   192          1
   195          6
   196          4
   205          1
   209          3
   210          2
   237          1
   238        120
   239         20
   240          7
   241          1