##TITLE=Library Entry 24809
##JCAMP-DX=Revision 4.10 
##DATA TYPE=MASS SPECTRUM
##SAMPLE DESCRIPTION=A.Mazepa, Phys.-Chem.Institute, Odessa, Ukraine
##NAMES=HP
##CAS NAME=4-Butoxy-5,7-dinitro-benzo[1,2,5]thiadiazole
##MOLFORM=C10H10N4O5S
##CAS REGISTRY NO=129692-96-2
##MP= -300
##BP= -300
##MW= 298
##$RETENTION INDEX=0
##$CONDENSED SPECTRUM=NO
##NPOINTS= 58
##XYDATA=(XY..XY) 1 
    26          4
    27        137
    28        103
    29        855
    30        107
    31         29
    32          5
    39         77
    40          6
    41        646
    42         38
    43         25
    44         32
    45         12
    46         28
    52          5
    53         31
    54          2
    55        130
    56        973
    57        999
    58         41
    59          1
    68          8
    69         12
    70         12
    71          2
    81          2
    83          9
    84          3
    85          2
    86         20
    89         10
    91          1
    94          8
    95         10
    97          2
    99          3
   121         12
   122          2
   137         10
   138          1
   149          3
   150          1
   165         30
   166          1
   210          6
   212         35
   225          2
   226         81
   227          4
   228          2
   242        107
   243        100
   244         13
   245          3
   298         36
   299          1