##TITLE=Library Entry 14192
##JCAMP-DX=Revision 4.10 
##DATA TYPE=MASS SPECTRUM
##SAMPLE DESCRIPTION=Chemical Concepts
##NAMES=HP
##CAS NAME=.beta.-d-Ribopyranosyl bromide, cyclic 2,4-(phenylboronate) 3-ace
tate
##MOLFORM=C13H14BBrO5
##CAS REGISTRY NO=129888-96-6
##MP= -300
##BP= -300
##MW= 340
##$RETENTION INDEX=0
##$CONDENSED SPECTRUM=NO
##NPOINTS= 194
##XYDATA=(XY..XY) 1 
    27         26
    28          6
    29         18
    30          1
    31          7
    32          0
    36          0
    37          0
    38          2
    39         28
    40          5
    41         21
    42         12
    43        999
    44         25
    45         10
    47          0
    49          0
    50          8
    51         23
    52         10
    53         15
    54          2
    55         22
    56          2
    57         15
    58          2
    59          1
    60          2
    61          2
    62          1
    63          2
    64          0
    65          2
    66          1
    67          1
    68         11
    69         53
    70          6
    71          8
    72          1
    73          6
    74          1
    75          1
    76          4
    77         24
    78          9
    79          5
    80          1
    81          3
    82          1
    83          2
    84          2
    85          4
    86         11
    87         11
    88          2
    89          9
    90          6
    91         18
    92          1
    93          1
    94          1
    95          1
    96          0
    97         41
    98          8
    99          5
   100          1
   101          2
   102          2
   103         16
   104         41
   105         71
   106          4
   107          1
   109          0
   111          2
   112          8
   113          7
   114          0
   115         11
   116          2
   117         12
   118          2
   119          0
   120          1
   121          2
   122          1
   123          2
   124          0
   125          1
   126          0
   127          0
   128          1
   129          4
   130          2
   131          5
   132          1
   133          1
   134          0
   135          0
   137          0
   139          0
   140          1
   141          4
   142          0
   143          1
   144          2
   145         14
   146         55
   147         17
   148          2
   149         17
   150          2
   151          0
   153          0
   154          1
   155          2
   156          0
   157          9
   158         11
   159         40
   160          6
   161          3
   162          0
   163          0
   164          1
   165          1
   166          0
   167          7
   168          0
   169          1
   170          0
   171          4
   172         20
   173         32
   174          4
   175          4
   176          0
   177          0
   178          0
   183          0
   185          0
   186          0
   187          1
   188          2
   189          5
   190          1
   191          0
   198          0
   199          1
   200         12
   201         44
   202          6
   203          1
   204          0
   209          0
   211          0
   214          1
   215          3
   216          0
   217          0
   218          1
   219          4
   220          0
   225          0
   229          0
   231          0
   232          0
   239          0
   250          0
   251          0
   252          0
   253          0
   256          0
   257          0
   258          0
   259          0
   260         30
   261        122
   262         19
   263          3
   264          0
   279          2
   280          0
   281          0
   337          0
   339          5
   340         21
   341          8
   342         21
   343          3
   344          0