##TITLE=Library Entry 74036
##JCAMP-DX=Revision 4.10 
##DATA TYPE=MASS SPECTRUM
##SAMPLE DESCRIPTION=LMC, NIDDK, NIH, Bethesda, MD 20892
##NAMES=HP
##CAS NAME=Pyrrolidin-3-ol, 1-t-butyloxycarbonyl-, methylsulfonate(ester)
##MOLFORM=C11H21NO5S
##CAS REGISTRY NO=129888-60-4
##MP= -300
##BP= -300
##MW= 279
##$RETENTION INDEX=0
##$CONDENSED SPECTRUM=NO
##NPOINTS= 161
##XYDATA=(XY..XY) 1 
    41        460
    42        239
    43        218
    44         24
    45         13
    46          2
    47         14
    48         12
    49         78
    50          5
    51         26
    52          3
    53         23
    54         46
    55        263
    56        188
    57        800
    58        225
    59        398
    60          1
    61          2
    62          0
    63          6
    64          3
    65         10
    66          4
    67         50
    68         42
    69         29
    70         92
    71        268
    72         16
    73          3
    74          1
    77          0
    78          9
    79        140
    80         16
    81         19
    82        161
    83        650
    84        229
    85         16
    86         34
    87          2
    88          7
    89          1
    91          0
    92          2
    93          0
    94          0
    95          1
    96          2
    97          5
    98         18
    99         49
   101        999
   102          3
   103          0
   104          0
   106          0
   107          0
   108          1
   109          7
   110         81
   111          7
   112         12
   113          1
   114          2
   115          1
   116          0
   118          0
   120          0
   121          0
   122          0
   123          0
   124         34
   125          4
   126         24
   127        419
   128        386
   129         28
   130          2
   131          0
   132          0
   135          0
   136          0
   137          0
   138          2
   139          1
   140          0
   141          0
   142          1
   143          0
   144          1
   146          0
   148          0
   149          0
   150          0
   156          5
   157          0
   159          0
   162          6
   163          0
   164          0
   166          0
   167          0
   168          1
   174          0
   176          1
   177          0
   178         42
   179         23
   180         15
   181          2
   183        119
   184         22
   185          2
   187          0
   188          0
   192          2
   193          0
   198          0
   201          0
   202          0
   205          3
   206        231
   207         20
   208         12
   209          1
   214          0
   215          0
   220        126
   221         14
   222         13
   223         12
   224        242
   225         22
   226         14
   227          1
   229          0
   231          0
   238          0
   240          0
   241          0
   243          0
   245          0
   249          0
   253          0
   262          0
   263          0
   264          1
   265          1
   266          0
   267          0
   268          0
   278          2
   279         27
   280         15
   281          3
   282          1