##TITLE=Library Entry 67089
##JCAMP-DX=Revision 4.10 
##DATA TYPE=MASS SPECTRUM
##SAMPLE DESCRIPTION=Chemical Concepts
##NAMES=HP
##CAS NAME=.alpha.-d-Ribopyranoside, phenyl
##MOLFORM=C11H14O5
##CAS REGISTRY NO=129888-98-8
##MP= -300
##BP= -300
##MW= 226
##$RETENTION INDEX=0
##$CONDENSED SPECTRUM=NO
##NPOINTS= 101
##XYDATA=(XY..XY) 1 
    27         51
    28         22
    29         64
    30          9
    31         86
    32          3
    33          0
    36          1
    37          3
    38         12
    39         74
    40         22
    41         29
    42         28
    43        116
    44         33
    45         90
    46          2
    47          8
    49          1
    50         12
    51         42
    52          6
    53          5
    54          2
    55         29
    56          7
    57        125
    58         12
    59         16
    60        126
    61         68
    62          5
    63         11
    64          4
    65         48
    66         52
    67          4
    68         11
    69         23
    70          2
    71         24
    72          5
    73        282
    74         13
    75          6
    76          3
    77         78
    78         13
    79         12
    80          1
    81          1
    82          0
    83          0
    84          1
    85         42
    86          8
    87         12
    88         31
    89         24
    90          1
    91          8
    92          1
    93          6
    94        999
    95         87
    96          8
    97          8
    98          1
    99          0
   101          0
   102          0
   103          9
   104          0
   105          1
   107         11
   108          2
   109          0
   113          0
   114         12
   115         25
   116          1
   117          0
   118          0
   119          3
   120          0
   121          1
   122          0
   123          2
   131          1
   132         98
   133         44
   134          2
   135          1
   136          5
   137          1
   147          1
   149          1
   226         19
   227          2
   228          0