##TITLE=Library Entry 34107
##JCAMP-DX=Revision 4.10 
##DATA TYPE=MASS SPECTRUM
##SAMPLE DESCRIPTION=A.S.Moskovkin,I.M.Karnaukh, Russian Center on Disaster
 Medicine
##NAMES=HP
##CAS NAME=1,5-Dinitro-3,7-diazabicyclo[3.3.1]nonane
##MOLFORM=C7H12N4O4
##CAS REGISTRY NO=129886-83-5
##MP= -300
##BP= -300
##MW= 216
##$RETENTION INDEX=0
##$CONDENSED SPECTRUM=NO
##NPOINTS= 116
##XYDATA=(XY..XY) 1 
    37         16
    38         35
    39        320
    40        150
    41        980
    42        920
    43        600
    44        210
    45         63
    46         27
    47         40
    50         24
    51         65
    52         48
    53        230
    54        130
    55        480
    56        270
    57        340
    58        160
    59        120
    60         44
    63         19
    64          9
    65         79
    66         57
    67        420
    68        550
    69        999
    70        200
    71        570
    72        150
    73         30
    74        120
    75         33
    77        100
    78         35
    79        140
    80        160
    81        270
    82        440
    83        230
    84        130
    85        130
    86         75
    87         43
    88         30
    91         78
    92         39
    93        140
    94        460
    95        380
    96        470
    97        210
    98        150
    99         41
   100          8
   102         18
   104         10
   105         38
   106         31
   107         55
   108        200
   109        150
   110        320
   111        140
   112        120
   113         30
   114         10
   115         28
   117         12
   119         34
   120         30
   121         42
   122         86
   123        130
   124        140
   125         73
   126        180
   127         41
   128         21
   129         11
   131         12
   133         16
   134         21
   135         23
   136        130
   137         40
   138         88
   139         42
   140         39
   141         45
   142          9
   143         15
   147         13
   149         31
   150         19
   151         24
   152         23
   153         21
   154        120
   155         37
   156        240
   157         97
   158         10
   163         29
   164         43
   165         19
   167         15
   168         18
   169         89
   170         21
   186         12
   216        760
   217         70
   218          3