##TITLE=Library Entry 29671
##JCAMP-DX=Revision 4.10 
##DATA TYPE=MASS SPECTRUM
##SAMPLE DESCRIPTION=LMC, NIDDK, NIH, Bethesda, MD 20892
##NAMES=HP
##CAS NAME=Azacyclohexane, 1-t-butoxycarbonyl-3-azido-
##MOLFORM=C10H18N4O2
##CAS REGISTRY NO=129888-61-5
##MP= -300
##BP= -300
##MW= 226
##$RETENTION INDEX=0
##$CONDENSED SPECTRUM=NO
##NPOINTS= 161
##XYDATA=(XY..XY) 1 
    41        445
    42        829
    43        481
    44        137
    45         10
    46          0
    48          0
    49          0
    50          2
    51          5
    52          7
    53         31
    54         53
    55        175
    56        409
    57        804
    58        166
    59        999
    60        541
    62          0
    63          0
    64          1
    65          3
    66          3
    67         24
    68         64
    69        174
    70        512
    71        272
    72         23
    73          1
    74          2
    75          0
    76          0
    77          0
    78          3
    79          6
    80         15
    81         10
    82         45
    83         42
    84         72
    85          6
    86          3
    87         40
    88          6
    89          1
    91          0
    92          0
    93          0
    94          0
    95          2
    96         25
    97        290
    98         98
    99         39
   100         53
   101          6
   102          1
   105          0
   106          0
   107          0
   108          0
   109          1
   110         22
   111          8
   112         60
   113         22
   114        101
   115         14
   116          2
   117          0
   119          0
   121          0
   122          1
   123          0
   124          4
   125         17
   126          8
   127         59
   128        109
   129          8
   130          1
   131          0
   133          0
   135          0
   137          0
   138          0
   139          8
   140          8
   141        189
   142        392
   143         36
   144          4
   145          4
   146          5
   147          0
   150          0
   151          0
   153        266
   154         21
   155          3
   156          1
   157          0
   159          0
   161          0
   162          0
   163          0
   164          0
   165          0
   166          0
   167          2
   168          2
   169         12
   170         20
   171        550
   172         42
   173          4
   174          0
   175          0
   176          0
   177          0
   178          2
   179          1
   180          1
   181          0
   182          0
   183         16
   184          8
   185          1
   188          0
   189          0
   190          0
   192          0
   194          0
   196          0
   197          0
   198          1
   199          1
   200          0
   201          2
   202          1
   205          1
   206          1
   207          1
   210          0
   211          5
   212          2
   213          0
   214          0
   219          0
   220          1
   221          1
   222          1
   223          0
   224         32
   225          7
   226         77
   227         74
   228          9
   229          1