##TITLE=Library Entry 13452
##JCAMP-DX=Revision 4.10 
##DATA TYPE=MASS SPECTRUM
##SAMPLE DESCRIPTION=Inst.fur Organische Chemic, Germany
##NAMES=HP
##CAS NAME=(2,3-Dihydro-3-methylene-2-methylnaphtho[2,3-b]furan-2-yl)hydrope
roxide
##MOLFORM=C14H12O3
##CAS REGISTRY NO=129833-04-1
##MP= -300
##BP= -300
##MW= 228
##$RETENTION INDEX=0
##$CONDENSED SPECTRUM=NO
##NPOINTS= 129
##XYDATA=(XY..XY) 1 
    38          5
    39         35
    40          7
    41         14
    42         14
    43        999
    44         98
    45         42
    46         28
    47          2
    49         18
    50         21
    51         36
    52          6
    53          3
    54          6
    55         18
    56         10
    57         22
    58          2
    60         15
    61          4
    62         28
    63         77
    64         14
    65         18
    67          3
    69         32
    70         46
    71         19
    74         23
    75         34
    76         35
    77         20
    78          2
    79          6
    81         12
    82         58
    83         39
    84         17
    85         10
    86         15
    87         27
    88         29
    89         44
    90          5
    91         24
    92          4
    94          3
    95          5
    97        178
    98         36
    99         11
   100          4
   101         10
   102          9
   103          2
   105          2
   106         20
   110          2
   111          3
   113         32
   114         30
   115        136
   116         14
   119         13
   120          2
   121          8
   125          7
   126         21
   127         23
   128         27
   129         18
   136          2
   137          9
   138         10
   139        224
   140        112
   141        384
   142         62
   143          7
   144          2
   147          7
   149         12
   150         52
   151         73
   152         90
   153         36
   154          8
   155         28
   156          8
   157         43
   158          9
   162         17
   163         11
   164          8
   165         85
   166         33
   167         22
   168        107
   169        233
   170         72
   171         43
   172          6
   176          3
   177          4
   178          5
   181         17
   182          9
   183         20
   184         32
   185          7
   186         14
   193          2
   194         28
   195        901
   196        156
   197        130
   198         31
   199          4
   202          4
   210         39
   211         48
   212        340
   213         58
   214          7
   228        326
   229         50
   230          6