##TITLE=Library Entry 4275
##JCAMP-DX=Revision 4.10 
##DATA TYPE=MASS SPECTRUM
##SAMPLE DESCRIPTION=A.S.Moskovkin,I.M.Karnaukh, Russian Center on Disaster
 Medicine
##NAMES=HP
##CAS NAME=2,2-Diethyl-5,7-dinitro-1,3-diazaadamantane
##MOLFORM=C12H20N4O4
##CAS REGISTRY NO=129886-86-8
##MP= -300
##BP= -300
##MW= 284
##$RETENTION INDEX=0
##$CONDENSED SPECTRUM=NO
##NPOINTS= 209
##XYDATA=(XY..XY) 1 
    38         35
    39        550
    40        180
    41        999
    42        800
    43        140
    44        130
    45          9
    46         30
    47         20
    48          9
    49          7
    50         27
    51         87
    52        110
    53        400
    54        300
    55        310
    56        350
    57         75
    58         29
    59         12
    60         29
    61         28
    62          9
    63         24
    64         18
    65        170
    66        130
    67        320
    68        330
    69        200
    70        260
    71         25
    72         20
    73          5
    74         11
    75         49
    76          8
    77        370
    78         91
    79        450
    80        270
    81        200
    82        130
    83         71
    84         61
    85         69
    86        230
    87         20
    88          2
    89          4
    90          5
    91         45
    92         63
    93        270
    94        510
    95        190
    96        230
    97         47
    98        440
    99         76
   100         35
   101          4
   102          5
   103          5
   104         22
   105         41
   106        580
   107        390
   108        420
   109         82
   110         88
   111         46
   112         59
   113         10
   114          3
   115         10
   116          3
   117         11
   118         19
   119         23
   120         51
   121         55
   122        100
   123        310
   124        140
   125         27
   126         22
   127          7
   128          4
   129          2
   130          7
   131         11
   132         25
   133         27
   134         75
   135         35
   136        100
   137         37
   138         29
   139         24
   140         12
   141         66
   142          8
   143          3
   144          6
   145          8
   146         28
   147         23
   148        140
   149         50
   150         55
   151         20
   152         31
   153        380
   154         34
   155          8
   156          4
   157          2
   158          5
   159          7
   160         45
   161         58
   162        260
   163        210
   164        310
   165         96
   166         66
   167         11
   168          4
   169          5
   170        110
   171         12
   172          4
   173          6
   174         32
   175         27
   176         32
   177         77
   178         86
   179         72
   180        550
   181         75
   182         18
   183          4
   187          3
   188          4
   189         22
   190         16
   191        220
   192        170
   193         69
   194         16
   195         31
   196         10
   197          3
   199          2
   200         30
   201          4
   202          2
   203         21
   204         21
   205         11
   206         11
   207         51
   208         41
   209        360
   210         52
   211         32
   212          4
   216          6
   218          2
   219          6
   220         27
   221         31
   222         23
   223         13
   224        260
   225         37
   226          4
   228          3
   232          2
   236         54
   237         13
   238        840
   239        130
   240         12
   242          4
   250         55
   251         10
   252          5
   253          3
   254         12
   255         15
   256         34
   257          4
   265          4
   266          4
   267         81
   268         21
   269          4
   270          7
   281          3
   282         18
   283         30
   284        370
   285         54
   286          4