##TITLE=Library Entry 14191
##JCAMP-DX=Revision 4.10 
##DATA TYPE=MASS SPECTRUM
##SAMPLE DESCRIPTION=Chemical Concepts
##NAMES=HP
##CAS NAME=.alpha.-d-Ribopyranoside, phenyl, cyclic 2,4-(phenylboronate) 3-a
cetate
##MOLFORM=C19H19BO6
##CAS REGISTRY NO=129888-97-7
##MP= -300
##BP= -300
##MW= 354
##$RETENTION INDEX=0
##$CONDENSED SPECTRUM=NO
##NPOINTS= 165
##XYDATA=(XY..XY) 1 
    27         11
    28          4
    29          8
    30          0
    31          3
    37          0
    38          2
    39         26
    40          5
    41         17
    42          5
    43        999
    44         22
    45          6
    50          4
    51         21
    52          4
    53          7
    54          1
    55         24
    56          1
    57          6
    58          0
    59          0
    60          0
    61          2
    62          1
    63          3
    64          1
    65         26
    66          7
    67          1
    68          6
    69         77
    70          4
    71          4
    72          0
    73          5
    74          1
    75          1
    76          3
    77         44
    78          8
    79          6
    80          0
    81          1
    82          0
    83          1
    84          0
    85          3
    86          4
    87         10
    88          1
    89          6
    90          4
    91         14
    92          1
    93          3
    94         32
    95          3
    96          0
    97         42
    98          3
    99          3
   101          1
   102          1
   103         10
   104         21
   105         53
   106          4
   107          4
   108          0
   111          1
   112          3
   113          6
   114          0
   115         10
   116          1
   117          5
   118          1
   119          1
   120          0
   121          2
   122          1
   123          0
   127          0
   128          1
   129          4
   130          1
   131          5
   132          0
   133          1
   135          1
   136          3
   139          0
   140          1
   141          4
   142          0
   143          0
   144          0
   145          4
   146         15
   147         10
   148          1
   149          3
   150          0
   151          0
   152          0
   153          0
   154          2
   155          9
   156          1
   157         10
   158          7
   159         26
   160          3
   161          2
   162          0
   163          0
   164          1
   165          1
   167          0
   170          0
   171          4
   172         21
   173         38
   174          5
   175          2
   177          0
   181          1
   187          0
   188          1
   189          3
   190          0
   199          0
   200         10
   201         42
   202          6
   203          1
   214          0
   215          3
   216          1
   217          2
   218          1
   219          4
   220          0
   223          0
   240          0
   258          0
   259          1
   260         21
   261         85
   262         13
   263          2
   264          0
   265          0
   276          2
   277         10
   278          1
   279          0
   352          0
   353          5
   354         20
   355          4
   356          1