##TITLE=Library Entry 13158
##JCAMP-DX=Revision 4.10 
##DATA TYPE=MASS SPECTRUM
##SAMPLE DESCRIPTION=G. Lange, Inst. Org. Chem., Univ. Wurzburg, Wurzburg, G
ermany
##NAMES=HP
##CAS NAME=3H-[1,2]Dioxeto[3',4':4,5]furo[3,2-f][1]benzopyran-3-one, 7a,9a-d
ihydro-1,7a,9a-trimethyl-
##MOLFORM=C14H12O5
##CAS REGISTRY NO=129812-26-6
##MP= -300
##BP= -300
##MW= 260
##$RETENTION INDEX=0
##$CONDENSED SPECTRUM=NO
##NPOINTS= 71
##XYDATA=(XY..XY) 1 
    38          6
    39         61
    40          7
    41         16
    42         24
    43        999
    44         88
    45         27
    50         14
    51         34
    52          9
    53         20
    54         18
    55         21
    60         17
    62         11
    63         48
    64         29
    65         72
    66         11
    75         13
    76         13
    77         48
    78         11
    79         15
    89         39
    90         33
    91         71
    92         19
    93         16
   102         11
   103         15
   105         17
   115         28
   116         12
   117          6
   118         19
   119         24
   120          8
   130          5
   131         17
   144         12
   145         12
   146         18
   147         69
   148         53
   149         15
   159          6
   161         37
   162         15
   171          9
   172         15
   173          9
   174         10
   175         48
   176        820
   177         89
   178          8
   189         29
   190         48
   191          5
   200        107
   201         16
   203         83
   204          9
   217         13
   218        479
   219         62
   220          7
   260         50
   261         10