##TITLE=Library Entry 4865
##JCAMP-DX=Revision 4.10 
##DATA TYPE=MASS SPECTRUM
##SAMPLE DESCRIPTION=A.S.Moskovkin,I.M.Karnaukh, Russian Center on Disaster
 Medicine
##NAMES=HP
##CAS NAME=2,2-Dimethyl-5,7-dinitro-1,3-diazaadamantane
##MOLFORM=C10H16N4O4
##CAS REGISTRY NO=129886-84-6
##MP= -300
##BP= -300
##MW= 256
##$RETENTION INDEX=0
##$CONDENSED SPECTRUM=NO
##NPOINTS= 170
##XYDATA=(XY..XY) 1 
    37         19
    38         62
    39        590
    40        210
    41        820
    42        999
    43        160
    44        150
    45          8
    46         29
    47         27
    48         12
    49          9
    50         34
    51         94
    52        120
    53        330
    54        310
    55        300
    56        230
    57         64
    58        240
    59         35
    60         35
    61         32
    62         12
    63         29
    64         20
    65        160
    66        130
    67        250
    68        230
    69         99
    70        940
    71        110
    72         57
    73          8
    74         26
    75         15
    76         12
    77        320
    78         95
    79        430
    80        300
    81        160
    82        180
    83         90
    84        100
    85         44
    86         26
    87          8
    88          2
    89          4
    90          3
    91         43
    92         70
    93        300
    94        550
    95        180
    96        170
    97         31
    98         26
    99         11
   100          4
   103          6
   104         13
   105         51
   106        660
   107        450
   108        410
   109         80
   110         65
   111         30
   112          9
   113          4
   115         10
   117          9
   118         20
   119         28
   120        130
   121         96
   122        170
   123        270
   124        110
   125         30
   126          9
   127         10
   128          3
   129          2
   130          3
   131          7
   132         24
   133         49
   134        400
   135        260
   136        470
   137        110
   138         89
   139         26
   140          8
   141         74
   142          7
   143          4
   145          4
   146         16
   147         25
   148         20
   149        110
   150         57
   151         60
   152        610
   153        330
   154         31
   155          6
   156          2
   159          4
   160          2
   161          9
   162         13
   163        290
   164        160
   165         99
   166         24
   167         44
   168         11
   169          6
   170        150
   171         15
   172          2
   176         16
   177          6
   178          6
   179         46
   180         54
   181        340
   182         70
   183         37
   184          5
   188          3
   191          2
   192         31
   193         26
   194         16
   195         12
   196        340
   197         40
   198          5
   200          3
   208          5
   209          8
   210        850
   211        100
   212         11
   214         11
   215          3
   216          7
   223          4
   224          8
   225          5
   226          8
   228         89
   229         10
   238         11
   239         80
   240         18
   241          4
   255         22
   256        460
   257         57
   258          3