##TITLE=Library Entry 13159
##JCAMP-DX=Revision 4.10 
##DATA TYPE=MASS SPECTRUM
##SAMPLE DESCRIPTION=G. Lange, Inst. Org. Chem., Univ. Wurzburg, Wurzburg, G
ermany
##NAMES=HP
##CAS NAME=2H-1-Benzopyran-2-one, 5-acetyl-6-(acetyloxy)-4-methyl-
##MOLFORM=C14H12O5
##CAS REGISTRY NO=129812-33-5
##MP= -300
##BP= -300
##MW= 260
##$RETENTION INDEX=0
##$CONDENSED SPECTRUM=NO
##NPOINTS= 87
##XYDATA=(XY..XY) 1 
    39         65
    40          7
    41         22
    42         21
    43        999
    44         56
    45         17
    50         14
    51         35
    52         11
    53         22
    54         19
    55         30
    56          5
    57         20
    60         10
    62         12
    63         50
    64         31
    65         74
    66         10
    67         10
    69         11
    70          5
    71         12
    74          7
    75         15
    76         14
    77         52
    78         12
    79         17
    82         10
    83          5
    87          7
    89         41
    90         34
    91         80
    92         23
    93         19
   102         13
   103         16
   104          6
   105         27
   115         31
   116         13
   117         10
   118         21
   119         31
   120          9
   131         21
   132          6
   133         12
   143          5
   144         14
   145         16
   146         21
   147         75
   148         54
   149         28
   159          9
   161         42
   162         16
   171         13
   172         18
   173         13
   174         12
   175         56
   176        928
   177        102
   178         10
   189         34
   190         56
   191          6
   199         10
   200        136
   201         25
   202          6
   203        122
   204         15
   217         24
   218        591
   219         78
   220          9
   228         19
   229          2
   260         61
   261         14