##TITLE=Library Entry 73032
##JCAMP-DX=Revision 4.10 
##DATA TYPE=MASS SPECTRUM
##SAMPLE DESCRIPTION=Institute of Organic Chemistry, USSR, 1990
##NAMES=HP
##CAS NAME=3,10-Dihydroxy-5,8,15,18,23-pentaoxa-1,12-diazabicyclo[10.8.5]-pe
ntacosane
##MOLFORM=C18H36N2O7
##CAS REGISTRY NO=129940-62-1
##MP= -300
##BP= -300
##MW= 392
##$RETENTION INDEX=0
##$CONDENSED SPECTRUM=NO
##NPOINTS= 178
##XYDATA=(XY..XY) 1 
    54        131
    55        312
    56        808
    57        769
    58        731
    59        385
    60         96
    61        146
    69        312
    70        615
    71        616
    72        731
    73        239
    74        339
    75        173
    78        269
    79        339
    81        135
    82        327
    83        692
    84        500
    85        692
    86        577
    87        539
    88        654
    89        154
    93        189
    94        123
    95        177
    96        196
    97        177
    98        339
    99        262
   100        999
   101        577
   102        500
   103        115
   110        154
   111        142
   112        423
   113        462
   114        769
   115        296
   116        235
   117         62
   118        127
   122        500
   123         58
   124        131
   125        165
   126        365
   127        135
   128        323
   129        135
   130        615
   131        142
   132        289
   133         85
   141        135
   142        212
   143        185
   144        654
   145        154
   146        462
   147         96
   148         96
   149        577
   150        139
   156        131
   157        131
   158        335
   159        115
   160        308
   161         42
   162        358
   163         77
   167        212
   168         96
   169        127
   170        185
   171        123
   172        231
   173         89
   174        231
   175         69
   176        162
   186        123
   187         69
   188        200
   189         77
   190        123
   199        100
   200         62
   201        115
   202         69
   203        119
   204        462
   205         81
   206         54
   213         96
   214        692
   215        104
   216        104
   217        165
   218        231
   219         77
   220        119
   222         69
   229        139
   230        146
   231        277
   232        142
   233         62
   234        154
   243        162
   244         85
   245        300
   246        135
   247         77
   248        296
   249         96
   250        319
   251         77
   255         96
   257        108
   258         85
   259        192
   260        192
   261        135
   262        212
   263         58
   269         46
   270         35
   271         58
   272         35
   273         85
   274         58
   275        119
   276         58
   279         69
   287        158
   288         54
   289         65
   290        135
   291         77
   292        615
   293        115
   294         85
   299         50
   301         89
   303         77
   304         39
   305         58
   317        192
   318         65
   319         77
   320         50
   331        250
   332         54
   333         39
   335         42
   343         50
   344         58
   345         81
   347         77
   348         50
   349         81
   350         39
   361        423
   362        115
   363         69
   374         50
   375        181
   376         46
   377         58
   391         69
   392        162
   393         69