##TITLE=Library Entry 50458
##JCAMP-DX=Revision 4.10 
##DATA TYPE=MASS SPECTRUM
##SAMPLE DESCRIPTION=Chemical Concepts
##NAMES=HP
##CAS NAME=Bicyclo[3.3.1]nonan-9-one, 2,4-dimethyl-3-nitro- (exo)-
##MOLFORM=C11H17NO3
##CAS REGISTRY NO=129967-64-2
##MP= -300
##BP= -300
##MW= 211
##$RETENTION INDEX=0
##$CONDENSED SPECTRUM=NO
##NPOINTS= 103
##XYDATA=(XY..XY) 1 
    27          2
    28          5
    29         23
    30          5
    39          4
    40          1
    41        148
    42         11
    43        226
    44          6
    45          8
    53         21
    54         10
    55        427
    56         31
    57         86
    58          5
    59          6
    65          5
    66          9
    67        302
    68         78
    69        444
    70         28
    71         41
    72          5
    73         24
    77         12
    78          1
    79         80
    80         18
    81        999
    82         84
    83         75
    84         12
    85         10
    86          4
    87          1
    91         20
    92          4
    93        136
    94         26
    95        717
    96         71
    97         27
    98          7
    99          3
   100          1
   101          5
   102          1
   105         20
   106         11
   107        103
   108         22
   109        147
   110         17
   111         13
   112          6
   113          2
   114          1
   119          4
   120          3
   121         37
   122          9
   123         26
   124          5
   125          7
   126          2
   127          0
   128          1
   129          2
   130          0
   131          2
   132          0
   133          4
   134          0
   135         67
   136         14
   137        274
   138         30
   139          6
   140          1
   142          1
   145          2
   146          0
   147         31
   148          5
   149         12
   150          5
   151          1
   152          0
   153         13
   154          1
   163          5
   164         19
   165         87
   166         12
   167          1
   183         17
   184          2
   211         82
   212         18
   213          2