##TITLE=Library Entry 10972
##JCAMP-DX=Revision 4.10 
##DATA TYPE=MASS SPECTRUM
##SAMPLE DESCRIPTION=TNO Volatile Compounds in Food - Chemical Concepts
##NAMES=HP
##CAS NAME=Phenol, 3-chloro-4-methyl-, acetate
##MOLFORM=C9H9ClO2
##CAS REGISTRY NO=129930-85-4
##MP= -300
##BP= -300
##MW= 184
##$RETENTION INDEX=0
##$CONDENSED SPECTRUM=NO
##NPOINTS= 86
##XYDATA=(XY..XY) 1 
    21          1
    25         14
    26         80
    27        150
    28         90
    29        138
    30          5
    31          2
    32        128
    33          8
    34         16
    35         17
    36         43
    37         30
    38         60
    39        142
    40        115
    41         21
    42        114
    43        999
    44         53
    46          1
    47          2
    48          2
    49         31
    50        172
    51        423
    52        123
    53         58
    54          7
    55         13
    57          2
    59          8
    60         11
    61         27
    62         40
    63         95
    64         11
    65          6
    66          2
    72          4
    73         21
    74         24
    75         38
    76         14
    77        360
    78         95
    79         27
    80          8
    81          4
    84          3
    85         10
    86          7
    87         11
    89         19
    90          6
    91          6
    96          1
    97          2
    99          2
   100          2
   101          3
   105         24
   106         20
   107        714
   108         48
   109          3
   111          2
   112          7
   113         16
   114          7
   115          4
   121          1
   124          1
   125         13
   127          3
   140          5
   141        124
   142        708
   143         92
   144        224
   145         20
   184         63
   185          1
   186         25
   187          3