##TITLE=Library Entry 2898
##JCAMP-DX=Revision 4.10 
##DATA TYPE=MASS SPECTRUM
##SAMPLE DESCRIPTION=Chemical Concepts
##NAMES=HP
##CAS NAME=7,9-Dimethyl-8-nitrobicyclo[4.3.1]decan-10-one
##MOLFORM=C12H19NO3
##CAS REGISTRY NO=129967-66-4
##MP= -300
##BP= -300
##MW= 225
##$RETENTION INDEX=0
##$CONDENSED SPECTRUM=NO
##NPOINTS= 136
##XYDATA=(XY..XY) 1 
    26         19
    27        297
    28         66
    29        314
    30         36
    31         43
    37          5
    38         12
    39        385
    40         76
    41        999
    42        241
    43        458
    44         14
    45         26
    46          9
    50         14
    51         44
    52         26
    53        206
    54         69
    55        851
    56         60
    57        142
    58         10
    59         34
    60          4
    62          4
    63         14
    64          5
    65         68
    66         29
    67        382
    68        105
    69        539
    70         33
    71         39
    72         27
    73         25
    74         10
    75          3
    76          2
    77        122
    78         28
    79        200
    80         41
    81        574
    82         90
    83        206
    84         23
    85         26
    86         13
    87          5
    88          2
    89          5
    90          2
    91        101
    92         17
    93        145
    94         69
    95        845
    96         83
    97         54
    98         16
    99         11
   100          4
   101         16
   102          3
   103          7
   104          3
   105         38
   106         10
   107        111
   108         34
   109        381
   110         52
   111         24
   112         29
   113         12
   114          8
   115          6
   116          3
   117          5
   118          2
   119         29
   120         26
   121         78
   122         24
   123         48
   124         46
   125         17
   126         24
   127          4
   128          7
   129         22
   130          3
   131          6
   133         11
   134          6
   135         54
   136         14
   137         26
   138          7
   139          6
   140          3
   141          4
   142         12
   143          2
   145          6
   146          3
   147         11
   148          4
   149         59
   150         14
   151        141
   152         18
   153          7
   154          4
   160          2
   161         82
   162         19
   163         49
   164         13
   165          5
   166          9
   167          3
   177          6
   178         20
   179         72
   180         13
   181          3
   208          6
   210          2
   225        117
   226         16
   228          2