##TITLE=Library Entry 46369
##JCAMP-DX=Revision 4.10 
##DATA TYPE=MASS SPECTRUM
##SAMPLE DESCRIPTION=A.Pleshkova, Nesmeyanov Inst.Org.Elem.Cpds, Moscow
##NAMES=HP
##CAS NAME=2-Difluoroamino-2-fluoro-3-(N-fluoroimino)succinoitrile
##MOLFORM=C4F4N4
##CAS REGISTRY NO=13000-66-3
##MP= -300
##BP= -300
##MW= 180
##$RETENTION INDEX=0
##$CONDENSED SPECTRUM=NO
##NPOINTS= 21
##XYDATA=(XY..XY) 1 
    31        734
    32          8
    38        212
    39          6
    52        387
    53         12
    57        356
    58          9
    71        173
    72          5
    76        999
    77         26
    78          6
   109        207
   110         12
   128        995
   129         55
   130          1
   161         10
   162          1
   180          7