##TITLE=Library Entry 18306
##JCAMP-DX=Revision 4.10 
##DATA TYPE=MASS SPECTRUM
##SAMPLE DESCRIPTION=D.HENNEBERG, MAX-PLANCK INSTITUTE, MULHEIM, WEST GERMAN
Y
##NAMES=HP
##CAS NAME=Chromium hexacarbonyl
##MOLFORM=C6CrO6
##CAS REGISTRY NO=13007-92-6
##MP= -300
##BP= -300
##MW= 220
##$RETENTION INDEX=0
##$CONDENSED SPECTRUM=NO
##NPOINTS= 76
##XYDATA=(XY..XY) 1 
    26          1
    27          3
    28        716
    29         10
    30          1
    31          0
    34          0
    36          1
    39          5
    41          2
    42          0
    43          1
    44         10
    45          1
    46         13
    50         52
    51          0
    52        999
    53        113
    54        134
    55          3
    56          0
    57          1
    58          0
    60          1
    62          3
    64         61
    65          8
    66          3
    67          1
    68         48
    69          4
    70          0
    73          0
    76          2
    77          0
    78         46
    79          0
    80        885
    81        116
    82         40
    83          0
    86          0
    90          0
    92         20
    93          1
    96          5
   106         28
   107          0
   108        516
   109         65
   110         18
   111          0
   120          0
   134          2
   136         46
   137          6
   138          2
   148          0
   149          0
   162          1
   164         30
   165          5
   166          1
   190          1
   191          0
   192         34
   193          4
   194          1
   202          0
   218         24
   219          1
   220        390
   221         68
   222         19
   223          1