##TITLE=Library Entry 25137
##JCAMP-DX=Revision 4.10 
##DATA TYPE=MASS SPECTRUM
##SAMPLE DESCRIPTION=Exported from NIST MS Search
##NAMES=HP
##CAS NAME=Adipic acid, bis(3,3,5-trimethylhexyl) ester
##MOLFORM=C24H46O4
##CAS REGISTRY NO=13007-41-5
##MP= -300
##BP= -300
##MW= 398
##$RETENTION INDEX=0
##$CONDENSED SPECTRUM=NO
##NPOINTS= 105
##XYDATA=(XY..XY) 1 
    15         18
    17         29
    18        124
    26          8
    27         62
    28         42
    29        112
    30          6
    31         53
    32         10
    38         11
    39         82
    40         21
    41        258
    42         79
    43        191
    44         39
    45         65
    46          9
    50         24
    51         56
    52         17
    53         24
    54         11
    55        242
    56        261
    57        999
    58         74
    59         34
    60          7
    61         10
    62         14
    63         31
    64          8
    65         37
    66         12
    67         16
    68         22
    69        298
    70        202
    71        175
    72         11
    73         26
    74         17
    75         17
    76         11
    77         59
    78         74
    79         16
    81         21
    82          7
    83         90
    84         39
    85         34
    86         24
    87         84
    88          7
    89         19
    90          6
    91        180
    92         98
    93         34
    94          6
    95         11
    96          6
    97         17
    98         19
    99         12
   100         12
   101         34
   102         17
   103        121
   104         24
   105          7
   108          6
   109         22
   110          6
   111        174
   112         34
   113          7
   114         28
   115        166
   116         28
   117        172
   118        213
   119         25
   124         20
   125          6
   126         24
   127         22
   128         11
   129        194
   130         18
   131         13
   132         17
   135          7
   141          6
   142         30
   143        194
   144         20
   145          8
   148          6
   160         28
   255         65
   256         12