##TITLE=Library Entry 114706
##JCAMP-DX=Revision 4.10 
##DATA TYPE=MASS SPECTRUM
##SAMPLE DESCRIPTION=Dennis Rohrbaugh, CBDCOM/ERDEC, Edgewood, MD
##NAMES=HP
##CAS NAME=Trifluoromethyl ethyl sulfide
##MOLFORM=C3H5F3S
##CAS REGISTRY NO=13003-31-1
##MP= -300
##BP= -300
##MW= 130
##$RETENTION INDEX=0
##$CONDENSED SPECTRUM=NO
##NPOINTS= 22
##XYDATA=(XY..XY) 1 
    35         47
    50         12
    58        198
    61        129
    63         95
    69        713
    70          5
    82        129
    83        318
    85         10
   101         50
   102         40
   103          9
   111        132
   113          3
   115        507
   116          9
   117         20
   129          8
   130        999
   131         85
   132         52