##TITLE=Library Entry 32513
##JCAMP-DX=Revision 4.10 
##DATA TYPE=MASS SPECTRUM
##SAMPLE DESCRIPTION=NIST Mass Spectrometry Data Center, 1990.
##NAMES=HP
##CAS NAME=2,3,4-Tribromopentane
##MOLFORM=C5H9Br3
##CAS REGISTRY NO=130156-61-5
##MP= -300
##BP= -300
##MW= 306
##$RETENTION INDEX=0
##$CONDENSED SPECTRUM=NO
##NPOINTS= 38
##XYDATA=(XY..XY) 1 
    26         36
    27        183
    29         34
    37         31
    38         79
    39        434
    40         94
    41        672
    42         39
    43         25
    50         51
    51         77
    52         27
    53        138
    62         22
    63         27
    65        149
    67        999
    68         98
    69        100
    79         49
    80         37
    81         45
    82         37
   107        271
   109        264
   119        102
   120         21
   121        106
   122         18
   123         26
   147        564
   149        559
   150         32
   227        305
   229        585
   230         36
   231        276