##TITLE=Library Entry 30461
##JCAMP-DX=Revision 4.10 
##DATA TYPE=MASS SPECTRUM
##SAMPLE DESCRIPTION=ORMSBG,9(2)257(1974); NIBBERZNG
##NAMES=HP
##CAS NAME=Butanoic acid, 4-nitro-, methyl ester
##MOLFORM=C5H9NO4
##CAS REGISTRY NO=13013-02-0
##MP= -300
##BP= -300
##MW= 147
##$RETENTION INDEX=0
##$CONDENSED SPECTRUM=NO
##NPOINTS= 59
##XYDATA=(XY..XY) 1 
    25          4
    26         32
    27        116
    28         97
    29        213
    30        144
    31         41
    32          9
    33         27
    37          4
    38         13
    39        148
    40         37
    41        432
    42        348
    43         79
    44         27
    45         41
    46         23
    51          4
    52          9
    53          9
    54         37
    55        144
    56          9
    57         51
    58         18
    59        999
    60        134
    61         13
    68         41
    69        134
    70         18
    71         13
    72          9
    73         46
    74         18
    75          4
    77          4
    80          4
    82         41
    83          9
    84          4
    85         60
    86          4
    87         27
    88        106
    89         23
    90          4
    98          4
    99         41
   100         93
   101         65
   102          9
   115         37
   116        465
   117         41
   118          4
   130         13