##TITLE=Library Entry 2638
##JCAMP-DX=Revision 4.10 
##DATA TYPE=MASS SPECTRUM
##SAMPLE DESCRIPTION=TNO Volatile Compounds in Food - Chemical Concepts
##NAMES=HP
##CAS NAME=2-Octenal, 2-butyl-
##MOLFORM=C12H22O
##CAS REGISTRY NO=13019-16-4
##MP= -300
##BP= -300
##MW= 182
##$RETENTION INDEX=1378
##$CONDENSED SPECTRUM=NO
##NPOINTS= 103
##XYDATA=(XY..XY) 1 
    25          2
    26         25
    27        500
    28         12
    29        668
    30         14
    31         31
    32          2
    33          2
    34         23
    36          6
    38         10
    39        337
    41        999
    42        160
    43        614
    44         39
    45         19
    46          3
    50         10
    51         47
    52         21
    53        190
    54         83
    55        880
    56        111
    57        295
    58         26
    59         23
    60          3
    63         10
    64          2
    65         58
    66         27
    67        305
    68         72
    69        337
    70        160
    71        299
    72         20
    73         19
    74          4
    75          2
    77         73
    78         18
    79        252
    80         43
    81        249
    82        120
    83        411
    84        124
    85         82
    86          8
    87          6
    91         54
    92          8
    93        233
    94         40
    95        306
    96         62
    97        243
    98        103
    99         19
   100         16
   101          6
   105         14
   106          3
   107         61
   108         12
   109         50
   110         13
   111        487
   112         75
   113         20
   114          2
   115          2
   116          2
   119          1
   121         85
   122         40
   123         10
   124         12
   125        250
   126         40
   127          3
   135         14
   136          5
   137          3
   138          2
   139        358
   140         50
   141          6
   147          4
   148          1
   149          6
   151         12
   153         20
   154          2
   167          8
   181          5
   182        310
   183         51
   184          3