##TITLE=Library Entry 4872
##JCAMP-DX=Revision 4.10 
##DATA TYPE=MASS SPECTRUM
##SAMPLE DESCRIPTION=P. VAINIOTALO, DEPT. CHEM., UNIV. JOENSUU, JOENSUU, FIN
LAND
##NAMES=HP
##CAS NAME=1,3-Oxazine, tetrahydro-2-methyl-2-propyl-
##MOLFORM=C8H17NO
##CAS REGISTRY NO=130191-21-8
##MP= -300
##BP= -300
##MW= 143
##$RETENTION INDEX=0
##$CONDENSED SPECTRUM=NO
##NPOINTS= 29
##XYDATA=(XY..XY) 1 
    27        110
    29         90
    30        230
    31        410
    39         90
    41        420
    42        999
    43        200
    44         80
    55         80
    56        240
    57        180
    58         80
    59        730
    69         50
    70        500
    71        970
    72        120
    84        420
    85        180
    98        300
    99        290
   100        670
   112        120
   113         50
   115        450
   128        290
   142         80
   143         50