##TITLE=Library Entry 73497
##JCAMP-DX=Revision 4.10 
##DATA TYPE=MASS SPECTRUM
##SAMPLE DESCRIPTION=A.A.Kutin, Moscow, Russia
##NAMES=HP
##CAS NAME=Tricyclo(3,3,1,1(3,7)]decane-1-carboxylic acid, 2-hydroxy-3-(4-mo
rpholinyl)propyl ester
##MOLFORM=C18H29NO4
##CAS REGISTRY NO=130187-76-7
##MP= -300
##BP= -300
##MW= 323
##$RETENTION INDEX=0
##$CONDENSED SPECTRUM=NO
##NPOINTS= 107
##XYDATA=(XY..XY) 1 
    39         38
    40          9
    41         85
    42        131
    43         40
    44         42
    45         13
    46          0
    50          2
    51          7
    52          6
    53         25
    54         23
    55         53
    56        110
    57         31
    58         17
    59          2
    60          0
    61          1
    62          0
    63          3
    64          0
    65         22
    66         10
    67         48
    68         14
    69         16
    70         63
    71         11
    72         28
    73          2
    74          1
    75          0
    77         85
    78         25
    79        167
    80         20
    81         38
    82          9
    83          3
    84          4
    85          7
    86          6
    87          6
    88          1
    89          1
    91         90
    92         26
    93        124
    94         13
    95          5
    96          5
    97          2
    98         16
   100        999
   101         59
   102         10
   103          4
   104          2
   105         20
   106          5
   107         61
   108          6
   109          0
   112         10
   113          2
   114          7
   115          3
   116          1
   117          3
   118          0
   119          7
   120          2
   121          0
   122          0
   123          1
   124          0
   125          0
   126         23
   127          1
   128          1
   130         33
   131          3
   133          5
   135        200
   136         23
   137          2
   138          0
   141          0
   142          5
   143         49
   144         13
   145          1
   150          0
   160          1
   162          0
   163          1
   197          0
   204          0
   222          1
   237          1
   292          1
   293          0
   305          0
   322          0
   323          1