##TITLE=Library Entry 46370
##JCAMP-DX=Revision 4.10 
##DATA TYPE=MASS SPECTRUM
##SAMPLE DESCRIPTION=A.Pleshkova, Nesmeyanov Inst.Org.Elem.Cpds, Moscow
##NAMES=HP
##CAS NAME=2,2-Difluoro-3-(N-fluoroimino)succinoitrile
##MOLFORM=C4F3N3
##CAS REGISTRY NO=13016-06-3
##MP= -300
##BP= -300
##MW= 147
##$RETENTION INDEX=0
##$CONDENSED SPECTRUM=NO
##NPOINTS= 14
##XYDATA=(XY..XY) 1 
    31        291
    32          3
    50        232
    51          3
    52        118
    53          4
    76        999
    77         22
    78        155
    79          7
   128        401
   129         22
   130          1
   147          6