##TITLE=Library Entry 36163
##JCAMP-DX=Revision 4.10 
##DATA TYPE=MASS SPECTRUM
##SAMPLE DESCRIPTION=A.Pleshkova, Nesmeyanov Inst.Org.Elem.Cpds, Moscow
##NAMES=HP
##CAS NAME=2-Difluoroamino-3-(N-fluoroimino)-1,1,1,2,4,4,4-heptafluoro- bute
ne
##MOLFORM=C4F10N2
##CAS REGISTRY NO=13016-00-7
##MP= -300
##BP= -300
##MW= 266
##$RETENTION INDEX=0
##$CONDENSED SPECTRUM=NO
##NPOINTS= 13
##XYDATA=(XY..XY) 1 
    31         97
    32          1
    50         46
    51          1
    69        999
    70         11
    76         48
    77          1
   114         92
   115          2
   119        239
   120          5
   247          2