##TITLE=Library Entry 28976
##JCAMP-DX=Revision 4.10 
##DATA TYPE=MASS SPECTRUM
##SAMPLE DESCRIPTION=AAFS Toxicology Section MS DB Committee, U. Alberta, Ca
nada
##NAMES=HP
##CAS NAME=Norvenlafaxine
##MOLFORM=C16H25NO2
##CAS REGISTRY NO=130198-38-8
##MP= -300
##BP= -300
##MW= 263
##$RETENTION INDEX=0
##$CONDENSED SPECTRUM=NO
##NPOINTS= 149
##XYDATA=(XY..XY) 1 
    37          1
    38          1
    39         13
    40          2
    41         25
    42         39
    43         21
    44         22
    45         17
    46         37
    47          1
    50          1
    51          5
    52          2
    53         11
    54          1
    55         36
    56          7
    58        999
    59         38
    60          1
    61          1
    62          1
    63          4
    64          1
    65         17
    66          4
    67          3
    68          1
    69          4
    70          3
    71          3
    72          1
    73          1
    74          3
    75          1
    76          1
    77         30
    78          8
    79         14
    81         30
    82          2
    83          1
    84          1
    85          1
    87          1
    88          1
    89          4
    91         46
    92          5
    93          3
    94          9
    95          5
    96          1
    97          1
    98          1
    99          7
   100          1
   101          1
   102          2
   103          8
   104          1
   105          7
   106          5
   107         48
   108          5
   109          1
   110          1
   111          1
   115          5
   116          2
   117          2
   119         34
   120        216
   121         27
   122          2
   123          6
   124          1
   125          1
   126          1
   127          2
   128          2
   129          1
   130          1
   131          6
   132          6
   133          7
   134          7
   135          1
   136          1
   137          1
   139          1
   140          1
   141          1
   142          1
   143          1
   144          2
   145          4
   146          3
   147          4
   148          8
   149         18
   150          1
   151          1
   152          1
   153          1
   154          1
   155          1
   157          1
   158          1
   159          1
   160          3
   161          2
   162          3
   163          2
   164         19
   165         26
   166          3
   167          1
   169          1
   170          1
   171          1
   172          1
   173          1
   174          1
   175          1
   176          1
   185          1
   186          1
   187          1
   188          1
   189          1
   190          1
   192          1
   200          1
   201          1
   202          1
   204          1
   205          1
   206          1
   207          1
   217          1
   218          1
   220          1
   221          1
   244          1
   262          1
   263          1
   264          1