##TITLE=Library Entry 20935
##JCAMP-DX=Revision 4.10 
##DATA TYPE=MASS SPECTRUM
##SAMPLE DESCRIPTION=Chemical Concepts
##NAMES=HP
##CAS NAME=1-Methylallyl diisopropylcarbamate
##MOLFORM=C11H21NO2
##CAS REGISTRY NO=130135-78-3
##MP= -300
##BP= -300
##MW= 199
##$RETENTION INDEX=0
##$CONDENSED SPECTRUM=NO
##NPOINTS= 44
##XYDATA=(XY..XY) 1 
    25          5
    27        110
    28         10
    29         76
    30          8
    39         69
    40          9
    41         97
    42         73
    43        230
    44         98
    45          7
    51          5
    53         28
    54         16
    55        999
    56         59
    57         15
    58         55
    70         48
    71          9
    72         10
    84         29
    85          3
    86        245
    87         11
    88         52
    98          6
   102         46
   106          8
   108          2
   109          2
   128         42
   129          2
   130        109
   131          5
   140         93
   141          9
   144         25
   184        107
   185         12
   186          3
   199         77
   200          8