##TITLE=Library Entry 91298
##JCAMP-DX=Revision 4.10 
##DATA TYPE=MASS SPECTRUM
##SAMPLE DESCRIPTION=A.A.Kutin, Moscow, Russia
##NAMES=HP
##CAS NAME=2(3H)-Oxazolethione, 4-methyl-
##MOLFORM=C4H5NOS
##CAS REGISTRY NO=13016-17-6
##MP= -300
##BP= -300
##MW= 115
##$RETENTION INDEX=0
##$CONDENSED SPECTRUM=NO
##NPOINTS= 49
##XYDATA=(XY..XY) 1 
    34          7
    35          7
    36         31
    37         23
    38         53
    39         79
    40         76
    41         53
    42        821
    43         49
    44         69
    45        316
    46        158
    47         22
    48          9
    50          5
    51         28
    52         39
    53         24
    54         51
    55        100
    56         28
    57         54
    58         79
    59        187
    60        199
    61         18
    62          8
    67          1
    68          2
    69          3
    70         32
    71         19
    72          8
    73          3
    74         19
    82          5
    83         16
    84         33
    85         15
    86        130
    87        142
    88         13
    89          7
   113          2
   115        999
   116         57
   117         45
   118          2