##TITLE=Library Entry 34857
##JCAMP-DX=Revision 4.10 
##DATA TYPE=MASS SPECTRUM
##SAMPLE DESCRIPTION=A.Pleshkova, Nesmeyanov Inst.Org.Elem.Cpds, Moscow
##NAMES=HP
##CAS NAME=1-Difluoroamino-2-(N-fluoroimino)-1,3,3,3-tetrafluoropropane
##MOLFORM=C3HF7N2
##CAS REGISTRY NO=13016-01-8
##MP= -300
##BP= -300
##MW= 198
##$RETENTION INDEX=0
##$CONDENSED SPECTRUM=NO
##NPOINTS= 14
##XYDATA=(XY..XY) 1 
    31        142
    32          2
    51        487
    52          5
    58         86
    59          2
    69        999
    70         11
   114        106
   115          3
   146        113
   147          4
   179          1
   198          2