##TITLE=Library Entry 5882
##JCAMP-DX=Revision 4.10 
##DATA TYPE=MASS SPECTRUM
##SAMPLE DESCRIPTION=NIST Mass Spectrometry Data Center
##NAMES=HP
##CAS NAME=Ethanethioic acid, S-(3-chloropropyl) ester
##MOLFORM=C5H9ClOS
##CAS REGISTRY NO=13012-54-9
##MP= -300
##BP= -300
##MW= 152
##$RETENTION INDEX=0
##$CONDENSED SPECTRUM=NO
##NPOINTS= 68
##XYDATA=(XY..XY) 1 
    14          2
    15         17
    26          5
    27         26
    29          2
    32          1
    33          1
    35          2
    36          1
    37          4
    38          9
    39         62
    40          6
    41         91
    42         28
    43        999
    44         25
    45         78
    46         41
    47         50
    48          5
    49         34
    50          1
    51         10
    57          5
    58         19
    59         19
    60          7
    61         21
    62          3
    63          7
    64          1
    65          1
    69          5
    71         10
    72          2
    73         11
    74         10
    75         12
    76         34
    77         38
    78          9
    79          3
    81         14
    82          2
    83          5
    89          3
    90          2
    92         11
    93          3
    94          4
    95          1
   103          1
   105          1
   108          1
   109          1
   110         48
   111          2
   112         19
   116         51
   117         21
   118          5
   119          1
   152         76
   153          5
   154         28
   155          2
   156          1