##TITLE=Library Entry 4387
##JCAMP-DX=Revision 4.10 
##DATA TYPE=MASS SPECTRUM
##SAMPLE DESCRIPTION=D.HENNEBERG, MAX-PLANCK INSTITUTE, MULHEIM, WEST GERMAN
Y
##NAMES=HP
##CAS NAME=Propanedinitrile, (1-methylpropylidene)-
##MOLFORM=C7H8N2
##CAS REGISTRY NO=13017-50-0
##MP= -300
##BP= -300
##MW= 120
##$RETENTION INDEX=0
##$CONDENSED SPECTRUM=NO
##NPOINTS= 75
##XYDATA=(XY..XY) 1 
    23          1
    24          3
    25          9
    26        122
    27        516
    28        561
    29        472
    30         12
    31          0
    33          0
    34          1
    35          2
    36          9
    37        101
    38        126
    39        320
    40         94
    41        328
    42        999
    43         36
    44          1
    45          0
    46          0
    47          2
    48          4
    49         19
    50         90
    51        183
    52        177
    53         94
    54         71
    55        190
    56         10
    58          4
    59          1
    60          1
    61         11
    62         38
    63         91
    64        130
    65         98
    66        274
    67         86
    68         18
    69          6
    73          0
    74          5
    75         35
    76         70
    77         80
    78        285
    79        162
    80         53
    81          2
    86          1
    87          3
    88          5
    89         11
    90          9
    91         25
    92        194
    93        299
    94         24
   100          0
   101          1
   102          0
   103          7
   104          5
   105        386
   106         30
   117          0
   118         12
   119        132
   120        265
   121         22