##TITLE=Library Entry 54906
##JCAMP-DX=Revision 4.10 
##DATA TYPE=MASS SPECTRUM
##SAMPLE DESCRIPTION=P. VAINIOTALO, DEPT. CHEM., UNIV. JOENSUU, JOENSUU, FIN
LAND
##NAMES=HP
##CAS NAME=2-Butyl-2-ethylperhydro-1,3-oxazine
##MOLFORM=C10H21NO
##CAS REGISTRY NO=130191-22-9
##MP= -300
##BP= -300
##MW= 171
##$RETENTION INDEX=0
##$CONDENSED SPECTRUM=NO
##NPOINTS= 28
##XYDATA=(XY..XY) 1 
    27         80
    28         90
    29        140
    30        170
    31        260
    39         50
    41        270
    42        100
    54         60
    55        100
    56        680
    57        210
    59        360
    70        120
    71         60
    84        660
    85        999
    86         90
    98        180
    99        100
   100        250
   112        220
   114        320
   129        410
   140         50
   142        400
   156         50
   171         20