##TITLE=Library Entry 19186
##JCAMP-DX=Revision 4.10 
##DATA TYPE=MASS SPECTRUM
##SAMPLE DESCRIPTION=NIST Mass Spectrometry Data Center, 1994
##NAMES=HP
##CAS NAME=9-Decen-1-ol
##MOLFORM=C10H20O
##CAS REGISTRY NO=13019-22-2
##MP= -300
##BP= -300
##MW= 156
##$RETENTION INDEX=1262
##$CONDENSED SPECTRUM=NO
##NPOINTS= 73
##XYDATA=(XY..XY) 1 
    12          0
    14          2
    15         28
    16          0
    17          1
    18          2
    19         15
    27        343
    28         48
    29        394
    30          0
    31        471
    33          1
    39        416
    41        985
    42        196
    43        279
    44         57
    45         38
    46          1
    50         11
    51         22
    53        159
    54        545
    55        999
    56        151
    57        144
    58         15
    59          4
    61          0
    62          1
    63          4
    65         29
    67        649
    68        538
    69        205
    70         49
    71         55
    72         11
    73          7
    74          0
    75          0
    77         13
    79         39
    81        437
    82        320
    83         79
    84         17
    85         29
    86          7
    87          1
    91          3
    93         10
    95        202
    96        151
    97         39
    98          5
    99         22
   100          2
   107          2
   109         77
   110         63
   111          6
   112          5
   113          3
   114          1
   121          0
   123          6
   124          0
   127          0
   128          1
   138          5
   139          0