##TITLE=Library Entry 90953
##JCAMP-DX=Revision 4.10 
##DATA TYPE=MASS SPECTRUM
##SAMPLE DESCRIPTION=P. VAINIOTALO, DEPT. CHEM., UNIV. JOENSUU, JOENSUU, FIN
LAND
##NAMES=HP
##CAS NAME=2H-1,3-Oxazine, tetrahydro-2,3,6-trimethyl-
##MOLFORM=C7H15NO
##CAS REGISTRY NO=130191-20-7
##MP= -300
##BP= -300
##MW= 129
##$RETENTION INDEX=0
##$CONDENSED SPECTRUM=NO
##NPOINTS= 21
##XYDATA=(XY..XY) 1 
    27         50
    41         60
    42        450
    43        220
    44        460
    45         60
    55         90
    56        110
    57        370
    58         70
    60         80
    70        190
    71         50
    72        920
    78         60
    85        140
    86        120
   114        999
   115         80
   128        100
   129        180