##TITLE=Library Entry 3936
##JCAMP-DX=Revision 4.10 
##DATA TYPE=MASS SPECTRUM
##SAMPLE DESCRIPTION=Exported from NIST MS Search
##NAMES=HP
##CAS NAME=Butanoic acid, 2,2-dichloro-
##MOLFORM=C4H6Cl2O2
##CAS REGISTRY NO=13023-00-2
##MP= -300
##BP= -300
##MW= 156
##$RETENTION INDEX=0
##$CONDENSED SPECTRUM=NO
##NPOINTS= 118
##XYDATA=(XY..XY) 1 
    16          1
    17         17
    18         68
    19         13
    20          1
    24          3
    25         18
    26        329
    27        318
    28        455
    29         15
    30         48
    31          7
    32          1
    35         49
    36        297
    37         65
    38        135
    39        493
    40        139
    41        999
    42        122
    43         99
    44         37
    45        265
    46          8
    47         38
    48         18
    49        133
    50         14
    51         48
    52          4
    53         26
    54          8
    55         46
    56         17
    57        357
    58         40
    59         16
    60         47
    61        109
    62         35
    63         80
    64         25
    65         23
    66          8
    67         16
    68         14
    69         26
    70          5
    71         21
    72         16
    73         54
    74         43
    75        477
    76        336
    77        230
    78        115
    79         26
    80          4
    81         10
    82         18
    83         48
    84         12
    85        216
    86         21
    87         48
    88          8
    89         13
    90          1
    91         25
    92         11
    93          8
    94        154
    95         10
    96         59
    97         24
    98          9
    99         16
   100          1
   101          6
   102         62
   103         34
   104         24
   105         50
   106          5
   107         11
   108          2
   109         10
   110        162
   111        768
   112        128
   113        493
   114         32
   115         80
   116          3
   117          3
   118          1
   119          9
   120         93
   121         50
   122         55
   123         19
   124          1
   125          4
   126          1
   127          4
   128        287
   129         15
   130        187
   131          7
   132         31
   133          2
   138          2
   139          3
   140          2
   141          4
   143          2