##TITLE=Library Entry 8136
##JCAMP-DX=Revision 4.10 
##DATA TYPE=MASS SPECTRUM
##SAMPLE DESCRIPTION=G. Lange, Inst. Org. Chem., Univ. Wurzburg, Germany
##NAMES=HP
##CAS NAME=2-Benzofurancarboxylic acid, 7-methoxy-, (3,4,4-trimethyl-1,2-dio
xetan-3-yl)methyl ester
##MOLFORM=C16H18O6
##CAS REGISTRY NO=130293-25-3
##MP= -300
##BP= -300
##MW= 306
##$RETENTION INDEX=0
##$CONDENSED SPECTRUM=NO
##NPOINTS= 21
##XYDATA=(XY..XY) 1 
    37         13
    38         19
    39         41
    40          8
    41         21
    42         71
    43        999
    44         24
    50          7
    57          8
    58        247
    59         10
    63          6
    65          5
    76         12
    89         16
   175        102
   176         11
   206          6
   248         38
   249          5