##TITLE=Library Entry 28430
##JCAMP-DX=Revision 4.10 
##DATA TYPE=MASS SPECTRUM
##SAMPLE DESCRIPTION=A.A.Kutin, Moscow, Russia
##NAMES=HP
##CAS NAME=Acetamide, 2,2-diphenyl-N-(2-dimethylamino)ethyl-
##MOLFORM=C18H22N2O
##CAS REGISTRY NO=130234-38-7
##MP= -300
##BP= -300
##MW= 282
##$RETENTION INDEX=0
##$CONDENSED SPECTRUM=NO
##NPOINTS= 90
##XYDATA=(XY..XY) 1 
    35          3
    36         14
    37          1
    38          6
    39         12
    42        121
    43         29
    44         36
    45          2
    46          2
    50          6
    51         13
    52          2
    53          0
    54          2
    56         43
    58        999
    59         17
    60          0
    61          0
    62          4
    63         15
    64          3
    65          7
    66          0
    68          1
    69          5
    71        269
    72         45
    73          2
    74          3
    75          4
    76          5
    77         11
    78          3
    79          1
    81          0
    82          3
    83          4
    84          0
    85          4
    86          3
    87          5
    88          3
    89         15
    90          6
    91          5
    99          1
   102          6
   103          0
   104          0
   105          2
   106          0
   113          5
   115         38
   116          2
   117          0
   118          0
   119          0
   125          0
   126          4
   127          3
   128          9
   129          0
   132          0
   134          0
   135          0
   137          0
   138          2
   139         20
   140          2
   141          5
   142          0
   150          2
   152         72
   153         11
   154          0
   161          0
   162          2
   163         19
   164         27
   165        176
   166         56
   167        102
   168         13
   169          0
   178          0
   212          3
   238          3
   282          1