##TITLE=Library Entry 57519
##JCAMP-DX=Revision 4.10 
##DATA TYPE=MASS SPECTRUM
##SAMPLE DESCRIPTION=NIST Mass Spectrometry Data Center
##NAMES=HP
##CAS NAME=trans-Raphasatin
##MOLFORM=C6H9NS2
##CAS REGISTRY NO=13028-50-7
##MP= -300
##BP= -300
##MW= 159
##$RETENTION INDEX=1442
##$CONDENSED SPECTRUM=NO
##NPOINTS= 88
##XYDATA=(XY..XY) 1 
    26          2
    27         17
    28          5
    29          2
    32          3
    33          1
    35          2
    37          3
    38          6
    39         55
    40          6
    41         44
    42          2
    43          5
    44          9
    45        278
    46         20
    47         65
    48          5
    49          6
    50         10
    51         20
    52          8
    53        112
    54          8
    55         17
    56          2
    57         12
    58         41
    59         77
    60         14
    61         41
    62          2
    63          3
    64          2
    65          5
    66          2
    67          5
    68          3
    69         15
    70         12
    71         66
    72        186
    73         13
    74         10
    75          1
    76          1
    78          5
    79          1
    80          2
    81          2
    82          3
    83          5
    84         14
    85         99
    86         15
    87        999
    88         51
    89         47
    90          2
    91          2
    94          1
    96          1
    97          2
    98          3
    99          3
   100          1
   101          1
   102          1
   103          1
   110          2
   111          4
   112         11
   113          2
   114          1
   115          1
   116          1
   126          1
   127          2
   130          1
   142          1
   143          1
   144          1
   159        305
   160         25
   161         28
   162          2
   163          1