##TITLE=Library Entry 80961
##JCAMP-DX=Revision 4.10 
##DATA TYPE=MASS SPECTRUM
##SAMPLE DESCRIPTION=Chuck Anderson, Aldrich Chemical Co.
##NAMES=HP
##CAS NAME=m-Hydroxybenzophenone
##MOLFORM=C13H10O2
##CAS REGISTRY NO=13020-57-0
##MP= -300
##BP= -300
##MW= 198
##$RETENTION INDEX=0
##$CONDENSED SPECTRUM=NO
##NPOINTS= 84
##XYDATA=(XY..XY) 1 
    17          0
    18          3
    26          4
    27         21
    28          8
    29          8
    31          4
    32          2
    36          1
    37          4
    38         24
    39        139
    40          6
    44          0
    49          0
    50         49
    51        155
    52         11
    53         23
    55          4
    57          4
    61          5
    62         22
    63         71
    64         34
    65        219
    66         19
    67          2
    69          4
    70          3
    71          3
    72          3
    73          3
    74         27
    75         25
    76         40
    77        620
    78         41
    84         12
    85         25
    86          6
    87          6
    88          2
    89          9
    90          4
    91          4
    92         14
    93        207
    94         14
    98          2
    99          8
   102          2
   105        999
   106         72
   107          3
   113          4
   114          3
   115         45
   116          3
   119          1
   121        782
   122         54
   123          3
   126          2
   139         26
   140          2
   141         38
   142          4
   143          1
   150          2
   151          8
   152         17
   153          6
   168          6
   169         13
   170         30
   171          2
   180          4
   181         41
   182          4
   197         49
   198        645
   199         81
   200          8