##TITLE=Library Entry 22998
##JCAMP-DX=Revision 4.10 
##DATA TYPE=MASS SPECTRUM
##SAMPLE DESCRIPTION=Chemical Concepts
##NAMES=HP
##CAS NAME=Boron, [1-[[(dimethylamino)dimethylstannyl]methylene]propyl-C,N]d
iethyl-, (t-4)-
##MOLFORM=C12H28BNSn
##CAS REGISTRY NO=130219-25-9
##MP= -300
##BP= -300
##MW= 317
##$RETENTION INDEX=0
##$CONDENSED SPECTRUM=NO
##NPOINTS= 215
##XYDATA=(XY..XY) 1 
    26         59
    27        267
    28         44
    29        202
    30        132
    36         12
    37         51
    38         26
    39        123
    40        199
    41        341
    42         93
    43         30
    44        228
    45         49
    46         27
    50         20
    51         55
    52         17
    53        120
    54        124
    55        329
    56        999
    57         50
    58         33
    63          8
    64         19
    65         82
    66         27
    67         52
    68         34
    69         89
    70        237
    71         11
    72         22
    73         13
    75          9
    77         12
    78         16
    79         44
    80         81
    81         39
    82         68
    83         91
    84        372
    85         37
    86         30
    92         26
    93         19
    94         24
    95         32
    96         39
    97         12
   105          9
   106         21
   107         41
   108        142
   109         34
   110         34
   111         21
   112         48
   113          9
   116         38
   117         31
   118         61
   119         74
   120         72
   121         68
   122        161
   123         55
   124        115
   125          9
   127         21
   129         17
   130         11
   131        281
   132        146
   133        491
   134        181
   135        614
   136         98
   137        109
   138         30
   139        105
   141         20
   142         21
   143         38
   144         27
   145         92
   146        230
   147        325
   148        385
   149        456
   150        560
   151        354
   152         68
   153         57
   154         70
   155         78
   156         16
   157         20
   158         16
   159         27
   160         48
   161         82
   162         59
   163        122
   164         79
   165        153
   166         11
   167         25
   169         71
   170         22
   171         81
   172         54
   173        117
   174         47
   175        167
   176         84
   177        175
   178         79
   179        226
   180         23
   181         33
   182          9
   183         53
   184          9
   185         25
   186         13
   187         29
   188         28
   189         39
   190         15
   191         19
   192         14
   193         14
   194         13
   195         13
   198         10
   199         33
   200         30
   201         48
   202         45
   203         59
   204         52
   205         13
   206         11
   207         10
   208          9
   211         10
   212         12
   213         20
   214         18
   215         34
   216         38
   217         54
   218         51
   219         43
   220         50
   221         11
   224         10
   226         11
   227         15
   228         15
   229         22
   230         19
   231         20
   232         19
   233         14
   234          9
   240          9
   241         31
   242         37
   243         61
   244         72
   245         89
   246         74
   247         68
   248        107
   249         21
   250         12
   252         27
   253         18
   254         26
   255         36
   256        115
   257        108
   258        164
   259        179
   260        237
   261        192
   262        157
   263        217
   264         57
   265         34
   266         10
   267         31
   268         10
   270         11
   272         15
   280         22
   282         20
   283        101
   284        389
   285        382
   286        688
   287        510
   288        887
   289        127
   290        119
   291         35
   292        145
   293         10
   300          9
   302         11