##TITLE=Library Entry 7980
##JCAMP-DX=Revision 4.10 
##DATA TYPE=MASS SPECTRUM
##SAMPLE DESCRIPTION=A.A.Kutin, Moscow, Russia
##NAMES=HP
##CAS NAME=1-O-(tert-Butyl)-2,3,4,6-tetra-O-acetyl-.alpha.-d-glucopyranoside
##MOLFORM=C18H28O10
##CAS REGISTRY NO=13035-51-3
##MP= -300
##BP= -300
##MW= 404
##$RETENTION INDEX=0
##$CONDENSED SPECTRUM=NO
##NPOINTS= 138
##XYDATA=(XY..XY) 1 
    37          0
    38          0
    39         12
    40          2
    41         80
    43        999
    44         24
    45          6
    46          0
    47          0
    50          0
    51          0
    52          0
    53          3
    54          2
    55         10
    56         15
    57        311
    58         14
    59         12
    60          9
    61         16
    62          0
    63          0
    65          0
    67          0
    68          2
    69         31
    70         21
    71         12
    73         45
    74          3
    75          0
    79          0
    80         15
    81         50
    82          6
    83          3
    84          5
    85         34
    86         17
    87          2
    89          2
    91          0
    95          0
    97         65
    98        250
    99         35
   100          3
   101          6
   102         25
   103         57
   104          3
   105          0
   109         88
   110          8
   111          3
   112         19
   113         16
   114         24
   115        271
   116         27
   117          3
   122          1
   123          0
   125          6
   126         30
   127         40
   128          5
   129          3
   130          0
   131         11
   132          0
   133          0
   139         41
   140        113
   141         20
   142          3
   143         11
   144          7
   145         48
   146          3
   147          0
   151          0
   153          1
   155         14
   157        171
   158         57
   159          6
   160          1
   161          0
   166          0
   167          1
   169        110
   170         10
   171          5
   172          0
   173          2
   174          0
   175          0
   182         14
   183          1
   184          0
   185          2
   186          7
   187          7
   188          0
   197          0
   198          0
   199         31
   200         75
   201          9
   202          1
   203          5
   204          0
   211          3
   215         13
   216          1
   217          1
   228          3
   229          5
   230          0
   242         55
   243          8
   245          8
   246          1
   247          1
   256          1
   259          1
   271          2
   275          3
   276          0
   287          1
   289         13
   290          1
   303          1
   331          9
   332          1