##TITLE=Library Entry 19071
##JCAMP-DX=Revision 4.10 
##DATA TYPE=MASS SPECTRUM
##SAMPLE DESCRIPTION=R RYHAGE MS-LAB KAROLINSKA INSTITUTET STOCKHOLM SWEDEN
##NAMES=HP
##CAS NAME=10-Octadecenoic acid, methyl ester, (E)-
##MOLFORM=C19H36O2
##CAS REGISTRY NO=13038-45-4
##MP= -300
##BP= -300
##MW= 296
##$RETENTION INDEX=0
##$CONDENSED SPECTRUM=NO
##NPOINTS= 256
##XYDATA=(XY..XY) 1 
    14          4
    15         30
    16          2
    17         16
    18          3
    24          7
    25          2
    26          9
    27         85
    28         33
    29        241
    30          6
    31         13
    32          5
    33          3
    34          1
    36          1
    37          2
    38          4
    39         87
    40         17
    41        775
    42        150
    43        715
    44         35
    45         32
    46          6
    48          5
    50          3
    51          5
    52          4
    53         64
    54        267
    55        999
    56        272
    57        309
    58         17
    59        170
    60          6
    61          3
    63          2
    64          2
    65         14
    66         17
    67        322
    68        207
    69        662
    70        168
    71        117
    72         12
    73         50
    74        611
    75         98
    76          6
    77         12
    78          7
    79         61
    80         41
    81        278
    82        178
    83        466
    84        312
    85         85
    86          6
    87        367
    88         36
    89          3
    90          8
    91         17
    92          6
    93         36
    94         36
    95        193
    96        286
    97        328
    98        234
    99         38
   100          8
   101         56
   102          7
   103          2
   104          2
   105         11
   106          5
   107         28
   108         26
   109         96
   110        137
   111         14
   112         57
   113         25
   114         30
   115         51
   116          9
   117          2
   118          2
   119         23
   120          9
   121         32
   122         15
   123         89
   124          7
   125         82
   126        190
   127         23
   128         34
   129         37
   130         11
   131          2
   132          2
   133         21
   134         20
   135         31
   136         11
   137         58
   138         59
   139         49
   140         11
   141         45
   142         11
   143         40
   144          6
   145          2
   146          1
   147         15
   148         16
   149         24
   150         10
   151         40
   152         52
   153         29
   154          6
   155         12
   156          4
   157         14
   158          4
   159          1
   160          1
   161         14
   162          7
   163         12
   164          9
   165         26
   166         41
   167         21
   168          5
   169        174
   170          3
   171         10
   172          3
   173          1
   174          1
   175          9
   176          3
   177          7
   178          4
   179         18
   180         56
   181         23
   182          5
   183         12
   184          2
   185         10
   186          4
   187          1
   188          4
   189          5
   190          2
   191          4
   192          3
   193         13
   194         17
   195          7
   196          3
   197          4
   198          3
   199         14
   200          7
   201          3
   202          7
   203          3
   204          2
   205          2
   206          2
   207         14
   208         14
   209          7
   210          3
   211          3
   212          1
   213         10
   214          6
   215          2
   216          4
   217          2
   218          2
   219          1
   220         33
   221         26
   222        106
   223         26
   224          4
   225          3
   226          1
   227          4
   228          4
   229          1
   231          1
   233          1
   234          1
   235         19
   236         19
   237          4
   238          1
   239          3
   240          1
   241          4
   242          1
   243          1
   245          2
   246         25
   247         13
   248          4
   249          4
   250          1
   251          1
   252          1
   253          9
   254          2
   255          9
   256          2
   257          6
   262          8
   263          4
   264        345
   265        154
   266         25
   267         10
   268          3
   269          3
   270          2
   271          5
   278          6
   279          6
   280          3
   281          9
   282         11
   283          6
   285          6
   294          2
   295          2
   296        103
   297         33
   298         35
   299          9
   300          1