##TITLE=Library Entry 59482
##JCAMP-DX=Revision 4.10 
##DATA TYPE=MASS SPECTRUM
##SAMPLE DESCRIPTION=Humboldt-Universitat zu Berlin, Department of Chemistry
, Analytical Group
##NAMES=HP
##CAS NAME=1-Pyrrolidinecarboxylic acid, 3-oxo-, phenylmethyl ester
##MOLFORM=C12H13NO3
##CAS REGISTRY NO=130312-02-6
##MP= -300
##BP= -300
##MW= 219
##$RETENTION INDEX=0
##$CONDENSED SPECTRUM=NO
##NPOINTS= 87
##XYDATA=(XY..XY) 1 
    12          1
    13          0
    14          6
    15         38
    16          1
    17          1
    18          6
    26         23
    27         64
    28        149
    29         26
    30         13
    31          0
    36          0
    37          2
    38         12
    39         82
    40         11
    41         39
    42        132
    43         16
    44          3
    45          3
    49          1
    50         22
    51         61
    52         16
    53          5
    54          9
    55         20
    56         79
    57          7
    58          1
    61          2
    62         10
    63         41
    64         12
    65        164
    66         10
    67          0
    68          0
    69          0
    70          0
    71          0
    73          0
    74          4
    75          3
    76          4
    77         44
    78          9
    79         16
    80          1
    84         25
    85          5
    86          1
    87          1
    89         38
    91        999
    92         83
    93          3
   100          2
   104         26
   105         11
   106          1
   107         10
   108          1
   112         14
   113          1
   114          0
   117          1
   118          5
   119          2
   128         13
   129          1
   130          0
   132          1
   133          0
   146         19
   147          2
   162          1
   175          0
   176          0
   191          6
   192          0
   219         43
   220          5
   221          0