##TITLE=Library Entry 2705
##JCAMP-DX=Revision 4.10 
##DATA TYPE=MASS SPECTRUM
##SAMPLE DESCRIPTION=Chemical Concepts
##NAMES=HP
##CAS NAME=2-Dodecenedioic acid, dimethyl ester, (E)-
##MOLFORM=C14H24O4
##CAS REGISTRY NO=13038-20-5
##MP= -300
##BP= -300
##MW= 256
##$RETENTION INDEX=1882
##$CONDENSED SPECTRUM=NO
##NPOINTS= 147
##XYDATA=(XY..XY) 1 
    31         66
    33         11
    34          1
    35          1
    36         23
    37          4
    38         18
    39        350
    40        118
    41        999
    42        153
    43        488
    44         27
    45         99
    46          7
    47          2
    50          5
    51         21
    52         18
    53        230
    54        135
    55        849
    56         66
    57         56
    58          7
    59        432
    60         14
    61          6
    62          1
    63          1
    65         30
    66         21
    67        292
    68        247
    69        169
    70         22
    71         81
    72          9
    73         51
    74        234
    75         15
    76          0
    77         19
    78         11
    79         95
    80         69
    81        423
    82        154
    83        130
    84         66
    85         66
    86          3
    87        205
    88         25
    89          4
    91         32
    92         14
    93         47
    94         43
    95        137
    96        117
    97         95
    98         71
    99         27
   100         95
   101         25
   102          3
   104          2
   105         18
   106         18
   107         54
   108         42
   109         69
   110         27
   111         28
   112          8
   113         48
   114         50
   115         13
   116          1
   117          5
   118          5
   119         10
   120         28
   121         39
   122         60
   123         82
   124         25
   125          9
   126          4
   127         13
   128         20
   129         11
   130         12
   131          4
   132         14
   133         21
   134          2
   135         19
   136         34
   137         20
   138         22
   139          3
   140          5
   141          7
   142          3
   143          1
   145          2
   146         10
   147         46
   148         10
   149         16
   150         27
   151         27
   152          1
   153          1
   154          1
   155          3
   156          5
   157          1
   159          0
   163          5
   164        182
   165         81
   166         13
   167          1
   168          1
   170          2
   173          0
   174         12
   175          8
   179          1
   180          3
   181          5
   182          3
   183          4
   191          0
   192        108
   193         18
   194          2
   195          1
   196        117
   197         41
   198          7
   206          3
   224         19
   225         26