##TITLE=Library Entry 49878
##JCAMP-DX=Revision 4.10 
##DATA TYPE=MASS SPECTRUM
##SAMPLE DESCRIPTION=Chemical Concepts
##NAMES=HP
##CAS NAME=Uridine, 2'-deoxy-, 3',5'-diacetate
##MOLFORM=C13H16N2O7
##CAS REGISTRY NO=13030-62-1
##MP= -300
##BP= -300
##MW= 312
##$RETENTION INDEX=0
##$CONDENSED SPECTRUM=NO
##NPOINTS= 132
##XYDATA=(XY..XY) 1 
    26         12
    27         26
    29         15
    30          0
    31          6
    33          0
    36          0
    37          0
    38          1
    39         17
    40         14
    41         42
    42         27
    43        782
    44         19
    45          8
    47          0
    50          0
    51          1
    52          6
    53         21
    54         22
    55         14
    56          3
    57          6
    58          0
    59          0
    60          2
    61         10
    62          0
    65          0
    66          1
    67          8
    68         40
    69         39
    70         19
    71         11
    72          1
    73         20
    74          0
    77          0
    78          2
    79          1
    80          8
    81        999
    82         56
    83          4
    84          2
    85          2
    86          3
    87          0
    91          0
    92          0
    93          0
    94          2
    95          7
    96         31
    97         10
    98         17
    99         16
   100          1
   101          0
   103          1
   105          0
   107          0
   108          9
   109          1
   110          0
   111          1
   112         14
   113         31
   114          1
   115          4
   116          0
   117          0
   120          0
   121          0
   122          2
   123          0
   124          6
   125          0
   126          1
   127          0
   128          0
   129          0
   135          0
   136         25
   137          2
   138          1
   139         23
   140          6
   141         12
   142          1
   143          0
   145          0
   148          2
   149          0
   150          3
   151          1
   153          0
   154          0
   155          1
   156          0
   157          0
   159          0
   164          0
   165          0
   166          0
   167          5
   168         13
   169          1
   179         11
   180          1
   181          1
   184          0
   191          0
   192          5
   193          1
   194          0
   197          0
   201         85
   202          8
   203          1
   209          0
   210          2
   211          0
   212          0
   239          2
   240          0
   269          0
   312          5
   313          1