##TITLE=Library Entry 7678
##JCAMP-DX=Revision 4.10 
##DATA TYPE=MASS SPECTRUM
##SAMPLE DESCRIPTION=Institute of Organic Chemistry, Novosibirsk, USSR 1988
##NAMES=HP
##CAS NAME=.tert.-Butyl 2,3,4,6-tetra-O-acetyl-.beta.-d-glucopyranoside
##MOLFORM=C18H28O10
##CAS REGISTRY NO=13035-50-2
##MP= -300
##BP= -300
##MW= 404
##$RETENTION INDEX=0
##$CONDENSED SPECTRUM=NO
##NPOINTS= 96
##XYDATA=(XY..XY) 1 
    27         49
    29        219
    39        139
    41        439
    42        119
    43        999
    44         79
    55         33
    56         39
    57        999
    58         51
    59         63
    60         13
    61         23
    68          6
    69         35
    70         31
    71         15
    73         63
    74          4
    80         19
    81         91
    82         10
    83          4
    84          6
    85         57
    86         25
    87          2
    97         85
    98        419
    99         53
   100          4
   101          7
   102         31
   103         73
   109        129
   110         14
   111          6
   112         35
   113         18
   114         17
   115        349
   116         35
   117          4
   122          4
   125          8
   126         43
   127         53
   128          7
   129          5
   132         19
   139         69
   140        199
   141         39
   142          3
   143         16
   144         11
   145         87
   155         23
   156          7
   157        319
   158         89
   159         11
   169        249
   170         21
   171         13
   173          4
   182         17
   186         18
   187         16
   199         39
   200        159
   201         19
   202          4
   203         11
   211          9
   215         23
   228         12
   229         16
   242        299
   243         37
   244          7
   245         24
   246          8
   247          3
   256         13
   259          4
   271         11
   275         10
   287          4
   288         12
   289         49
   290          1
   303          5
   331         53
   347          3