##TITLE=Library Entry 15347
##JCAMP-DX=Revision 4.10 
##DATA TYPE=MASS SPECTRUM
##SAMPLE DESCRIPTION=A.A.Kutin, Moscow, Russia
##NAMES=HP
##CAS NAME=Thiophene-3-ol, tetrahydro-, 1,1-dioxide
##MOLFORM=C4H8O3S
##CAS REGISTRY NO=13031-76-0
##MP= -300
##BP= -300
##MW= 136
##$RETENTION INDEX=0
##$CONDENSED SPECTRUM=NO
##NPOINTS= 81
##XYDATA=(XY..XY) 1 
    33          5
    34          2
    35          0
    36          1
    37          2
    38          8
    39         53
    40         12
    41         38
    42         50
    43        392
    44        999
    45         85
    46         63
    47         13
    48         27
    49          8
    50         13
    51         11
    52          5
    53         23
    54         21
    55         24
    57         82
    58         10
    59          8
    60          3
    61          2
    62          6
    63         41
    64         14
    65         33
    66         10
    67          5
    68          1
    69          7
    70          3
    71         16
    72         48
    73         13
    74          3
    75          1
    76          1
    77          3
    78          3
    80         61
    81          6
    82          5
    83          8
    84          2
    85          5
    86          1
    87          1
    89          4
    91          1
    92          2
    93          2
    94          2
    95          2
    96          1
    97          3
    98          0
    99          0
   104          1
   107          2
   108         10
   109          2
   110          2
   111          1
   112          1
   118          1
   121          1
   125          2
   126          0
   127          1
   134          0
   135          0
   136         25
   137          3
   138          3
   139          0