##TITLE=Library Entry 4577
##JCAMP-DX=Revision 4.10 
##DATA TYPE=MASS SPECTRUM
##SAMPLE DESCRIPTION=E. SCHUMACHER INORG. CHEM. INST., UNIV., ZURICH, SWITZE
RLAND
##NAMES=HP
##CAS NAME=1,3,5-Triazine, 1,3,5-tributylhexahydro-
##MOLFORM=C15H33N3
##CAS REGISTRY NO=13036-83-4
##MP= -300
##BP= -300
##MW= 255
##$RETENTION INDEX=0
##$CONDENSED SPECTRUM=NO
##NPOINTS= 27
##XYDATA=(XY..XY) 1 
    41        518
    42        999
    43        737
    44        575
    55        263
    56        410
    57        572
    69        266
    70        265
    71        116
    72        264
    84        655
    85        383
    86        658
    98        340
    99        392
   100        178
   113         67
   127        445
   128        179
   157         54
   169        128
   170        350
   171        272
   199        127
   254        210
   255        132