##TITLE=Library Entry 28381
##JCAMP-DX=Revision 4.10 
##DATA TYPE=MASS SPECTRUM
##SAMPLE DESCRIPTION=Y. Murata, LBC, NIDDK, NIH, Bethesda, MD 20892
##NAMES=HP
##CAS NAME=Z-25-Tetratriaconten-2-one
##MOLFORM=C34H66O
##CAS REGISTRY NO=130385-23-8
##MP= -300
##BP= -300
##MW= 490
##$RETENTION INDEX=0
##$CONDENSED SPECTRUM=NO
##NPOINTS= 232
##XYDATA=(XY..XY) 1 
    52          3
    53         23
    54        138
    55        785
    56        181
    57        638
    58        999
    59        546
    60          8
    63          4
    65          3
    66          7
    67        220
    68        157
    69        695
    70        128
    71        810
    72         39
    78          3
    79         20
    80        109
    81        249
    82        264
    83        454
    84         87
    85        166
    86         15
    87          2
    92         10
    93         17
    94        174
    95        325
    96        286
    97        337
    98         77
    99         37
   100         19
   101          6
   104          2
   106          2
   107         13
   108        107
   109        194
   110         84
   111        205
   112         29
   113         23
   114         15
   121         42
   122         27
   123         73
   124         52
   125        483
   126         52
   127         21
   128          3
   135         62
   136         31
   137         39
   138         31
   139         14
   140          5
   141          4
   142          7
   149         39
   150         41
   151         12
   152         21
   153         13
   154         20
   155          8
   156          3
   163         18
   164         11
   165          6
   166         13
   167          8
   168          5
   169          3
   170          2
   171          3
   177          3
   178          3
   179          4
   180          5
   181          3
   183          6
   184          4
   185          3
   191          4
   192          2
   193          4
   194         10
   195          5
   196          3
   197          4
   198          5
   205          2
   207         23
   208          6
   211          4
   213          3
   215          2
   219          6
   222          4
   223          6
   224          4
   226          3
   227          2
   233          3
   234          4
   235          6
   236         12
   237          3
   239          5
   240          3
   241          4
   247          2
   248          2
   249          6
   250         12
   251          7
   252          2
   254          3
   261          6
   262          2
   263          7
   264         11
   265          2
   275          6
   276          4
   277          2
   278         13
   279          7
   289         10
   290          4
   291          5
   292         10
   293          6
   294          4
   295          2
   303         10
   304          7
   305          2
   306         17
   307          7
   308          4
   309          2
   311          2
   317          4
   318          5
   319          5
   320          5
   321         10
   322          5
   327          3
   331         10
   332          6
   333          7
   334         13
   335          7
   337          2
   345          8
   346          6
   347          2
   348         11
   349         13
   351          4
   359          7
   360          4
   361          5
   362         16
   363          9
   364          4
   365          3
   373          8
   374          6
   375          5
   376         22
   377         11
   378          3
   379          7
   380          3
   381          3
   387          9
   388          4
   389          5
   390         20
   391          9
   393         10
   394         47
   395         17
   396          2
   401         10
   402          4
   404          7
   405          8
   406          4
   407          8
   408         40
   409         14
   415          7
   416          5
   419          2
   421          4
   422         22
   423          7
   429          7
   430          8
   431          2
   432         36
   433         12
   434          5
   435         19
   436          6
   443         13
   445          2
   447          8
   448          3
   449          6
   457          5
   471          2
   472        190
   473         76
   474         13
   475         37
   476          4
   489          3
   490        149
   491         63
   492         13
   493          2