##TITLE=Library Entry 12696
##JCAMP-DX=Revision 4.10 
##DATA TYPE=MASS SPECTRUM
##SAMPLE DESCRIPTION=Japan AIST/NIMC Database- Spectrum MS-NW-6872
##NAMES=HP
##CAS NAME=1,2,3,5-tetra-O-Acetyl-.beta.-D-ribofuranose
##MOLFORM=C13H18O9
##CAS REGISTRY NO=13035-61-5
##MP= -300
##BP= -300
##MW= 318
##$RETENTION INDEX=0
##$CONDENSED SPECTRUM=NO
##NPOINTS= 87
##XYDATA=(XY..XY) 1 
    14          2
    15         27
    18          1
    27          3
    28          7
    29          5
    31          2
    39          3
    41          4
    42         10
    43        999
    44         22
    45          6
    55          4
    56          2
    57          5
    58          1
    60          9
    61          8
    67          1
    68         26
    69         39
    70          3
    71          7
    73         22
    74          2
    81          3
    83          1
    84          5
    85         20
    86         48
    87          3
    89          1
    96          6
    97         55
    98          6
    99          3
   100          6
   101         21
   102          9
   103         66
   104          3
   110          1
   113          6
   114         59
   115         53
   116          6
   117          1
   126          6
   127          9
   128         26
   129          3
   131          3
   138          1
   139         60
   140          5
   143        135
   144          9
   145         59
   146          4
   156        175
   157         36
   158          4
   161          3
   170          5
   171          1
   173          8
   174          2
   185          1
   187          9
   188          1
   198         29
   199          3
   203         29
   204          3
   215          2
   216          9
   217          2
   233          1
   245         58
   246          7
   247          1
   258          1
   259         40
   260          5
   261          1
   275          2