##TITLE=Library Entry 4032
##JCAMP-DX=Revision 4.10 
##DATA TYPE=MASS SPECTRUM
##SAMPLE DESCRIPTION=Chemical Concepts
##NAMES=HP
##CAS NAME=2,3-Furandione, dihydro-4,4-dimethyl-
##MOLFORM=C6H8O3
##CAS REGISTRY NO=13031-04-4
##MP= -300
##BP= -300
##MW= 128
##$RETENTION INDEX=0
##$CONDENSED SPECTRUM=NO
##NPOINTS= 71
##XYDATA=(XY..XY) 1 
    24          1
    25         10
    26         91
    27        354
    28        153
    29        114
    30         20
    31         13
    33          0
    34          0
    35          0
    36          1
    37         30
    38         61
    39        432
    40         89
    41        999
    42        428
    43        143
    44         14
    45          9
    46          1
    48          0
    49          3
    50         16
    51         12
    52          4
    53         22
    54          8
    55         62
    56        497
    57         24
    58          2
    59          0
    61          0
    62          0
    65          0
    66          1
    67          1
    68          2
    69        148
    70        431
    71         40
    72          5
    73          2
    75          0
    76          0
    78          0
    79          0
    80          0
    81          0
    82          1
    83          2
    84          1
    85          1
    86          0
    87          0
    88          4
    91          0
    98          0
    99          1
   100          0
   101          0
   102          0
   111          0
   117          0
   121          0
   128        667
   129         45
   130          6
   131          0