##TITLE=Library Entry 20204
##JCAMP-DX=Revision 4.10 
##DATA TYPE=MASS SPECTRUM
##SAMPLE DESCRIPTION=Y. Murata, LBC, NIDDK, NIH, Bethesda, MD 20892
##NAMES=HP
##CAS NAME=Z-28-Heptatriaconten-2-one
##MOLFORM=C37H72O
##CAS REGISTRY NO=130385-26-1
##MP= -300
##BP= -300
##MW= 532
##$RETENTION INDEX=0
##$CONDENSED SPECTRUM=NO
##NPOINTS= 232
##XYDATA=(XY..XY) 1 
    52          9
    53         18
    54        175
    55        999
    56        256
    57        718
    58        719
    59        443
    60         21
    66         25
    67        315
    68        234
    69        766
    70        194
    71        728
    72         60
    73          6
    78          3
    79         28
    80        105
    81        364
    82        425
    83        686
    84        123
    85        243
    86         14
    88          4
    92         10
    93         26
    94        209
    95        342
    96        470
    97        523
    98         78
    99         52
   100         23
   107         30
   108         97
   109        218
   110        140
   111        271
   112         43
   113         32
   114         21
   116          3
   117          6
   121         45
   122         27
   123        112
   124         64
   125        389
   126         46
   127         29
   130          3
   135         64
   136         41
   137         64
   138         42
   139         41
   140         16
   141          4
   142          8
   149         39
   150         31
   151         33
   152         24
   153         23
   154         25
   155          5
   156          7
   163          8
   164         11
   165          5
   166         17
   167         11
   168          6
   170          3
   171          4
   177         10
   179          9
   180         15
   181          7
   182          5
   184          4
   192          3
   194          4
   196          6
   198          5
   207         17
   208         18
   212          3
   216          3
   219          5
   220          6
   221          4
   222          5
   223          3
   224          4
   226          5
   235          7
   236         10
   237          5
   238          4
   240          5
   248          4
   250          4
   251          7
   253          7
   257          4
   262          7
   263          7
   264         12
   275          6
   276          6
   277          5
   278         17
   279          9
   289          9
   290          3
   291          7
   292         15
   293          7
   294          4
   296          4
   303          8
   304          6
   305          8
   306         11
   307         11
   309          3
   310          3
   317          8
   318          3
   319          5
   320         16
   321          9
   322          4
   323          3
   327          3
   331          9
   332          4
   333          8
   334         18
   335         11
   343          3
   345          7
   346          6
   347          8
   348         19
   349         10
   353          4
   359          8
   360          6
   361          6
   362         20
   363         12
   364          3
   365          3
   373          7
   374          6
   376         17
   377         11
   378          5
   387          7
   388          5
   389          4
   390         14
   391         11
   392          4
   401          8
   403          8
   404         19
   405          8
   406          5
   415          4
   416          8
   417          7
   418         21
   419         16
   420          6
   421          8
   422          7
   429          3
   432         22
   433         13
   434          4
   435          5
   436         27
   437         11
   443          5
   444          4
   445          3
   446          9
   447         10
   448          3
   449          5
   450         18
   451          7
   457          5
   458          3
   459          4
   460          6
   461          5
   462          3
   463          5
   464         10
   465          5
   471          7
   472          8
   473          3
   474         30
   475          9
   476          6
   477          8
   478          5
   485          7
   487          5
   488          5
   489          6
   499          5
   503          6
   504          3
   514         98
   515         45
   516         62
   517         48
   518         15
   519          6
   532         84
   533         35
   534         21
   535          6