##TITLE=Library Entry 42670
##JCAMP-DX=Revision 4.10 
##DATA TYPE=MASS SPECTRUM
##SAMPLE DESCRIPTION=NIST Mass Spectrometry Data Center, 2010
##NAMES=HP
##CAS NAME=d-Glucose, 2,3,4,5,6-pentakis-O-(trimethylsilyl)-, o-methyloxyme,
 (1E)-
##MOLFORM=C22H55NO6Si5
##CAS REGISTRY NO=130405-10-6
##MP= -300
##BP= -300
##MW= 569
##$RETENTION INDEX=1901
##$CONDENSED SPECTRUM=NO
##NPOINTS= 239
##XYDATA=(XY..XY) 1 
    15          2
    26          1
    27          2
    28          4
    29          7
    30          1
    31          6
    32          3
    39          1
    41          6
    42          1
    43          8
    44          9
    45         60
    46          4
    47          6
    52          1
    53          2
    54          3
    55          9
    56          1
    57          3
    58          7
    59         37
    60          3
    61          4
    66          1
    67          1
    68          1
    69          2
    70          2
    71          2
    72         15
    73        999
    74         84
    75         68
    76          4
    77          3
    81          1
    82          1
    83          4
    84          3
    85          3
    86          2
    87          3
    88          4
    89         62
    90          5
    91          3
    96          2
    97          2
    98          1
    99          3
   100         15
   101         17
   102          9
   103        262
   104         25
   105         17
   106          2
   107          1
   111          2
   112          1
   113          4
   114          5
   115          5
   116          8
   117         98
   118         10
   119         11
   120          1
   121          1
   125          1
   126          2
   127          4
   128          3
   129         66
   130         13
   131         31
   132          5
   133        100
   134         13
   135          7
   136          1
   140          1
   141          2
   142          2
   143         12
   144          2
   145          5
   146          3
   147        370
   148         56
   149         35
   150          4
   151          1
   152          1
   154          2
   155          1
   156          1
   157         45
   158          8
   159          7
   160        214
   161         41
   162         11
   163         12
   164          2
   165          1
   168          1
   169          5
   170          1
   171          1
   172         15
   173          7
   174          3
   175          7
   176          1
   177          9
   178          2
   179          1
   180          1
   182          1
   185          1
   186          6
   187          2
   188          3
   189         44
   190         12
   191         20
   192          4
   193          2
   196          1
   200          2
   201         47
   202         10
   203          8
   204         71
   205        319
   206         62
   207         30
   208          4
   209          1
   210          1
   214          4
   215          2
   216          3
   217        118
   218         25
   219         11
   220          2
   221          8
   222          2
   223          1
   228          1
   229         27
   230         10
   231          7
   232          2
   233         16
   234          5
   235         10
   236          2
   237          1
   240          1
   242          3
   243          4
   244          3
   245          2
   246          4
   247          2
   248          1
   256          1
   259          2
   260          1
   261          1
   262          2
   263          1
   265          1
   268          7
   269          3
   270          2
   273          3
   274          3
   275          2
   276          1
   277         12
   278          4
   279          2
   280          1
   288          1
   291         16
   292          4
   293          2
   294          1
   300          2
   301          1
   302          5
   303          2
   304          2
   305         11
   306          5
   307         12
   308          4
   309          2
   315          1
   316          1
   317          1
   318          2
   319        282
   320         83
   321         39
   322          8
   323          2
   328          1
   331          1
   332          3
   333          2
   334          1
   337          3
   338          1
   342          2
   343          1
   344          5
   345          2
   346          1
   347          2
   348          1
   349          1
   358          1
   364          1
   365          2
   374          1
   376          3
   377          1
   379          1
   402          1
   405          1
   432          1