##TITLE=Library Entry 80438
##JCAMP-DX=Revision 4.10 
##DATA TYPE=MASS SPECTRUM
##SAMPLE DESCRIPTION=NIST Mass Spectrometry Data Center, 1998.
##NAMES=HP
##CAS NAME=Fendiline
##MOLFORM=C23H25N
##CAS REGISTRY NO=13042-18-7
##MP= -300
##BP= -300
##MW= 315
##$RETENTION INDEX=2420
##$CONDENSED SPECTRUM=NO
##NPOINTS= 149
##XYDATA=(XY..XY) 1 
    15          1
    26          1
    27         13
    28         18
    29          3
    30        287
    31          4
    38          1
    39         21
    40          2
    41          8
    42         26
    43          8
    44         20
    50         11
    51         53
    52         13
    53          8
    54          3
    55          2
    56         17
    57         12
    58         67
    59          2
    62          3
    63         17
    64          4
    65         32
    66          3
    67          1
    68          1
    70          3
    71          1
    74          4
    75          6
    76         13
    77        191
    78         63
    79        138
    80          9
    81          1
    82          2
    83          2
    86          1
    87          2
    88          2
    89         22
    90          8
    91        340
    92         28
    93          2
    94          1
   100          1
   101          3
   102         19
   103        127
   104        135
   105        999
   106        153
   107          8
   113          3
   114          1
   115         85
   116         26
   117         49
   118         52
   119         13
   120        157
   121         14
   122          1
   126          4
   127          5
   128         18
   129          4
   130          9
   131          3
   132         74
   133         29
   134        194
   135         20
   136          1
   137          1
   138          1
   139         13
   140          2
   141          9
   142          1
   144          1
   146         18
   147          5
   148          6
   149          1
   150         10
   151         15
   152        119
   153         24
   154          3
   155          1
   162          1
   163         10
   164         18
   165        240
   166         82
   167        207
   168         79
   169          9
   170          1
   176          7
   177          6
   178         40
   179         35
   180         20
   181        182
   182         28
   183          2
   189          3
   190          1
   191          4
   192          3
   193         34
   194         36
   195          6
   196          2
   203          1
   204          1
   205          1
   206          1
   207          1
   208          7
   209          3
   210          8
   211          2
   222          5
   223          1
   236          1
   237          5
   238          9
   239          2
   298          1
   300        224
   301         54
   302          6
   312          1
   313          1
   314         24
   315        308
   316         78
   317         10
   318          1