##TITLE=Library Entry 22221
##JCAMP-DX=Revision 4.10 
##DATA TYPE=MASS SPECTRUM
##SAMPLE DESCRIPTION=V.Zaikin,Topchiev Inst.Petrochem.Synth.,Moscow
##NAMES=HP
##CAS NAME=Bromoacetic acid, hexyl ester
##MOLFORM=C8H15BrO2
##CAS REGISTRY NO=13048-32-3
##MP= -300
##BP= -300
##MW= 222
##$RETENTION INDEX=1271
##$CONDENSED SPECTRUM=NO
##NPOINTS= 73
##XYDATA=(XY..XY) 1 
    27        151
    28         26
    29        179
    30          8
    31         23
    36          6
    37         20
    38          7
    39        174
    40         33
    41        475
    42        542
    43        907
    44         59
    45         17
    50          5
    51         11
    52          4
    53         31
    54         37
    55        485
    56        999
    57        131
    58          8
    59          5
    60          6
    61          2
    63          3
    65          5
    67         14
    68          6
    69        253
    70         23
    71         12
    72          5
    73          7
    77          6
    79         10
    81          6
    82          7
    83         94
    84        595
    85         91
    86          7
    87          2
    91          3
    92          4
    93        115
    94         10
    95        119
    96          4
    97          4
    99          7
   100          3
   101          6
   120         10
   121        198
   122         12
   123        191
   124          3
   129         19
   138          5
   139         62
   140          3
   141         71
   143          8
   151          9
   152          2
   153         11
   165          2
   167          4
   179          5
   181          3