##TITLE=Library Entry 6996
##JCAMP-DX=Revision 4.10 
##DATA TYPE=MASS SPECTRUM
##SAMPLE DESCRIPTION=NIST Mass Spectrometry Data Center
##NAMES=HP
##CAS NAME=Acetic acid, non-3-enyl ester, cis-
##MOLFORM=C11H20O2
##CAS REGISTRY NO=13049-88-2
##MP= -300
##BP= -300
##MW= 184
##$RETENTION INDEX=1292
##$CONDENSED SPECTRUM=NO
##NPOINTS= 75
##XYDATA=(XY..XY) 1 
    14          1
    15         16
    26          4
    27         68
    28         20
    29        103
    30          3
    31          5
    37          1
    38          3
    39        113
    40         21
    41        273
    42         63
    43        999
    44         24
    45          5
    50          4
    51         13
    52         10
    53         76
    54        754
    55        257
    56         29
    57         47
    58          4
    59          1
    60          1
    61          9
    62          1
    63          3
    64          1
    65         38
    66         44
    67        572
    68        505
    69        171
    70         43
    71          8
    72          1
    73         54
    74          3
    77         24
    78          5
    79         83
    80         31
    81        457
    82        459
    83         73
    84          7
    85          2
    86          2
    87          1
    91          9
    92          1
    93         10
    94          8
    95        321
    96        290
    97         27
    98          2
    99          1
   105          1
   107          2
   109         41
   110          4
   111          2
   112          1
   113          1
   122          1
   123          2
   124        397
   125         40
   126          2
   139          1