##TITLE=Library Entry 18330
##JCAMP-DX=Revision 4.10 
##DATA TYPE=MASS SPECTRUM
##SAMPLE DESCRIPTION=Chemical Concepts
##NAMES=HP
##CAS NAME=Chromium, tricarbonyl[(1,2,3,4,5,6-.eta.)-spiro[bicyclo[4.2.0]oct
a-1,3,5-triene-7,2'-[1,3]dioxolane]]-
##MOLFORM=C13H10CrO5
##CAS REGISTRY NO=130495-59-9
##MP= -300
##BP= -300
##MW= 298
##$RETENTION INDEX=0
##$CONDENSED SPECTRUM=NO
##NPOINTS= 164
##XYDATA=(XY..XY) 1 
    25          7
    27          2
    28         11
    29         10
    30          2
    38          2
    39         11
    40          2
    42          5
    44          0
    45          0
    50         46
    51         11
    52        999
    53        117
    54         25
    59          0
    62          5
    63         28
    64         12
    65          3
    66          9
    67          4
    68         20
    69         17
    70          2
    71          0
    74          2
    75          2
    76          9
    77         27
    78         11
    79          3
    80         70
    81         10
    82          6
    83          2
    85          0
    86          1
    87          0
    88          3
    89         54
    90         47
    91         13
    92          3
    93          4
    94          4
    95          5
    96         61
    97          9
    98          2
    99          0
   101          6
   102          7
   103         10
   104          5
   105         44
   106          2
   107          5
   108          7
   109          1
   110          2
   111          1
   112          4
   113          1
   114          4
   115          6
   116         14
   117         12
   118         12
   119          2
   120          1
   121          6
   122          1
   124          1
   126          1
   127          4
   128         11
   129          9
   130          1
   131          1
   132          0
   133          8
   134          2
   135          9
   136          1
   139          1
   140         46
   141         23
   142        750
   143        168
   144         30
   145          2
   147          0
   152          1
   153          3
   154         11
   155          6
   156         11
   157          6
   158         10
   159          2
   160          3
   161          1
   162         12
   163          0
   165          0
   166          7
   167          4
   168         16
   169          7
   170         69
   171         66
   172         14
   173          2
   180          1
   181          1
   182         30
   183         13
   184        310
   185         79
   186        192
   187         38
   188         12
   189          0
   192          0
   196          3
   198          4
   199          1
   204          0
   206          0
   207          0
   212         24
   213         10
   214        469
   215         98
   216         21
   217          2
   223          0
   224          1
   228          2
   240         10
   241          2
   242        175
   243         38
   244          8
   245          1
   246          0
   249          0
   256          1
   266          1
   268          1
   270         17
   271          4
   272          1
   276          0
   288          0
   294          1
   296         15
   297          3
   298        267
   299         64
   300         17
   301          3