##TITLE=Library Entry 6551
##JCAMP-DX=Revision 4.10 
##DATA TYPE=MASS SPECTRUM
##SAMPLE DESCRIPTION=K. Jacobson, LBC, NIDDK, NIH, Bethesda, MD 20892
##NAMES=HP
##CAS NAME=Acetamide, N-methyl-N-[4-(3-hydroxypyrrolidinyl)-2-butynyl]-
##MOLFORM=C11H18N2O2
##CAS REGISTRY NO=130403-61-1
##MP= -300
##BP= -300
##MW= 210
##$RETENTION INDEX=0
##$CONDENSED SPECTRUM=NO
##NPOINTS= 170
##XYDATA=(XY..XY) 1 
    41         73
    42        932
    43        999
    44        420
    45         64
    46          8
    47          2
    49          6
    50         33
    51         89
    52         91
    53        124
    54         80
    55        305
    56        432
    57        140
    58         50
    59         16
    60         24
    61          8
    62         10
    63         40
    64         19
    65         81
    66         54
    67        176
    68        247
    69        167
    70         60
    71         47
    72         15
    73         31
    74         27
    75         29
    76         22
    77        111
    78         63
    79         99
    80        137
    81        238
    82        234
    83        102
    84         50
    85         32
    86        189
    87         30
    88         22
    89         33
    90         19
    91        145
    92         32
    93         87
    94         75
    95        113
    96         67
    97         50
    98         30
    99         19
   100         53
   101         22
   102         20
   103         33
   104         27
   105         92
   106         60
   107        115
   108         62
   109         64
   110         62
   111         31
   112         23
   113         16
   114         13
   115        116
   116         87
   117        257
   118         96
   119        139
   120         61
   121         53
   122         34
   123         81
   124        372
   125        156
   126         86
   127         27
   128         37
   129         43
   130         25
   131         42
   132         33
   133         60
   134         25
   135         37
   136         43
   137         66
   138         47
   139         29
   140         23
   141         35
   142         18
   143         28
   144         17
   145         25
   146         15
   147         21
   148         20
   149         30
   150         21
   151         27
   152         27
   153         25
   154         17
   155         35
   156         11
   157         23
   158         16
   159         23
   160         19
   161         19
   162         27
   163         24
   164         15
   165         35
   166         17
   167         45
   168         15
   169         20
   170          8
   171         16
   172          9
   173         20
   174         13
   175         23
   176         15
   177         20
   178         18
   179         16
   180         12
   181         22
   182          3
   183         30
   184         10
   185         17
   186          8
   187         15
   188          4
   189          3
   190          6
   191         19
   192         69
   193         23
   194          3
   195          8
   196          7
   197          3
   198          8
   199          8
   200          9
   201          9
   202          7
   203          9
   204          9
   205          3
   206          5
   207          4
   208          7
   209         10
   210         47
   211         31