##TITLE=Library Entry 35508
##JCAMP-DX=Revision 4.10 
##DATA TYPE=MASS SPECTRUM
##SAMPLE DESCRIPTION=NIST Mass Spectrometry Data Center
##NAMES=HP
##CAS NAME=(Z)-Icos-11-en-1-yl oleate
##MOLFORM=C38H72O2
##CAS REGISTRY NO=130416-67-0
##MP= -300
##BP= -300
##MW= 560
##$RETENTION INDEX=3993
##$CONDENSED SPECTRUM=NO
##NPOINTS= 253
##XYDATA=(XY..XY) 1 
    27          7
    29         26
    39         25
    41        229
    42         54
    43        302
    44         11
    53         28
    54        158
    55        822
    56        214
    57        422
    58         16
    60         10
    65         13
    66         27
    67        460
    68        265
    69        999
    70        223
    71        260
    72         16
    73         32
    74          4
    77         14
    78         10
    79         92
    80         92
    81        617
    82        622
    83        957
    84        186
    85        184
    86         14
    87         24
    90          1
    91         24
    92          9
    93         75
    94         98
    95        644
    96        778
    97        915
    98        222
    99         82
   100         18
   101         53
   105         21
   106          7
   107         77
   108         89
   109        471
   110        442
   111        559
   112        108
   113         61
   114         38
   115         53
   116         11
   119         30
   120         17
   121        205
   122        113
   123        398
   124        385
   125        285
   126         63
   127         81
   128         16
   129         57
   130          6
   133         44
   134         34
   135        157
   136        114
   137        283
   138        286
   139        161
   140         51
   141         42
   142          9
   143         42
   147         46
   148         24
   149         96
   150        106
   151        181
   152        208
   153        113
   154         36
   155         34
   156          8
   157         32
   158          6
   161         35
   162         11
   163         66
   164         88
   165        147
   166        150
   167         89
   168         32
   169         34
   170          7
   171         29
   173          7
   175         25
   176          7
   177         40
   178         83
   179        116
   180        169
   181         85
   182         31
   183         27
   184          9
   185         24
   186          7
   187          7
   189         20
   191         30
   192         33
   193         85
   194         92
   195         61
   196         34
   197         20
   199         34
   200          7
   203          8
   205         19
   206         22
   207         59
   208         78
   209         52
   210         25
   211         14
   212          6
   213         21
   218          7
   219         22
   220        143
   221        114
   222        135
   223         58
   224         16
   225         14
   226          5
   227         16
   233         16
   234         41
   235         64
   236         60
   237         40
   238         16
   239         12
   240          6
   242          4
   243          5
   244          4
   245         39
   246         36
   247        111
   248         49
   249         42
   250         66
   251         31
   252         15
   253          9
   254          5
   255          6
   261         12
   262        322
   263        135
   264        386
   265        541
   266        109
   267         54
   268         11
   275         12
   276        275
   277         91
   278        317
   279        177
   280        100
   281         30
   282         23
   283        189
   284         40
   285         41
   286          9
   291         19
   292         26
   293         77
   294         40
   295         20
   296          7
   298          2
   304         11
   305         13
   307         26
   308         24
   309         15
   319          8
   321         22
   322         23
   323         22
   333          7
   335         22
   336         26
   337         10
   349         19
   350         20
   351         10
   361          5
   363         14
   364         21
   373          3
   374          7
   375          8
   377         18
   378         25
   379          8
   391         15
   392         29
   393          9
   405         21
   406         35
   407         12
   410          1
   419         18
   420         42
   421         15
   424          1
   433         22
   434         48
   435         16
   444          2
   447         21
   448         39
   449         12
   453          1
   458          2
   461         20
   462         29
   463         10
   475         14
   476         23
   477          8
   489         12
   490         16
   503         10
   542          2