##TITLE=Library Entry 20566
##JCAMP-DX=Revision 4.10 
##DATA TYPE=MASS SPECTRUM
##SAMPLE DESCRIPTION=NIST Mass Spectrometry Data Center, 1998.
##NAMES=HP
##CAS NAME=Hexamethylene diacrylate
##MOLFORM=C12H18O4
##CAS REGISTRY NO=13048-33-4
##MP= -300
##BP= -300
##MW= 226
##$RETENTION INDEX=1602
##$CONDENSED SPECTRUM=NO
##NPOINTS= 83
##XYDATA=(XY..XY) 1 
    15          1
    25          1
    26         10
    27         99
    28          6
    29         19
    30          1
    31          8
    38          1
    39         27
    40          6
    41         80
    42         23
    43         21
    44          5
    45          3
    50          1
    51          2
    52          1
    53         18
    54        217
    55        999
    56         46
    57         16
    58          1
    65          2
    66          4
    67        192
    68         25
    69         14
    70         18
    71         29
    72          3
    73         54
    74          2
    77          1
    78          1
    79         10
    80         15
    81         59
    82        303
    83         44
    84         32
    85         22
    86         22
    87          2
    92          1
    93          3
    94          7
    95         11
    96          9
    97         23
    98         19
    99         45
   100          5
   101          1
   107          2
   108         16
   109         11
   110          5
   111          6
   112          6
   113         16
   114          1
   118          1
   121          1
   123          3
   124          8
   125          3
   126          9
   127          8
   128          1
   135          1
   136          2
   137          1
   139          1
   141          1
   144          1
   145          1
   153          1
   154          2
   155          1
   171          1