##TITLE=Library Entry 34555
##JCAMP-DX=Revision 4.10 
##DATA TYPE=MASS SPECTRUM
##SAMPLE DESCRIPTION=Chemical Concepts
##NAMES=HP
##CAS NAME=2,6-Octadienoic acid, 3,7-dimethyl-, ethyl ester
##MOLFORM=C12H20O2
##CAS REGISTRY NO=13058-12-3
##MP= -300
##BP= -300
##MW= 196
##$RETENTION INDEX=0
##$CONDENSED SPECTRUM=NO
##NPOINTS= 118
##XYDATA=(XY..XY) 1 
    26          8
    27        128
    28          3
    29        131
    30          3
    31          5
    37          2
    38          7
    39        163
    40         29
    41        536
    42         30
    43         64
    44          4
    45         10
    46          1
    50          7
    51         23
    52         14
    53        103
    54         44
    55         54
    56         18
    57         14
    58          7
    59         16
    60          2
    61          2
    62          2
    63          7
    64          2
    65         22
    66         11
    67         71
    68         39
    69        999
    70         59
    71         11
    72          4
    75          2
    76          2
    77         30
    78          9
    79         34
    80         13
    81         44
    82        143
    83        101
    84         15
    85         31
    86          2
    87          5
    88          2
    89          2
    91         35
    92          5
    93         21
    94          6
    95         25
    96         10
    97         10
    98          5
    99         13
   100        225
   101         15
   102          2
   103          3
   104          2
   105         14
   106          5
   107         56
   108         28
   109         41
   110          5
   111         21
   112         26
   113         29
   114          3
   115          4
   116          2
   117          2
   119          3
   120          2
   121         22
   122         79
   123        156
   124         16
   125         10
   126          2
   127          2
   128        311
   129         28
   130          2
   131          1
   133          3
   134          1
   135         20
   136          3
   137          1
   139         14
   140          9
   141         15
   142          3
   149         10
   150         45
   151        111
   152         16
   153         36
   154          5
   155          3
   165          1
   166          4
   167          0
   181          6
   183          0
   196         69
   197          9
   198          1