##TITLE=Library Entry 45325
##JCAMP-DX=Revision 4.10 
##DATA TYPE=MASS SPECTRUM
##SAMPLE DESCRIPTION=D.HENNEBERG, MAX-PLANCK INSTITUTE, MULHEIM, WEST GERMAN
Y
##NAMES=HP
##CAS NAME=1,1-Dimethylethanol, TMS derivative
##MOLFORM=C7H18OSi
##CAS REGISTRY NO=13058-24-7
##MP= -300
##BP= -300
##MW= 146
##$RETENTION INDEX=0
##$CONDENSED SPECTRUM=NO
##NPOINTS= 80
##XYDATA=(XY..XY) 1 
    25          1
    26         23
    28         51
    29         29
    30          1
    31         13
    32          4
    33          0
    34          0
    35          3
    37          1
    38          2
    39         29
    40          4
    41         54
    42          7
    43         70
    44         22
    45        111
    46         15
    47         59
    48          2
    49          4
    50         10
    51          9
    52          1
    53          5
    54          2
    55         11
    56         27
    57         78
    58         94
    59         40
    60         10
    61         60
    62         13
    63          9
    64          1
    65          2
    66          0
    69          0
    70          1
    71          6
    72         18
    73        635
    74         61
    75        999
    76         64
    77         33
    78          8
    79          3
    80          0
    85          2
    86          1
    87          1
    88          1
    89         24
    90          4
    91          6
    92          1
    93          1
    99          2
   101          5
   102          2
   104          1
   105          1
   107          0
   108          2
   113          0
   115         13
   116          2
   120          0
   129          0
   131        545
   132         65
   133         20
   134          1
   137          0
   147          9
   148          1