##TITLE=Library Entry 46734
##JCAMP-DX=Revision 4.10 
##DATA TYPE=MASS SPECTRUM
##SAMPLE DESCRIPTION=A.Pleshkova, Nesmeyanov Inst.Org.Elem.Cpds, Moscow
##NAMES=HP
##CAS NAME=2-Methyl-5-phenylsulfonylamino-1,3,4-thiadiazole
##MOLFORM=C9H9N3O2S2
##CAS REGISTRY NO=13053-77-5
##MP= -300
##BP= -300
##MW= 255
##$RETENTION INDEX=0
##$CONDENSED SPECTRUM=NO
##NPOINTS= 79
##XYDATA=(XY..XY) 1 
    47         11
    48         56
    50        116
    51        316
    52         31
    53         15
    55         18
    56        425
    57         56
    58         93
    59        436
    60         38
    61         27
    62         12
    63         22
    64        118
    65         43
    66         30
    72         14
    73         39
    74         94
    75         35
    76         38
    77        999
    78        146
    79         12
    80          5
    82         18
    84         15
    91        104
    92         21
    93         12
    94         28
    95          8
    97         29
    98          5
    99         13
   103         11
   104          9
   108         12
   109         31
   110         61
   111          9
   115         28
   117         11
   118         16
   121         20
   125         56
   126         12
   132         89
   133         13
   135         16
   141        130
   142         19
   143         10
   144          3
   149         15
   150         69
   151          7
   162        157
   163         12
   164         17
   165          1
   172         33
   173          8
   178         26
   179          4
   190         71
   191        156
   192         24
   193          8
   194          2
   222         28
   223          4
   238          8
   239          3
   255        338
   256         43
   257         35