##TITLE=Library Entry 36264
##JCAMP-DX=Revision 4.10 
##DATA TYPE=MASS SPECTRUM
##SAMPLE DESCRIPTION=INST.OF CLINICAL BIOCHEM,RIKSHOSP,UNIV.OF OSLO,E.JELLUM
,ET.A
##NAMES=HP
##CAS NAME=Pentanedioic acid, 2,2-dimethyl-, dimethyl ester
##MOLFORM=C9H16O4
##CAS REGISTRY NO=13051-32-6
##MP= -300
##BP= -300
##MW= 188
##$RETENTION INDEX=0
##$CONDENSED SPECTRUM=NO
##NPOINTS= 21
##XYDATA=(XY..XY) 1 
    27        120
    29        110
    39        120
    41        370
    42         90
    43         90
    53         60
    55        220
    56         80
    59        200
    68         60
    69        999
    71        140
    73         90
    87        170
    97        550
   102        250
   115         60
   128        110
   129        560
   157        110