##TITLE=Library Entry 34496
##JCAMP-DX=Revision 4.10 
##DATA TYPE=MASS SPECTRUM
##SAMPLE DESCRIPTION=Humboldt-Universitat zu Berlin, Department of Chemistry
, Analytical Group
##NAMES=HP
##CAS NAME=Crotonamide, N-methyl-N-phenyl-
##MOLFORM=C11H13NO
##CAS REGISTRY NO=130594-32-0
##MP= -300
##BP= -300
##MW= 175
##$RETENTION INDEX=0
##$CONDENSED SPECTRUM=NO
##NPOINTS= 84
##XYDATA=(XY..XY) 1 
    12          4
    13          5
    14         19
    15        147
    16          4
    17          6
    18         17
    26         41
    27        100
    28         69
    29         17
    30         34
    31          2
    37         39
    38        123
    39        793
    40         95
    41        904
    42         70
    43          7
    44          2
    50         75
    51        263
    52         50
    53         29
    54         10
    55         10
    56          3
    57          2
    58          4
    61          6
    62         18
    63         72
    64         48
    65         56
    66         26
    67         11
    69        999
    70         51
    71          3
    73          3
    74         15
    75         13
    77        391
    78         77
    79         90
    80          9
    82         23
    83          2
    87          2
    88          2
    89          5
    90         10
    91         23
    92          5
    93          4
   102          2
   104         68
   106        306
   107        826
   108         72
   109          3
   115          5
   116          3
   117          9
   118          9
   119          4
   120          2
   130          8
   131          5
   132          9
   133          2
   134          9
   135          1
   144          4
   145          1
   146          7
   147          4
   148          1
   160         19
   161          2
   175        146
   176         43
   177          4