##TITLE=Library Entry 16671
##JCAMP-DX=Revision 4.10 
##DATA TYPE=MASS SPECTRUM
##SAMPLE DESCRIPTION=Chuck Anderson, Aldrich Chemical Co.
##NAMES=HP
##CAS NAME=Bromomethyl methyl ether
##MOLFORM=C2H5BrO
##CAS REGISTRY NO=13057-17-5
##MP= -300
##BP= -300
##MW= 124
##$RETENTION INDEX=0
##$CONDENSED SPECTRUM=NO
##NPOINTS= 40
##XYDATA=(XY..XY) 1 
    13          1
    14         11
    15         89
    16          3
    17          2
    27          0
    28          6
    29        249
    30         40
    31          5
    35          0
    36          0
    41          0
    42          5
    43          9
    44         21
    45        999
    46         34
    47          4
    48          0
    49          6
    50          0
    51          2
    63          0
    79         50
    80         11
    81         50
    82         11
    83          2
    91         10
    92         12
    93         80
    94         16
    95         68
    96          3
    97          2
   107          2
   109          2
   123          2
   125          2