##TITLE=Library Entry 15108
##JCAMP-DX=Revision 4.10 
##DATA TYPE=MASS SPECTRUM
##SAMPLE DESCRIPTION=Japan AIST/NIMC Database- Spectrum MS-NW-2027
##NAMES=HP
##CAS NAME=Uramil-N,N-diacetic acid
##MOLFORM=C8H9N3O7
##CAS REGISTRY NO=13055-06-6
##MP= -300
##BP= -300
##MW= 259
##$RETENTION INDEX=0
##$CONDENSED SPECTRUM=NO
##NPOINTS= 80
##XYDATA=(XY..XY) 1 
    12         24
    13          5
    14          9
    15         48
    16         53
    17         22
    18         99
    26         31
    27         62
    28        625
    29         68
    30         57
    31         13
    32         14
    36         12
    38          7
    39         17
    40         29
    41         61
    42        144
    43        329
    44        999
    45         19
    51          5
    52          9
    53         10
    54         39
    55         38
    56         68
    57         31
    58         14
    59          8
    60          9
    66          5
    67          9
    68         20
    69         15
    70         23
    71         14
    72          9
    73          8
    81          8
    82          9
    83         11
    84         10
    85         18
    86          8
    95          7
    96          6
    97          7
    98         12
    99         16
   100          9
   107          5
   109          4
   110          6
   112         11
   113          9
   114         48
   115          6
   125          5
   126         18
   127          5
   128         26
   129          5
   135          5
   136          4
   137          4
   140         28
   141          6
   142         25
   143          4
   154          6
   155         11
   156         16
   169         17
   170          7
   171          9
   178          4
   198          4