##TITLE=Library Entry 78711
##JCAMP-DX=Revision 4.10 
##DATA TYPE=MASS SPECTRUM
##SAMPLE DESCRIPTION=Chemical Concepts
##NAMES=HP
##CAS NAME=N-(5-Methyl-1,3,4-thiadiazol-2-yl)benzamide
##MOLFORM=C10H9N3OS
##CAS REGISTRY NO=13053-84-4
##MP= -300
##BP= -300
##MW= 219
##$RETENTION INDEX=0
##$CONDENSED SPECTRUM=NO
##NPOINTS= 45
##XYDATA=(XY..XY) 1 
    39         71
    40        126
    41         41
    42         31
    43         40
    44         80
    45         24
    46         28
    47          9
    48         16
    50        187
    51        282
    52         27
    53         11
    54          9
    55         21
    56         20
    57         42
    58         97
    59        160
    60         16
    61         10
    62          7
    63          8
    65          7
    69         11
    70         15
    71          9
    72         10
    73         20
    74         40
    75         49
    77        715
    78         33
    95          9
   101          8
   105        999
   106         61
   123         11
   142         10
   191        115
   192         10
   218         74
   219         41
   220          9