##TITLE=Library Entry 86957
##JCAMP-DX=Revision 4.10 
##DATA TYPE=MASS SPECTRUM
##SAMPLE DESCRIPTION=Japan AIST/NIMC Database- Spectrum MS-IW-4629
##NAMES=HP
##CAS NAME=3-Amino-4,5,8,9-tetrahydrocyclooct(c)isoxazole
##MOLFORM=C9H12N2O
##CAS REGISTRY NO=13054-49-4
##MP= -300
##BP= -300
##MW= 164
##$RETENTION INDEX=0
##$CONDENSED SPECTRUM=NO
##NPOINTS= 123
##XYDATA=(XY..XY) 1 
    15          9
    16          4
    17          6
    18          1
    25          1
    26         28
    27        144
    28         88
    29         27
    30         24
    31          1
    37         10
    38         37
    39        326
    40        119
    41        358
    42        907
    43         74
    44        347
    45         11
    46          4
    49          2
    50         31
    51         89
    52        111
    53        278
    54        143
    55         89
    56         26
    57          6
    58          5
    59          5
    60          1
    61          6
    62         12
    63         33
    64         28
    65        175
    66        373
    67        488
    68        171
    69         25
    70        121
    71         33
    72         15
    73          4
    74          8
    75          6
    76          8
    77        220
    78         85
    79        535
    80        184
    81        221
    82        407
    83         30
    84          7
    85          4
    86         36
    87         11
    88          2
    89          9
    90          9
    91        181
    92        161
    93        357
    94        166
    95         30
    96         27
    97         52
    98          6
    99         17
   100          1
   102          4
   103         30
   104         87
   105         30
   106         42
   107         58
   108         59
   109         27
   110        999
   111         81
   112          9
   115          1
   116          9
   117         26
   118        395
   119        726
   120        866
   121        204
   122         28
   123         15
   124        336
   125         29
   126          2
   128          2
   129          2
   130          7
   131          6
   132         24
   133          4
   134          3
   135         35
   136         96
   137         30
   138          5
   142          1
   143          1
   144          3
   145         17
   146        152
   147        652
   148         80
   149         43
   150          4
   151          1
   161          2
   162          2
   163        155
   164        269
   165         57
   166          7