##TITLE=Library Entry 17555
##JCAMP-DX=Revision 4.10 
##DATA TYPE=MASS SPECTRUM
##SAMPLE DESCRIPTION=A.A.Kutin, Moscow, Russia
##NAMES=HP
##CAS NAME=Butanedioic acid, monohydrazide, N2,N2-bis(methoxycarbonylmethyl)
-
##MOLFORM=C10H16N2O7
##CAS REGISTRY NO=130673-40-4
##MP= -300
##BP= -300
##MW= 276
##$RETENTION INDEX=0
##$CONDENSED SPECTRUM=NO
##NPOINTS= 164
##XYDATA=(XY..XY) 1 
    33         17
    34          1
    35          8
    36         46
    37          4
    38         20
    39         14
    40         40
    41        100
    42        406
    43        360
    44        151
    45        999
    46         24
    47          6
    50          1
    51          5
    52          4
    53          8
    54         17
    55        214
    56         46
    57        281
    58         33
    59        106
    60          9
    61          2
    62          0
    63          2
    64          1
    65          3
    66          1
    67          3
    68          8
    69         24
    70         11
    71         20
    72        124
    73        332
    74        167
    75         21
    76          2
    77         10
    78          2
    79          3
    80          3
    81          7
    82         16
    83         12
    84          4
    85         15
    86          9
    87         12
    88         15
    89        134
    90          6
    91          8
    92          2
    93          1
    94          1
    95          3
    96          1
    97          6
    98          4
    99         36
   100        358
   101        138
   102         36
   103         22
   104          7
   105         11
   106          1
   107          1
   108          2
   109          2
   110          3
   111         11
   112          3
   113         21
   114          3
   115         20
   116         27
   117        905
   118        213
   119         16
   120          2
   121          1
   122          1
   123          0
   124          0
   125          5
   126          2
   127         87
   128         13
   129          9
   130          3
   131          4
   132         17
   133          4
   134          1
   135          5
   137          0
   138          0
   139         11
   141         48
   142          4
   143         13
   144          3
   145          4
   146          1
   147          1
   148          0
   149          0
   150          0
   151          0
   152          0
   153          0
   154          0
   155          1
   157         69
   158          8
   159         23
   160        590
   161         45
   162          6
   163          1
   165          0
   167          0
   169          0
   170          1
   171         27
   172          3
   173          7
   174          6
   175         16
   176        104
   177          8
   178          3
   179          0
   180          0
   185         11
   186          1
   187          0
   188          0
   189          4
   190          0
   198          0
   199         21
   200          2
   201          0
   202          0
   203          0
   213          0
   215          5
   216          4
   217        250
   218         24
   219          3
   220          0
   231          0
   249          0
   259          4
   260          0
   276          0