##TITLE=Library Entry 38733
##JCAMP-DX=Revision 4.10 
##DATA TYPE=MASS SPECTRUM
##SAMPLE DESCRIPTION=Japan AIST/NIMC Database- Spectrum MS-IW-2930
##NAMES=HP
##CAS NAME=3-Methyl-2-(3-methylpentyl)-3-buten-1-ol
##MOLFORM=C11H22O
##CAS REGISTRY NO=13066-54-1
##MP= -300
##BP= -300
##MW= 170
##$RETENTION INDEX=0
##$CONDENSED SPECTRUM=NO
##NPOINTS= 103
##XYDATA=(XY..XY) 1 
    15          3
    17          2
    18          1
    26          4
    27         99
    28         21
    29        257
    30         11
    31         53
    32          1
    36          1
    37          1
    38          4
    39        125
    40         29
    41        538
    42         62
    43        406
    44         18
    45         27
    50          4
    51         12
    52          8
    53         86
    54         30
    55        883
    56        204
    57        407
    58         49
    59         36
    60          2
    62          1
    63          3
    64          1
    65         16
    66         10
    67        221
    68        325
    69        850
    70        341
    71        999
    72         53
    73         21
    74          1
    75          3
    77         16
    78          4
    79         34
    80          9
    81        266
    82        302
    83        727
    84        190
    85        280
    86        497
    87         36
    88          3
    89          1
    91          9
    92          1
    93         13
    94          6
    95        151
    96        169
    97        125
    98         20
    99         35
   100         20
   101          6
   103          1
   105          3
   107          6
   108          6
   109        253
   110         36
   111         37
   112         20
   113         11
   114          3
   115          1
   121          3
   122          1
   123        141
   124         15
   125          5
   126          3
   127          4
   131          1
   135          1
   137         64
   138          9
   139         15
   140         25
   141          9
   142          1
   151          3
   152         47
   153          7
   154          1
   155          7
   156          1
   170         30
   171          4