##TITLE=Library Entry 6769
##JCAMP-DX=Revision 4.10 
##DATA TYPE=MASS SPECTRUM
##SAMPLE DESCRIPTION=ATLAS OF MASS SPECTRA OF ORGANIC COMPOUNDS, V. A. KOPTY
UG, ED.
##NAMES=HP
##CAS NAME=Propanal, 2-methyl-, dimethylhydrazone
##MOLFORM=C6H14N2
##CAS REGISTRY NO=13063-57-5
##MP= -300
##BP= -300
##MW= 114
##$RETENTION INDEX=831
##$CONDENSED SPECTRUM=NO
##NPOINTS= 35
##XYDATA=(XY..XY) 1 
    27        133
    28        229
    29         76
    30         53
    39         97
    40         27
    41        157
    42        337
    43        999
    44        952
    45        370
    46         78
    52          8
    53         14
    54         19
    55         35
    56        157
    57         27
    58        289
    59         55
    68         17
    69         15
    70         64
    71         68
    72         94
    73          6
    83         19
    85         46
    86         16
    97          8
    99        422
   100         33
   113         21
   114        495
   115         58