##TITLE=Library Entry 47383
##JCAMP-DX=Revision 4.10 
##DATA TYPE=MASS SPECTRUM
##SAMPLE DESCRIPTION=A.A.Kutin, Moscow, Russia
##NAMES=HP
##CAS NAME=N-[1,3]Dithiolan-2-ylidene-benzenesulfonamide
##MOLFORM=C9H9NO2S3
##CAS REGISTRY NO=13068-41-2
##MP= -300
##BP= -300
##MW= 259
##$RETENTION INDEX=0
##$CONDENSED SPECTRUM=NO
##NPOINTS= 124
##XYDATA=(XY..XY) 1 
    33          1
    34          1
    37          1
    38          5
    39         15
    40          2
    41          1
    42          0
    43          1
    44          4
    45         65
    46         34
    48         12
    50         78
    51        234
    52         11
    53          5
    54          0
    55          0
    57         12
    58         47
    59         91
    60        206
    61         11
    62         12
    63          8
    64         37
    65         16
    66          5
    67          0
    69         10
    70          2
    71          3
    72         13
    73          5
    74         26
    75         22
    77        999
    78         69
    79          1
    80          0
    81          3
    82          3
    83          1
    84          1
    86         11
    87          0
    88          0
    90         35
    92        213
    93         10
    94         18
    96          3
    97         18
    98          3
    99          1
   102          1
   103          2
   104          1
   106          4
   107          1
   108          7
   109         14
   110          5
   111          0
   112          0
   115          0
   117          1
   118          7
   119          2
   120          0
   121          0
   122          1
   123          4
   125         26
   126          3
   127          1
   133          0
   134          2
   135         28
   136          4
   137          5
   138          0
   139          1
   141        355
   142         30
   143         19
   144          1
   149          0
   151          1
   154          0
   157          1
   166          5
   167          1
   168          8
   169          0
   170          1
   171          0
   172          2
   173          0
   174          4
   175          0
   176          1
   177          5
   178          1
   179          0
   187          0
   192          0
   195        179
   196         20
   197         16
   198          1
   199          1
   200          0
   201          2
   210          0
   211          0
   231          2
   242          1
   259        213
   260         26
   261         29
   262          3
   263          1