##TITLE=Library Entry 2293
##JCAMP-DX=Revision 4.10 
##DATA TYPE=MASS SPECTRUM
##SAMPLE DESCRIPTION=ASES Database, Dalian Institute, P.R. China
##NAMES=HP
##CAS NAME=5-Hydroxymethyl-2-thioxoimidazolidin-4-one
##MOLFORM=C4H6N2O2S
##CAS REGISTRY NO=130629-17-3
##MP= -300
##BP= -300
##MW= 146
##$RETENTION INDEX=0
##$CONDENSED SPECTRUM=NO
##NPOINTS= 45
##XYDATA=(XY..XY) 1 
    41        999
    42        975
    43        456
    44        855
    45        574
    46         10
    47         99
    51         68
    52         79
    53        108
    54         79
    55        158
    56         88
    57        149
    58        267
    59        744
    60        575
    61         79
    68         58
    69         59
    70         49
    71        157
    72        248
    74         69
    75         40
    76        130
    77         29
    83         60
    84        230
    85        100
    86        138
    87         58
    99        129
   100         58
   102         39
   115        178
   116        486
   117         69
   118         49
   119         19
   121         39
   128        547
   129        138
   130         79
   146        148