##TITLE=Library Entry 46644
##JCAMP-DX=Revision 4.10 
##DATA TYPE=MASS SPECTRUM
##SAMPLE DESCRIPTION=A.A.Kutin, Moscow, Russia
##NAMES=HP
##CAS NAME=Benzenesulfonamide, N-2-benzothiazolyl-
##MOLFORM=C13H10N2O2S2
##CAS REGISTRY NO=13068-60-5
##MP= -300
##BP= -300
##MW= 290
##$RETENTION INDEX=0
##$CONDENSED SPECTRUM=NO
##NPOINTS= 172
##XYDATA=(XY..XY) 1 
    33         12
    34         12
    36          5
    37         16
    38         37
    39        112
    40        171
    41          8
    42          5
    44         63
    45         98
    46          5
    48         27
    50        147
    51        416
    52         46
    53         31
    54          5
    55          6
    57         15
    58         16
    59          3
    60          3
    61          7
    62         16
    63         55
    64         40
    65         37
    66         14
    67          3
    69         85
    70         33
    71         15
    72          3
    74         32
    75         24
    77        999
    78        146
    79         11
    80          3
    81         11
    82         23
    83          5
    84          4
    85          1
    86          0
    87          1
    88          2
    90         29
    91         18
    92          3
    93          8
    94         17
    95         37
    96         56
    97         36
    98          4
    99          2
   100          0
   101          0
   102          2
   103          4
   105        118
   106         10
   108         77
   109         16
   110         10
   111          1
   112          2
   113          6
   115          3
   116          1
   118          3
   120          5
   122         72
   123         14
   125         49
   126          6
   127          4
   128          1
   129          1
   133          0
   134          2
   135          3
   136          0
   137          1
   138          2
   139          4
   141         93
   142         16
   143          5
   144          1
   145          0
   147          5
   149        296
   150         41
   151         16
   152          4
   153          2
   154          5
   155          0
   156          0
   157          0
   158          0
   159          0
   160          0
   161          0
   163          0
   165         11
   166          6
   167          8
   168          1
   169          0
   170          0
   171          4
   172          1
   173          1
   174          1
   175          1
   176          0
   177          0
   179          0
   180          0
   181          0
   182          0
   183          1
   184          3
   185          1
   186          0
   187          0
   191          0
   192          3
   193          1
   194          0
   196          2
   197         10
   198         22
   199          5
   200          1
   201          0
   208          0
   209          0
   210          0
   211          2
   212          0
   213          1
   221          0
   222          1
   223          3
   225        277
   226         74
   227         18
   228          4
   229          0
   242          0
   250          0
   252          0
   256          0
   257          0
   273          0
   274          0
   282          4
   283          3
   284          0
   285          0
   286          0
   287          0
   290        119
   291         19
   292         11
   293          1
   294          0