##TITLE=Library Entry 98611
##JCAMP-DX=Revision 4.10 
##DATA TYPE=MASS SPECTRUM
##SAMPLE DESCRIPTION=CONTINENTAL OIL CO., PONCA CITY, OKLA., USA
##NAMES=HP
##CAS NAME=Naphthalene, 1,2,3,4-tetrahydro-2,7-dimethyl-
##MOLFORM=C12H16
##CAS REGISTRY NO=13065-07-1
##MP= -300
##BP= -300
##MW= 160
##$RETENTION INDEX=1304
##$CONDENSED SPECTRUM=NO
##NPOINTS= 117
##XYDATA=(XY..XY) 1 
    25          0
    26         14
    27        129
    28         30
    29         49
    30          1
    37          3
    38         17
    39        175
    40         20
    41         72
    42         17
    43          4
    44          0
    49          1
    50         38
    51        119
    52         34
    53         52
    54          3
    55         10
    56          2
    57          6
    58         10
    61          3
    62         21
    63         81
    64         56
    65         81
    66         10
    67         14
    68          4
    69          9
    70         17
    71         30
    72          1
    74         12
    75         22
    76         25
    77        124
    78         51
    79         46
    80          4
    81          3
    82          1
    85          1
    86          7
    87         13
    88          8
    89         32
    90         12
    91        167
    92         22
    93          4
    94          1
    95          2
    97          0
    98          4
    99          2
   100          1
   101          8
   102         35
   103         72
   104         30
   105        301
   106         32
   107          2
   108          1
   109          1
   110          2
   111          1
   112          1
   113          7
   114         11
   115        221
   116        103
   117        232
   118        999
   119        123
   120          7
   121          1
   122          1
   125          2
   126          9
   127         53
   128        167
   129        122
   130         63
   131         88
   132         70
   133         12
   134          4
   137          2
   138          2
   139         12
   140          6
   141         47
   142         24
   143         45
   144         28
   145        532
   146         65
   147          4
   149          1
   150          1
   151          2
   152          4
   153          3
   154          1
   155          3
   156          3
   157          5
   158          9
   159         77
   160        678
   161         88
   162          5