##TITLE=Library Entry 114063
##JCAMP-DX=Revision 4.10 
##DATA TYPE=MASS SPECTRUM
##SAMPLE DESCRIPTION=Chemical Concepts
##NAMES=HP
##CAS NAME=Naphthalen-1-ol-2-carboxylic acid, 4-amino-
##MOLFORM=C11H9NO3
##CAS REGISTRY NO=13065-87-7
##MP= -300
##BP= -300
##MW= 203
##$RETENTION INDEX=0
##$CONDENSED SPECTRUM=NO
##NPOINTS= 161
##XYDATA=(XY..XY) 1 
    20          8
    22          1
    26          9
    27         36
    29         13
    30          4
    31         20
    35          1
    36         12
    37          3
    38         13
    39         43
    40          9
    41         23
    42          9
    43         39
    44        162
    45         22
    46          5
    48          2
    49          2
    50         88
    51        235
    52        120
    53         70
    54         16
    55         21
    56          7
    57         29
    58          7
    59          9
    60          4
    61          5
    62         21
    63         43
    64         52
    65         67
    66         21
    67         11
    68          6
    69         11
    70          6
    71         15
    72          3
    73          9
    74         32
    75         68
    76         91
    77        151
    78         49
    79         22
    80         40
    81         11
    82          5
    83          9
    84          3
    85         10
    86         10
    87         14
    88         14
    89         19
    90          7
    91         10
    92         11
    93         39
    94          4
    95          6
    96          2
    97          8
    98          7
    99          8
   100         13
   101         88
   102        240
   103        136
   104         39
   105         15
   106         18
   107         13
   108          6
   109          6
   110          4
   111          5
   112          4
   113         17
   114         40
   115         22
   116          7
   117          6
   118          2
   119          3
   120          4
   121          8
   122          3
   123          4
   124          1
   125          3
   126          4
   127         21
   128        160
   129        999
   130        329
   131         40
   132          7
   133         11
   134          6
   135          3
   136          1
   137          2
   138          3
   139          3
   140          7
   141          4
   142          4
   143          6
   144          9
   145         12
   146          4
   147          2
   148          1
   149          4
   150          1
   151          2
   152          1
   153          2
   154          5
   155          3
   156         33
   157        165
   158         71
   159        248
   160         27
   161          3
   163          1
   165          2
   167          2
   169         11
   170         45
   171         10
   172         21
   173          5
   174          2
   175          1
   176          1
   177          1
   178          1
   179          1
   180          1
   181          1
   183          4
   184         37
   185        707
   186         91
   187         10
   188         13
   189          3
   202          7
   203        307
   204         40
   205          5
   206          1