##TITLE=Library Entry 66454
##JCAMP-DX=Revision 4.10 
##DATA TYPE=MASS SPECTRUM
##SAMPLE DESCRIPTION=NIST Mass Spectrometry Data Center
##NAMES=HP
##CAS NAME=(Z)-1-Methyl-4-(6-methylhept-5-en-2-ylidene)cyclohex-1-ene
##MOLFORM=C15H24
##CAS REGISTRY NO=13062-00-5
##MP= -300
##BP= -300
##MW= 204
##$RETENTION INDEX=1515
##$CONDENSED SPECTRUM=NO
##NPOINTS= 88
##XYDATA=(XY..XY) 1 
    27         17
    29         25
    30          1
    39         85
    40         16
    41        350
    42         18
    43        151
    44          4
    50          6
    51         32
    52         15
    53        104
    54         11
    55        238
    56         36
    57         22
    58          3
    63         12
    64          6
    65         88
    66         21
    67        106
    68         13
    69        238
    70         21
    76          3
    77        284
    78         64
    79        379
    80         40
    81         72
    82         46
    83         25
    89          6
    90          2
    91        458
    92        113
    93        999
    94        102
    95         31
    97          5
   102          6
   103         38
   104         15
   105        383
   106         97
   107        882
   108        108
   109         47
   110          5
   115         47
   116         15
   117         56
   118         19
   119        907
   120        149
   121        322
   122         59
   127          6
   128         15
   129         12
   130          5
   131         15
   132          8
   133        196
   134        342
   135        193
   136         22
   142          1
   143          3
   145          8
   147         97
   148         60
   149          9
   157          2
   159          3
   161        117
   162         21
   175          2
   176          3
   189         33
   190          5
   202          1
   203          2
   204        337
   205         57
   206          4