##TITLE=Library Entry 72225
##JCAMP-DX=Revision 4.10 
##DATA TYPE=MASS SPECTRUM
##SAMPLE DESCRIPTION=Exported from NIST MS Search
##NAMES=HP
##CAS NAME=Propanedinitrile, dichloro-
##MOLFORM=C3Cl2N2
##CAS REGISTRY NO=13063-43-9
##MP= -300
##BP= -300
##MW= 134
##$RETENTION INDEX=0
##$CONDENSED SPECTRUM=NO
##NPOINTS= 58
##XYDATA=(XY..XY) 1 
    39         17
    40          3
    41          5
    42          2
    43          7
    44         25
    45          2
    47         80
    48         21
    49         29
    50         55
    51          8
    52          8
    53          2
    54          6
    55          4
    56          4
    57          4
    59          3
    60          2
    61          6
    62         19
    63          5
    64        139
    65         58
    66         27
    67          2
    69          2
    70         12
    71          2
    73        333
    74         18
    75        108
    76         44
    77         26
    78          3
    79          3
    80          5
    81          2
    82        167
    83          3
    84        106
    85          3
    86         17
    88          3
    96          9
    99        999
   100         67
   101        333
   102         73
   103         11
   108          8
   109          2
   110          5
   111          2
   112          2
   134          3
   136          2