##TITLE=Library Entry 34908
##JCAMP-DX=Revision 4.10 
##DATA TYPE=MASS SPECTRUM
##SAMPLE DESCRIPTION=Div. of Experiment Therapeutics WRAIR, WRAMC, Washingto
n DC 20307
##NAMES=HP
##CAS NAME=Methyl 4-nitrohexanoate
##MOLFORM=C7H13NO4
##CAS REGISTRY NO=13064-28-3
##MP= -300
##BP= -300
##MW= 175
##$RETENTION INDEX=0
##$CONDENSED SPECTRUM=NO
##NPOINTS= 104
##XYDATA=(XY..XY) 1 
    41        636
    42        286
    43        307
    45        558
    46         56
    47          7
    48         11
    49         26
    50         15
    51         44
    52         17
    53        121
    54         43
    55        727
    56         66
    57        180
    59        142
    60         46
    61          8
    62          4
    63          9
    65         14
    67         54
    68         26
    69        999
    70         88
    71         66
    72         21
    73        246
    74         20
    75          3
    76          1
    77          8
    78          6
    79         10
    80          4
    81         17
    82          6
    83         10
    84         17
    85         42
    86         66
    87         62
    88         10
    89          4
    91         11
    92          1
    93          2
    95         24
    96          7
    97        529
    98         42
    99         19
   101         73
   102          4
   103          3
   104          1
   105          5
   106          3
   107          6
   108          3
   109          3
   110          2
   111          7
   112          4
   113        201
   114         42
   115        111
   116         10
   117          8
   118          2
   119          4
   120          1
   121          1
   122          2
   123          4
   124          4
   125          4
   126          3
   127          3
   128          7
   129         39
   130          6
   131          6
   132          1
   133          2
   134          1
   135          1
   136          1
   137          1
   138          1
   139          3
   140          0
   141          7
   142          3
   143          1
   144         78
   145          5
   146          3
   147          0
   173          2
   174          2
   175          8
   176          0