##TITLE=Library Entry 34513
##JCAMP-DX=Revision 4.10 
##DATA TYPE=MASS SPECTRUM
##SAMPLE DESCRIPTION=Exported from NIST MS Search
##NAMES=HP
##CAS NAME=6-Octen-1-ol, 7-methyl-3-methylene-
##MOLFORM=C10H18O
##CAS REGISTRY NO=13066-51-8
##MP= -300
##BP= -300
##MW= 154
##$RETENTION INDEX=1195
##$CONDENSED SPECTRUM=NO
##NPOINTS= 48
##XYDATA=(XY..XY) 1 
    27         72
    28         15
    29         62
    30          7
    31         46
    39        100
    40         26
    41        643
    42         31
    43         51
    51         17
    52          8
    53         68
    54         11
    55         49
    56         19
    57          8
    65         18
    66         14
    67        102
    68         82
    69        999
    70         62
    71          6
    77         32
    78          8
    79         36
    80         17
    81         54
    82         13
    83         10
    84          6
    91         29
    92          7
    93        136
    94         14
    95         16
   105          7
   107         21
   108         17
   109         99
   110         41
   111        214
   112         17
   121         34
   123          8
   136         17
   154          4