##TITLE=Library Entry 97879
##JCAMP-DX=Revision 4.10 
##DATA TYPE=MASS SPECTRUM
##SAMPLE DESCRIPTION=MASS SPECTROMETRY CENTER, UNIV. OF UTAH ALDRICH 15240-4
##NAMES=HP
##CAS NAME=1,2,3,4-Thiatriazol-5-amine, N-phenyl-
##MOLFORM=C7H6N4S
##CAS REGISTRY NO=13078-30-3
##MP= -300
##BP= -300
##MW= 178
##$RETENTION INDEX=0
##$CONDENSED SPECTRUM=NO
##NPOINTS= 101
##XYDATA=(XY..XY) 1 
    12         14
    13          5
    15         47
    25          4
    26         85
    27        210
    28         27
    29         32
    32         17
    33         35
    34         70
    36         18
    37        149
    38        263
    39        585
    40         85
    41         78
    42         26
    43        105
    44         63
    45         68
    46         94
    47         14
    48          8
    49         50
    50        393
    51        832
    52        171
    53         55
    54         26
    55         16
    57          8
    58         34
    59         70
    60         38
    61         62
    62        101
    63        243
    64        566
    65        709
    66        139
    67         24
    68         17
    69         29
    70         22
    71         12
    73         34
    74        115
    75         90
    76        215
    77        945
    78        151
    79         47
    81          3
    82         16
    83         12
    84         12
    85          1
    87          1
    88          6
    89          2
    90         72
    91        831
    92        377
    93         56
    95          2
    96        126
    97         26
    98         14
   103         25
   104         55
   105         21
   106         53
   108         29
   109         51
   110         15
   111          7
   112          2
   117         66
   118        999
   119        127
   121         10
   122         43
   123        224
   124         25
   125         12
   126          8
   135        314
   136         36
   137         30
   138          4
   149         16
   150        515
   151         48
   152         28
   153         12
   154         35
   155          3
   156          2
   178        135
   179         14