##TITLE=Library Entry 1317
##JCAMP-DX=Revision 4.10 
##DATA TYPE=MASS SPECTRUM
##SAMPLE DESCRIPTION=Japan AIST/NIMC Database- Spectrum MS-NW-6061
##NAMES=HP
##CAS NAME=Benzeneethanamine, 2-chloro-
##MOLFORM=C8H10ClN
##CAS REGISTRY NO=13078-80-3
##MP= -300
##BP= -300
##MW= 155
##$RETENTION INDEX=0
##$CONDENSED SPECTRUM=NO
##NPOINTS= 71
##XYDATA=(XY..XY) 1 
    15          2
    26          1
    27          4
    28         22
    29          3
    30        999
    31         13
    32          1
    36          2
    37          2
    38          4
    39         17
    40          2
    41          4
    42          6
    43          3
    44          1
    45          1
    49          1
    50          9
    51         13
    52          3
    53          1
    58          7
    59          2
    61          2
    62          8
    63         22
    64          5
    65         11
    66          1
    70          1
    73          5
    74          3
    75          8
    76          2
    77          9
    78          2
    79          1
    85          1
    86          2
    87          2
    89         29
    90         11
    91         40
    92          5
    99          9
   101          4
   102          3
   103          5
   104          1
   106          1
   107          2
   116          1
   117          6
   118          8
   119          6
   120         58
   121          5
   125         28
   126          9
   127          9
   128          3
   135          1
   138          3
   139          2
   140          1
   141          1
   152          1
   154          3
   156          1