##TITLE=Library Entry 66234
##JCAMP-DX=Revision 4.10 
##DATA TYPE=MASS SPECTRUM
##SAMPLE DESCRIPTION=T. Jones, LC, NHLBI, NIH, Bethesda, MD 20892
##NAMES=HP
##CAS NAME=Phenylacetamide, N-[3-(1.3-dioxalan-2-yl)propyl]-
##MOLFORM=C13H18N2O3
##CAS REGISTRY NO=130753-09-2
##MP= -300
##BP= -300
##MW= 250
##$RETENTION INDEX=0
##$CONDENSED SPECTRUM=NO
##NPOINTS= 176
##XYDATA=(XY..XY) 1 
    41         77
    42         42
    43         84
    44         30
    45        215
    46          6
    47          2
    49          1
    50         10
    51         29
    52         22
    53         18
    54         10
    55         21
    56         24
    57         10
    58         11
    59          2
    60          2
    61          1
    62          4
    63         24
    64         31
    65        206
    66         99
    67         28
    68         18
    69         29
    70         54
    71         46
    73        393
    74         13
    75          2
    76          1
    77          2
    78         30
    79          6
    80          5
    81          1
    82          5
    83          3
    84         10
    85          0
    86         20
    87          2
    88          1
    89          0
    90          1
    91         11
    92        501
    93        999
    94          9
    95          5
    96          1
    97          1
    98          1
    99          8
   100          1
   101          1
   102          0
   103          0
   104          1
   105          1
   106          3
   107         15
   108          3
   109          0
   110          0
   111          0
   112          2
   113         19
   114         25
   115          3
   116          0
   117          0
   119        126
   120        332
   121         28
   122          2
   123          0
   124          0
   125          0
   126          0
   127          0
   128          2
   130         17
   131          2
   132          9
   133          2
   134          2
   135          3
   136          6
   137         10
   138          1
   139          0
   140          0
   141          0
   142          0
   143          0
   144          0
   145          1
   146          1
   147          3
   148          0
   149         60
   150        199
   151         18
   152          1
   153          0
   154          0
   155          0
   156          1
   157          0
   158          0
   159          5
   160          7
   161          1
   162         18
   163         40
   164          7
   165          1
   166          0
   168          0
   169          0
   171          0
   172          0
   173          2
   174          0
   175          1
   176          0
   177         28
   178        282
   179         32
   180          2
   181          0
   182          0
   183          0
   184          0
   185          0
   186          0
   187          1
   188          6
   189          7
   190          4
   191          4
   192          0
   193          0
   195          0
   198          0
   201          0
   203          2
   204          1
   205          4
   207          3
   208          0
   211          0
   212          0
   214          0
   217          0
   218          0
   219          1
   220          0
   221          0
   222          0
   223          0
   228          0
   231          1
   232          0
   233          0
   234          0
   235          0
   236          0
   246          0
   249          2
   250          1
   251          0