##TITLE=Library Entry 29954
##JCAMP-DX=Revision 4.10 
##DATA TYPE=MASS SPECTRUM
##SAMPLE DESCRIPTION=Chemical Concepts
##NAMES=HP
##CAS NAME=Carbamic acid, (1-cyano-2-hydroxyethyl)-, 1,1-dimethylethyl ester
, (.+-.)-
##MOLFORM=C8H14N2O3
##CAS REGISTRY NO=130780-94-8
##MP= -300
##BP= -300
##MW= 186
##$RETENTION INDEX=0
##$CONDENSED SPECTRUM=NO
##NPOINTS= 104
##XYDATA=(XY..XY) 1 
    25          4
    26         29
    27        161
    28        153
    29        375
    30         52
    31        258
    33          1
    37          6
    38         16
    39        151
    40         62
    41        679
    42         97
    43        150
    44         93
    45         18
    46          3
    49          3
    50         11
    51         13
    52         11
    53         48
    54         53
    55        113
    56        278
    57        989
    58        111
    59        999
    60         98
    61          7
    62          4
    65          2
    66          2
    67          9
    68         16
    69         28
    70          8
    71         14
    72          8
    73         15
    74          2
    75          4
    76          5
    77          3
    79          3
    80          3
    81          9
    82         73
    83         10
    84          5
    85         33
    86         22
    87         25
    88          3
    90          2
    91          2
    93          3
    95          8
    96          4
    97         10
    98          3
    99          4
   100        391
   101         20
   102          4
   103          6
   104         15
   105          3
   107          2
   108          1
   109          5
   110          2
   111         14
   112         17
   113         14
   115          3
   121          3
   122          1
   123          4
   124          2
   125          3
   126          2
   127          6
   128          1
   129          3
   130         11
   131         19
   132          3
   133          1
   135          2
   137          2
   139          2
   141          5
   142          3
   152          1
   153          2
   155          3
   156         52
   157          6
   168          1
   169          1
   171          7
   172          0