##TITLE=Library Entry 46509
##JCAMP-DX=Revision 4.10 
##DATA TYPE=MASS SPECTRUM
##SAMPLE DESCRIPTION=V.A.Korolev, Moscow, Russia
##NAMES=HP
##CAS NAME=2-(5-Amino-2-chloro-4-cyano-2-phenylfuran-3-ylidene)propanedinitr
ile
##MOLFORM=C14H7ClN4O
##CAS REGISTRY NO=1307234-14-5
##MP= -300
##BP= -300
##MW= 282
##$RETENTION INDEX=0
##$CONDENSED SPECTRUM=NO
##NPOINTS= 149
##XYDATA=(XY..XY) 1 
    35         72
    36        164
    37         88
    38        233
    39        212
    40         21
    41         36
    42         22
    43         90
    44        900
    45         32
    46          2
    48          3
    49         39
    50        319
    51        591
    52         69
    53         56
    54          9
    55          4
    57          4
    58          3
    60         11
    61         85
    62        227
    63        208
    64         71
    65         42
    66         52
    67         11
    69          7
    72          9
    73         55
    74        174
    75        177
    76        152
    77        999
    78        108
    79         17
    82          6
    84         13
    85         52
    86         88
    87        123
    88        285
    89        201
    90         45
    91         10
    96         24
    97         34
    98         34
    99        128
   100        128
   101         64
   102         51
   103         43
   104        164
   105        725
   106         56
   109         12
   110         38
   111         68
   112         69
   113         66
   114         99
   115        151
   116         47
   117          2
   119          2
   122          4
   123         60
   124         54
   125         32
   126         32
   127         38
   128         19
   129          9
   130         22
   135          4
   136         12
   137         12
   138         60
   139         51
   140         25
   141         54
   142          7
   147          4
   148         17
   149         29
   150         94
   151         46
   152         16
   153         21
   154          3
   155         12
   156          4
   163          9
   164         41
   165        244
   166         32
   167          3
   174         26
   175         20
   176        193
   177        272
   178         46
   179          2
   185         51
   186          8
   187         15
   188          2
   190         13
   191         23
   192         96
   193         36
   194          5
   201          6
   202         25
   203        172
   204        684
   205        104
   206          8
   211         22
   212        751
   213        112
   214        243
   215         31
   216          1
   218         36
   219        129
   220         40
   221          9
   237         62
   238         35
   239        564
   240         95
   241        186
   242         22
   245         11
   246         26
   247        844
   248        141
   249         10
   255          9
   256          3
   282        565
   283        100
   284        193
   285         28