##TITLE=Library Entry 45467
##JCAMP-DX=Revision 4.10 
##DATA TYPE=MASS SPECTRUM
##SAMPLE DESCRIPTION=Japan AIST/NIMC Database- Spectrum MS-NW-9321
##NAMES=HP
##CAS NAME=L-Homocysteine, S-ethyl-
##MOLFORM=C6H13NO2S
##CAS REGISTRY NO=13073-35-3
##MP= -300
##BP= -300
##MW= 163
##$RETENTION INDEX=0
##$CONDENSED SPECTRUM=NO
##NPOINTS= 127
##XYDATA=(XY..XY) 1 
    14          1
    15          8
    16          2
    17          2
    18          7
    25          1
    26         16
    27        106
    28        251
    29        186
    30         72
    31          3
    32          6
    33          3
    34         13
    35         42
    36          1
    37          3
    38          2
    39         17
    40          4
    41        100
    42         83
    43         65
    44         56
    45         75
    46         46
    47        305
    48         18
    49         14
    50          1
    51          6
    52          8
    53          7
    54         51
    55        396
    56        556
    57        172
    58         99
    59         61
    60         37
    61        387
    62         89
    63         21
    64          4
    65          2
    66          1
    67         13
    68          7
    69          8
    70         34
    71          9
    72          8
    73         29
    74        489
    75        999
    76         57
    77         39
    78          2
    79          1
    80          1
    81          3
    82          4
    83        588
    84         48
    85         16
    86         52
    87         30
    88        128
    89        276
    90         35
    91         21
    92          2
    93          2
    94          2
    95          4
    96          3
    97          4
    98          2
    99         27
   100         45
   101        405
   102         35
   103         83
   104          6
   105          1
   107          1
   109          2
   110          1
   111          2
   112          1
   113          2
   114          5
   115          5
   116        477
   117         56
   118        182
   119         14
   120          9
   121          1
   123          1
   124          1
   125          1
   126          1
   127          1
   128         62
   129          7
   130          4
   131          6
   132          1
   133          1
   134         42
   135          4
   136          2
   137          1
   139          1
   140          1
   141          1
   145        553
   146         88
   147         36
   148          5
   149          1
   163        428
   164         71
   165         24
   166          4