##TITLE=Library Entry 896
##JCAMP-DX=Revision 4.10 
##DATA TYPE=MASS SPECTRUM
##SAMPLE DESCRIPTION=NIST Mass Spectrometry Data Center, 1994
##NAMES=HP
##CAS NAME=2-(3-Chlorophenyl)ethylamine
##MOLFORM=C8H10ClN
##CAS REGISTRY NO=13078-79-0
##MP= -300
##BP= -300
##MW= 155
##$RETENTION INDEX=0
##$CONDENSED SPECTRUM=NO
##NPOINTS= 84
##XYDATA=(XY..XY) 1 
     4          0
    14          0
    15          3
    16          0
    17          1
    18          1
    26          1
    27          8
    28         49
    29          0
    30        999
    31         17
    32          0
    35          0
    36          1
    37          3
    38          9
    39         33
    40          3
    41          6
    42         11
    43          5
    44          1
    46          1
    47          1
    49          3
    50         21
    51         23
    52          4
    53          2
    54          1
    57          0
    58         11
    60          3
    61          6
    62         16
    63         45
    64          9
    65         18
    66          1
    67          0
    72          1
    73         11
    74          8
    75         19
    76          4
    77         10
    78          1
    84          1
    85          3
    86          4
    87          3
    89         48
    90         14
    91         39
    92          3
    93          0
    97          1
    99         14
   100          1
   101          7
   102          4
   103          4
   104          1
   111          1
   112          0
   113          0
   116          1
   117          4
   118          6
   119          5
   120          0
   125         19
   126          5
   127          7
   128          1
   136          0
   138          1
   152          0
   153          2
   154          1
   155         10
   156          1
   157          3