##TITLE=Library Entry 27369
##JCAMP-DX=Revision 4.10 
##DATA TYPE=MASS SPECTRUM
##SAMPLE DESCRIPTION=ACCUSTANDARD Chemicals / NIST MS Data Center.
##NAMES=HP
##CAS NAME=Phosphorodithioic acid, S-[(tert-butylthio)methyl] O,O-diethyl es
ter
##MOLFORM=C9H21O2PS3
##CAS REGISTRY NO=13071-79-9
##MP= -300
##BP= -300
##MW= 288
##$RETENTION INDEX=1768
##$CONDENSED SPECTRUM=NO
##NPOINTS= 152
##XYDATA=(XY..XY) 1 
    13          2
    14          2
    15         11
    16          2
    17          0
    18          2
    19          1
    25          1
    26         14
    27        113
    28         90
    29        272
    30          9
    31          5
    32         15
    33          1
    34          1
    35          2
    37          1
    38          5
    39         68
    40          1
    41        234
    42         13
    43         14
    44          7
    45         76
    46         35
    47         52
    48          7
    49          7
    50          2
    51          3
    52          1
    53          7
    54          4
    55         24
    56          1
    57        999
    58         45
    59         30
    60          7
    61         12
    62          2
    63         20
    64          1
    65        163
    66          1
    67          2
    69          2
    71          1
    73          4
    74          8
    75          6
    76          5
    77          4
    78         17
    79         34
    80         18
    81         14
    82          1
    83          0
    87          8
    88          2
    89          1
    90          1
    91          3
    93         72
    95         15
    97        301
    98          3
    99         17
   101          2
   103        238
   104         14
   105         12
   106          1
   107          3
   108          5
   109         31
   110          2
   111          5
   112         27
   113         23
   114         23
   115          3
   116          2
   121        108
   122          5
   123          2
   124          2
   125        159
   126          7
   127         10
   128          2
   129        107
   130         14
   131         29
   132          2
   133          2
   134          1
   135          8
   136          1
   137          1
   139          1
   140          7
   142        128
   143         14
   144         13
   145          1
   153        235
   154         22
   155         17
   156          1
   157         35
   158         37
   159         28
   160          4
   161          2
   171          8
   172          1
   173          1
   174          1
   175         76
   176          3
   177         11
   185         56
   186        126
   187         75
   188         17
   189          8
   190          0
   199          9
   200          1
   201          1
   202          0
   203         89
   204          4
   205         13
   214          0
   217          1
   227          2
   231        909
   232         79
   233        131
   234         10
   235          7
   288        112
   289         14
   290         18
   291          1
   292          1