##TITLE=Library Entry 53523
##JCAMP-DX=Revision 4.10 
##DATA TYPE=MASS SPECTRUM
##SAMPLE DESCRIPTION=NIST Mass Spectrometry Data Center
##NAMES=HP
##CAS NAME=2-n-Hexylcyclopentanone
##MOLFORM=C11H20O
##CAS REGISTRY NO=13074-65-2
##MP= -300
##BP= -300
##MW= 168
##$RETENTION INDEX=0
##$CONDENSED SPECTRUM=NO
##NPOINTS= 63
##XYDATA=(XY..XY) 1 
    14          1
    15          7
    18          1
    26         10
    27        137
    28         47
    29        132
    30          2
    31          1
    36          1
    39        123
    40         26
    41        287
    42         72
    43        103
    44          4
    50          2
    51          8
    52          7
    53         42
    54         46
    55        210
    56         77
    57         21
    58          2
    63          1
    65          9
    66          7
    67         44
    68         17
    69         61
    70         34
    71          6
    77          7
    78          2
    79         22
    80          5
    81         14
    83        229
    84        999
    85         59
    86          3
    91          4
    93          5
    94          1
    95          8
    97        155
    98         19
    99          1
   107          1
   109          2
   110          1
   111         11
   112          2
   121          2
   123          2
   125          7
   126          9
   127          1
   139          7
   166          1
   168         55
   169          6