##TITLE=Library Entry 93590
##JCAMP-DX=Revision 4.10 
##DATA TYPE=MASS SPECTRUM
##SAMPLE DESCRIPTION=Chemical Concepts
##NAMES=HP
##CAS NAME=2-Piperidinethione
##MOLFORM=C5H9NS
##CAS REGISTRY NO=13070-01-4
##MP= -300
##BP= -300
##MW= 115
##$RETENTION INDEX=0
##$CONDENSED SPECTRUM=NO
##NPOINTS= 87
##XYDATA=(XY..XY) 1 
    25          1
    26         31
    27        172
    28        122
    29        108
    30        265
    31          2
    33          4
    34          2
    35          0
    37          5
    38         12
    39        119
    40          3
    41        251
    42         35
    43         18
    44         25
    45         95
    46         18
    47         11
    48          1
    49          2
    50         11
    51         18
    52         17
    53         39
    54        216
    55        157
    56        121
    57         35
    58        196
    59        151
    60         70
    61          9
    62          2
    63          0
    64          1
    65          2
    66          3
    67         20
    68         16
    69         12
    70          6
    71        144
    72         69
    73         35
    74         62
    75          5
    76          2
    77          0
    78          5
    79          0
    80         29
    81         36
    82        173
    83         12
    84          8
    85         28
    86         49
    87         24
    88          5
    89          1
    90          0
    91          0
    92          0
    93          0
    96          0
    97         23
    98          6
    99          3
   100        180
   101         11
   102          8
   103          0
   104          0
   105          0
   108          0
   110          0
   111          0
   112          3
   113          1
   114        522
   115        999
   116         88
   117         41
   118          2