##TITLE=Library Entry 12507
##JCAMP-DX=Revision 4.10 
##DATA TYPE=MASS SPECTRUM
##SAMPLE DESCRIPTION=Div. of Experiment Therapeutics WRAIR, WRAMC, Washingto
n DC 20307
##NAMES=HP
##CAS NAME=1-[2,3-Dihydroxypropyl]-pyrazolo[3,4-d]pyrimidin-4(5H)-one
##MOLFORM=C8H10N4O3
##CAS REGISTRY NO=130867-94-6
##MP= -300
##BP= -300
##MW= 210
##$RETENTION INDEX=0
##$CONDENSED SPECTRUM=NO
##NPOINTS= 110
##XYDATA=(XY..XY) 1 
    41        374
    42        191
    43        999
    44        357
    45        475
    46        178
    47        112
    52        244
    53        139
    54         50
    55        429
    56        133
    57        322
    59        125
    60        138
    61         74
    62          9
    63         25
    64         41
    65         59
    66         37
    67        180
    68        312
    69        216
    70        110
    71        120
    72         19
    73         57
    74         65
    75         14
    76         16
    77        101
    78        222
    79         60
    80         51
    81         67
    82        115
    84        116
    86         54
    88         41
    91         26
    93         60
    94         78
    95        153
    96        105
    97        138
    98         64
    99         31
   101         82
   102         11
   103          7
   104          3
   105         20
   106        106
   107         35
   109        128
   110         49
   111         72
   112         35
   113         21
   115         19
   117          9
   119         39
   120         39
   121         60
   122        132
   123         14
   124        133
   125         38
   126         26
   128          4
   129         28
   131          4
   132          5
   134         22
   135         73
   136        693
   137        460
   138         66
   139         21
   140         16
   141         11
   143          8
   146          8
   147          4
   148          6
   149        795
   150        166
   151         20
   153         97
   154         12
   157          3
   161          7
   163         59
   164         17
   165         15
   169          4
   175         36
   176         22
   177          8
   179        472
   180         37
   181         11
   190         13
   192        262
   193         26
   194          6
   195         12
   209         15
   210          8