##TITLE=Library Entry 75863
##JCAMP-DX=Revision 4.10 
##DATA TYPE=MASS SPECTRUM
##SAMPLE DESCRIPTION=James Little,Eastman Chem.Co.,Kingsport,TN
##NAMES=HP
##CAS NAME=2-Methyl-2-carboxytetrahydrothiazole
##MOLFORM=C5H9NO2S
##CAS REGISTRY NO=13084-13-4
##MP= -300
##BP= -300
##MW= 147
##$RETENTION INDEX=0
##$CONDENSED SPECTRUM=NO
##NPOINTS= 35
##XYDATA=(XY..XY) 1 
    27         59
    28         67
    29         12
    30         19
    35         19
    41         38
    42        302
    43         27
    44         70
    45         76
    54         45
    55        128
    59        130
    60         65
    61        202
    63        101
    68         14
    72          7
    73          8
    74          5
    75         17
    82         14
    83         28
    86         14
    88         19
   100         41
   101         29
   102        999
   103         69
   104         52
   114         33
   132         17
   147         12
   148          2
   149          1