##TITLE=Library Entry 49218
##JCAMP-DX=Revision 4.10 
##DATA TYPE=MASS SPECTRUM
##SAMPLE DESCRIPTION=Exported from NIST MS Search
##NAMES=HP
##CAS NAME=Phosphonothioic acid, methyl-, O-ethyl S-propyl ester
##MOLFORM=C6H15O2PS
##CAS REGISTRY NO=13088-83-0
##MP= -300
##BP= -300
##MW= 182
##$RETENTION INDEX=0
##$CONDENSED SPECTRUM=NO
##NPOINTS= 62
##XYDATA=(XY..XY) 1 
    41        206
    42         79
    43        119
    44         83
    45         58
    46         43
    47        144
    48         21
    49         29
    51         25
    52         18
    55         21
    56         10
    57         36
    58         50
    59         18
    60         18
    61         25
    62         18
    63         29
    64         18
    65        101
    74         21
    75         58
    76         21
    77         25
    78         25
    79        999
    80        376
    81        163
    91         25
    93         79
    95        199
    96        344
    97        163
    98         21
   102         21
   107        123
   108        717
   109         47
   111         21
   112        137
   113        144
   114         10
   115         21
   121         21
   123         18
   125         18
   126         18
   137         21
   138         47
   139         47
   140        688
   141         72
   142         29
   149         25
   153         21
   154         47
   167         36
   182        210
   183         25
   184         10