##TITLE=Library Entry 25174
##JCAMP-DX=Revision 4.10 
##DATA TYPE=MASS SPECTRUM
##SAMPLE DESCRIPTION=V.Zaikin,Inst.Petrochem.Synth.,RAS,Moscow
##NAMES=HP
##CAS NAME=2-Bromopropionic acid, 2-ethylhexyl ester
##MOLFORM=C11H21BrO2
##CAS REGISTRY NO=130841-38-2
##MP= -300
##BP= -300
##MW= 264
##$RETENTION INDEX=0
##$CONDENSED SPECTRUM=NO
##NPOINTS= 82
##XYDATA=(XY..XY) 1 
    25          4
    26         59
    27        342
    28         42
    29        288
    30         10
    39        122
    40         27
    41        460
    42        141
    43        486
    44         26
    50         14
    51         41
    52         45
    53         42
    54         26
    55        428
    56        459
    57        999
    58         48
    59          7
    61          3
    62          3
    63         16
    64          5
    65         13
    66          4
    67         12
    68         16
    69        162
    70        839
    71        326
    72         28
    73          7
    74          8
    75          3
    76          3
    77         12
    78          8
    79         82
    80          9
    81         12
    82         36
    83        195
    84        100
    85         11
    86         33
    87         14
    89          2
    90          7
    91         51
    92          6
    93          9
    95          3
    97         13
    98         17
    99          6
   105          5
   106          3
   107         82
   108         10
   109         88
   111          6
   112        184
   113         16
   119          4
   127          3
   129          5
   133          2
   135         46
   136          7
   137         42
   141          3
   150          4
   153          7
   155         11
   157          5
   166         10
   168          4
   169          3
   198          4