##TITLE=Library Entry 21555
##JCAMP-DX=Revision 4.10 
##DATA TYPE=MASS SPECTRUM
##SAMPLE DESCRIPTION=A.A.Kutin, Moscow, Russia
##NAMES=HP
##CAS NAME=2H-Azepin-2-one, hexahydro-1-(hydroxymethyl)-
##MOLFORM=C7H13NO2
##CAS REGISTRY NO=13088-64-7
##MP= -300
##BP= -300
##MW= 143
##$RETENTION INDEX=0
##$CONDENSED SPECTRUM=NO
##NPOINTS= 64
##XYDATA=(XY..XY) 1 
    33          2
    34          0
    39        243
    41        582
    42        387
    43        122
    44         97
    46         61
    50         10
    51         13
    55        999
    56        259
    57         72
    58         75
    60        421
    62          1
    63          1
    65          9
    67        129
    68         81
    69        118
    70         36
    71         19
    72         56
    73         27
    74          6
    76          0
    77          1
    79         10
    80         12
    81         32
    82         48
    83         54
    84        194
    85        252
    86         46
    87         41
    88          2
    89          0
    90          0
    91          0
    92          0
    96        244
    97         95
    98        122
   100        526
   102          1
   106          0
   107          0
   108          1
   110         16
   112         25
   113         66
   114         92
   115          8
   126        334
   128         50
   129          1
   130          0
   139          0
   143        761
   144         66
   145          5
   146          0