##TITLE=Library Entry 48523
##JCAMP-DX=Revision 4.10 
##DATA TYPE=MASS SPECTRUM
##SAMPLE DESCRIPTION=Exported from NIST MS Search
##NAMES=HP
##CAS NAME=Phosphonothioic acid, methyl-, S-butyl O-ethyl ester
##MOLFORM=C7H17O2PS
##CAS REGISTRY NO=13088-84-1
##MP= -300
##BP= -300
##MW= 196
##$RETENTION INDEX=0
##$CONDENSED SPECTRUM=NO
##NPOINTS= 67
##XYDATA=(XY..XY) 1 
    41        500
    42         43
    43         86
    44         21
    45        133
    46         71
    47        338
    48         28
    49         46
    51         21
    53         32
    54         21
    55        133
    56        115
    57        237
    58         25
    59         43
    60         28
    61         68
    62         18
    63         46
    64         14
    65         97
    77         25
    78         28
    79        999
    80        215
    81         93
    87         25
    88         28
    89         28
    90         14
    91         25
    93         57
    94         18
    95        140
    96        230
    97        151
    98         21
   107         97
   108        341
   109         36
   110         21
   111         28
   112         86
   113        190
   114         10
   115         21
   122         50
   123         21
   124         18
   125         43
   126         14
   139         50
   140        305
   141        115
   142         21
   151         21
   152         21
   153         21
   154         21
   167        100
   168         25
   178         28
   196        104
   197         28
   198         21