##TITLE=Library Entry 70096
##JCAMP-DX=Revision 4.10 
##DATA TYPE=MASS SPECTRUM
##SAMPLE DESCRIPTION=Chemical Concepts
##NAMES=HP
##CAS NAME=t-Butyl(4,5-dihydrofuran-2-yl)dimethylsilane
##MOLFORM=C10H20OSi
##CAS REGISTRY NO=130876-95-8
##MP= -300
##BP= -300
##MW= 184
##$RETENTION INDEX=0
##$CONDENSED SPECTRUM=NO
##NPOINTS= 144
##XYDATA=(XY..XY) 1 
    26         10
    27         64
    28         22
    29         89
    30          3
    31         26
    35          7
    36         12
    37          3
    38          6
    39         80
    40         16
    41        162
    42         41
    43        156
    44         28
    45        108
    46          7
    47         74
    48          4
    49          7
    50          4
    51         10
    52          4
    53         24
    54          7
    55         47
    56         56
    57        122
    58         53
    59        175
    60         25
    61         74
    62          7
    63          5
    64          2
    65          9
    66          8
    67         29
    68         16
    69        130
    70         19
    71         37
    72         28
    73        288
    74         34
    75        998
    76         77
    77         51
    78          5
    79          9
    80          3
    81         17
    82         18
    83         58
    84         10
    85         68
    86         15
    87         29
    88          4
    89         11
    90          2
    91         25
    92          8
    93         17
    94          4
    95         22
    96         13
    97        999
    98        153
    99        162
   100         25
   101         59
   102          8
   103        105
   104         11
   105         18
   106          5
   107          4
   108          4
   109        194
   110         24
   111         68
   112         10
   113        206
   114         23
   115         30
   116          5
   117         54
   118          3
   119         52
   120          5
   121         18
   122          1
   123          7
   124          4
   125        131
   126         29
   127        301
   128        270
   129         47
   130         12
   131          8
   132         20
   133          9
   134          5
   135          2
   137          4
   138          2
   139         15
   140          3
   141         31
   142          9
   143         84
   144         12
   145          6
   146          2
   147         34
   148          7
   149         18
   150          4
   151          4
   152          2
   153          3
   154          2
   155          7
   156         25
   157          5
   158          2
   159          4
   161          4
   165          3
   166          2
   167          6
   168          3
   169         18
   170          4
   171          2
   177          4
   178          2
   183          4
   184        137
   185         24
   186          6