##TITLE=Library Entry 2511
##JCAMP-DX=Revision 4.10 
##DATA TYPE=MASS SPECTRUM
##SAMPLE DESCRIPTION=CARL DJERASSI DEPT OF CHEM STANFORD UNIV STANFORD CALIF
 94305
##NAMES=HP
##CAS NAME=1-Oxaspiro[2.5]octan-4-one, 2,2,6-trimethyl-, cis-
##MOLFORM=C10H16O2
##CAS REGISTRY NO=13080-29-0
##MP= -300
##BP= -300
##MW= 168
##$RETENTION INDEX=1237
##$CONDENSED SPECTRUM=NO
##NPOINTS= 74
##XYDATA=(XY..XY) 1 
    41        999
    42        410
    43        590
    44         30
    50         50
    51        170
    52         80
    53        290
    54         90
    55        450
    56        120
    57         50
    62         20
    63         60
    64         20
    65        120
    66         80
    67        510
    68        140
    69        390
    70        300
    71         40
    72         20
    75         10
    77        200
    78         60
    79        370
    80        130
    81        530
    82        370
    83        220
    84        110
    85         40
    91        180
    92         20
    93        140
    94         30
    95        150
    96         60
    97        120
    98        100
   103         10
   105         90
   107        120
   108        520
   109        210
   110         30
   111         50
   115         10
   119         10
   121         20
   122         70
   123        170
   124         40
   125        380
   126        270
   127         20
   131         20
   132         10
   133         40
   134         20
   135        160
   136         20
   137         80
   138         20
   140         70
   145         20
   146         10
   148         50
   149         30
   150        290
   151         40
   152        170
   153         40