##TITLE=Library Entry 21508
##JCAMP-DX=Revision 4.10 
##DATA TYPE=MASS SPECTRUM
##SAMPLE DESCRIPTION=RADIAN CORP
##NAMES=HP
##CAS NAME=Silane, 1,6-hexanediylbis[trichloro-
##MOLFORM=C6H12Cl6Si2
##CAS REGISTRY NO=13083-94-8
##MP= -300
##BP= -300
##MW= 350
##$RETENTION INDEX=0
##$CONDENSED SPECTRUM=NO
##NPOINTS= 112
##XYDATA=(XY..XY) 1 
    15          3
    26         33
    27        216
    28         19
    29        146
    37          5
    38         30
    39        347
    40         55
    41        273
    42         76
    43         30
    49          8
    50         36
    51         57
    52         33
    53        147
    54        115
    55        999
    56        127
    57         12
    59          3
    63        168
    64         11
    65         88
    66         14
    67         81
    68          5
    69         93
    77         24
    79         28
    81         29
    82          6
    83         61
    84          2
    95          1
    98         93
    99         69
   100         64
   101         45
   102         11
   103         10
   112         20
   113         10
   114         12
   115         25
   116         13
   117         14
   118          2
   123         12
   125         34
   126          7
   127         17
   128          4
   129        109
   130          7
   131         65
   132          3
   133        817
   134         53
   135        817
   136         49
   137        296
   138        146
   139         84
   140         91
   141         30
   142         15
   143          5
   147          3
   149          2
   151        128
   152         24
   153         94
   154         16
   155         20
   157          5
   159          2
   161         47
   163         47
   165         33
   167         12
   170         11
   172          6
   173          1
   174        495
   175         59
   176        487
   177         56
   178        171
   179         19
   180         18
   181          4
   183          5
   185          3
   187        241
   188         53
   189        236
   190         53
   191         88
   192         15
   193          8
   201          9
   203          8
   212          4
   214          2
   216        124
   217         11
   218        125
   219         11
   220         41
   222          1