##TITLE=Library Entry 41455
##JCAMP-DX=Revision 4.10 
##DATA TYPE=MASS SPECTRUM
##SAMPLE DESCRIPTION=Chemical Concepts
##NAMES=HP
##CAS NAME=4,6-Dioxa-3,7-disilanonane, 2,2,3,3,7,7,8,8-octamethyl-5-[2-methy
l-2-(4-methyl-3-pentenyl)cyclopropyl]-, trans-
##MOLFORM=C23H48O2Si2
##CAS REGISTRY NO=130876-91-4
##MP= -300
##BP= -300
##MW= 412
##$RETENTION INDEX=0
##$CONDENSED SPECTRUM=NO
##NPOINTS= 304
##XYDATA=(XY..XY) 1 
    25          0
    26          3
    27         25
    28         11
    29         48
    30          1
    31          6
    36          1
    37          2
    39         35
    40          8
    41        207
    42         17
    43         51
    44         11
    45         37
    46          2
    47         24
    48          1
    49          0
    50          2
    51          4
    52          2
    53         29
    54          7
    55         96
    56         23
    57         78
    58         26
    59        122
    60         13
    61         22
    62          2
    63          2
    65          7
    66          8
    67         46
    68         13
    69        388
    70         35
    71         20
    72         10
    73        999
    74        103
    75        530
    76         47
    77         37
    78          4
    79         49
    80         11
    81        176
    82         24
    83         49
    84          8
    85         26
    86          4
    87          6
    88          2
    89         70
    90          6
    91         20
    92          5
    93        172
    94         19
    95         52
    96          7
    97         23
    98          6
    99         40
   100         10
   101         27
   102          4
   103         14
   104          3
   105         23
   106          5
   107        167
   108         19
   109         47
   110          7
   111         15
   112          3
   113         43
   114         11
   115        131
   116         18
   117         22
   118          3
   119         15
   120          3
   121         60
   122         46
   123         68
   124          8
   125         13
   126          4
   127         14
   128          3
   129          7
   130          2
   131         34
   132         10
   133         91
   134         15
   135         16
   136          5
   137          9
   138          2
   139         22
   140          5
   141         27
   142          5
   143          6
   144          1
   145          7
   146          3
   147        418
   148         78
   149        467
   150         66
   151         11
   152          2
   153         26
   154          6
   155         22
   156          4
   157          4
   158          1
   159          9
   160          2
   161          6
   162          2
   163         44
   164          6
   165          6
   166          2
   167         13
   168          2
   169          4
   170          1
   171         85
   172         14
   173         12
   174          2
   175          7
   176          9
   177          4
   178          2
   179          4
   180          2
   181          5
   182          2
   183          2
   184          1
   185         23
   186          8
   187          5
   188          2
   189        102
   190         20
   191         14
   192          2
   193          2
   194          1
   195         16
   196          3
   197         33
   198         20
   199          9
   200          2
   201          1
   202          0
   203          2
   204          1
   205          6
   206          1
   207         14
   208          3
   209          4
   210          2
   211         54
   212         11
   213          4
   214          1
   215          2
   216          1
   217          1
   218          1
   219          5
   220          2
   221         22
   222          5
   223         44
   224         11
   225         13
   226          2
   227          2
   228          0
   229          1
   230          1
   231         24
   232         10
   233          5
   234          1
   235          1
   236          0
   237          9
   238          2
   239          3
   240          1
   241         24
   242          5
   243          2
   244          0
   245         38
   246          8
   247         11
   248          2
   249          1
   250          1
   251          1
   252          0
   253          0
   254          1
   255          2
   256          0
   257          0
   259         18
   260          4
   261          2
   262          0
   263          9
   264          3
   265          9
   266          2
   267          1
   268          0
   269          0
   270          1
   271          2
   272          0
   273          6
   274          1
   275        102
   276         28
   277         11
   278          2
   279          4
   280          9
   281         36
   282          8
   283          2
   284          0
   285          8
   286          2
   287          2
   288         33
   289          8
   290          3
   291          0
   292          0
   293          0
   294          1
   295          2
   296          0
   297          0
   298          0
   299          3
   300          1
   301          7
   302          2
   303          1
   305          0
   306          0
   311          0
   312          0
   313          1
   314          0
   315          0
   321          0
   328          0
   329          0
   337          2
   338          0
   339          0
   341          1
   342          0
   343          1
   344          0
   355         70
   356         22
   357          8
   358          2
   359          0
   369          7
   370          2
   371          1
   397          3
   398          1
   399          0
   411          4
   412          2
   413          1
   414          0