##TITLE=Library Entry 2543
##JCAMP-DX=Revision 4.10 
##DATA TYPE=MASS SPECTRUM
##SAMPLE DESCRIPTION=CARL DJERASSI DEPT OF CHEM STANFORD UNIV STANFORD CALIF
 94305
##NAMES=HP
##CAS NAME=1-Oxaspiro[2.5]octan-4-one, 2,2,6-trimethyl-, trans-
##MOLFORM=C10H16O2
##CAS REGISTRY NO=13080-28-9
##MP= -300
##BP= -300
##MW= 168
##$RETENTION INDEX=1275
##$CONDENSED SPECTRUM=NO
##NPOINTS= 76
##XYDATA=(XY..XY) 1 
    41        999
    42        470
    43        880
    44         30
    45         10
    50         30
    51        100
    52         50
    53        220
    54         80
    55        550
    56        160
    57         70
    58         20
    59         10
    63         30
    65         90
    66         60
    67        260
    68        120
    69        560
    70        500
    71         80
    72         40
    77        130
    78         40
    79        260
    80         90
    81        460
    82        330
    83        320
    84        180
    85         70
    86         50
    91        120
    93        110
    94         20
    95        120
    96        100
    97        210
    98        160
    99         40
   105         60
   107        140
   108        630
   109        260
   110         40
   111        230
   112         40
   113         10
   115         10
   117         20
   119         20
   121         30
   122         40
   123        150
   124         60
   125        410
   126        280
   127         30
   128         10
   133         20
   135         90
   136         10
   137         50
   140        100
   141         10
   148         10
   149         20
   150        220
   151         30
   152        130
   153        130
   154         10
   164         10
   168         60