##TITLE=Library Entry 75861
##JCAMP-DX=Revision 4.10 
##DATA TYPE=MASS SPECTRUM
##SAMPLE DESCRIPTION=James Little,Eastman Chem.Co.,Kingsport,TN
##NAMES=HP
##CAS NAME=2-Thiazolidinecarboxamide, 2-methyl-
##MOLFORM=C5H10N2OS
##CAS REGISTRY NO=13084-22-5
##MP= -300
##BP= -300
##MW= 146
##$RETENTION INDEX=0
##$CONDENSED SPECTRUM=NO
##NPOINTS= 29
##XYDATA=(XY..XY) 1 
    27         93
    28        103
    29         18
    30         40
    35         23
    41         60
    42        397
    43         38
    44        161
    45         63
    54         50
    55         98
    56         49
    59        189
    60         47
    61        161
    68         17
    69          8
    71          7
    73          6
    74          5
    75          5
    99         10
   100         20
   101          7
   102        999
   103         63
   104         52
   131          4