##TITLE=Library Entry 40119
##JCAMP-DX=Revision 4.10 
##DATA TYPE=MASS SPECTRUM
##SAMPLE DESCRIPTION=LAC, NIDDK, NIH, Bethesda, MD 20892
##NAMES=HP
##CAS NAME=5-Keto-gluconic acid dimethylamide
##MOLFORM=C8H15NO6
##CAS REGISTRY NO=13096-75-8
##MP= -300
##BP= -300
##MW= 221
##$RETENTION INDEX=0
##$CONDENSED SPECTRUM=NO
##NPOINTS= 97
##XYDATA=(XY..XY) 1 
    41         19
    42        196
    43        177
    44        288
    45        205
    46        403
    47         15
    49          4
    50          1
    51          2
    53          5
    54          9
    55         32
    56         45
    57         32
    58         91
    59         14
    60         67
    61        104
    62          4
    65          3
    68          3
    69         14
    70         15
    71        130
    72        999
    73        270
    74        175
    75          8
    76          2
    77          3
    78          1
    82          3
    83         10
    84          8
    85         33
    86         10
    87         12
    88         19
    89         30
    90         38
    91          4
    92          0
    97          6
    98         52
    99         19
   100          7
   101          9
   102        392
   103        427
   104         24
   105          3
   112          1
   113         16
   114         23
   115         16
   116         94
   117         16
   118          2
   119          0
   120          3
   126         25
   127          1
   128         70
   129          7
   131         56
   132        306
   133         24
   134          3
   137          1
   143          1
   144         43
   145         41
   146          5
   149         17
   150          4
   156          3
   157          2
   160         16
   161         30
   162        226
   163         23
   164          3
   167          3
   172         34
   173          4
   174          8
   175          4
   185          3
   186          1
   190         25
   191          3
   203          3
   204         10
   220          2
   221          8
   222          2