##TITLE=Library Entry 7140
##JCAMP-DX=Revision 4.10 
##DATA TYPE=MASS SPECTRUM
##SAMPLE DESCRIPTION=Div. of Experiment Therapeutics WRAIR, WRAMC, Washingto
n DC 20307
##NAMES=HP
##CAS NAME=7-Cholesten-3-one
##MOLFORM=C27H44O
##CAS REGISTRY NO=13097-64-8
##MP= -300
##BP= -300
##MW= 384
##$RETENTION INDEX=0
##$CONDENSED SPECTRUM=NO
##NPOINTS= 184
##XYDATA=(XY..XY) 1 
    41        559
    43        999
    44         36
    45         15
    49         12
    51         13
    53         90
    55        724
    57        324
    58         13
    59         54
    60          3
    65         34
    67        209
    69        357
    71        162
    72          8
    73          8
    77         82
    79        238
    81        325
    82         62
    83        157
    84         12
    85         40
    91        258
    93        218
    95        481
    96         51
    97        114
    99         53
   101          3
   103         20
   105        266
   106         15
   107        245
   108         54
   109        158
   110         35
   111         62
   112          3
   113          8
   115         36
   116         15
   117         80
   118         21
   119        205
   120         33
   121        175
   122         58
   123        137
   124         86
   125         46
   126          3
   127         24
   128         41
   129         70
   130         22
   131        160
   132         18
   133        191
   134         80
   135        243
   136         46
   137         52
   138         28
   139         14
   141         31
   142         16
   143         80
   144         19
   145        135
   146         12
   147        140
   148         33
   149        104
   150         19
   151         23
   152         30
   153         15
   154          2
   155         28
   157         68
   158         22
   159        104
   160          7
   161        189
   162         36
   163         50
   164          6
   165         18
   167         11
   168          3
   169         27
   171        104
   172         15
   173         70
   174         20
   175         59
   176         24
   177         27
   178          3
   179         11
   181          3
   183         17
   185         38
   186         20
   187         72
   188         17
   189         39
   190          6
   191         17
   192          3
   193         12
   195          6
   197         25
   199         28
   201         59
   202         15
   203         23
   204          6
   205         13
   206         15
   207         15
   211         36
   212          3
   213        107
   214         22
   215         40
   216         39
   217         39
   218         10
   219          6
   221          3
   225         12
   227         31
   228          3
   229        224
   230         67
   231         37
   232         13
   233          8
   239          6
   241          9
   242          6
   243         28
   244         89
   245         68
   246         27
   247         19
   253         27
   255         23
   257         22
   258         25
   259         38
   260         16
   261          7
   262          3
   267          3
   269         42
   270         31
   271        320
   272         63
   273         16
   274          3
   283         12
   285         29
   286          7
   287          7
   291          7
   297          3
   299         14
   301          6
   304          4
   312          3
   313          6
   367         11
   369        124
   370         31
   382         19
   383         17
   384        445
   385        138
   386         27