##TITLE=Library Entry 39878
##JCAMP-DX=Revision 4.10 
##DATA TYPE=MASS SPECTRUM
##SAMPLE DESCRIPTION=A.S.Moskovkin,I.M.Karnaukh, Russian Center on Disaster
 Medicine
##NAMES=HP
##CAS NAME=1-(3-Methyl-2-butenyl)-3,6-diazahomoadamantan-9-one
##MOLFORM=C14H22N2O
##CAS REGISTRY NO=130913-41-6
##MP= -300
##BP= -300
##MW= 234
##$RETENTION INDEX=0
##$CONDENSED SPECTRUM=NO
##NPOINTS= 143
##XYDATA=(XY..XY) 1 
    29         58
    30         34
    31          2
    37          2
    38          5
    39         79
    40         50
    41        420
    42        410
    43        110
    44         88
    45         20
    50          5
    51         16
    52         13
    53         74
    54         43
    55        290
    56        100
    57        150
    58        920
    59         33
    60          1
    62          1
    63          5
    64          3
    65         28
    66         17
    67         98
    68        100
    69        100
    70         75
    71         33
    72        999
    73         50
    74          3
    75          2
    76          3
    77         76
    78         21
    79         71
    80         45
    81         50
    82        110
    83         52
    84        150
    85         59
    86          5
    87         12
    88          3
    89          6
    90          1
    91         61
    92         14
    93         74
    94         60
    95         66
    96         56
    97         23
    98         33
    99          6
   102          3
   103          5
   104          5
   105         21
   106         19
   107         39
   108         50
   109         43
   110         34
   111         24
   112          7
   113          2
   115          5
   116          3
   117         19
   118          9
   119         17
   120         33
   121         33
   122         81
   123         44
   124         33
   125         16
   126          3
   128          2
   129          3
   130          3
   131          7
   132          8
   133         16
   134         34
   135         34
   136         88
   137         32
   138         19
   139          7
   144          3
   145          6
   146         16
   147         18
   148         70
   149         33
   150         42
   151         11
   152         18
   153          3
   158          6
   159          5
   160         14
   161          9
   162         47
   163         43
   164         26
   165         49
   166         10
   173          4
   174         15
   175          6
   176         41
   177         21
   178         40
   179         51
   180          6
   188          6
   189          4
   190         29
   191         38
   192         27
   193          5
   202          2
   203          6
   204          4
   205          6
   206         14
   207          3
   217          5
   219         23
   220          8
   233         26
   234        650
   235        105
   236          8