##TITLE=Library Entry 31990
##JCAMP-DX=Revision 4.10 
##DATA TYPE=MASS SPECTRUM
##SAMPLE DESCRIPTION=A.A.Kutin, Moscow, Russia
##NAMES=HP
##CAS NAME=2-Azabicyclo[2.2.1]hept-5-en-3-one, (1S)-
##MOLFORM=C6H7NO
##CAS REGISTRY NO=130931-83-8
##MP= -300
##BP= -300
##MW= 109
##$RETENTION INDEX=0
##$CONDENSED SPECTRUM=NO
##NPOINTS= 38
##XYDATA=(XY..XY) 1 
    36          7
    37         83
    38        167
    39        448
    40        263
    41         45
    42         30
    43         48
    44         10
    49         19
    50         84
    51         96
    52         88
    53        107
    54         51
    55         50
    56          1
    60          2
    61         13
    62         20
    63         20
    65        293
    66        999
    67         63
    68          2
    70          0
    74          1
    75          1
    80        124
    81         25
    82          2
    83         10
    84          0
    93          0
   107          0
   108          0
   109         19
   110          6