##TITLE=Library Entry 16018
##JCAMP-DX=Revision 4.10 
##DATA TYPE=MASS SPECTRUM
##SAMPLE DESCRIPTION=Japan AIST/NIMC Database- Spectrum MS-NW-3857
##NAMES=HP
##CAS NAME=1,6-Hexanediamine, N,N'-dimethyl-
##MOLFORM=C8H20N2
##CAS REGISTRY NO=13093-04-4
##MP= -300
##BP= -300
##MW= 144
##$RETENTION INDEX=0
##$CONDENSED SPECTRUM=NO
##NPOINTS= 55
##XYDATA=(XY..XY) 1 
    15         12
    26          1
    27         12
    28         30
    29         11
    30         48
    31         33
    32         19
    39          9
    40          2
    41         28
    42         38
    43         16
    44        999
    45         31
    51          1
    52          1
    53          3
    54          2
    55         15
    56         14
    57         14
    58         35
    59          9
    67          2
    68          4
    69          8
    70         64
    71          6
    72          4
    73          2
    79          1
    80          1
    81          7
    82          6
    83          3
    84          6
    86         19
    87          5
    94          1
    96          4
    98         16
    99          2
   100         50
   101         84
   102          6
   109          1
   110          2
   111          3
   112         19
   113         25
   114         55
   115          5
   129          6
   144          5