##TITLE=Library Entry 27683
##JCAMP-DX=Revision 4.10 
##DATA TYPE=MASS SPECTRUM
##SAMPLE DESCRIPTION=Japan AIST/NIMC Database- Spectrum MS-NW-5213
##NAMES=HP
##CAS NAME=N,N'-Diethyl-1,6-hexanediamine
##MOLFORM=C10H24N2
##CAS REGISTRY NO=13093-05-5
##MP= -300
##BP= -300
##MW= 172
##$RETENTION INDEX=0
##$CONDENSED SPECTRUM=NO
##NPOINTS= 80
##XYDATA=(XY..XY) 1 
    14          1
    15          7
    26          2
    27         26
    28         53
    29         53
    30        211
    31          3
    39         11
    40          4
    41         51
    42         30
    43         20
    44         81
    45         37
    46         22
    51          1
    52          1
    53          5
    54          5
    55         42
    56         47
    57         15
    58        999
    59         40
    65          1
    66          1
    67          5
    68          7
    69         10
    70         19
    71         14
    72         16
    73          5
    77          2
    78          2
    79          3
    80          2
    81         15
    82         10
    83          3
    84         72
    85          5
    86         28
    87          3
    91          1
    93          1
    94          2
    95          1
    96          5
    97          4
    98         62
    99          9
   100         21
   101          5
   108          1
   110         11
   111          1
   112         28
   113          3
   114         66
   115         65
   116          5
   123          2
   124          4
   125          7
   126         53
   127         19
   128         56
   129         20
   130          2
   141          1
   143         24
   144          2
   148          2
   149          1
   157          5
   171          1
   172         10
   173          2