##TITLE=Library Entry 29286
##JCAMP-DX=Revision 4.10 
##DATA TYPE=MASS SPECTRUM
##SAMPLE DESCRIPTION=A.S.Moskovkin,I.M.Karnaukh, Russian Center on Disaster
 Medicine
##NAMES=HP
##CAS NAME=1-Propyl-3,6-diazahomoadamantan-9-one
##MOLFORM=C12H20N2O
##CAS REGISTRY NO=130913-39-2
##MP= -300
##BP= -300
##MW= 208
##$RETENTION INDEX=0
##$CONDENSED SPECTRUM=NO
##NPOINTS= 77
##XYDATA=(XY..XY) 1 
    39        113
    40         78
    41        371
    42        456
    43        382
    44         96
    45         18
    51          4
    52          2
    53         60
    54         85
    55        378
    56        187
    57        459
    58        999
    59         62
    65         17
    66          2
    67         62
    68        100
    69        104
    70         98
    71         42
    72        139
    77         12
    79         23
    80         25
    81         44
    82        122
    83        110
    84        178
    85         69
    91          1
    93          2
    94         25
    95         39
    96         69
    97         60
    98         29
   107         17
   108         48
   109         50
   110         60
   111         35
   112         17
   115          4
   120          4
   121          2
   122         42
   123         40
   124         48
   125         39
   126         27
   135         19
   136        176
   137        104
   138         46
   139          6
   143         12
   148          2
   149          2
   150         48
   151         42
   152         46
   153          2
   164         23
   165         39
   166         46
   178          2
   179        141
   180         69
   193         19
   206          2
   207         87
   208        500
   209         69
   210          5