##TITLE=Library Entry 29312
##JCAMP-DX=Revision 4.10 
##DATA TYPE=MASS SPECTRUM
##SAMPLE DESCRIPTION=A.S.Moskovkin,I.M.Karnaukh, Russian Center on Disaster
 Medicine
##NAMES=HP
##CAS NAME=1-Methyl-8-propyl-3,6-diazahomoadamantan-9-one
##MOLFORM=C13H22N2O
##CAS REGISTRY NO=130913-43-8
##MP= -300
##BP= -300
##MW= 222
##$RETENTION INDEX=0
##$CONDENSED SPECTRUM=NO
##NPOINTS= 96
##XYDATA=(XY..XY) 1 
    39         98
    40         31
    41        372
    42        513
    43        418
    44         61
    45         25
    50          6
    51         24
    52         22
    53        143
    54        149
    55        631
    56        331
    57        704
    58        999
    59        167
    60         16
    65         41
    66         28
    67        102
    68        102
    69        302
    70        145
    71         84
    72        312
    73         22
    77         39
    78          4
    79         59
    80         63
    81         82
    82        163
    83         88
    84        147
    85         92
    86          4
    87          6
    91         26
    92          2
    93         39
    94         59
    95         77
    96        175
    97        120
    98        157
    99         67
   100          2
   105          4
   106          6
   107         28
   108         65
   109         82
   110         80
   111         78
   112         39
   120         18
   121         28
   122         77
   123         59
   124         82
   125         43
   126         39
   127         20
   134          8
   135         18
   136         80
   137         75
   138         59
   139         43
   148          6
   149         39
   150        165
   151         94
   152         55
   153         31
   162         12
   163         12
   164         37
   165         43
   166         65
   167         10
   168         10
   178         39
   179         57
   180         55
   193        118
   194         47
   207         41
   208         12
   209          2
   220          2
   221        102
   222        843
   223        126
   224          9