##TITLE=Library Entry 72454
##JCAMP-DX=Revision 4.10 
##DATA TYPE=MASS SPECTRUM
##SAMPLE DESCRIPTION=Exported from NIST MS Search
##NAMES=HP
##CAS NAME=2,4(1H,3H)-Pyrimidinedione, 1-(2-deoxy-.alpha.-d-erythro-pentopyr
anosyl)-5-methyl-
##MOLFORM=C10H14N2O5
##CAS REGISTRY NO=13091-57-1
##MP= -300
##BP= -300
##MW= 242
##$RETENTION INDEX=0
##$CONDENSED SPECTRUM=NO
##NPOINTS= 52
##XYDATA=(XY..XY) 1 
    26         43
    27        257
    28        354
    29        281
    30         39
    31        188
    32         15
    36         39
    38         32
    39        142
    40         71
    41        242
    42        190
    43        621
    44        480
    45        670
    46         15
    52         17
    53         71
    54        142
    55        344
    56         64
    57        207
    59        207
    60         80
    61         28
    66          8
    67         19
    68         19
    69        383
    70         60
    71        138
    72         26
    73        385
    74         23
    75         15
    96         17
    97         26
    98        147
    99        999
   100         58
   116         17
   117        688
   118         43
   126        322
   127        354
   128         30
   149         17
   152         13
   153         21
   206         26
   242        127