##TITLE=Library Entry 29363
##JCAMP-DX=Revision 4.10 
##DATA TYPE=MASS SPECTRUM
##SAMPLE DESCRIPTION=A.S.Moskovkin,I.M.Karnaukh, Russian Center on Disaster
 Medicine
##NAMES=HP
##CAS NAME=1-Phenyl-3,6-diazahomoadamantan-9-one
##MOLFORM=C15H18N2O
##CAS REGISTRY NO=130913-42-7
##MP= -300
##BP= -300
##MW= 242
##$RETENTION INDEX=0
##$CONDENSED SPECTRUM=NO
##NPOINTS= 161
##XYDATA=(XY..XY) 1 
    27         33
    28        260
    29         21
    30         21
    31          2
    38          4
    39         55
    40         25
    41        180
    42        340
    43         63
    44         39
    45          4
    49          3
    50         20
    51         62
    52         18
    53         20
    54         34
    55        190
    56         90
    57        550
    58        999
    59         36
    60          2
    61          2
    62          9
    63         33
    64          9
    65         32
    66          7
    67         23
    68         69
    69         41
    70         73
    71         29
    72         13
    73          4
    74         10
    75         16
    76         25
    77        190
    78         35
    79         11
    80         15
    81         23
    82         98
    83        130
    84        240
    85         83
    86         12
    87          9
    88          4
    89         30
    90         16
    91        130
    92         15
    93          7
    94         15
    95         18
    96         28
    97         32
    98         12
    99          6
   100          2
   101          8
   102         77
   103        270
   104         50
   105         17
   106          8
   107         10
   108          6
   109         16
   110         19
   111         20
   112          5
   113          5
   114          4
   115        130
   116         42
   117         73
   118         41
   119          9
   120          5
   121         17
   122          9
   123         16
   124         89
   125         33
   126          6
   127         17
   128         38
   129         38
   130         71
   131         28
   132          8
   133          4
   134          2
   135          3
   136          3
   137          9
   138          4
   139          9
   140          3
   141         23
   142         19
   143         44
   144         58
   145         16
   146         26
   147          5
   149          9
   150          2
   151          4
   152          3
   153          5
   154          6
   155         10
   156         28
   157         18
   158         45
   159         16
   160         17
   161          3
   165          4
   167          3
   168          5
   169         11
   170         87
   171         53
   172         38
   173         20
   174          4
   175          2
   180          1
   181          2
   182         19
   183          8
   184         17
   185         14
   186         31
   187         19
   188          3
   197          4
   198         35
   199         53
   200         80
   201         13
   202          3
   211          3
   212         11
   213         20
   214         21
   215          4
   225          4
   227          6
   241        130
   242        570
   243         96
   244          8