##TITLE=Library Entry 85017
##JCAMP-DX=Revision 4.10 
##DATA TYPE=MASS SPECTRUM
##SAMPLE DESCRIPTION=Japan AIST/NIMC Database- Spectrum MS-IW-7182
##NAMES=HP
##CAS NAME=1-(Phenylhydrazinocarbonylmethyl)-thiourea
##MOLFORM=C9H12N4OS
##CAS REGISTRY NO=13096-23-6
##MP= -300
##BP= -300
##MW= 224
##$RETENTION INDEX=0
##$CONDENSED SPECTRUM=NO
##NPOINTS= 168
##XYDATA=(XY..XY) 1 
    13          1
    14          5
    15          4
    16         36
    17         62
    18          2
    24          1
    25          4
    26         44
    27        230
    28        183
    29         49
    30        195
    31         11
    32         86
    33         27
    34         79
    35          2
    36          4
    37         13
    38         32
    39        103
    40         41
    41         43
    42         37
    43         56
    44         35
    45         29
    46         29
    47          6
    48          4
    49          6
    50         49
    51        112
    52         62
    53         28
    54         41
    55         16
    56         15
    57         12
    58         32
    59        244
    60        108
    61         29
    62         19
    63         46
    64         88
    65        303
    66        191
    67         18
    68          2
    69          5
    70         10
    71         28
    72         26
    73         20
    74         17
    75         11
    76         32
    77        326
    78        166
    79         58
    80         22
    81         13
    82          4
    83          4
    84         12
    85          3
    86         19
    87          3
    88         71
    89         31
    90         18
    91        165
    92        373
    93        636
    94         48
    95          3
    96          3
    97         15
    98         56
    99          8
   100          5
   101          1
   102          3
   103         26
   104         40
   105         96
   106         60
   107        153
   108        999
   109         83
   110         33
   111          3
   112          2
   113          1
   115         11
   116        329
   117        140
   118         35
   119         17
   120         27
   121          5
   122          2
   123          6
   124          2
   125          4
   127          1
   128          3
   129          4
   130          4
   131          9
   132          9
   133         21
   134          5
   135          9
   136          2
   137          1
   139          1
   141          1
   144          2
   145          2
   146          7
   147          3
   148         14
   149          7
   150        116
   151         11
   152          6
   153          1
   154          1
   157          1
   160          1
   161         31
   162         31
   163          7
   164          1
   165        109
   166         11
   167          8
   168          2
   169          3
   174          2
   175          2
   177          2
   178          8
   179         24
   180          3
   181          1
   184          2
   185          1
   186          1
   188          1
   189          3
   190         38
   191          7
   192          2
   203          3
   204          4
   205          1
   206          6
   207        300
   208         36
   209         15
   210          2
   224         28
   225          4
   226          1