##TITLE=Library Entry 17277
##JCAMP-DX=Revision 4.10 
##DATA TYPE=MASS SPECTRUM
##SAMPLE DESCRIPTION=LAC, NIDDK, NIH, Bethesda, MD 20892
##NAMES=HP
##CAS NAME=5-O-Methyl-d-gluconic acid dimethylamide
##MOLFORM=C9H19NO6
##CAS REGISTRY NO=13096-67-8
##MP= -300
##BP= -300
##MW= 237
##$RETENTION INDEX=0
##$CONDENSED SPECTRUM=NO
##NPOINTS= 137
##XYDATA=(XY..XY) 1 
    41        124
    42        170
    43        549
    44        263
    45        999
    46         18
    47          9
    49          8
    50          6
    51         12
    52          7
    53         23
    54         20
    55         91
    56         78
    57        160
    58        537
    59        186
    60        184
    61         88
    62          4
    63          6
    64          3
    65          4
    66          2
    67          6
    68         14
    69         67
    70         36
    71         94
    72         37
    73        215
    74        171
    75        984
    76         23
    77         24
    78          1
    79          9
    80          6
    81         10
    82         11
    83         19
    84         18
    85         69
    87        282
    88         24
    89         21
    90          6
    91          9
    92          2
    93          4
    94          1
    95          4
    96          3
    97         10
    98          9
    99         18
   100         26
   101         44
   102         20
   103         17
   105         43
   106          3
   107         16
   108          2
   109          3
   110          9
   111         15
   112          4
   113          5
   114         10
   115         15
   116          1
   117         64
   118         18
   119         16
   120          2
   121          1
   122          1
   123          5
   124          2
   125          4
   126          2
   127          2
   128          0
   129         18
   130          1
   131          6
   132          5
   133         24
   134          1
   135          2
   136          2
   137         10
   138          2
   139          0
   140          0
   142         15
   143          2
   144          1
   145          3
   147         30
   148          4
   149          1
   150          0
   151          1
   152          0
   153          0
   155          5
   156          1
   157          0
   158          0
   159          0
   160          1
   161         38
   162          5
   163          1
   164          1
   165          0
   168          0
   169          0
   171          0
   173          0
   174          5
   175          0
   176          1
   177          0
   178          7
   179          3
   180          1
   181          0
   182          0
   192          0
   193          4
   194          0
   219          4
   237          0