##TITLE=Library Entry 28726
##JCAMP-DX=Revision 4.10 
##DATA TYPE=MASS SPECTRUM
##SAMPLE DESCRIPTION=A.S.Moskovkin,I.M.Karnaukh, Russian Center on Disaster
 Medicine
##NAMES=HP
##CAS NAME=1,8-Dibenzyl-3,6-diazahomoadamantan-9-one
##MOLFORM=C23H26N2O
##CAS REGISTRY NO=130913-38-1
##MP= -300
##BP= -300
##MW= 346
##$RETENTION INDEX=0
##$CONDENSED SPECTRUM=NO
##NPOINTS= 168
##XYDATA=(XY..XY) 1 
    38          6
    39         42
    40         19
    41         84
    42        200
    43         58
    44         39
    45          6
    46          1
    50          7
    51         19
    52          6
    53         15
    54         14
    55         40
    56         38
    57         57
    58        999
    59         43
    60          4
    61          1
    62          2
    63         10
    64          3
    65         41
    66          6
    67         12
    68         15
    69         29
    70         17
    71         16
    72         97
    73          7
    74          2
    75          3
    76          4
    77         29
    78         12
    79          9
    80          8
    81         11
    82         17
    83         49
    84         10
    85         41
    86          3
    87          6
    88          1
    89          9
    90          4
    91        220
    92         21
    93          5
    94          6
    95          8
    96         11
    97          9
    98          4
    99          3
   101          2
   102          7
   103         24
   104         10
   105         10
   106          4
   107          4
   108          5
   109          5
   110          4
   111          4
   112          2
   113          3
   114          2
   115         80
   116         29
   117         61
   118         11
   119          3
   120          2
   121          2
   122          4
   123          3
   124          2
   125          2
   126          1
   127          8
   128         18
   129         34
   130         12
   131         21
   132          4
   133          3
   134          3
   135          3
   136          4
   137          3
   139          2
   141          8
   142          3
   143          8
   144          7
   145          8
   146          3
   149          5
   151          2
   152          3
   153          4
   154          2
   155          5
   156          5
   157          3
   158          7
   159          3
   160          3
   165          3
   166          2
   167          3
   168          3
   169          3
   170          5
   171          5
   172          7
   173          7
   174          5
   181          2
   182          3
   183          4
   184          7
   185          4
   186          3
   187          2
   188          3
   196          4
   197          4
   198          5
   199          2
   200          3
   201          3
   202          3
   211          2
   212         11
   213          4
   214          2
   215          3
   216          1
   225          1
   226          4
   227          4
   228          2
   241          2
   255          7
   256          6
   257          1
   274          2
   290          2
   292          4
   302          3
   303          2
   304          2
   305          1
   318          1
   331          1
   332         12
   333          3
   345          3
   346         77
   347         20
   348          3