##TITLE=Library Entry 7152
##JCAMP-DX=Revision 4.10 
##DATA TYPE=MASS SPECTRUM
##SAMPLE DESCRIPTION=LAC, NIDDK, NIH, Bethesda, MD 20892
##NAMES=HP
##CAS NAME=26-Hydroxycholesterol
##MOLFORM=C27H46O2
##CAS REGISTRY NO=13095-61-9
##MP= -300
##BP= -300
##MW= 402
##$RETENTION INDEX=0
##$CONDENSED SPECTRUM=NO
##NPOINTS= 180
##XYDATA=(XY..XY) 1 
    41        810
    42        202
    43        999
    44         21
    45        136
    51          6
    53        122
    55        843
    57        562
    58         40
    59         45
    60          2
    65         26
    66          7
    67        239
    68         49
    69        514
    70         29
    71         94
    73          7
    77        101
    78         30
    79        345
    80         45
    81        359
    82         31
    83         61
    84          7
    85         45
    91        225
    92         31
    93        147
    94         53
    95        245
    96         33
    97         53
    98          3
    99         29
   103         16
   104         13
   105        284
   106         68
   107        262
   108         52
   109         94
   110         10
   111         17
   113          9
   115         34
   116         15
   117         89
   118         24
   119         97
   120         61
   121         88
   122         28
   123         50
   124         24
   125         27
   126          2
   127         12
   128         13
   129         31
   130         20
   131        100
   132         35
   133        148
   134         47
   135         77
   136         14
   137         11
   138          2
   141         19
   142         17
   143         98
   144         32
   145        116
   146         19
   147         54
   148         20
   149         42
   150          8
   151         18
   152          3
   153          2
   155          6
   156          3
   157         39
   158         42
   159        119
   160         67
   161        102
   162         23
   163         36
   165          5
   167          3
   169         15
   170          3
   171         37
   172         11
   173         28
   174          9
   175         22
   176          9
   177         17
   178         43
   179          9
   183          8
   185         34
   186         19
   187         36
   188          7
   189         16
   197         24
   198          2
   199         25
   200          3
   201         14
   203          4
   205          2
   211          7
   212          3
   213        111
   214         30
   215         27
   216          3
   217          3
   221          3
   222          3
   223          5
   225          2
   227         10
   228         15
   229         17
   230          4
   231         47
   232         14
   233          3
   236          2
   239         12
   240          2
   241         13
   246          4
   247          3
   249          3
   253          2
   255         41
   256         12
   257          7
   263         12
   267          2
   273         35
   274         10
   275          2
   276          2
   277         12
   278          2
   290         15
   291         79
   292         22
   317         53
   318         16
   329          2
   330          3
   342         12
   345          2
   367          6
   369         45
   370         10
   383          9
   384        148
   385         62
   386         10
   387         41
   388          7
   400          6
   401         11
   402        237
   403         64
   404          7