##TITLE=Library Entry 99054
##JCAMP-DX=Revision 4.10 
##DATA TYPE=MASS SPECTRUM
##SAMPLE DESCRIPTION=Chemical Concepts
##NAMES=HP
##CAS NAME=1,7,7-Trimethyl-2-vinylbicyclo[2.2.1]hept-2-ene
##MOLFORM=C12H18
##CAS REGISTRY NO=130930-56-2
##MP= -300
##BP= -300
##MW= 162
##$RETENTION INDEX=0
##$CONDENSED SPECTRUM=NO
##NPOINTS= 116
##XYDATA=(XY..XY) 1 
    25          0
    26          7
    27        164
    28         24
    29        121
    30          2
    32          2
    37          1
    38          7
    39        214
    40         35
    41        490
    42         67
    43        199
    44          6
    45          1
    50         15
    51         75
    52         31
    53        115
    54         14
    55        202
    56         73
    57         82
    58         10
    59          2
    61          0
    62          5
    63         28
    64         18
    65        104
    66         23
    67         77
    68         17
    69        131
    70         59
    71         60
    72          3
    73          1
    74          2
    75          4
    76          4
    77        181
    78         59
    79        168
    80         24
    81         29
    82         18
    83         52
    84          6
    85          8
    86          0
    87          1
    88          0
    89         10
    90          3
    91        552
    92         86
    93        120
    94         23
    95         27
    96          2
    97          3
    98         21
    99          2
   100         13
   101          1
   102          7
   103         46
   104         28
   105        355
   106        119
   107         63
   108         13
   109          7
   110          0
   111          1
   112          0
   113          0
   114          0
   115         48
   116         20
   117         96
   118         50
   119        999
   120        141
   121         28
   122          3
   123          0
   126          0
   127          4
   128         11
   129         11
   130          6
   131         25
   132         16
   133        173
   134        136
   135         19
   136          2
   137          1
   141          1
   142          1
   143          2
   144          0
   145         13
   146          3
   147        429
   148         51
   149          4
   160          0
   161          5
   162        252
   163         35
   164          3
   165          0