##TITLE=Library Entry 81532
##JCAMP-DX=Revision 4.10 
##DATA TYPE=MASS SPECTRUM
##SAMPLE DESCRIPTION=LAC, NIDDK, NIH, Bethesda, MD 20892
##NAMES=HP
##CAS NAME=2,3,6-Tri-O-benzoyl-5-O-methyl-d-glucofuranose
##MOLFORM=C28H26O9
##CAS REGISTRY NO=13096-71-4
##MP= -300
##BP= -300
##MW= 506
##$RETENTION INDEX=0
##$CONDENSED SPECTRUM=NO
##NPOINTS= 105
##XYDATA=(XY..XY) 1 
    41         15
    42          9
    43         22
    44         17
    45         20
    47          7
    48          3
    49         34
    50         53
    51        120
    52         18
    53         12
    54          4
    55         12
    56          3
    57          7
    58         92
    59         24
    60          4
    61          4
    62          2
    63          3
    65          8
    66          4
    67          1
    68          4
    69         15
    70          5
    71         16
    72          1
    73          7
    74         19
    75         12
    76         25
    77        356
    78         32
    79          6
    81          4
    82          2
    83         10
    84         29
    85          5
    86         14
    87          3
    88          2
    91         14
    92          2
    93          0
    94          5
    97          4
    98          8
    99          8
   100          2
   103          1
   105        999
   106         83
   107          6
   110          0
   111        100
   112         10
   113          1
   117          0
   121          2
   122        157
   123         15
   124          3
   126          2
   127         10
   129          1
   131          4
   135          1
   137          5
   140          5
   147          1
   163          1
   175          2
   177          0
   179        442
   180         51
   181          7
   191          2
   202          1
   204          2
   205          8
   206          0
   219          5
   221          0
   227          6
   230          4
   231         12
   232          4
   233          2
   241          0
   244          2
   249          7
   262          2
   279          6
   325          1
   327          0
   339          4
   355          2
   371         17
   372          3
   489          2
   506          0