##TITLE=Library Entry 4102
##JCAMP-DX=Revision 4.10 
##DATA TYPE=MASS SPECTRUM
##SAMPLE DESCRIPTION=Japan AIST/NIMC Database- Spectrum MS-NW- 275
##NAMES=HP
##CAS NAME=Diallyl phthalate
##MOLFORM=C14H14O4
##CAS REGISTRY NO=131-17-9
##MP= -300
##BP= -300
##MW= 246
##$RETENTION INDEX=1712
##$CONDENSED SPECTRUM=NO
##NPOINTS= 83
##XYDATA=(XY..XY) 1 
    15          3
    18          2
    26          2
    27         12
    28          5
    29          5
    31          2
    37          1
    38          5
    39         96
    40          9
    41        999
    42         36
    43         20
    50         30
    51         11
    52          2
    53          2
    54          5
    55          4
    56          4
    57         12
    63          2
    64          2
    65         35
    66          3
    67          1
    68          4
    69          7
    70          5
    74          7
    75          9
    76         63
    77         21
    78          2
    79          2
    80         16
    81          2
    83          9
    91          4
    92          3
    93         28
    94          2
    97          2
    98        145
    99          9
   103          3
   104        104
   105         28
   106          2
   115          9
   116          4
   117          9
   118          3
   121         24
   122          4
   131          2
   132        137
   133         14
   134          2
   144          2
   145          3
   146          4
   147          6
   148          2
   149        536
   150         48
   151          5
   159          2
   160          2
   161          7
   162          7
   172         28
   173          4
   174          3
   184          3
   188         84
   189        243
   190         38
   191          5
   202          5
   216          2
   246          5