##TITLE=Library Entry 1134
##JCAMP-DX=Revision 4.10 
##DATA TYPE=MASS SPECTRUM
##SAMPLE DESCRIPTION=Japan AIST/NIMC Database- Spectrum MS-NW-2556
##NAMES=HP
##CAS NAME=Dipicrylamine
##MOLFORM=C12H5N7O12
##CAS REGISTRY NO=131-73-7
##MP= -300
##BP= -300
##MW= 439
##$RETENTION INDEX=0
##$CONDENSED SPECTRUM=NO
##NPOINTS= 280
##XYDATA=(XY..XY) 1 
    12          4
    14          6
    15          3
    16         23
    26          6
    27         26
    28        123
    29         18
    30        999
    31          8
    32          8
    37         14
    38         38
    39         23
    40          5
    46         62
    47         28
    48          1
    49          5
    50        104
    51         38
    52         47
    53        169
    54         14
    55          9
    56          3
    57          6
    60          3
    61         57
    62        187
    63         67
    64         69
    65         12
    66        141
    67         19
    68         13
    69        538
    70         32
    71          4
    72          2
    73         21
    74        262
    75         99
    76         91
    77        129
    78         62
    79         21
    80        150
    81          9
    82          3
    83          6
    84          5
    85          9
    86         46
    87         60
    88        102
    89         29
    90         30
    91         19
    92         42
    93         28
    94         19
    95          5
    96          8
    97          4
    98         29
    99         57
   100         82
   101         24
   102         19
   103         11
   104         39
   105         15
   106          9
   107          7
   108         12
   109          6
   110         18
   111         27
   112         33
   113         21
   114         14
   115          9
   116         37
   117         10
   118          6
   119          6
   120         55
   121          8
   122         14
   123         25
   124         43
   125         22
   126         13
   127         13
   128          7
   129          6
   130          3
   131          2
   132          4
   133          4
   134          8
   135         12
   136         20
   137         18
   138         25
   139         19
   140         14
   141         33
   142         11
   143          6
   144          5
   145          3
   146          2
   147          4
   148          8
   149         10
   150         16
   151         25
   152         41
   153         29
   154          9
   155          6
   156          8
   157         13
   158          4
   159          3
   160          3
   161          2
   162         21
   163         45
   164         35
   165         19
   166         27
   167         12
   168         14
   169         15
   170          4
   171          4
   172          1
   173          1
   174          2
   175          5
   176         11
   177          6
   178         58
   179         29
   180         17
   181         30
   182          8
   183          6
   184          3
   185          3
   186         12
   187         80
   188         12
   189          5
   190          3
   191          5
   192         20
   193         22
   194         17
   195          7
   196          6
   197         19
   198         22
   199         27
   200          4
   201          3
   202          5
   203         15
   204          2
   205          1
   206          1
   207          3
   208         15
   209         32
   210         20
   211         10
   212         13
   213          8
   214          4
   215         10
   216         11
   217          5
   218          1
   220          1
   221          1
   222          9
   223          3
   224         25
   225         15
   226         12
   227         55
   228         14
   229          9
   230          2
   231          1
   232          6
   233         82
   234         11
   235          5
   236          1
   237          2
   238         11
   239          9
   240          7
   241          5
   242          3
   243         19
   244          5
   245         58
   246          7
   247          1
   248          1
   249         18
   250          2
   251          1
   253          1
   254         21
   255         21
   256          9
   257          6
   258          2
   259          4
   260          4
   261          9
   262          1
   263          1
   264          1
   265          1
   266          1
   267          3
   268          3
   269          2
   270         10
   271         34
   272         15
   273        111
   274         16
   275          4
   283          1
   284          4
   285         22
   286          6
   287          1
   288          1
   289         26
   290          4
   291         54
   292          8
   293          1
   300          1
   301          5
   302          3
   303          2
   306          1
   314          6
   315          2
   316          2
   317          5
   318          2
   319        209
   320         29
   321          5
   330          4
   331          7
   332          1
   333          1
   347          4
   348          1
   360         37
   361          6
   362          1
   363          5
   376          3
   377          1
   423          1
   439         13
   440          2