##TITLE=Library Entry 90634
##JCAMP-DX=Revision 4.10 
##DATA TYPE=MASS SPECTRUM
##SAMPLE DESCRIPTION=D.HENNEBERG, MAX-PLANCK INSTITUTE, MULHEIM, WEST GERMAN
Y
##NAMES=HP
##CAS NAME=Silane, tributylvinyl-
##MOLFORM=C14H30Si
##CAS REGISTRY NO=13107-12-5
##MP= -300
##BP= -300
##MW= 226
##$RETENTION INDEX=0
##$CONDENSED SPECTRUM=NO
##NPOINTS= 126
##XYDATA=(XY..XY) 1 
    26          9
    27          7
    28         11
    29          8
    30          0
    31          2
    32          1
    38          0
    39          4
    41          9
    42          1
    43         10
    44          1
    45         17
    46          1
    47          0
    50          0
    51          0
    52          0
    54          0
    55         16
    56          5
    57        138
    58         19
    59         93
    60          9
    61          2
    65          1
    66          1
    67          2
    68          0
    69          1
    70          9
    71        327
    72         27
    73         22
    74          1
    75          1
    76          4
    78          1
    79          1
    81          2
    82          5
    83         38
    84         30
    85        303
    86         32
    87         25
    88          1
    89          0
    90          0
    91          2
    92          0
    93          1
    95          1
    96          1
    97          7
    98          6
    99          6
   100          2
   101         14
   102          2
   103          0
   105          0
   107          0
   109          3
   110          0
   111         27
   112          9
   113        999
   114        118
   115         39
   116          2
   119          6
   121          2
   123          0
   125          1
   126          0
   127          8
   128          5
   129          2
   131          0
   135          0
   136          0
   139         10
   140          4
   141          7
   142          4
   143         22
   144          3
   145          1
   146          0
   147          3
   148          1
   149          1
   150          0
   151          0
   153          0
   154          0
   156          4
   157          9
   158          1
   163          0
   164          0
   167          1
   168          1
   169        859
   170        139
   171         41
   172          4
   173          1
   174          1
   176          1
   177          1
   178          0
   179          0
   184          1
   185          1
   196          0
   199         65
   200         13
   201          2
   202          0
   226         28
   227          5
   228          1