##TITLE=Library Entry 74222
##JCAMP-DX=Revision 4.10 
##DATA TYPE=MASS SPECTRUM
##SAMPLE DESCRIPTION=Chemical Concepts
##NAMES=HP
##CAS NAME=Malonic acid, 2-hydroxyethyl ester, methyl ester
##MOLFORM=C6H10O5
##CAS REGISTRY NO=131072-41-8
##MP= -300
##BP= -300
##MW= 162
##$RETENTION INDEX=0
##$CONDENSED SPECTRUM=NO
##NPOINTS= 138
##XYDATA=(XY..XY) 1 
    20          5
    21          7
    22          5
    23          3
    24          4
    25          3
    26         10
    27         38
    28         39
    29        102
    30         11
    31         32
    32         12
    33          9
    34          2
    35          3
    36          6
    37          2
    38          4
    39          5
    40          3
    41         29
    42        224
    43        119
    44         23
    45         73
    46          5
    47          5
    48          2
    49          1
    50          1
    51          2
    52          2
    53          3
    54          4
    55         21
    56         11
    57        181
    58         12
    59        355
    60         16
    61          8
    62          2
    63         18
    64          3
    65          3
    66          2
    67          5
    68          6
    69         95
    70          9
    71         22
    72         14
    73         11
    74         73
    75          4
    76          2
    77          4
    78          3
    79         11
    80          3
    81          8
    82          5
    83         10
    84          5
    85         10
    86         30
    87         17
    88          4
    89          4
    90          1
    91          5
    92          4
    93          3
    94          2
    95          6
    96          4
    97         11
    98          5
    99          5
   100         24
   101        999
   102         49
   103         58
   104         20
   105          4
   106          1
   107          2
   108          1
   109          4
   110          3
   111          6
   112          4
   113        283
   114         17
   115          5
   116          1
   117          1
   118          1
   119        274
   120         14
   121          5
   122          4
   123          3
   124          2
   125          3
   126          3
   127          5
   128          4
   129          5
   130          1
   131         28
   132        150
   133         13
   134          2
   135          2
   136          1
   137          2
   138          1
   139          2
   140          1
   141          4
   142          1
   143          2
   144         13
   145         93
   146          7
   147          2
   148          1
   156          1
   157          1
   158          1
   159          2
   160          2
   161          3
   162          1
   163          3
   164          1