##TITLE=Library Entry 39174
##JCAMP-DX=Revision 4.10 
##DATA TYPE=MASS SPECTRUM
##SAMPLE DESCRIPTION=Philip Morris R&D
##NAMES=HP
##CAS NAME=Butanoic acid, 1,7,7-trimethylbicyclo[2.2.1]hept-2-yl ester, endo
-
##MOLFORM=C14H24O2
##CAS REGISTRY NO=13109-70-1
##MP= -300
##BP= -300
##MW= 224
##$RETENTION INDEX=1451
##$CONDENSED SPECTRUM=NO
##NPOINTS= 96
##XYDATA=(XY..XY) 1 
    36          0
    38          1
    39         51
    40         15
    41        247
    42         31
    43        666
    44         26
    45          8
    46          1
    47          2
    48          1
    50          2
    51          8
    52          5
    53         32
    54          5
    55        112
    56          7
    57         40
    58          4
    59         11
    60          4
    61          1
    63          1
    64          0
    65         16
    66          6
    67        111
    68         26
    69        161
    70         21
    71        999
    72         75
    73          6
    77         31
    78          6
    79         62
    80        126
    81        142
    82         99
    83         84
    84         26
    85          5
    86          1
    87          1
    88          0
    89          4
    91         40
    92        140
    93        434
    94         81
    95        899
    96         70
    97         24
    98          9
    99          6
   100          1
   103          1
   105         18
   106          6
   107        101
   108        294
   109        313
   110        268
   111         72
   112          5
   113          5
   114          5
   115          5
   119          6
   120          1
   121        431
   122         37
   123         18
   124          3
   125          6
   126          2
   133          0
   135         30
   136        754
   137        148
   138         10
   139         25
   140          3
   141          1
   142          2
   152          8
   153         26
   154        144
   155         17
   156          0
   181          4
   191          0
   209          3
   224         30