##TITLE=Library Entry 28453
##JCAMP-DX=Revision 4.10 
##DATA TYPE=MASS SPECTRUM
##SAMPLE DESCRIPTION=M. RYSKA, MS LAB., PHARM. BIOCHEM. RES. INST., PRAGUE,
 CZECH.
##NAMES=HP
##CAS NAME=Ethylamine, N,N-dimethyl-2-[4-(chloromethyl)phenoxy]-
##MOLFORM=C11H16ClNO
##CAS REGISTRY NO=131028-55-2
##MP= -300
##BP= -300
##MW= 213
##$RETENTION INDEX=0
##$CONDENSED SPECTRUM=NO
##NPOINTS= 24
##XYDATA=(XY..XY) 1 
    35         16
    39         12
    41         23
    42         97
    43         51
    44         34
    51         22
    52         13
    55         22
    56         37
    57         82
    58        999
    59         35
    63         13
    69         13
    70         23
    71         40
    72        158
    73         12
    77         29
    78         20
    89         28
    90         20
   213         15