##TITLE=Library Entry 65641
##JCAMP-DX=Revision 4.10 
##DATA TYPE=MASS SPECTRUM
##SAMPLE DESCRIPTION=Japan AIST/NIMC Database- Spectrum MS-IW-1156
##NAMES=HP
##CAS NAME=3-(4-Biphenylyl)-1,5-diphenylformazan
##MOLFORM=C25H20N4
##CAS REGISTRY NO=131189-78-1
##MP= -300
##BP= -300
##MW= 376
##$RETENTION INDEX=0
##$CONDENSED SPECTRUM=NO
##NPOINTS= 287
##XYDATA=(XY..XY) 1 
    26          1
    27          6
    28         34
    29          1
    36          1
    37          2
    38          8
    39         43
    40          6
    41         13
    42          2
    43          5
    44          3
    45          1
    46          4
    49          1
    50         17
    51         47
    52         18
    53          2
    54          3
    55          4
    56          1
    57          7
    61          2
    62          8
    63         31
    64         60
    65        260
    66         53
    67          6
    68          1
    69          4
    70          2
    71          4
    73          1
    74         10
    75         17
    76         35
    77        116
    78         44
    79          6
    80          1
    81          3
    82          2
    83          4
    84          1
    85          4
    86          3
    87          5
    88          4
    89         10
    90          7
    91        243
    92        999
    93        177
    94         10
    95          3
    96          2
    97          4
    98          2
    99          4
   100          5
   101          9
   102          9
   103          4
   104          5
   105         27
   106          6
   107          3
   108          2
   109          2
   110          1
   111          2
   112          2
   113          9
   114          6
   115         18
   116          3
   117          1
   118          4
   119          3
   120          3
   121          3
   122          2
   123          2
   124          2
   125          7
   126         13
   127         20
   128          9
   129          2
   130          1
   133          1
   134          2
   135         11
   136          2
   137          2
   138          2
   139          9
   140         13
   141          9
   142          4
   143          2
   144          1
   149          6
   150         19
   151         72
   152        120
   153         73
   154         28
   155          8
   156          2
   157          1
   162          1
   163          4
   164          8
   165         17
   166         15
   167         47
   168         48
   169         39
   170         10
   171          2
   173          2
   174          4
   175          2
   176          7
   177         30
   178         75
   179        255
   180         69
   181        116
   182         18
   183          6
   184          4
   185          3
   186          2
   187          2
   188         10
   189          4
   190          5
   191          4
   192          3
   193          8
   194          6
   195          5
   196          6
   197          9
   198         28
   199          5
   200          2
   201          2
   202          6
   203          4
   204          2
   205          1
   206          1
   207          1
   211          1
   212          2
   213          3
   214          2
   215          6
   216          3
   217          3
   218          1
   219          1
   223          1
   224          4
   225          3
   226          9
   227          7
   228         12
   229          9
   230         12
   231          9
   232          2
   237          2
   238          1
   239         12
   240          8
   241         24
   242         22
   243         19
   244         16
   245         22
   246          7
   247          2
   250          1
   251          2
   252          6
   253          6
   254         15
   255         22
   256         67
   257         37
   258         38
   259          9
   260          3
   261          2
   262          1
   263          1
   264          1
   265          1
   266          2
   267          3
   268          6
   269         38
   270        245
   271        629
   272        150
   273         20
   274          4
   275          1
   276          1
   278          3
   279          1
   280          1
   281          1
   282          4
   283          4
   284          3
   285          2
   286          1
   287         12
   288          5
   289          2
   290          1
   291          1
   296          1
   297          2
   298          1
   299         22
   300          7
   301          1
   302          2
   303          1
   304          1
   305          1
   306          5
   307          4
   308          1
   313          1
   314          1
   315          2
   316          1
   317          3
   318          3
   319          2
   320          2
   321          5
   322          3
   326          1
   327          1
   328          2
   329          2
   330          5
   331          4
   332         10
   333          8
   334          4
   335          2
   336          2
   337          1
   343          2
   344          3
   345          9
   346         23
   347         20
   348         51
   349         15
   350          3
   351          1
   357          1
   358          2
   359          1
   360          3
   361          4
   362          3
   372          1
   373          1
   374          1
   375          3
   376        107
   377         30
   378          5