##TITLE=Library Entry 86213
##JCAMP-DX=Revision 4.10 
##DATA TYPE=MASS SPECTRUM
##SAMPLE DESCRIPTION=NIST Mass Spectrometry Data Center, 1998.
##NAMES=HP
##CAS NAME=1-Propene, 1,2,3-trichloro-, (Z)-
##MOLFORM=C3H3Cl3
##CAS REGISTRY NO=13116-57-9
##MP= -300
##BP= -300
##MW= 144
##$RETENTION INDEX=853
##$CONDENSED SPECTRUM=NO
##NPOINTS= 62
##XYDATA=(XY..XY) 1 
    12          1
    13          1
    14          1
    24          2
    25          7
    26         10
    27          3
    35         38
    36         35
    37        118
    38        125
    39        144
    40          5
    47         45
    48         28
    49        103
    50         10
    51         29
    53          3
    54          7
    55          4
    59          4
    60         25
    61         19
    62          9
    63          6
    70          1
    71         12
    72         34
    73        249
    74         37
    75         81
    76          8
    82          4
    83        245
    84          5
    85        158
    86          2
    87         25
    94          3
    95         15
    96          2
    97         10
    98          1
    99          2
   106          1
   107         18
   108          7
   109        999
   110         36
   111        633
   112         21
   113        102
   114          4
   143          5
   144        205
   145         12
   146        194
   147          9
   148         62
   149          2
   150          7