##TITLE=Library Entry 97063
##JCAMP-DX=Revision 4.10 
##DATA TYPE=MASS SPECTRUM
##SAMPLE DESCRIPTION=STER PREG TMSI L SE30 01 2839 E, M.HORN
##NAMES=HP
##CAS NAME=Pregn-5-ene-3,20-diol, (3.beta.,20S)-, 2TMS derivative
##MOLFORM=C27H50O2Si2
##CAS REGISTRY NO=13110-77-5
##MP= -300
##BP= -300
##MW= 462
##$RETENTION INDEX=2843
##$CONDENSED SPECTRUM=NO
##NPOINTS= 134
##XYDATA=(XY..XY) 1 
    41         15
    43         10
    44          5
    45         15
    47          5
    53          5
    55         35
    57          5
    59         10
    60          5
    61         10
    67         25
    68          5
    69         10
    72          5
    73        370
    74         30
    75        165
    76         15
    77         20
    78          5
    79         30
    80          5
    81         40
    82          5
    83          5
    85          5
    87          5
    89          5
    91         30
    92          5
    93         35
    94         10
    95         25
   101         10
   103         15
   104          5
   105         35
   106         10
   107         30
   108          5
   109         10
   111          5
   115          5
   116         10
   117        999
   118        115
   119         85
   120         25
   121         25
   122          5
   123          5
   128          5
   129        135
   130         25
   131         25
   132          5
   133         25
   134          5
   135         10
   141          5
   142          5
   143         30
   144         10
   145         25
   146          5
   147         15
   148          5
   149          5
   155         10
   156          5
   157         10
   158          5
   159         20
   160          5
   161         15
   162          5
   169          5
   171          5
   172          5
   173         10
   174          5
   175          5
   183          5
   185          5
   187          5
   189          5
   197          5
   199          5
   201          5
   207          5
   211          5
   213          5
   214          5
   215          5
   227          5
   239          1
   240          1
   241          2
   242          1
   243         15
   244          2
   253          3
   254          1
   255          2
   256          3
   257          0
   267         15
   268          2
   281          2
   282         15
   283          5
   284          0
   315          0
   330          1
   331          1
   332          7
   333          5
   334          1
   344          1
   346          2
   357          6
   358          2
   359          0
   371          0
   372         25
   373          7
   374          2
   447          5
   448          1
   449          0
   462         15
   463          5
   464          2