##TITLE=Library Entry 42282
##JCAMP-DX=Revision 4.10 
##DATA TYPE=MASS SPECTRUM
##SAMPLE DESCRIPTION=CHARLES C.SWEELEY,MICHIGAN STATE UNIV.EAST LANSING,MICH
##NAMES=HP
##CAS NAME=Androst-5-ene-3.beta.,17.beta.-diol, 2TMS derivative
##MOLFORM=C25H46O2Si2
##CAS REGISTRY NO=13110-76-4
##MP= -300
##BP= -300
##MW= 434
##$RETENTION INDEX=2634
##$CONDENSED SPECTRUM=NO
##NPOINTS= 246
##XYDATA=(XY..XY) 1 
    41         90
    42          5
    43         46
    44         12
    45         80
    46          5
    47         24
    52          3
    53         22
    54          6
    55        119
    56          6
    57         12
    58          5
    59         53
    60         12
    61         42
    62          3
    63          4
    65         11
    66          6
    67        106
    68          9
    69         29
    71          7
    72         17
    73        999
    74         96
    75        555
    76         38
    77         60
    78         10
    79        129
    80         15
    81        176
    82         14
    83         18
    85         10
    86          3
    87          6
    88          5
    89         24
    90          5
    91        161
    92         32
    93        166
    94         30
    95        118
    96          8
    97          5
    99         12
   101         56
   102          8
   103         35
   104         16
   105        186
   106         44
   107        179
   108         39
   109         61
   110          6
   111          5
   113          8
   114          5
   115         83
   116         36
   117         78
   118         30
   119        255
   120         75
   121        102
   122         16
   123          9
   127          9
   128         21
   129        663
   130        130
   131        156
   132         46
   133        129
   134         33
   135         36
   136          7
   139          4
   140          4
   141         19
   142         21
   143        141
   144         48
   145        179
   146         46
   147         76
   148         21
   149         16
   150          5
   151          4
   152          4
   153          8
   154          7
   155         45
   156         26
   157         80
   158        113
   159        139
   160         46
   161         74
   162         13
   163          6
   164          3
   165          5
   166          4
   167         10
   168         13
   169         53
   170         20
   171         62
   172         38
   173         66
   174         24
   175          9
   176          3
   177          5
   179          5
   180          5
   181         20
   182         23
   183         46
   184         18
   185         53
   186         26
   187         48
   188         15
   189         28
   190          4
   192          3
   193          4
   194          4
   195         22
   196         21
   197         55
   198         24
   199        117
   200         39
   201         13
   202         16
   203          5
   204          3
   206          3
   207          4
   208          5
   209          8
   210          7
   211         46
   212         46
   213        275
   214         72
   215        418
   216         79
   217          9
   218          4
   219          3
   220          3
   221          6
   222          7
   223         17
   224         10
   225         31
   226         41
   227         19
   228         33
   229         10
   231          4
   233          7
   234          3
   235          6
   236         10
   237          7
   238         13
   239        391
   240         79
   241         14
   242          3
   246          3
   247          4
   248          9
   249          4
   250         30
   251         31
   252         11
   253        252
   254        307
   255         81
   256         11
   257          4
   259          3
   261          4
   272          3
   273          7
   274          4
   275          6
   276          4
   277          8
   287          7
   288          7
   289         11
   290          7
   291          3
   300          4
   301          6
   302         13
   303         39
   304         70
   305        249
   306         72
   307         19
   308          3
   314          6
   315         10
   316         15
   317          6
   318          8
   319          3
   327          4
   328         18
   329        226
   330         64
   331         17
   332          3
   342          9
   343         18
   344        395
   345        118
   346         32
   347          7
   417          3
   418          4
   419         81
   420         33
   421         11
   422          4
   432          4
   433          9
   434        170
   435         68
   436         28
   437          6