##TITLE=Library Entry 114265
##JCAMP-DX=Revision 4.10 
##DATA TYPE=MASS SPECTRUM
##SAMPLE DESCRIPTION=STER ANDR TMSI SE30 01 2590 E M.HORN
##NAMES=HP
##CAS NAME=Androst-5-ene-3,17-diol, (3.beta.,17.alpha.)-, 2TMS derivative
##MOLFORM=C25H46O2Si2
##CAS REGISTRY NO=13111-27-8
##MP= -300
##BP= -300
##MW= 434
##$RETENTION INDEX=2596
##$CONDENSED SPECTRUM=NO
##NPOINTS= 92
##XYDATA=(XY..XY) 1 
    67         30
    69         20
    73        190
    74         20
    75        170
    79         20
    81        100
    83         20
    91         40
    93         60
    94         20
    95         80
   105         70
   106         40
   107        180
   108         50
   109         70
   115         40
   116         20
   117         30
   118         20
   119        280
   120         80
   121        110
   122         20
   129        999
   130        170
   131        150
   132         50
   133        120
   134         40
   135         40
   143        160
   144         50
   145        200
   146         60
   147         90
   148         40
   149         20
   155         60
   156         20
   157         70
   158        160
   159        150
   160         60
   161        110
   162         20
   169         50
   170         20
   171         60
   172         50
   173         80
   174         20
   183         40
   184         20
   185         50
   186         30
   187         50
   189         30
   195         20
   196         20
   197         70
   198         20
   199        160
   200         50
   211         60
   212         70
   213        400
   214        100
   215        720
   216        140
   225         30
   226         60
   228         40
   239        530
   240        120
   252         40
   253         90
   254        490
   255        120
   303         30
   304         90
   305        230
   306         60
   329        210
   330         70
   344        350
   345        120
   346         30
   419         20
   434        110
   435         40