##TITLE=Library Entry 7787
##JCAMP-DX=Revision 4.10 
##DATA TYPE=MASS SPECTRUM
##SAMPLE DESCRIPTION=Exported from NIST MS Search
##NAMES=HP
##CAS NAME=Pentanal, dipropyl acetal
##MOLFORM=C11H24O2
##CAS REGISTRY NO=13112-64-6
##MP= -300
##BP= -300
##MW= 188
##$RETENTION INDEX=0
##$CONDENSED SPECTRUM=NO
##NPOINTS= 31
##XYDATA=(XY..XY) 1 
    27        172
    28         11
    29        160
    30         13
    31        269
    41        401
    42        115
    43        999
    44        107
    45         59
    47         75
    55         35
    56          5
    57        663
    58         73
    59         50
    60         35
    69        430
    70         29
    71         39
    85         11
    86         34
    87        397
    88         23
    89        419
    99         88
   100          8
   103         16
   128         59
   129        392
   131        392