##TITLE=Library Entry 81881
##JCAMP-DX=Revision 4.10 
##DATA TYPE=MASS SPECTRUM
##SAMPLE DESCRIPTION=Chemical Concepts
##NAMES=HP
##CAS NAME=2-Benzoylamino-2-methyl-4-(phenylselenyl)butyric acid, methyl est
er
##MOLFORM=C19H21NO3Se
##CAS REGISTRY NO=131148-58-8
##MP= -300
##BP= -300
##MW= 391
##$RETENTION INDEX=0
##$CONDENSED SPECTRUM=NO
##NPOINTS= 66
##XYDATA=(XY..XY) 1 
    26          3
    27         27
    28         12
    29          6
    30         18
    39         27
    40          3
    41         18
    42        125
    43         13
    44          4
    45          7
    50         31
    51        128
    52          9
    53         17
    54         10
    55         12
    59         13
    65         11
    70         80
    71          7
    74          5
    75          9
    76         19
    77        447
    78         59
    79          6
    81          5
    85          5
    91         30
    93          5
    99          8
   100          9
   102        101
   103          7
   104         32
   105        999
   106         88
   113         26
   117          2
   122         18
   153          9
   154          8
   155         32
   156          4
   157         59
   158          7
   159          8
   174        122
   175         49
   176          3
   182          6
   184         10
   207         15
   234        623
   235         88
   236          7
   387          2
   388          2
   389          4
   390          1
   391         11
   392          2
   393          2
   394          0