##TITLE=Library Entry 41405
##JCAMP-DX=Revision 4.10 
##DATA TYPE=MASS SPECTRUM
##SAMPLE DESCRIPTION=Philip J. Marriott, Australian Centre for Research on S
eparation Science, Melbourne, Australia
##NAMES=HP
##CAS NAME=16-Hydroxydehydroandrosterone, (3.beta.,16.alpha.)-, 2TMS derivat
ive
##MOLFORM=C25H44O3Si2
##CAS REGISTRY NO=13111-28-9
##MP= -300
##BP= -300
##MW= 448
##$RETENTION INDEX=0
##$CONDENSED SPECTRUM=NO
##NPOINTS= 243
##XYDATA=(XY..XY) 1 
    45        191
    46         12
    47         68
    48          3
    49          3
    50          7
    51         20
    52          6
    53         43
    54          5
    55        117
    56          8
    57         18
    58         17
    59        139
    60         19
    61         62
    62          7
    63         12
    64          4
    65         32
    66          8
    67         79
    68          6
    69         28
    70          6
    71         15
    72         21
    73        999
    74         98
    75        586
    76         49
    77        129
    78         27
    79        176
    80         21
    81        217
    82         20
    83         16
    84          2
    85         15
    86          4
    87          9
    88          3
    89         24
    90          4
    91        236
    92         40
    93        122
    94         89
    95         84
    96         10
    97          8
    98          2
    99         16
   100          3
   101        229
   102         26
   103         51
   104         16
   105        203
   106         45
   107         88
   108         59
   109         44
   110          6
   111          6
   112          1
   113         11
   114          2
   115         64
   116        100
   117        289
   118         74
   119        158
   120         86
   121         57
   122         15
   123          5
   124          1
   125          3
   126          2
   127         15
   128         49
   129        467
   130         92
   131        157
   132         43
   133         62
   134         56
   135         13
   136          2
   137          3
   138          1
   139          4
   140          1
   141         34
   142         31
   143        124
   144         43
   145         91
   146         33
   147         30
   148          6
   149          6
   150          2
   151          6
   152          6
   153         11
   154          7
   155         35
   156         21
   157         89
   158         67
   159         99
   160         23
   161          7
   162          2
   163          3
   164          2
   165          9
   166          5
   167         12
   168         55
   169         57
   170         15
   171         47
   172         43
   173         78
   174         35
   175        159
   176         23
   177          3
   178          2
   179          7
   180          4
   181         23
   182         13
   183         18
   184          6
   185         25
   186         19
   187          6
   188         14
   189          3
   190          1
   191          2
   192          1
   193          4
   194          6
   195         20
   196        151
   197         46
   198         13
   199        191
   200         44
   201          9
   202          1
   203          1
   204          1
   205          2
   206          1
   207          3
   208          3
   209          9
   210          5
   211          7
   212          4
   213         19
   214        338
   215         69
   216          8
   217          1
   219          2
   220          1
   221          3
   222          2
   223          5
   224          2
   225          7
   226          2
   227          2
   229          2
   230          1
   231          1
   233          3
   234          1
   235          3
   236          3
   237          2
   238          1
   239          8
   240         11
   241          3
   242          1
   243          1
   245          1
   247          2
   248          2
   249          3
   250          2
   251         21
   252          5
   253          3
   254          1
   257          1
   259          1
   261          1
   267          1
   268          3
   269          1
   271          1
   272          1
   273          1
   275          2
   276          1
   289          8
   290          3
   301          1
   302         10
   303          6
   304        108
   305         32
   306          9
   307          2
   315          2
   329          1
   330         13
   331          4
   332          1
   341          1
   343         18
   344          6
   345          1
   358          3
   359          1
   433          8
   434          5
   435          2
   447          1
   448          9
   449          5
   450          2