##TITLE=Library Entry 65955
##JCAMP-DX=Revision 4.10 
##DATA TYPE=MASS SPECTRUM
##SAMPLE DESCRIPTION=Japan AIST/NIMC Database- Spectrum MS-NW-6783
##NAMES=HP
##CAS NAME=2-Pyridineacetic acid
##MOLFORM=C7H7NO2
##CAS REGISTRY NO=13115-43-0
##MP= -300
##BP= -300
##MW= 137
##$RETENTION INDEX=0
##$CONDENSED SPECTRUM=NO
##NPOINTS= 54
##XYDATA=(XY..XY) 1 
    12          2
    14          1
    15          4
    16          8
    17          1
    18          3
    25          2
    26         21
    27         29
    28         12
    39        158
    40         49
    41         26
    42         13
    43          2
    44        238
    45         19
    46         13
    47          2
    48          1
    49          8
    50         49
    51         92
    52         56
    53         38
    54         15
    55          2
    60          4
    61         11
    62         20
    63         49
    64         42
    65        206
    66        278
    67         65
    68          3
    75          3
    76          4
    77          2
    78        110
    79          8
    80          3
    87          1
    88          2
    90          3
    91         23
    92        217
    93        999
    94         74
    95          3
   119          4
   120          5
   137         21
   138          2