##TITLE=Library Entry 86218
##JCAMP-DX=Revision 4.10 
##DATA TYPE=MASS SPECTRUM
##SAMPLE DESCRIPTION=NIST Mass Spectrometry Data Center, 1998.
##NAMES=HP
##CAS NAME=1-Propene, 1,2,3-trichloro-, (E)-
##MOLFORM=C3H3Cl3
##CAS REGISTRY NO=13116-58-0
##MP= -300
##BP= -300
##MW= 144
##$RETENTION INDEX=895
##$CONDENSED SPECTRUM=NO
##NPOINTS= 56
##XYDATA=(XY..XY) 1 
    24          1
    25          7
    26          9
    27          2
    35         43
    36         33
    37        110
    38        113
    39        124
    40          4
    47         44
    48         26
    49        105
    50          8
    51         29
    53          2
    54          6
    55          5
    59          4
    60         26
    61         19
    62          7
    63          6
    70          4
    71         12
    72         34
    73        206
    74         34
    75         68
    76          7
    82          4
    83        231
    84          5
    85        152
    86          2
    87         24
    94          1
    95         16
    96          3
    97          9
    99          1
   107         19
   109        999
   110         35
   111        645
   112         21
   113        102
   114          4
   143          6
   144        191
   145         10
   146        185
   147          6
   148         58
   149          2
   150          5