##TITLE=Library Entry 99861
##JCAMP-DX=Revision 4.10 
##DATA TYPE=MASS SPECTRUM
##SAMPLE DESCRIPTION=A.A.Kutin, Moscow, Russia
##NAMES=HP
##CAS NAME=1-Benzothiazol-2-yl-3-(4-methyl-benzoyl)-thiourea
##MOLFORM=C16H13N3OS2
##CAS REGISTRY NO=131120-12-2
##MP= -300
##BP= -300
##MW= 327
##$RETENTION INDEX=0
##$CONDENSED SPECTRUM=NO
##NPOINTS= 158
##XYDATA=(XY..XY) 1 
    37          1
    38          5
    39         26
    40          4
    41          6
    42          4
    43          7
    44         12
    45         13
    46          0
    50         19
    51         18
    52          5
    53          5
    54          1
    55          1
    57          7
    58         13
    59         15
    60          7
    61          6
    63         65
    64         27
    65        128
    66          5
    68          3
    69         26
    70         39
    71          5
    72          1
    73          2
    74          7
    75          9
    76         12
    77         12
    78         26
    79          5
    80          3
    81          9
    82         24
    84         17
    86         20
    87          7
    89         91
    91        667
    92         45
    93          9
    94          8
    95         23
    96         23
    97          5
    98          0
   102          8
   104         16
   105         75
   106         15
   107         19
   108        100
   109         11
   110          4
   111          1
   112          0
   114          3
   115          2
   116         17
   119        999
   120         80
   122         93
   123         20
   124          6
   125          1
   128          1
   130          0
   131          0
   132          0
   133         13
   134         48
   135         26
   136          4
   138          0
   139          4
   140          4
   141          1
   143          2
   144          0
   145          0
   146          2
   148         51
   149        262
   150        298
   151         36
   152         17
   154         37
   155          2
   156          3
   159          0
   160          9
   161          4
   162          1
   164          0
   165          8
   166         26
   167          7
   168          5
   169          0
   171          1
   173          0
   175         54
   176        108
   177         17
   178         17
   179          1
   180          3
   181         14
   182          2
   183          0
   187          0
   188          0
   189          1
   190          7
   192        255
   193         56
   194         29
   195          4
   196          1
   202          0
   203          0
   204          3
   206          2
   208        135
   209         16
   210         11
   211          1
   212          0
   220          0
   229          0
   230          3
   234          1
   239          2
   240          8
   241          1
   256          0
   267          2
   268          5
   269          1
   276          1
   283          0
   284          0
   285          3
   286          0
   294          2
   295          0
   299          0
   327        359
   328         63
   329         32
   330          5
   331          0