##TITLE=Library Entry 25613
##JCAMP-DX=Revision 4.10 
##DATA TYPE=MASS SPECTRUM
##SAMPLE DESCRIPTION=James Little,Eastman Chem.Co.,Kingsport,TN
##NAMES=HP
##CAS NAME=1,1-Dibutoxy-isobutane
##MOLFORM=C12H26O2
##CAS REGISTRY NO=13112-62-4
##MP= -300
##BP= -300
##MW= 202
##$RETENTION INDEX=0
##$CONDENSED SPECTRUM=NO
##NPOINTS= 10
##XYDATA=(XY..XY) 1 
    29        280
    41        353
    43        117
    55        108
    56         71
    57        999
    73        502
   103        146
   129        189
   159         89