##TITLE=Library Entry 70007
##JCAMP-DX=Revision 4.10 
##DATA TYPE=MASS SPECTRUM
##SAMPLE DESCRIPTION=Exported from NIST MS Search
##NAMES=HP
##CAS NAME=Propane, 1,1,2,2-tetrachloro-
##MOLFORM=C3H4Cl4
##CAS REGISTRY NO=13116-60-4
##MP= -300
##BP= -300
##MW= 180
##$RETENTION INDEX=1025
##$CONDENSED SPECTRUM=NO
##NPOINTS= 114
##XYDATA=(XY..XY) 1 
    12          2
    13          2
    14          5
    15          8
    17          1
    18          3
    19          1
    24          1
    25          7
    26         26
    27        103
    28         12
    29          7
    30          1
    31          1
    32          2
    35         18
    36         19
    37         58
    38         70
    39        169
    40         11
    41         13
    42         12
    43          9
    44          5
    45         46
    46          1
    47         36
    48         25
    49        218
    50         11
    51         68
    52          1
    53          2
    54          3
    55          8
    56          2
    57          2
    59          3
    60         26
    61        235
    62        168
    63        426
    64         61
    65         11
    66          4
    67          1
    69          1
    70          1
    71          4
    72         14
    73         67
    74          9
    75        175
    76         11
    77        109
    78          5
    79         20
    80          1
    81          1
    82          7
    83        210
    84          7
    85        137
    86          2
    87         23
    88          1
    89          1
    90          1
    91          5
    92          1
    93          4
    94          5
    95         93
    96         82
    97        999
    98         69
    99        332
   100         21
   101         96
   102          2
   107          5
   108          1
   109        194
   110         48
   111        140
   112         31
   113         31
   114          5
   115          2
   143          3
   144         70
   145        280
   146         81
   147        302
   148         33
   149         86
   150          6
   151          9
   165          9
   166          1
   167         11
   168          1
   169          6
   170          1
   171          1
   179          1
   180          2
   181          1
   182          2
   183          1
   184          1
   186          1