##TITLE=Library Entry 47237
##JCAMP-DX=Revision 4.10 
##DATA TYPE=MASS SPECTRUM
##SAMPLE DESCRIPTION=Japan AIST/NIMC Database- Spectrum MS-NW-4081
##NAMES=HP
##CAS NAME=4-Nitrodiazoaminobenzene
##MOLFORM=C12H10N4O2
##CAS REGISTRY NO=13113-75-2
##MP= -300
##BP= -300
##MW= 242
##$RETENTION INDEX=0
##$CONDENSED SPECTRUM=NO
##NPOINTS= 110
##XYDATA=(XY..XY) 1 
    14          2
    15          1
    16          1
    26          6
    27         17
    28         47
    29          3
    30         59
    32          1
    36          1
    37         13
    38         38
    39         80
    40         10
    41         13
    42          3
    43          1
    44          1
    46          3
    49          4
    50        117
    51        180
    52         40
    53         14
    54          5
    55          1
    56          2
    57          1
    60          1
    61          8
    62         19
    63         68
    64         80
    65        139
    66         21
    67          3
    73          3
    74         28
    75        132
    76        127
    77        999
    78         84
    79          7
    80         15
    81          2
    83          2
    86          1
    87          2
    88          2
    89          3
    90          9
    91         24
    92        155
    93         53
    94          5
   102          1
   103          1
   104          2
   105        243
   106         31
   107          3
   108         44
   109          4
   110          1
   113          1
   114          1
   115          6
   116          2
   117          1
   120          2
   121          3
   122        253
   123         18
   124          2
   127          2
   128          4
   129          3
   130          1
   134          1
   138         46
   139         11
   140          7
   141          5
   142          1
   150        162
   151         12
   152          2
   153          1
   154          4
   155          1
   156          1
   164          1
   165          3
   166         20
   167         37
   168         12
   169          5
   182          2
   183          1
   184         11
   185          2
   195          1
   196          1
   198          1
   212          2
   214         21
   215          3
   240          3
   242         34
   243          5