##TITLE=Library Entry 23734
##JCAMP-DX=Revision 4.10 
##DATA TYPE=MASS SPECTRUM
##SAMPLE DESCRIPTION=V.G. Zaikin, TIPS RAS, Moscow, Russia
##NAMES=HP
##CAS NAME=2,2-Dimethylpropionic acid, dodecyl ester
##MOLFORM=C17H34O2
##CAS REGISTRY NO=131141-69-0
##MP= -300
##BP= -300
##MW= 270
##$RETENTION INDEX=0
##$CONDENSED SPECTRUM=NO
##NPOINTS= 60
##XYDATA=(XY..XY) 1 
    26          8
    27         89
    28         29
    29        195
    30          6
    36          8
    38          8
    39        126
    40         17
    41        441
    42         79
    43        299
    44         25
    45          5
    49          6
    50          6
    51         17
    52         23
    53         15
    54         31
    55        208
    56        161
    57        999
    58         41
    59         22
    65          6
    66          3
    67         19
    68         29
    69         96
    70         69
    71         98
    79          9
    81          7
    82         17
    83         78
    84         27
    85        119
    86          6
    87         17
    95         11
    96         13
    97         48
    98         13
    99          8
   103        351
   104         19
   105          3
   110          3
   111         18
   112         16
   113          8
   115          3
   125          6
   126         16
   139          6
   140         18
   168         47
   169          8
   213          3