##TITLE=Library Entry 99243
##JCAMP-DX=Revision 4.10 
##DATA TYPE=MASS SPECTRUM
##SAMPLE DESCRIPTION=A.A.Kutin, Moscow, Russia
##NAMES=HP
##CAS NAME=3,4-Bis[(4-methylphenyl)thio]cyclobut-3-ene-1,2-dione
##MOLFORM=C18H14O2S2
##CAS REGISTRY NO=131244-94-5
##MP= -300
##BP= -300
##MW= 326
##$RETENTION INDEX=0
##$CONDENSED SPECTRUM=NO
##NPOINTS= 216
##XYDATA=(XY..XY) 1 
    33         11
    34          7
    36          5
    37         12
    38         57
    39        562
    40        109
    41        186
    42         22
    43         64
    44        135
    45        464
    47         37
    50         96
    51        224
    52         59
    53         75
    54         10
    55         51
    56         36
    57         57
    58         27
    59         14
    60         10
    61         19
    62         75
    63        260
    64         87
    65        808
    66         46
    67         18
    69        242
    70         41
    71         63
    72         10
    73         16
    74         23
    75         35
    76         43
    77        328
    78         91
    79        175
    80         21
    81         22
    82         40
    83         30
    84         42
    85         20
    86         14
    87         21
    88         37
    89        165
    90        111
    91        941
    92         80
    93         39
    94         15
    95         37
    96         19
    97         45
    98          9
    99          9
   100          2
   101         19
   102         86
   103        288
   104         33
   105         12
   106         11
   107         16
   108         54
   109         18
   110          9
   111         18
   112          5
   113          7
   114         12
   115         47
   116          8
   117         19
   119        999
   120        108
   121        110
   122         36
   123        158
   124         70
   125         19
   126         15
   127         28
   128          7
   129          4
   132         31
   133         42
   134        131
   135        592
   136         65
   137         31
   138          3
   139          8
   140          4
   141         16
   142          8
   143         21
   144          7
   145         48
   147        773
   148        124
   149         91
   150         22
   151          8
   152         10
   153          7
   154          5
   155          4
   159          2
   161          8
   162         11
   163         24
   164         11
   165         20
   166          6
   167          5
   169          3
   170          1
   171         18
   172          8
   175        657
   176         75
   177         48
   178         52
   179         91
   180         16
   181          3
   184          5
   185          4
   187          1
   189         16
   190         12
   191         47
   192         15
   193         22
   194          9
   195          5
   197          9
   198          3
   203         80
   204         17
   205         50
   206        234
   207         66
   208         16
   209          9
   210          4
   211          9
   212          2
   213         20
   214          2
   215         18
   219          3
   221         48
   222         42
   223         22
   224          5
   225         16
   226          3
   230          5
   233          1
   234         13
   235         22
   236         20
   237        137
   238        105
   239         35
   240        136
   241         29
   242         15
   243          2
   249         33
   250          9
   251          9
   253         39
   254        115
   255        177
   256         41
   257         17
   258          3
   264          3
   265         29
   266         13
   267         17
   268         23
   269        150
   270        149
   271         39
   272         15
   273          1
   280          1
   281         28
   282         29
   283         98
   284         21
   285          9
   293         17
   294          6
   297         91
   298         47
   299         16
   300          5
   311         52
   312         11
   313          6
   326        642
   327        125
   328         64
   329         10
   330          3