##TITLE=Library Entry 54644
##JCAMP-DX=Revision 4.10 
##DATA TYPE=MASS SPECTRUM
##SAMPLE DESCRIPTION=LAC, NIDDK, NIH, Bethesda, MD 20892
##NAMES=HP
##CAS NAME=2H-Pyran, 2-[(5-chloropentyl)oxy]tetrahydro-
##MOLFORM=C10H19ClO2
##CAS REGISTRY NO=13129-60-7
##MP= -300
##BP= -300
##MW= 206
##$RETENTION INDEX=0
##$CONDENSED SPECTRUM=NO
##NPOINTS= 51
##XYDATA=(XY..XY) 1 
    41        516
    43        324
    44         55
    45          9
    47         11
    49         15
    50          3
    51          9
    53         28
    54          7
    55        161
    56        326
    57        116
    58          4
    59          5
    60          4
    63         24
    65         10
    67         94
    69        463
    71         38
    74         21
    75          2
    77          8
    79          2
    81          9
    83         22
    85        999
    86         38
    95          2
    97          5
   101         41
   103         12
   105        167
   107         69
   113          2
   115         36
   133         12
   135          2
   140          2
   148          9
   149         15
   150          2
   151          2
   163          3
   167          2
   171          2
   178          3
   205         56
   206          5
   207         20