##TITLE=Library Entry 72174
##JCAMP-DX=Revision 4.10 
##DATA TYPE=MASS SPECTRUM
##SAMPLE DESCRIPTION=NIST Mass Spectrometry Data Center, 1990.
##NAMES=HP
##CAS NAME=Phenol-d6-
##MOLFORM=C6D6O
##CAS REGISTRY NO=13127-88-3
##MP= -300
##BP= -300
##MW= 100
##$RETENTION INDEX=0
##$CONDENSED SPECTRUM=NO
##NPOINTS= 66
##XYDATA=(XY..XY) 1 
    13          1
    14          1
    15          6
    16          3
    17          4
    18          3
    19          2
    24          2
    26         10
    28         62
    29         26
    30         52
    32         25
    33          3
    34          5
    35          5
    36          6
    37          5
    38         66
    39         19
    40        131
    41        102
    42        334
    43        146
    44        102
    45          6
    46          6
    48          5
    50         36
    51         10
    52         99
    53         21
    54        101
    55          8
    56         13
    57         18
    58         83
    59          4
    60          4
    61          2
    62         24
    63          3
    64         35
    65         14
    66         59
    67          9
    68         35
    69        139
    70        229
    71        482
    72        114
    73          7
    74          7
    75          2
    76         23
    77          1
    78         10
    79          2
    80          6
    81          7
    82         17
    96          3
    98        101
    99        999
   100        265
   101         16