##TITLE=Library Entry 58851
##JCAMP-DX=Revision 4.10 
##DATA TYPE=MASS SPECTRUM
##SAMPLE DESCRIPTION=Chemical Concepts
##NAMES=HP
##CAS NAME=Boron, [3-(dimethylamino)-2-methyl-1-buten-1-olato-N,O]bis(triflu
oromethyl)-, (t-4)-
##MOLFORM=C9H14BF6NO
##CAS REGISTRY NO=131260-20-3
##MP= -300
##BP= -300
##MW= 277
##$RETENTION INDEX=0
##$CONDENSED SPECTRUM=NO
##NPOINTS= 149
##XYDATA=(XY..XY) 1 
    26          5
    27         83
    28         29
    29        100
    30         26
    31         15
    33          0
    37          0
    38          4
    39         88
    40         22
    41        160
    42        161
    43         33
    44        152
    45         47
    46        123
    47          3
    48          3
    49         15
    50          8
    51         14
    52          6
    53         53
    54         13
    55        118
    56         68
    57        185
    58         32
    59          4
    60          5
    61          1
    62          0
    63          3
    64         18
    65         41
    66         10
    67         91
    68         13
    69         24
    70         13
    71          9
    72        421
    73         47
    74        129
    75          7
    76         19
    77         10
    78         27
    79         27
    80          4
    81         11
    82          8
    83         32
    84         53
    85         19
    86          8
    87         10
    88          4
    89        232
    90        999
    91         77
    92        226
    93         52
    94         15
    95         14
    96         14
    97          3
    98          8
    99         13
   100          6
   101         31
   102        110
   103          8
   104         10
   105         11
   106          7
   107          2
   108          4
   110          6
   111          1
   112         19
   113         47
   114         12
   115         57
   116         26
   117          4
   118          4
   119          1
   120          0
   121          0
   122          7
   123         31
   124        110
   125          4
   126          6
   127         20
   128         51
   129          4
   130          3
   131          4
   132         10
   133         26
   134          1
   137          1
   138          7
   139          0
   140          3
   141          9
   142         27
   143          2
   144          0
   145          0
   146          3
   147          0
   148          1
   152          0
   155          0
   156          7
   157        226
   158        938
   159         75
   160         21
   161        121
   162        497
   163         34
   164          1
   173          0
   174          3
   175         11
   176         71
   177        109
   178          8
   183          1
   184          0
   205          0
   206          4
   207         33
   208        135
   209         11
   212          1
   226          3
   227          9
   257          0
   258          6
   276         60
   277        237
   278         24
   279          0