##TITLE=Library Entry 33486
##JCAMP-DX=Revision 4.10 
##DATA TYPE=MASS SPECTRUM
##SAMPLE DESCRIPTION=Chemical Concepts
##NAMES=HP
##CAS NAME=Boron, [4-(dimethylamino)-2-methyl-2-butenyl-C,N]bis(trifluoromet
hyl)-, (t-4)-
##MOLFORM=C9H14BF6N
##CAS REGISTRY NO=131260-14-5
##MP= -300
##BP= -300
##MW= 261
##$RETENTION INDEX=0
##$CONDENSED SPECTRUM=NO
##NPOINTS= 128
##XYDATA=(XY..XY) 1 
    26          1
    27         13
    29          6
    30          1
    31          3
    33          0
    37          0
    38          1
    39         31
    41         48
    42         49
    43         16
    44         23
    45         61
    47          0
    48          1
    49          4
    50          4
    51          8
    52          7
    53         75
    54         10
    55         15
    56         13
    57         18
    58         68
    59          8
    60          4
    61          0
    62          2
    63          2
    64          1
    65         17
    66         14
    67        275
    68        999
    69         57
    70         19
    71         27
    72          2
    73         33
    74         96
    75          5
    76          7
    77         28
    78          4
    79         84
    80          8
    81         12
    82         16
    83          6
    84          6
    85          6
    86          8
    87          4
    88          6
    89          8
    90          3
    91         21
    92         77
    93         15
    95          5
    96          9
    97         19
    98         26
    99        243
   100         75
   101          4
   102          3
   103         15
   104          2
   105          2
   106          4
   107          2
   108         14
   109         10
   110          9
   111         16
   112         24
   113          8
   114         14
   115          1
   116          3
   117          8
   118          3
   121          0
   122          3
   123          4
   124         25
   125          9
   126         15
   127          6
   128         11
   129          4
   130          4
   131          0
   132          0
   133          0
   135          0
   136          0
   139          0
   140          2
   141         55
   142        245
   143         22
   144          1
   145          1
   146          3
   148          0
   150          0
   151          0
   156          0
   157          0
   159          3
   160         11
   161          3
   162          0
   172          0
   174          0
   176          0
   184          0
   190          0
   192          3
   234          0
   260         13
   261         68
   262          7
   263          0