##TITLE=Library Entry 51356
##JCAMP-DX=Revision 4.10 
##DATA TYPE=MASS SPECTRUM
##SAMPLE DESCRIPTION=Chemical Concepts
##NAMES=HP
##CAS NAME=Boron, [4-(dimethylamino)-2,3-dimethyl-2-butenyl-C,N]bis(trifluor
omethyl)-, (t-4)-
##MOLFORM=C10H16BF6N
##CAS REGISTRY NO=131260-12-3
##MP= -300
##BP= -300
##MW= 275
##$RETENTION INDEX=0
##$CONDENSED SPECTRUM=NO
##NPOINTS= 135
##XYDATA=(XY..XY) 1 
    26          0
    27         20
    29         18
    30         14
    31          5
    37          0
    38          1
    39         51
    41         83
    42         55
    43         24
    44         74
    45        141
    46         21
    47          4
    48          1
    49          4
    50          2
    51          9
    52          7
    53         45
    54         53
    55         35
    56         17
    57        183
    58        191
    59         10
    60          5
    61          1
    62          2
    63          7
    64          4
    65         28
    66         11
    67        584
    68         37
    69         17
    70         17
    71         11
    72         11
    73         39
    74         96
    75          4
    76          8
    77         45
    78         30
    79         41
    80         15
    81         51
    82        999
    83         67
    84         21
    85         39
    86          9
    87         13
    88          3
    89          6
    90          4
    91         52
    92         89
    93         96
    94         20
    95         29
    96         16
    97         34
    98         16
    99         32
   100        107
   101          7
   102          4
   103          8
   104          1
   105          2
   106          3
   107          3
   108          7
   109          8
   110         16
   111         24
   112         25
   113        176
   114         71
   115          6
   116          1
   117          9
   118          1
   120          2
   121          2
   122         21
   123         17
   124         23
   125         15
   126         21
   127          4
   128          5
   129          2
   130          3
   131          8
   132          0
   134          0
   136          6
   137          3
   138         57
   139         10
   140         16
   141          7
   142          8
   143          4
   144          4
   145          0
   146          1
   153          1
   154          4
   155         63
   156        268
   157         23
   158          2
   159          1
   160          3
   161          0
   173          1
   174          7
   175          1
   184          0
   185          2
   186         11
   187          1
   190          1
   205          1
   206          0
   255          0
   274         43
   275        182
   276         20
   277          0