##TITLE=Library Entry 39480
##JCAMP-DX=Revision 4.10 
##DATA TYPE=MASS SPECTRUM
##SAMPLE DESCRIPTION=Exported from NIST MS Search
##NAMES=HP
##CAS NAME=1,2-Dithiolane-3-propanoic acid
##MOLFORM=C6H10O2S2
##CAS REGISTRY NO=13125-44-5
##MP= -300
##BP= -300
##MW= 178
##$RETENTION INDEX=0
##$CONDENSED SPECTRUM=NO
##NPOINTS= 39
##XYDATA=(XY..XY) 1 
    55         60
    57         28
    58         18
    59         37
    60         37
    61         28
    64         37
    65         28
    67        252
    68         28
    71        999
    72         32
    73         42
    78         28
    79         56
    85         60
    86         18
    87         18
    95         56
    96         32
    97         18
    99         51
   105         84
   113        364
   114         18
   117         14
   118         37
   119         32
   131         14
   132         14
   133         56
   159         23
   160         14
   161        172
   162         18
   163         23
   178        738
   179         37
   180         46