##TITLE=Library Entry 51355
##JCAMP-DX=Revision 4.10 
##DATA TYPE=MASS SPECTRUM
##SAMPLE DESCRIPTION=Chemical Concepts
##NAMES=HP
##CAS NAME=Boron, [4-(dimethylamino)-2-methyl-2-pentenyl-C,N]bis(trifluorome
thyl)-, (t-4)-
##MOLFORM=C10H16BF6N
##CAS REGISTRY NO=131260-16-7
##MP= -300
##BP= -300
##MW= 275
##$RETENTION INDEX=0
##$CONDENSED SPECTRUM=NO
##NPOINTS= 136
##XYDATA=(XY..XY) 1 
    26          0
    27         33
    28         13
    29         27
    30         10
    31          8
    33          0
    37          0
    38          1
    39         60
    40         15
    41         98
    42         50
    43         14
    44         45
    45         37
    46         18
    47          1
    48          0
    49          6
    50          2
    51         10
    52          4
    53         33
    54         25
    55         28
    56         25
    57         17
    58         14
    59          3
    60          3
    61          0
    62          0
    63          4
    64          1
    65         22
    66         10
    67        431
    68         26
    69         12
    70         16
    71          8
    72         29
    73         29
    74         92
    75          3
    76          7
    77         29
    78          9
    79         31
    80          7
    81         40
    82        999
    83         64
    84          6
    85         12
    86          6
    87         20
    88          6
    89          6
    90          5
    91         48
    92        112
    93         71
    94         23
    95          8
    96         11
    97         13
    98         11
    99         14
   100         43
   101          2
   102          2
   103          9
   104          1
   105          0
   106          3
   107          2
   108          5
   109          5
   110         12
   111         17
   112         18
   113        121
   114         70
   115          6
   116          0
   117          6
   118          0
   119          0
   120          0
   121          0
   122          9
   123         13
   124         38
   125         12
   126         25
   127          4
   128          5
   129          2
   130          5
   131          5
   132          0
   135          0
   136          2
   137          0
   138          6
   139          2
   140          8
   141          1
   142          8
   143          2
   144          2
   145          0
   154          0
   155         47
   156        190
   157         16
   158          0
   159         24
   160        102
   161          7
   163          0
   173          2
   174         12
   175          3
   185          0
   186          0
   190          0
   192          2
   205          0
   206          0
   210          0
   274         17
   275         74
   276          7