##TITLE=Library Entry 20126
##JCAMP-DX=Revision 4.10 
##DATA TYPE=MASS SPECTRUM
##SAMPLE DESCRIPTION=NIST Mass Spectrometry Data Center
##NAMES=HP
##CAS NAME=cis-13-Octadecenoic acid
##MOLFORM=C18H34O2
##CAS REGISTRY NO=13126-39-1
##MP= -300
##BP= -300
##MW= 282
##$RETENTION INDEX=2179
##$CONDENSED SPECTRUM=NO
##NPOINTS= 203
##XYDATA=(XY..XY) 1 
    15          1
    26          2
    27         49
    28         14
    29         84
    30          3
    31          5
    38          2
    39         79
    40         16
    41        466
    42         95
    43        245
    44          9
    45         54
    46          2
    47          1
    50          2
    51          6
    52          5
    53         66
    54        158
    55        999
    56        240
    57        178
    58         16
    59         27
    60        157
    61         13
    62          1
    63          1
    64          1
    65         22
    66         16
    67        223
    68        136
    69        549
    70        202
    71         89
    72          6
    73        122
    74         12
    75          3
    76          1
    77         20
    78          6
    79         54
    80         25
    81        186
    82        168
    83        434
    84        248
    85         67
    86          9
    87         44
    88          5
    89          1
    91         18
    92          5
    93         28
    94         31
    95        142
    96        216
    97        396
    98        211
    99         40
   100         34
   101         54
   102          7
   103          2
   104          1
   105         11
   106          5
   107         25
   108         25
   109         86
   110        131
   111        185
   112         77
   113         31
   114         67
   115         35
   116          9
   117          3
   118          2
   119         21
   120          9
   121         29
   122         20
   123         86
   124         77
   125         88
   126         36
   127         47
   128         16
   129         30
   130          5
   131          3
   132          1
   133         23
   134         22
   135         25
   136         14
   137         55
   138         54
   139         42
   140         18
   141         13
   142          4
   143         10
   144          3
   145          1
   146          1
   147         18
   148         18
   149         20
   150         11
   151         40
   152         36
   153         23
   154         10
   155          9
   156          3
   157          6
   158          2
   159          1
   161         13
   162          7
   163         11
   164          8
   165         28
   166         24
   167         14
   168          5
   169          9
   170          2
   171          4
   172          2
   173          1
   175         10
   176          4
   177          6
   178          5
   179         19
   180         26
   181         10
   182          4
   183          5
   184          1
   185          4
   186          4
   187          1
   189          6
   190          2
   191          3
   192          2
   193         14
   194         11
   195          5
   196          2
   197          1
   198          1
   199          3
   200          2
   201          1
   203          4
   204          1
   205          1
   206          1
   207         13
   208          9
   209          4
   210          2
   211          1
   212          1
   213          2
   214          1
   217          2
   218          1
   220         22
   221         19
   222         25
   223          6
   224          1
   225          1
   227          1
   235         13
   236          7
   237          1
   239          3
   241          1
   246          5
   247          1
   249          2
   253          1
   264         79
   265         19
   266          2
   278          1
   280          1
   282         15
   283          4
   284          1