##TITLE=Library Entry 58881
##JCAMP-DX=Revision 4.10 
##DATA TYPE=MASS SPECTRUM
##SAMPLE DESCRIPTION=Chemical Concepts
##NAMES=HP
##CAS NAME=Malononitrile,2-[(2,4-dinitrophenyl)methylene]
##MOLFORM=C10H4N4O4
##CAS REGISTRY NO=131223-03-5
##MP= -300
##BP= -300
##MW= 244
##$RETENTION INDEX=0
##$CONDENSED SPECTRUM=NO
##NPOINTS= 178
##XYDATA=(XY..XY) 1 
    26         35
    27        121
    28        100
    29         58
    30        755
    31          5
    36          4
    37         63
    38        135
    39        139
    40         16
    41         70
    42         19
    43        143
    44         32
    45         21
    46         44
    48          4
    49         34
    50        612
    51        187
    52         89
    53         50
    54         30
    55         61
    56         21
    57         90
    58          8
    59         24
    60         27
    61        126
    62        288
    63        460
    64        156
    65         57
    66         91
    67         27
    68         12
    69         54
    70         17
    71         48
    72         16
    73         79
    74        497
    75        786
    76        469
    77        149
    78        140
    79         49
    80         12
    81         24
    82         14
    83         34
    84         11
    85         41
    86        121
    87        200
    88        249
    89         99
    90        999
    91        137
    92         42
    93         23
    94          7
    95         19
    96         10
    97         28
    98         81
    99        436
   100        269
   101        352
   102        112
   103        280
   104         66
   105         60
   106        113
   107         27
   108         17
   109         14
   110         12
   111         24
   112         87
   113        318
   114         81
   115        144
   116         29
   117         51
   118        776
   119         99
   120         40
   121         22
   122         34
   123         96
   124        229
   125        663
   126        134
   127         34
   128         35
   129         38
   130         15
   131         54
   132         10
   133         13
   134         76
   135         13
   136         18
   137         19
   138          6
   139         87
   140        266
   141         75
   142         17
   143        273
   144         50
   145         27
   146          5
   147          4
   151        242
   152        843
   153        128
   154         17
   155         11
   156         25
   157         48
   158          8
   159         49
   160          6
   161         19
   162          3
   163          4
   164        647
   165         68
   166         18
   167         28
   168        116
   169         55
   170         10
   171         22
   172          7
   173         33
   177          3
   179         29
   180         31
   181        111
   182         29
   183          5
   184         20
   185          7
   186          5
   187          4
   189        165
   190         17
   191         24
   192         12
   193          3
   194          9
   195          3
   196         13
   197         69
   198         32
   199          8
   200          6
   201         80
   202         11
   203         69
   204          8
   208          3
   211          8
   214         37
   215          8
   217         52
   218          6
   227         47
   228         23
   229          3
   244        968
   245        123
   246         15