##TITLE=Library Entry 5078
##JCAMP-DX=Revision 4.10 
##DATA TYPE=MASS SPECTRUM
##SAMPLE DESCRIPTION=D.HENNEBERG, MAX-PLANCK INSTITUTE, MULHEIM, WEST GERMAN
Y
##NAMES=HP
##CAS NAME=Propanedinitrile, (2-methylpropylidene)-
##MOLFORM=C7H8N2
##CAS REGISTRY NO=13134-03-7
##MP= -300
##BP= -300
##MW= 120
##$RETENTION INDEX=0
##$CONDENSED SPECTRUM=NO
##NPOINTS= 78
##XYDATA=(XY..XY) 1 
    27        396
    28        398
    29        365
    30          9
    31          1
    32          4
    35          0
    36          0
    37         60
    38         95
    39        368
    40         80
    41        313
    42        999
    43         80
    46          0
    47          1
    48          5
    49         22
    50        110
    51        253
    52        200
    53         90
    54         67
    55        163
    56          8
    58          1
    59          0
    61         12
    62         26
    63         59
    64         95
    65         77
    66        260
    67        113
    68         19
    69          7
    72          2
    73          1
    74          5
    75         63
    76        129
    77        116
    78        484
    79        212
    80         87
    81          2
    82          0
    86          1
    87          4
    88          6
    89         10
    90          8
    91         23
    92        234
    93        367
    94         33
    95          0
    96          0
    99          1
   100          2
   101          4
   102          2
   103         14
   104         10
   105        642
   106         42
   107          1
   108          0
   111          0
   112          0
   114          0
   117          0
   118         13
   119        226
   120        147
   121         16
   122          0