##TITLE=Library Entry 72396
##JCAMP-DX=Revision 4.10 
##DATA TYPE=MASS SPECTRUM
##SAMPLE DESCRIPTION=Japan AIST/NIMC Database- Spectrum MS-NW-3514
##NAMES=HP
##CAS NAME=Adipimidic acid, dimethyl ester
##MOLFORM=C8H16N2O2
##CAS REGISTRY NO=13139-70-3
##MP= -300
##BP= -300
##MW= 172
##$RETENTION INDEX=0
##$CONDENSED SPECTRUM=NO
##NPOINTS= 99
##XYDATA=(XY..XY) 1 
    14          4
    15        110
    16          7
    17         10
    18          4
    26          9
    27         50
    28         58
    29         37
    30         13
    31         49
    32         23
    33          3
    39         64
    40         14
    41        142
    42         76
    43        226
    44         91
    45         16
    50          8
    51          8
    52         15
    53         24
    54        154
    55        143
    56         57
    57         51
    58        184
    59         85
    60          7
    63          1
    64          2
    65          3
    66          7
    67         18
    68         76
    69         33
    70          7
    71          6
    72         14
    73        393
    74        103
    75          5
    76          1
    77          1
    78          2
    79          2
    80         20
    81         13
    82         84
    83         19
    84         67
    85          8
    86        390
    87         89
    88          4
    91          1
    92          9
    93          1
    94          1
    95          2
    96          5
    97         11
    98         28
    99        999
   100        638
   101         45
   102          3
   105          2
   106          1
   107         13
   108         21
   109        244
   110         28
   111         68
   112         26
   113          3
   114         23
   115          5
   122          1
   123          2
   124          4
   125         13
   126          2
   127         18
   128          3
   129          3
   139          6
   140         31
   141        281
   142         31
   143         10
   149          1
   154          3
   155          3
   156          1
   157         25
   158          2