##TITLE=Library Entry 71046
##JCAMP-DX=Revision 4.10 
##DATA TYPE=MASS SPECTRUM
##SAMPLE DESCRIPTION=Darrick Lee, Cayman Chemical, Ann Arbor, MI
##NAMES=HP
##CAS NAME=4'-Methyl-a-pyrrolidinopropiophenone
##MOLFORM=C14H19NO
##CAS REGISTRY NO=1313393-58-6
##MP= -300
##BP= -300
##MW= 217
##$RETENTION INDEX=1725
##$CONDENSED SPECTRUM=NO
##NPOINTS= 87
##XYDATA=(XY..XY) 1 
    40          2
    41         20
    42         15
    43          4
    44         12
    45          1
    50          2
    51          5
    52          2
    53          4
    54         15
    55         30
    56         87
    57          4
    62          2
    63          8
    64          3
    65         39
    66          2
    67          2
    68          7
    69         23
    70         14
    71          1
    74          1
    75          1
    76          1
    77          4
    78          1
    79          2
    80          1
    81          1
    82          1
    83          1
    87          1
    89         15
    90          7
    91         67
    92          6
    93          1
    94          2
    96         21
    98        999
    99         73
   100          2
   102          1
   103          3
   104          1
   105          3
   106          1
   115          4
   116          1
   117          4
   118          2
   119         32
   120          3
   127          1
   128          2
   129          1
   130          2
   131          1
   132          1
   133          2
   143          1
   144          1
   145          1
   146          1
   147          1
   148          1
   158          1
   159          1
   172          1
   173          1
   174          1
   184          1
   186          2
   187          1
   188          1
   200          2
   201          1
   202          2
   213          1
   214          1
   215          2
   216          2
   217          1
   218          1