##TITLE=Library Entry 65935
##JCAMP-DX=Revision 4.10 
##DATA TYPE=MASS SPECTRUM
##SAMPLE DESCRIPTION=Japan AIST/NIMC Database- Spectrum MS-IW- 19
##NAMES=HP
##CAS NAME=3-Aminopropylphosphonic acid
##MOLFORM=C3H10NO3P
##CAS REGISTRY NO=13138-33-5
##MP= -300
##BP= -300
##MW= 139
##$RETENTION INDEX=0
##$CONDENSED SPECTRUM=NO
##NPOINTS= 100
##XYDATA=(XY..XY) 1 
    14          2
    15         10
    16          6
    17         24
    18        122
    19          1
    25          1
    26         26
    27         61
    28        271
    29        215
    30        209
    31         10
    32          7
    33          3
    34          5
    36          5
    37          2
    38          6
    39         43
    40          9
    41         69
    42         22
    43         10
    44         22
    45          8
    46        149
    47        117
    48         20
    49         11
    50          1
    51          4
    52          9
    53          6
    54         53
    55         22
    56        260
    57        354
    58         13
    59         12
    60          1
    61          2
    62          4
    63          4
    64         16
    65        837
    66         38
    67          9
    68          1
    69          1
    70          1
    71          1
    72          1
    73          2
    74          9
    75         38
    76         12
    77          8
    78          3
    79          3
    80         18
    81          4
    82         13
    83          1
    84          1
    85          6
    86          2
    87          1
    88          1
    90          1
    91          6
    92         22
    93        999
    94         52
    95          6
    96          6
    97          1
   100          1
   101          3
   102         27
   103          3
   104         14
   105          2
   106          1
   107          3
   108          2
   109          1
   110          6
   111          1
   115          1
   118          1
   119          2
   120        503
   121        349
   122         63
   123          4
   124          1
   139          1
   140          2
   141          1