##TITLE=Library Entry 9608
##JCAMP-DX=Revision 4.10 
##DATA TYPE=MASS SPECTRUM
##SAMPLE DESCRIPTION=V.A.Korolev, Moscow, Russia
##NAMES=HP
##CAS NAME=1-(Imidazol-1-yl)propan-2-one
##MOLFORM=C6H8N2O
##CAS REGISTRY NO=131394-02-0
##MP= -300
##BP= -300
##MW= 124
##$RETENTION INDEX=0
##$CONDENSED SPECTRUM=NO
##NPOINTS= 47
##XYDATA=(XY..XY) 1 
    34          3
    35          1
    36          5
    37          7
    38         41
    39        131
    40        303
    41        327
    42        225
    43        999
    44         35
    45          7
    49          1
    50          7
    51         34
    52        149
    53         85
    54        550
    55         86
    56         11
    57         21
    58          4
    60          2
    63          1
    64          1
    65          6
    66         12
    67         67
    68        587
    69         36
    70          4
    71         22
    77          3
    78          1
    79          4
    80          3
    81        588
    82        594
    83         33
    84          3
    95         10
   108          3
   109         10
   110          1
   124        297
   125         21
   126          2