##TITLE=Library Entry 107977
##JCAMP-DX=Revision 4.10 
##DATA TYPE=MASS SPECTRUM
##SAMPLE DESCRIPTION=A.A.Kutin, Moscow, Russia
##NAMES=HP
##CAS NAME=Propan-2-one, 1-(1,2-dihydro-2-thioxopyrid-1-yl)-
##MOLFORM=C8H9NOS
##CAS REGISTRY NO=13134-80-0
##MP= -300
##BP= -300
##MW= 167
##$RETENTION INDEX=0
##$CONDENSED SPECTRUM=NO
##NPOINTS= 78
##XYDATA=(XY..XY) 1 
    33        325
    34         11
    36         13
    37         18
    39        145
    40        213
    41         50
    43        244
    44         70
    45        117
    47         20
    51        182
    52         67
    53         69
    54         11
    55          9
    57         34
    58         17
    59          7
    60          4
    61         11
    63         23
    64         11
    65         46
    66         19
    67         30
    69         67
    70         34
    71         18
    72         11
    75          4
    78        713
    79        187
    80        221
    81        146
    83         47
    84         22
    85          2
    86          1
    90          2
    91         23
    92         19
    93         23
    95         39
    96         23
    97         37
    98          4
   104          4
   105          2
   106          7
   107          4
   108          1
   109          4
   110         10
   111         12
   112          4
   117          0
   118          0
   120          8
   124        999
   125        217
   126         46
   127          8
   132          1
   134         60
   135          7
   138          4
   142          1
   147          0
   148          8
   150        284
   152         90
   153          2
   165         20
   167        677
   168         61
   169         30
   170          1