##TITLE=Library Entry 69691
##JCAMP-DX=Revision 4.10 
##DATA TYPE=MASS SPECTRUM
##SAMPLE DESCRIPTION=Chemical Concepts
##NAMES=HP
##CAS NAME=3-Oxocyclohexanecarboxylic acid, methyl ester
##MOLFORM=C8H12O3
##CAS REGISTRY NO=13148-83-9
##MP= -300
##BP= -300
##MW= 156
##$RETENTION INDEX=0
##$CONDENSED SPECTRUM=NO
##NPOINTS= 91
##XYDATA=(XY..XY) 1 
    26         33
    27        240
    28         15
    29        150
    30         23
    31         28
    36          6
    37         15
    38         32
    39        287
    40        109
    41        658
    42        252
    43        165
    44        113
    45         41
    50         13
    51         29
    52         17
    53         96
    54         88
    55        545
    56         80
    57         91
    58         51
    59        250
    60         16
    61          9
    63         10
    65         26
    66         18
    67        120
    68         14
    69        420
    70         57
    71         42
    72         35
    73         28
    74        275
    75         18
    76          7
    77         21
    78         12
    79         52
    80         14
    81         64
    82         44
    83        116
    84         18
    85         77
    86         21
    87        195
    88        205
    89         13
    91         10
    93          9
    94          8
    95         53
    96        229
    97        999
    98        103
    99         51
   100         68
   101         25
   102          8
   105          9
   107          8
   109         12
   110          8
   111         19
   112          7
   113        358
   114        275
   115         23
   116          6
   119          7
   123         18
   124        151
   125        142
   126         20
   127         78
   128        173
   129         19
   137          5
   138          8
   139          6
   141         14
   155          7
   156        358
   157         40
   158          7