##TITLE=Library Entry 6520
##JCAMP-DX=Revision 4.10 
##DATA TYPE=MASS SPECTRUM
##SAMPLE DESCRIPTION=Asinex Ltd, Moscow, Russia
##NAMES=HP
##CAS NAME=2-(5-Cyano-1-dimethylamino-3-methyl-pyrrolidin-2-ylidene)-malonon
itrile
##MOLFORM=C11H13N5
##CAS REGISTRY NO=131447-31-9
##MP= -300
##BP= -300
##MW= 215
##$RETENTION INDEX=0
##$CONDENSED SPECTRUM=NO
##NPOINTS= 107
##XYDATA=(XY..XY) 1 
    33          3
    34          3
    37          6
    38         25
    39         95
    40        147
    41        105
    42        683
    43        999
    44        671
    45         99
    46          3
    50         19
    51         39
    52         53
    53         60
    54         55
    55         18
    56          9
    57          7
    58         52
    59         42
    62          4
    63         16
    64         28
    65         19
    66         22
    67         18
    68         14
    69         43
    70         35
    71         12
    72         16
    75         10
    76         33
    77         37
    78         17
    79         10
    80         16
    81         10
    82          5
    83         16
    84         49
    85          2
    88          2
    89          3
    90          9
    91         16
    92         20
    93          7
    94          2
    95          1
    96          4
    97         37
    98          1
   101          0
   102          8
   103         11
   104         10
   105         12
   106          8
   107          7
   108         10
   109          1
   111          5
   115          2
   116          1
   117          4
   118         10
   119         26
   120         85
   121         12
   122          4
   124          2
   129          1
   130         14
   131          4
   132          7
   133          8
   134         19
   135         18
   136          1
   143          0
   144         10
   145         40
   146         50
   147        139
   148         13
   157         10
   158          3
   159          2
   161         49
   162        134
   163         11
   171          5
   172         21
   173         49
   174          4
   185          1
   186          9
   187          1
   188          7
   189          0
   200          1
   213          0
   215        210
   216         26