##TITLE=Library Entry 46226
##JCAMP-DX=Revision 4.10 
##DATA TYPE=MASS SPECTRUM
##SAMPLE DESCRIPTION=Chemical Concepts
##NAMES=HP
##CAS NAME=Rhodium, chloro[ethenylidene(2,2-dimethylpropylidyne)phosphinidyn
e]bis[tris(1-methylethyl)phosphine]-, (tb-5-22)-
##MOLFORM=C25H53ClP3Rh
##CAS REGISTRY NO=131458-50-9
##MP= -300
##BP= -300
##MW= 584
##$RETENTION INDEX=0
##$CONDENSED SPECTRUM=NO
##NPOINTS= 318
##XYDATA=(XY..XY) 1 
    26          3
    27        168
    28          6
    29         42
    30          1
    31          3
    33          0
    34          1
    35         11
    36          9
    37          1
    38          3
    39         76
    40         88
    41        397
    42         23
    43        655
    44         21
    45         76
    46         20
    47        101
    48         34
    49         14
    50          1
    51          2
    52          1
    53          8
    54          1
    55         52
    56          4
    57         55
    58         19
    59         41
    60          5
    61        134
    62          8
    63         18
    64          1
    65          2
    66          0
    67          8
    68          1
    69        119
    70          8
    71         33
    72         14
    73         60
    74         77
    75        311
    76        999
    77        146
    78          5
    79          9
    80          5
    81         16
    82          1
    83         19
    84          2
    85          6
    86          0
    87          3
    88          1
    89        102
    90         45
    91          8
    92         10
    93          2
    94          1
    95          4
    96          3
    97          5
    98          0
    99          1
   101          3
   102          2
   103         77
   104          4
   105          3
   106          1
   107          1
   108          1
   109          0
   111          1
   113          0
   115          1
   116          2
   117         77
   118        645
   119         48
   120          1
   121          0
   123          2
   125          0
   127          0
   129          0
   131          0
   132          1
   133          6
   134         11
   135          1
   138          1
   141          0
   143          0
   144          3
   145         88
   146          8
   147          1
   149          1
   150          1
   151          0
   153          0
   155          0
   157          0
   158          0
   159         50
   160        367
   161         96
   162          8
   163          0
   165          2
   166          0
   169          0
   171          0
   173          2
   174          4
   175         10
   176          7
   177          2
   178          1
   179          4
   181          1
   182          0
   183          0
   185          1
   186          0
   187          0
   188          0
   189          1
   191          0
   192          0
   193          0
   195          8
   196          1
   197          2
   198          0
   199          1
   200          1
   201          1
   203          1
   204          4
   205          9
   206          9
   207         13
   208          8
   209          4
   210          2
   211          0
   212          0
   213          2
   214          1
   215          2
   216          3
   217          5
   218          4
   219          3
   220          4
   221          1
   222          0
   223          0
   225          0
   226          0
   227          1
   228          0
   229          0
   230          0
   231          0
   233          0
   234          0
   235          0
   237          1
   239          0
   241          0
   242          0
   243          1
   244          2
   245          7
   246          3
   247         11
   248          9
   249          9
   250          8
   251          6
   252          2
   253          0
   254          0
   255          6
   256          0
   257          2
   258          3
   259          3
   260          7
   261          3
   262          4
   263          1
   264          0
   268          0
   273          0
   277          0
   279          0
   281          0
   282          0
   283          0
   284          1
   285          2
   286          2
   287          4
   288          1
   289          2
   290          8
   291          6
   292         11
   293          3
   294          1
   295          0
   296          0
   297          1
   298          1
   299          1
   300          3
   301          5
   302          9
   303          3
   304          9
   305          1
   321          0
   322          1
   323          1
   324          0
   325          2
   326          1
   327          1
   328          2
   329          2
   330          1
   331          3
   332          1
   333          0
   334          0
   335          0
   336          2
   337          0
   338          1
   339          1
   340          1
   341          1
   342          2
   343          2
   344          6
   345          3
   346         22
   347          4
   348          0
   365          0
   367          2
   369          1
   371          0
   373          1
   376          0
   377          0
   378          1
   379          0
   380          2
   381          1
   382          7
   383          1
   384          2
   385          1
   386          3
   387          2
   388         26
   389          4
   390          0
   405          0
   407          0
   409          1
   411          1
   417          0
   419          1
   420          0
   421          1
   422          4
   423          1
   424        134
   425         25
   426         45
   427          7
   428          0
   447          0
   452          0
   456          1
   458          2
   460          0
   482          1
   484          0
   486          1
   487          0
   488          0
   489         11
   490          2
   491          3
   492          0
   548          1
   549          0
   584         44
   585         11
   586         16
   587          4
   588          0