##TITLE=Library Entry 66790
##JCAMP-DX=Revision 4.10 
##DATA TYPE=MASS SPECTRUM
##SAMPLE DESCRIPTION=M.A.BALDWIN UNIVERSITY COLLEGE, LONDON, UK
##NAMES=HP
##CAS NAME=Urea, N-(2-methylphenyl)-N'-phenyl-
##MOLFORM=C14H14N2O
##CAS REGISTRY NO=13140-49-3
##MP= -300
##BP= -300
##MW= 226
##$RETENTION INDEX=0
##$CONDENSED SPECTRUM=NO
##NPOINTS= 43
##XYDATA=(XY..XY) 1 
    28         53
    30         25
    37         16
    38         43
    39        185
    40         28
    41         32
    42         11
    50         48
    51        144
    52         73
    53         40
    54         22
    62         18
    63         64
    64         62
    65        204
    66         99
    67         17
    75         11
    76         18
    77        264
    78        104
    79         61
    80         21
    89         28
    90         28
    91        147
    92         89
    93        999
    94         78
   104         73
   105         36
   106        306
   107         24
   108         56
   119         59
   120         21
   132         26
   133         51
   134         16
   226        311
   227         53