##TITLE=Library Entry 83917
##JCAMP-DX=Revision 4.10 
##DATA TYPE=MASS SPECTRUM
##SAMPLE DESCRIPTION=A.A.Kutin, Moscow, Russia
##NAMES=HP
##CAS NAME=Urea, 1-(2-methylphenyl)-3-propyl-
##MOLFORM=C11H16N2O
##CAS REGISTRY NO=13143-12-9
##MP= -300
##BP= -300
##MW= 192
##$RETENTION INDEX=0
##$CONDENSED SPECTRUM=NO
##NPOINTS= 157
##XYDATA=(XY..XY) 1 
    34          1
    35          7
    36          3
    37          4
    38          8
    39         60
    40         21
    41        106
    42         24
    43        118
    44         27
    45          5
    46          1
    47         11
    48          5
    49          4
    50         13
    51         34
    52         26
    53         20
    54          9
    55         32
    56         22
    57         35
    58         19
    59         10
    60          4
    61          1
    62          3
    63         17
    64          9
    65         48
    66          9
    67         12
    68          4
    69         20
    70          9
    71         18
    72          4
    73          3
    74          2
    75          3
    76          8
    77         97
    78         47
    79         57
    80         15
    81         15
    82          9
    83         51
    84         10
    85         35
    86          4
    87          6
    88          1
    89         19
    90         17
    91         62
    92          7
    93          6
    94          2
    95          9
    96          6
    97         11
    98          4
    99          4
   100          1
   101          1
   102          1
   103          2
   104         35
   105         24
   106        471
   107        999
   108         83
   109          8
   110          3
   111          7
   112          2
   113          2
   114          0
   115          1
   116          2
   117          3
   118          3
   119          4
   120          5
   121          3
   122          1
   123          4
   124          2
   125          3
   126          1
   127          2
   128          2
   129          4
   130          0
   131          2
   132         11
   133         16
   134         10
   135          5
   136          1
   137          2
   138          1
   139          1
   140          0
   141          2
   142          0
   143          1
   144          0
   145          2
   146          0
   147          3
   148          2
   149         12
   150          2
   151          2
   152          1
   153          1
   154          1
   155          1
   156          1
   157          1
   159          1
   161          1
   162          1
   163          3
   164          1
   165          3
   166          1
   167          1
   168          1
   169          1
   170          0
   171          0
   173          1
   174          1
   175          1
   176          1
   177          4
   178          4
   179          2
   180          1
   181          1
   182          0
   183          1
   184          0
   185          2
   189          0
   191          3
   192        109
   193         15
   194          2
   195          1
   196          1
   197          0