##TITLE=Library Entry 49536
##JCAMP-DX=Revision 4.10 
##DATA TYPE=MASS SPECTRUM
##SAMPLE DESCRIPTION=A. MANDELBAUM DIRECT INLET NO HEAT
##NAMES=HP
##CAS NAME=1,3-Isobenzofurandione, 3a,4,7,7a-tetrahydro-, trans-
##MOLFORM=C8H8O3
##CAS REGISTRY NO=13149-03-6
##MP= -300
##BP= -300
##MW= 152
##$RETENTION INDEX=0
##$CONDENSED SPECTRUM=NO
##NPOINTS= 19
##XYDATA=(XY..XY) 1 
    41         40
    44         15
    49         15
    50         70
    51         15
    52         85
    53         20
    63         20
    65         40
    66         10
    74         15
    77        140
    78         70
    79        670
    80        999
    81         70
   124         15
   152        245
   153         17