##TITLE=Library Entry 61480
##JCAMP-DX=Revision 4.10 
##DATA TYPE=MASS SPECTRUM
##SAMPLE DESCRIPTION=A.Pleshkova, Nesmeyanov Inst.Org.Elem.Cpds, Moscow
##NAMES=HP
##CAS NAME=N-Chloro-2-phenylaziridine
##MOLFORM=C8H8ClN
##CAS REGISTRY NO=13148-32-8
##MP= -300
##BP= -300
##MW= 153
##$RETENTION INDEX=0
##$CONDENSED SPECTRUM=NO
##NPOINTS= 36
##XYDATA=(XY..XY) 1 
    39        174
    40         28
    41        112
    42         18
    43         14
    44         53
    50        129
    51        269
    52         87
    53         19
    62         34
    63        154
    64         70
    65        244
    66         14
    75         31
    76        126
    77        174
    78         90
    79         23
    89        221
    90        148
    91        999
    92         90
    93         25
   103        238
   104        115
   105         31
   116         28
   117        204
   118        921
   119        118
   120         19
   153          6
   154          1
   155          2