##TITLE=Library Entry 46227
##JCAMP-DX=Revision 4.10 
##DATA TYPE=MASS SPECTRUM
##SAMPLE DESCRIPTION=Chemical Concepts
##NAMES=HP
##CAS NAME=Rhodium, (.eta.5-2,4-cyclopentadien-1-yl)[ethenylidene(2,2-dimeth
ylpropylidyne)phosphinidyne][tris(1-methylethyl)phosphine]-
##MOLFORM=C21H37P2Rh
##CAS REGISTRY NO=131458-51-0
##MP= -300
##BP= -300
##MW= 454
##$RETENTION INDEX=0
##$CONDENSED SPECTRUM=NO
##NPOINTS= 322
##XYDATA=(XY..XY) 1 
    25          0
    26          9
    27        263
    29         91
    30          1
    31          3
    34          0
    35         12
    37          1
    38          6
    39        130
    40         91
    41        586
    42         49
    43        800
    44         27
    45        103
    46         26
    47        119
    48         38
    49         16
    50          4
    51          9
    52          2
    53         21
    54          4
    55         97
    56         18
    57         84
    58         23
    59         53
    60         10
    61        158
    62         10
    63         29
    64          6
    65         17
    66         18
    67         23
    68          7
    69        176
    70         24
    71         47
    72         18
    73         92
    74         84
    75        352
    76        999
    77        165
    78          9
    79         19
    80          6
    81         29
    82          7
    83         31
    84          6
    85         20
    87          8
    88          0
    89        123
    90         52
    91         34
    92         38
    93         12
    94          1
    95         10
    96          7
    97         19
    98          9
    99         12
   100          9
   101          8
   102          5
   103         95
   104          7
   105         18
   106          3
   107          8
   108          7
   109          4
   110          3
   111          9
   112          2
   113          6
   115         11
   116          6
   117         90
   118        657
   119         55
   120          5
   121          3
   123         16
   124          1
   125         11
   126          1
   127          8
   128         11
   129          9
   130          9
   131         11
   132          6
   133         24
   134         45
   135          5
   137          7
   138          1
   139         12
   140          1
   141         11
   142         13
   143          6
   144         19
   145        109
   146         11
   147         10
   148          7
   149         11
   150          5
   151          5
   152          1
   153          5
   154          3
   155         10
   156          2
   157          5
   158          3
   159         70
   160        358
   161         47
   162          7
   164          2
   165         25
   166          8
   167         10
   168        121
   169         54
   170          5
   171          8
   172         11
   173         29
   174         37
   175         50
   176         29
   177         10
   178         12
   179         21
   180          5
   181         16
   182          7
   183          5
   184          1
   185          7
   186          8
   187          8
   189          1
   191          6
   192          7
   193         13
   194          3
   195         13
   196          7
   197         11
   198         16
   199         47
   200         24
   201         13
   202         21
   203          9
   204         16
   205         31
   206         17
   207         46
   208         10
   209         35
   210         10
   211         22
   212         17
   213         31
   214          6
   215          8
   216         10
   217         12
   218          7
   219         10
   220          3
   221          6
   222          4
   223          8
   224         11
   225         20
   226          8
   227         10
   228          0
   229          6
   230         34
   231         40
   232          3
   233         15
   234          1
   235         11
   236          6
   237        127
   238         59
   239         67
   240        104
   241         84
   242         23
   243         10
   244        147
   245         28
   246          4
   247         28
   248          5
   249         19
   250          6
   251         29
   252          2
   253          3
   255          3
   257         11
   258          4
   259          9
   260          5
   261         17
   262         38
   263         16
   264         12
   265        107
   266         13
   267         13
   268          5
   269         12
   270          2
   271         10
   272          1
   273         15
   275          4
   277         13
   278          8
   279        162
   280         19
   281         40
   282         17
   283         39
   284         64
   285         12
   286        203
   287         30
   288          5
   289          9
   290          1
   291         22
   292         20
   293         99
   294        474
   295         68
   296          7
   297         14
   298          3
   299          5
   300          8
   301          8
   302          1
   303          6
   305          6
   306          2
   307         19
   308          1
   309         39
   310         13
   311          7
   312          0
   313          9
   314          6
   315         40
   316          7
   317          6
   321          2
   323          2
   324          0
   325         15
   326         51
   327          9
   328         98
   329         20
   330         58
   331          7
   335          3
   336          1
   337          0
   338          0
   339          3
   341          3
   343          6
   344          0
   345          2
   351          1
   352         48
   353         19
   354          5
   355          7
   356         10
   357         10
   358          7
   359          7
   367          1
   368         22
   369         12
   397          2
   399         11
   400         23
   401          4
   409          1
   411         69
   412         18
   413          0
   420          0
   437          3
   452          2
   454        248
   455         58
   456          7