##TITLE=Library Entry 78837
##JCAMP-DX=Revision 4.10 
##DATA TYPE=MASS SPECTRUM
##SAMPLE DESCRIPTION=Institute of Chemistry, SAS, Bratislava, Slovakia
##NAMES=HP
##CAS NAME=Arabinopyranoside, methyl, 2,3-dibenzoate 4-p-toluenesulfonate, .
beta.-L-
##MOLFORM=C27H26O9S
##CAS REGISTRY NO=13143-92-5
##MP= -300
##BP= -300
##MW= 526
##$RETENTION INDEX=0
##$CONDENSED SPECTRUM=NO
##NPOINTS= 32
##XYDATA=(XY..XY) 1 
    43         12
    44          3
    45          9
    50          4
    51         17
    55          8
    57          6
    60          3
    61          2
    64          2
    65          8
    68         39
    69         21
    71          3
    73          2
    77        189
    78          8
    83          3
    85          2
    91         39
    92          1
   105        999
   106         37
   107          2
   155         13
   190          9
   232         31
   233          3
   250          0
   331          3
   334          9
   404          1