##TITLE=Library Entry 58155
##JCAMP-DX=Revision 4.10 
##DATA TYPE=MASS SPECTRUM
##SAMPLE DESCRIPTION=H. Luftmann, Org. Chem. Inst., Westfalisch Wilhelms Uni
v., Munster, Germany
##NAMES=HP
##CAS NAME=Hexanoic acid, 6,6,6-trichloro-, ethyl ester
##MOLFORM=C8H13Cl3O2
##CAS REGISTRY NO=131426-26-1
##MP= -300
##BP= -300
##MW= 246
##$RETENTION INDEX=0
##$CONDENSED SPECTRUM=NO
##NPOINTS= 91
##XYDATA=(XY..XY) 1 
    36         30
    41        220
    42        270
    43        150
    44         60
    45        200
    46         10
    47         10
    49         20
    50         20
    51         40
    53         20
    54         10
    55        260
    56         20
    57         20
    58         10
    59         30
    60        310
    61        220
    62         10
    65        120
    66         20
    67         80
    68         70
    69         80
    70        370
    71         30
    73        120
    75         90
    76         10
    77         50
    79         10
    83        140
    84         30
    85         20
    86         20
    87         40
    88        999
    89         50
    90         10
    91         10
    94         10
    95         30
    96         40
    97         10
    98         20
    99         20
   101        370
   102         30
   103         70
   105         20
   109        120
   110         10
   111        130
   112         20
   113         20
   114         20
   115         10
   119         20
   121         10
   122         50
   123         20
   124         40
   125         10
   127         10
   129         30
   130         10
   131         30
   133         10
   135         10
   136         10
   137         40
   138         10
   139         30
   141         20
   147         60
   148         20
   164         20
   165        460
   166         40
   167        310
   168         20
   169         50
   183         20
   185         20
   201         20
   203         20
   205         10
   211         30
   213         20