##TITLE=Library Entry 99271
##JCAMP-DX=Revision 4.10 
##DATA TYPE=MASS SPECTRUM
##SAMPLE DESCRIPTION=Chemical Concepts
##NAMES=HP
##CAS NAME=1,4-Di-p-tolylbutane-1,4-dione
##MOLFORM=C18H18O2
##CAS REGISTRY NO=13145-56-7
##MP= -300
##BP= -300
##MW= 266
##$RETENTION INDEX=0
##$CONDENSED SPECTRUM=NO
##NPOINTS= 130
##XYDATA=(XY..XY) 1 
    36          1
    40         17
    41          2
    42         20
    43          1
    46          2
    50          3
    51         12
    52          2
    53          2
    54          0
    55         31
    56          3
    57         11
    58          1
    59          2
    60          0
    62          2
    63         15
    64          5
    65        110
    66          6
    67          2
    68          0
    69          5
    70          4
    71          6
    72          1
    73          2
    74          1
    75          1
    76          2
    77          7
    78          1
    79          2
    80          0
    81          3
    82          1
    83          4
    84          1
    85          3
    87          0
    88          1
    89         21
    90         19
    91        275
    92         22
    93          2
    94          0
    95          2
    96          1
    97          3
    98          1
    99          1
   101          0
   102          1
   103          3
   104          2
   105          4
   106          0
   107          1
   109          1
   110          0
   111          2
   112          1
   113          1
   114          0
   115          5
   116          1
   117          2
   118          5
   119        999
   120         87
   121          8
   122          0
   123          1
   124          0
   125          1
   126          0
   127          1
   128          1
   129          3
   130          2
   131          3
   132          2
   133          3
   134          2
   135          7
   136          2
   137          0
   139          1
   141          0
   145          1
   146          1
   147         64
   148          7
   149          2
   151          0
   152          1
   153          0
   155          0
   159          0
   165          2
   166          0
   167          0
   171          1
   175          3
   176          0
   178          1
   179          1
   183          0
   185          0
   189          1
   190          0
   191          2
   192          2
   193          0
   199          0
   204          0
   205          0
   206          3
   207          1
   208          0
   238          0
   248          2
   249          0
   250          0
   266         87
   267         17
   268          2