##TITLE=Library Entry 38228
##JCAMP-DX=Revision 4.10 
##DATA TYPE=MASS SPECTRUM
##SAMPLE DESCRIPTION=EQUINE DRUG TESTING PROG. J.D.HENION,ETAL CORNELL U, IT
HACA, NY
##NAMES=HP
##CAS NAME=Meperidine N-oxide
##MOLFORM=C15H21NO3
##CAS REGISTRY NO=13147-07-4
##MP= -300
##BP= -300
##MW= 263
##$RETENTION INDEX=0
##$CONDENSED SPECTRUM=NO
##NPOINTS= 55
##XYDATA=(XY..XY) 1 
    39         46
    41         36
    42        588
    43         69
    44        222
    51         49
    52         15
    53         39
    56         43
    57        375
    58         46
    63         16
    65         36
    70        380
    71        999
    72         57
    77        102
    78         24
    87         16
    91        146
    94         25
    96        111
    97         16
   102         39
   103        204
   104         28
   105         19
   115        131
   116         62
   117         40
   127         27
   128         57
   129         55
   130         22
   131         91
   132         24
   140         87
   141         19
   144         26
   145         16
   155         20
   156         16
   157         15
   158         39
   172        179
   173         43
   174         81
   175         21
   190         21
   218         93
   219         20
   232         25
   246         61
   247        117
   248         20