##TITLE=Library Entry 22526
##JCAMP-DX=Revision 4.10 
##DATA TYPE=MASS SPECTRUM
##SAMPLE DESCRIPTION=Exported from NIST MS Search
##NAMES=HP
##CAS NAME=Boroxin, tris(1,1-dimethylethyl)-
##MOLFORM=C12H27B3O3
##CAS REGISTRY NO=13155-00-5
##MP= -300
##BP= -300
##MW= 252
##$RETENTION INDEX=0
##$CONDENSED SPECTRUM=NO
##NPOINTS= 28
##XYDATA=(XY..XY) 1 
    28         20
    29         30
    39         10
    40         10
    41         70
    42         20
    43         70
    53         10
    55         30
    56        999
    57         80
    68         30
    69         50
    70        100
    71         10
    83         10
    84         10
    85         20
   109         10
   110         30
   111         50
   151         10
   152         20
   195         10
   235         10
   236         50
   237         60
   252         10