##TITLE=Library Entry 51460
##JCAMP-DX=Revision 4.10 
##DATA TYPE=MASS SPECTRUM
##SAMPLE DESCRIPTION=D.HENNEBERG, MAX-PLANCK INSTITUTE, MULHEIM, WEST GERMAN
Y
##NAMES=HP
##CAS NAME=Undecane, 2-cyclohexyl-
##MOLFORM=C17H34
##CAS REGISTRY NO=13151-77-4
##MP= -300
##BP= -300
##MW= 238
##$RETENTION INDEX=1760
##$CONDENSED SPECTRUM=NO
##NPOINTS= 81
##XYDATA=(XY..XY) 1 
    21          0
    25          1
    26          2
    27         53
    28         11
    29        138
    30          2
    31          0
    33          0
    34          0
    37          1
    38          3
    39         46
    40          9
    41        406
    42         70
    43        399
    44          1
    45          0
    46          0
    47          0
    50          0
    52          1
    53         25
    54         57
    55        664
    56        140
    57        469
    58         17
    59          0
    61          1
    63          1
    64          0
    65          7
    66          7
    67        305
    68         36
    69        437
    70        101
    71        180
    72          8
    73          0
    74          0
    75          0
    76          0
    77          6
    78          1
    79         13
    80          8
    81         55
    82        999
    83        764
    84         94
    85        124
    86          8
    91          2
    93          1
    95         11
    96         19
    97         85
    98         34
    99         26
   100          1
   105          4
   108          0
   109         10
   110         82
   111        314
   112         44
   113         13
   123          3
   124          3
   125         26
   126         19
   127          0
   139          2
   154         77
   155         23
   156          0
   167          1
   238          7