##TITLE=Library Entry 24781
##JCAMP-DX=Revision 4.10 
##DATA TYPE=MASS SPECTRUM
##SAMPLE DESCRIPTION=D.HENNEBERG, MAX-PLANCK INSTITUTE, MULHEIM, WEST GERMAN
Y
##NAMES=HP
##CAS NAME=Undecane, 6-cyclohexyl-
##MOLFORM=C17H34
##CAS REGISTRY NO=13151-81-0
##MP= -300
##BP= -300
##MW= 238
##$RETENTION INDEX=1666
##$CONDENSED SPECTRUM=NO
##NPOINTS= 81
##XYDATA=(XY..XY) 1 
    27         91
    28        107
    29        228
    30          0
    31          2
    35          3
    36         13
    37          6
    38          0
    39         60
    40          8
    41        540
    42         68
    43        662
    44         15
    45          3
    47          3
    51          9
    52          2
    53         47
    54         93
    55        886
    56        203
    57        999
    58         35
    63          2
    65         13
    66          9
    67        341
    68         54
    69        489
    70        155
    71        519
    72         33
    74          2
    76          2
    77         20
    78          5
    79         33
    80         23
    81        114
    82        579
    83        795
    84        155
    85        430
    86         26
    91         15
    92          4
    93          4
    94          3
    95         66
    96        118
    97        618
    98         85
    99         89
   100          4
   103          0
   105          4
   107          3
   109         40
   110         32
   111        323
   112         52
   113         38
   114          2
   123          9
   124         11
   125         88
   126         38
   139          4
   152          2
   153         14
   154        197
   155         66
   156          8
   165          7
   166         87
   167        174
   168         15
   180          2
   181          0