##TITLE=Library Entry 79408
##JCAMP-DX=Revision 4.10 
##DATA TYPE=MASS SPECTRUM
##SAMPLE DESCRIPTION=Japan AIST/NIMC Database- Spectrum MS-IW- 366
##NAMES=HP
##CAS NAME=N-(Methoxymethyl)benzamide
##MOLFORM=C9H11NO2
##CAS REGISTRY NO=13156-28-0
##MP= -300
##BP= -300
##MW= 165
##$RETENTION INDEX=0
##$CONDENSED SPECTRUM=NO
##NPOINTS= 48
##XYDATA=(XY..XY) 1 
    15          6
    27          4
    28         10
    29         12
    30          4
    31         27
    32          3
    37          1
    38          3
    39          4
    44          3
    45         38
    49          1
    50         26
    51         84
    52          6
    53          1
    60          4
    61          2
    62          1
    63          1
    65          1
    73          1
    74          8
    75          7
    76         14
    77        337
    78         26
    79          3
    91          2
   103          4
   104          9
   105        999
   106         79
   107          5
   121          2
   122          2
   132          1
   133         16
   134         63
   135         52
   136          4
   147          1
   150        301
   151         27
   152          2
   165         30
   166          5