##TITLE=Library Entry 20776
##JCAMP-DX=Revision 4.10 
##DATA TYPE=MASS SPECTRUM
##SAMPLE DESCRIPTION=D.HENNEBERG, MAX-PLANCK INSTITUTE, MULHEIM, WEST GERMAN
Y
##NAMES=HP
##CAS NAME=Decane, 3-cyclohexyl-
##MOLFORM=C16H32
##CAS REGISTRY NO=13151-74-1
##MP= -300
##BP= -300
##MW= 224
##$RETENTION INDEX=1625
##$CONDENSED SPECTRUM=NO
##NPOINTS= 70
##XYDATA=(XY..XY) 1 
    26         15
    27        112
    28         94
    29        238
    30          2
    32          7
    35          5
    37          7
    39         85
    40          1
    41        643
    42        132
    43        661
    50          2
    51          6
    53         55
    54         85
    55        999
    56        275
    57        933
    58         34
    63          4
    65          4
    66         18
    67        393
    68         41
    69        715
    70        157
    71        373
    72         28
    77          6
    78          3
    79         30
    80          9
    81        118
    82        777
    83        965
    84        161
    85        303
    86         29
    91          6
    93          9
    94          7
    95         49
    96         62
    97        310
    98         63
    99         54
   109         24
   110          5
   111        153
   112         62
   113         14
   117          4
   123         23
   124         79
   125        240
   126         10
   132          2
   138          7
   139         28
   140        163
   141         38
   142          2
   153         11
   181          3
   194         37
   195         90
   196         23
   224          1