##TITLE=Library Entry 19884
##JCAMP-DX=Revision 4.10 
##DATA TYPE=MASS SPECTRUM
##SAMPLE DESCRIPTION=Chemical Concepts
##NAMES=HP
##CAS NAME=1-Octene, 3-methyl-
##MOLFORM=C9H18
##CAS REGISTRY NO=13151-08-1
##MP= -300
##BP= -300
##MW= 126
##$RETENTION INDEX=840
##$CONDENSED SPECTRUM=NO
##NPOINTS= 62
##XYDATA=(XY..XY) 1 
    25          0
    26         15
    27        305
    28         99
    29        281
    30          7
    34          0
    37          2
    38          7
    39        205
    40         28
    41        649
    42        204
    43        469
    44         18
    45          0
    49          0
    50          9
    51         20
    52         11
    53         84
    54         74
    55        999
    56        759
    57        114
    58          3
    61          0
    62          1
    63          4
    64          0
    65         11
    66          4
    67         50
    68         33
    69        294
    70        748
    71        131
    72          7
    73          0
    74          0
    75          0
    77          7
    78          1
    79          6
    80          1
    81          9
    82          6
    83         79
    84         33
    85          4
    86          0
    91          1
    93          0
    95          2
    96         13
    97        107
    98         50
    99          3
   109          0
   111          2
   126         12
   127          0