##TITLE=Library Entry 25764
##JCAMP-DX=Revision 4.10 
##DATA TYPE=MASS SPECTRUM
##SAMPLE DESCRIPTION=D.HENNEBERG, MAX-PLANCK INSTITUTE, MULHEIM, WEST GERMAN
Y
##NAMES=HP
##CAS NAME=Tridecane, 4-cyclohexyl-
##MOLFORM=C19H38
##CAS REGISTRY NO=13151-89-8
##MP= -300
##BP= -300
##MW= 266
##$RETENTION INDEX=1886
##$CONDENSED SPECTRUM=NO
##NPOINTS= 82
##XYDATA=(XY..XY) 1 
    26         12
    27         87
    28         81
    29        217
    30          0
    31          4
    33          2
    34          2
    36          2
    37          5
    39         72
    40          5
    41        523
    42        104
    43        640
    44         14
    47          3
    53         30
    54         96
    55        850
    56        202
    57        999
    58         36
    63          0
    65          7
    66          5
    67        317
    68         58
    69        386
    70        176
    71        512
    72         42
    73          4
    76          3
    77         21
    78          4
    79         22
    80          8
    81         95
    82        693
    83        951
    84        129
    85        318
    86         13
    92          2
    93          1
    95         43
    96         83
    97        408
    98         67
    99         76
   100          6
   105          0
   106          5
   107          4
   108          3
   109         29
   110         20
   111        158
   112         26
   113         41
   117          1
   123          3
   124         12
   125         84
   126         16
   127         23
   128          1
   131          3
   133          5
   137          5
   138         63
   139        127
   140         24
   141         15
   153         13
   154         18
   155          1
   167          9
   182         97
   183         22
   223         57