##TITLE=Library Entry 25762
##JCAMP-DX=Revision 4.10 
##DATA TYPE=MASS SPECTRUM
##SAMPLE DESCRIPTION=D.HENNEBERG, MAX-PLANCK INSTITUTE, MULHEIM, WEST GERMAN
Y
##NAMES=HP
##CAS NAME=Undecane, 3-cyclohexyl-
##MOLFORM=C17H34
##CAS REGISTRY NO=13151-78-5
##MP= -300
##BP= -300
##MW= 238
##$RETENTION INDEX=1723
##$CONDENSED SPECTRUM=NO
##NPOINTS= 80
##XYDATA=(XY..XY) 1 
    22          0
    24          0
    26          5
    27         82
    29        201
    30          4
    31          1
    33          1
    35          1
    37          6
    38          3
    39         67
    40         14
    41        656
    42         95
    43        660
    44          3
    45          0
    51          3
    52          1
    53         38
    54         85
    55        974
    56        254
    57        999
    58         39
    59          0
    63          1
    65          8
    66         10
    67        348
    68         51
    69        734
    70        184
    71        438
    72         23
    75          2
    76          1
    77          9
    78          1
    79         21
    80         13
    81         94
    82        814
    83        998
    84        151
    85        278
    86         16
    91         11
    93          4
    95         89
    96         52
    97        299
    98         76
    99         82
   100          2
   109         13
   110         18
   111        168
   112         40
   113         30
   123          5
   124         82
   125        282
   126         56
   127          9
   137          0
   138          1
   139         33
   140          3
   152          0
   153         14
   154        142
   155         41
   156          2
   167          1
   208         23
   209         90
   210         14
   238          0