##TITLE=Library Entry 32775
##JCAMP-DX=Revision 4.10 
##DATA TYPE=MASS SPECTRUM
##SAMPLE DESCRIPTION=Chemical Concepts
##NAMES=HP
##CAS NAME=Cyclooctene, 3-methyl-
##MOLFORM=C9H16
##CAS REGISTRY NO=13152-05-1
##MP= -300
##BP= -300
##MW= 124
##$RETENTION INDEX=958
##$CONDENSED SPECTRUM=NO
##NPOINTS= 97
##XYDATA=(XY..XY) 1 
    27        253
    28         40
    29        224
    30          5
    31          4
    35          0
    36          3
    37          3
    38         17
    39        371
    40         71
    41        630
    42        103
    43         65
    44          3
    45          3
    46          1
    47          0
    49          1
    50         18
    51         53
    52         28
    53        196
    54        393
    55        617
    56        161
    57         62
    58         12
    59          3
    60          1
    61          1
    62          5
    63         14
    64          2
    65         57
    66         65
    67        999
    68        571
    69        253
    70         94
    71         26
    72          3
    73          1
    74          3
    75          1
    76          1
    77         67
    78         12
    79        156
    80         58
    81        883
    82        592
    83         73
    84         10
    85          5
    86          1
    87          1
    88          0
    89          2
    90          0
    91         26
    92          3
    93         27
    94         15
    95        374
    96        408
    97         43
    98          6
    99          1
   100          0
   101          0
   102          1
   103          1
   104          0
   105          3
   106          1
   107          6
   108          1
   109        155
   110         15
   111          4
   112          3
   113          1
   114          0
   115          4
   116          0
   117          0
   118          0
   119          0
   120          0
   121          1
   122          1
   123          3
   124        159
   125         29
   126          3
   127          1