##TITLE=Library Entry 25766
##JCAMP-DX=Revision 4.10 
##DATA TYPE=MASS SPECTRUM
##SAMPLE DESCRIPTION=D.HENNEBERG, MAX-PLANCK INSTITUTE, MULHEIM, WEST GERMAN
Y
##NAMES=HP
##CAS NAME=Tridecane, 6-cyclohexyl-
##MOLFORM=C19H38
##CAS REGISTRY NO=13151-91-2
##MP= -300
##BP= -300
##MW= 266
##$RETENTION INDEX=0
##$CONDENSED SPECTRUM=NO
##NPOINTS= 90
##XYDATA=(XY..XY) 1 
    21          2
    25          0
    26          7
    27         57
    28         36
    29        184
    30          6
    37          7
    38          1
    39         52
    40         10
    41        524
    42         71
    43        601
    44          6
    47          2
    49          3
    50          3
    52          5
    53         34
    54         77
    55        777
    56        164
    57        999
    58         39
    59          1
    63          4
    65          9
    66         12
    67        289
    68         44
    69        379
    70        135
    71        559
    72         21
    74          1
    77         13
    78          1
    79         23
    80         12
    81         90
    82        580
    83        785
    84        103
    85        304
    86         19
    88          0
    91         13
    93          4
    95         48
    96        103
    97        438
    98         74
    99        100
   100          5
   105          1
   109         39
   110         20
   111        276
   112         49
   113         54
   114          6
   123         10
   124         21
   125        121
   126         26
   127         37
   129          2
   137          4
   138          5
   139         38
   140          9
   141         14
   151          0
   152          4
   153         11
   154         14
   165          2
   166         29
   167         52
   168          9
   180         13
   181         29
   182        119
   183         43
   184          0
   193          1
   194         19
   195         40
   196          3