##TITLE=Library Entry 73478
##JCAMP-DX=Revision 4.10 
##DATA TYPE=MASS SPECTRUM
##SAMPLE DESCRIPTION=Darrick Lee, Cayman Chemical, Ann Arbor, MI
##NAMES=HP
##CAS NAME=(-) WIN 55,212-3 mesilate
##MOLFORM=C27H26N2O3
##CAS REGISTRY NO=131543-25-4
##MP= -300
##BP= -300
##MW= 426
##$RETENTION INDEX=0
##$CONDENSED SPECTRUM=NO
##NPOINTS= 148
##XYDATA=(XY..XY) 1 
    41         12
    42         16
    43          5
    44          6
    45          2
    51          1
    53          1
    54          3
    56         56
    57          3
    58          1
    59          1
    63          2
    64          2
    65          1
    67          2
    68          8
    69          3
    70         28
    71          4
    72         11
    73          3
    74          2
    75          6
    76          2
    77          8
    78          1
    80          2
    82          2
    85          1
    86          2
    87          2
    88          1
    89          5
    90          2
    91          2
    96          1
    97          1
    98         18
   100        999
   101         62
   102          5
   103          3
   104          1
   113          1
   114          1
   115          7
   116          6
   117          4
   118          1
   119          2
   125          1
   126         15
   127         80
   128         16
   129          3
   130          1
   133          2
   134          1
   135          2
   139          1
   140          1
   141          3
   142          5
   143          4
   144          2
   146          1
   147          2
   149          2
   151          1
   152          1
   153          2
   154          3
   155         36
   156          5
   157          1
   158          1
   163          1
   165          3
   166          1
   167          1
   170          5
   171          2
   173          1
   177          1
   178          1
   184          2
   187          2
   188          1
   191          2
   193          1
   198          3
   200          3
   201          2
   202          5
   207          5
   208          2
   209          2
   213          2
   214          1
   215          2
   225          1
   226          3
   227          3
   228          3
   229          2
   239          2
   240          4
   241          5
   242          2
   243          1
   251          2
   252          3
   253          3
   254          7
   255          6
   256          2
   265          2
   267          3
   268          3
   269          2
   270          4
   271          2
   272          1
   278          2
   280          1
   281          2
   282          5
   283          6
   284          2
   294          2
   296          3
   297          2
   298          4
   299          1
   308          2
   310          2
   311          3
   312          1
   324          2
   326         16
   327          4
   338          1
   341          2
   343          1
   346          1
   426         14
   427          5