##TITLE=Library Entry 36026
##JCAMP-DX=Revision 4.10 
##DATA TYPE=MASS SPECTRUM
##SAMPLE DESCRIPTION=Chemical Concepts
##NAMES=HP
##CAS NAME=Cyclooctane, ethyl-
##MOLFORM=C10H20
##CAS REGISTRY NO=13152-02-8
##MP= -300
##BP= -300
##MW= 140
##$RETENTION INDEX=1092
##$CONDENSED SPECTRUM=NO
##NPOINTS= 60
##XYDATA=(XY..XY) 1 
    26         14
    27        123
    28         80
    29        148
    30          5
    31          5
    34          2
    36          2
    37          4
    38          1
    39        104
    40          7
    41        439
    42         94
    43        175
    44          9
    45          0
    50          4
    51         14
    52          7
    53         53
    54         37
    55        562
    56        122
    57         71
    58          3
    62          2
    63          3
    65         12
    66         10
    67         76
    68         31
    69        999
    70        123
    71         13
    74          0
    77          9
    78          4
    79          8
    80         11
    81         39
    82         19
    83         34
    84         23
    85          5
    91          2
    92          0
    95         10
    96          3
    97         22
    98         11
   105          2
   109          3
   110        109
   111        663
   112         71
   113          2
   115          2
   140         43
   141          6