##TITLE=Library Entry 52599
##JCAMP-DX=Revision 4.10 
##DATA TYPE=MASS SPECTRUM
##SAMPLE DESCRIPTION=D.HENNEBERG, MAX-PLANCK INSTITUTE, MULHEIM, WEST GERMAN
Y
##NAMES=HP
##CAS NAME=Dodecane, 4-cyclohexyl-
##MOLFORM=C18H36
##CAS REGISTRY NO=13151-84-3
##MP= -300
##BP= -300
##MW= 252
##$RETENTION INDEX=1787
##$CONDENSED SPECTRUM=NO
##NPOINTS= 79
##XYDATA=(XY..XY) 1 
    27         69
    28          6
    29        187
    30          3
    33          2
    35          2
    37          6
    38          2
    39         59
    40         10
    41        523
    42         94
    43        613
    44          7
    51          5
    53         34
    54         75
    55        859
    56        175
    57        912
    58         40
    59          0
    63          0
    65         10
    66          9
    67        299
    68         42
    69        364
    70        129
    71        506
    72         22
    75          1
    77          8
    78          1
    79         18
    80          7
    81         84
    82        639
    83        999
    84        129
    85        249
    86         16
    91         11
    92          1
    93          2
    95         34
    96         80
    97        357
    98         60
    99         68
   100          4
   109         30
   110         20
   111        147
   112         37
   113         44
   114          3
   123          3
   124          5
   125         78
   126         19
   127         18
   128          1
   137          5
   138         60
   139        122
   140         29
   141          1
   151          0
   152          2
   153         15
   154          1
   167          6
   168        113
   169         31
   170          1
   208         20
   209         53
   210          8