##TITLE=Library Entry 25362
##JCAMP-DX=Revision 4.10 
##DATA TYPE=MASS SPECTRUM
##SAMPLE DESCRIPTION=NIST Mass Spectrometry Data Center, 1990.
##NAMES=HP
##CAS NAME=Decane, 3-methyl-
##MOLFORM=C11H24
##CAS REGISTRY NO=13151-34-3
##MP= -300
##BP= -300
##MW= 156
##$RETENTION INDEX=1071
##$CONDENSED SPECTRUM=NO
##NPOINTS= 42
##XYDATA=(XY..XY) 1 
    14          9
    15          5
    27        172
    28         18
    29        334
    30          7
    39        147
    41        644
    42        146
    43        706
    44         27
    51          8
    52          4
    53         38
    54         26
    55        221
    56        424
    57        999
    58         44
    65          5
    67         17
    68         11
    69         62
    70        102
    71        752
    72         40
    77          3
    81          3
    82         15
    83         31
    84         45
    85        414
    86         28
    96          8
    97         41
    98         55
    99         19
   112          6
   126        129
   127        108
   128          9
   156         12