##TITLE=Library Entry 3181
##JCAMP-DX=Revision 4.10 
##DATA TYPE=MASS SPECTRUM
##SAMPLE DESCRIPTION=Chemical Concepts
##NAMES=HP
##CAS NAME=Cycloundecene (Z)
##MOLFORM=C11H20
##CAS REGISTRY NO=13151-61-6
##MP= -300
##BP= -300
##MW= 152
##$RETENTION INDEX=1223
##$CONDENSED SPECTRUM=NO
##NPOINTS= 73
##XYDATA=(XY..XY) 1 
    25          3
    26         23
    27        345
    28        116
    29        287
    30          8
    37          3
    38         12
    39        451
    40         86
    41        999
    42        149
    43        137
    44          6
    45          2
    50         12
    51         41
    52         24
    53        167
    54        698
    55        729
    56        122
    57         43
    58          6
    62          4
    63          5
    64          6
    65         53
    66         83
    67        930
    68        409
    69        329
    70         53
    71          6
    73          7
    75          2
    77         41
    78         10
    79         96
    80         53
    81        550
    82        534
    83        128
    84         13
    85          5
    91         15
    92          3
    93         20
    94         19
    95        338
    96        304
    97         49
    98          6
   103          3
   104          6
   105          2
   106          5
   107          5
   108          6
   109        118
   110         51
   111         10
   119          4
   121          1
   122          1
   123         26
   124         37
   125          5
   135          2
   137          4
   150          6
   152         88
   153         14