##TITLE=Library Entry 51461
##JCAMP-DX=Revision 4.10 
##DATA TYPE=MASS SPECTRUM
##SAMPLE DESCRIPTION=D.HENNEBERG, MAX-PLANCK INSTITUTE, MULHEIM, WEST GERMAN
Y
##NAMES=HP
##CAS NAME=Dodecane, 2-cyclohexyl-
##MOLFORM=C18H36
##CAS REGISTRY NO=13151-82-1
##MP= -300
##BP= -300
##MW= 252
##$RETENTION INDEX=0
##$CONDENSED SPECTRUM=NO
##NPOINTS= 78
##XYDATA=(XY..XY) 1 
    21          1
    26          4
    27         56
    28         18
    29        145
    30          4
    31          1
    33          0
    36          0
    38          3
    39         44
    40         13
    41        432
    42         72
    43        408
    44          6
    45          1
    52          0
    53         23
    54         63
    55        705
    56        134
    57        455
    58         19
    63          2
    65          4
    66         10
    67        277
    68         40
    69        424
    70         91
    71        201
    72         10
    73          0
    75          1
    76          2
    77          8
    78          4
    79          9
    80          7
    81         65
    82        999
    83        798
    84         85
    85        112
    86          6
    91          2
    93          1
    95         16
    96         18
    97         95
    98         25
    99         28
   100          1
   105          5
   107          1
   108          0
   109         11
   110         76
   111        281
   112         43
   113         14
   114          0
   116          1
   124          2
   125         20
   126         10
   127          7
   138          0
   139          6
   140         11
   141          0
   153          1
   167          2
   168         53
   169         13
   170          0
   252          1