##TITLE=Library Entry 22043
##JCAMP-DX=Revision 4.10 
##DATA TYPE=MASS SPECTRUM
##SAMPLE DESCRIPTION=D.HENNEBERG, MAX-PLANCK INSTITUTE, MULHEIM, WEST GERMAN
Y
##NAMES=HP
##CAS NAME=1-Decene, 2-methyl-
##MOLFORM=C11H22
##CAS REGISTRY NO=13151-27-4
##MP= -300
##BP= -300
##MW= 154
##$RETENTION INDEX=1085
##$CONDENSED SPECTRUM=NO
##NPOINTS= 61
##XYDATA=(XY..XY) 1 
    25          2
    26          5
    27        101
    28         23
    29        141
    30          8
    33          1
    35          2
    36          1
    38          6
    39         73
    40         23
    41        344
    42         76
    43        174
    49          1
    50          2
    51          9
    52          6
    53         36
    54         24
    55        261
    56        999
    57        288
    58         12
    64          0
    65          3
    66          5
    67         32
    68         26
    69        272
    70         94
    71          6
    72          2
    75          1
    77          2
    79          3
    80          1
    81         10
    82          5
    83         36
    84         23
    85          8
    91          1
    94          0
    96          4
    97         14
    98         25
    99          0
   103          0
   110          2
   111         17
   112          1
   125          1
   126         11
   127          0
   139          8
   151          0
   153          2
   154         30
   155          3