##TITLE=Library Entry 24784
##JCAMP-DX=Revision 4.10 
##DATA TYPE=MASS SPECTRUM
##SAMPLE DESCRIPTION=D.HENNEBERG, MAX-PLANCK INSTITUTE, MULHEIM, WEST GERMAN
Y
##NAMES=HP
##CAS NAME=Tridecane, 7-cyclohexyl-
##MOLFORM=C19H38
##CAS REGISTRY NO=13151-92-3
##MP= -300
##BP= -300
##MW= 266
##$RETENTION INDEX=1854
##$CONDENSED SPECTRUM=NO
##NPOINTS= 98
##XYDATA=(XY..XY) 1 
    25          0
    26         12
    27         63
    28         63
    29        193
    30          5
    31          4
    33          3
    37          4
    38         10
    39         68
    40         26
    41        606
    42         90
    43        615
    44          9
    46          6
    50          5
    51          9
    53         36
    54         95
    55        814
    56        159
    57        999
    58         33
    62          0
    63          5
    64          2
    65          3
    66          9
    67        314
    68         51
    69        520
    70        156
    71        553
    72         36
    77         23
    78          0
    79         37
    80         11
    81        132
    82        627
    83        759
    84        126
    85        345
    86         20
    91         26
    92          5
    93          6
    95         45
    96        132
    97        506
    98         78
    99        110
   100          4
   101          1
   104          4
   105          9
   106          3
   107          2
   109         60
   110         20
   111        353
   112         63
   113         42
   114          6
   119          4
   123         26
   124         13
   125        176
   126         31
   127         43
   128          3
   129          3
   131          6
   137         15
   138          5
   139         43
   140         16
   141         17
   151          0
   152         12
   153         13
   154         26
   165          0
   166         15
   167         10
   168         14
   175          4
   179          2
   180         66
   181         96
   182        140
   183         52
   184          3
   193          1
   194          7
   195          9