##TITLE=Library Entry 8636
##JCAMP-DX=Revision 4.10 
##DATA TYPE=MASS SPECTRUM
##SAMPLE DESCRIPTION=NIST Mass Spectrometry Data Center, 1990.
##NAMES=HP
##CAS NAME=1-Heptene, 4-methyl-
##MOLFORM=C8H16
##CAS REGISTRY NO=13151-05-8
##MP= -300
##BP= -300
##MW= 112
##$RETENTION INDEX=748
##$CONDENSED SPECTRUM=NO
##NPOINTS= 33
##XYDATA=(XY..XY) 1 
    15         11
    27        162
    28         49
    29        137
    39        386
    40         74
    41        560
    42        198
    43        999
    44         38
    50         17
    51         36
    52         17
    53         90
    54         43
    55        383
    56         95
    57         12
    63         11
    65         27
    66          9
    67         64
    68         39
    69        149
    70        710
    71        509
    72         28
    77         14
    79         11
    83         23
    84         54
    97          6
   112         20