##TITLE=Library Entry 51467
##JCAMP-DX=Revision 4.10 
##DATA TYPE=MASS SPECTRUM
##SAMPLE DESCRIPTION=D.HENNEBERG, MAX-PLANCK INSTITUTE, MULHEIM, WEST GERMAN
Y
##NAMES=HP
##CAS NAME=Decane, 2-cyclohexyl-
##MOLFORM=C16H32
##CAS REGISTRY NO=13151-73-0
##MP= -300
##BP= -300
##MW= 224
##$RETENTION INDEX=1659
##$CONDENSED SPECTRUM=NO
##NPOINTS= 72
##XYDATA=(XY..XY) 1 
    23          4
    25          7
    26          6
    27         71
    28         77
    29        166
    34          6
    35          5
    38          3
    39         61
    40         16
    41        485
    42         87
    43        420
    45         10
    46          1
    50          0
    53         45
    54         80
    55        743
    56        172
    57        359
    58         22
    59          4
    62          3
    63          1
    65          3
    66          8
    67        385
    68         47
    69        471
    70        132
    71        136
    72          7
    74          0
    75          6
    77          7
    78          7
    79         14
    80         18
    81         57
    82        999
    83        784
    84         92
    85        155
    86          7
    88          5
    89          4
    92          0
    94          1
    95         30
    96         19
    97         72
    98         40
    99         26
   105         11
   107          2
   109         28
   110         84
   111        355
   112         54
   115          3
   123          3
   124          5
   127          5
   128          3
   137          5
   140        103
   141         22
   152          1
   181          2
   224          9