##TITLE=Library Entry 52256
##JCAMP-DX=Revision 4.10 
##DATA TYPE=MASS SPECTRUM
##SAMPLE DESCRIPTION=D.HENNEBERG, MAX-PLANCK INSTITUTE, MULHEIM, WEST GERMAN
Y
##NAMES=HP
##CAS NAME=Decane, 4-cyclohexyl-
##MOLFORM=C16H32
##CAS REGISTRY NO=13151-75-2
##MP= -300
##BP= -300
##MW= 224
##$RETENTION INDEX=1592
##$CONDENSED SPECTRUM=NO
##NPOINTS= 74
##XYDATA=(XY..XY) 1 
    21          0
    25          3
    26          5
    27        101
    28         54
    29        210
    30          9
    33          1
    37          7
    38          4
    39         60
    40         13
    41        564
    42        120
    43        674
    44         11
    50          5
    52          2
    53         40
    54         77
    55        923
    56        193
    57        773
    58         28
    63          0
    65          6
    66         13
    67        329
    68         44
    69        366
    70        163
    71        371
    72         22
    73          1
    77          9
    78          3
    79         33
    80          7
    81         96
    82        636
    83        999
    84        159
    85        342
    86         26
    88          2
    91         13
    93          4
    95         56
    96         74
    97        417
    98         74
    99         52
   100          4
   105          0
   109         35
   110         15
   111        181
   112         42
   123          6
   124          2
   125         46
   137          7
   138         61
   139         90
   140        197
   141         32
   152          3
   153          2
   166          5
   167          3
   180         25
   181         87
   182          5
   224          5