##TITLE=Library Entry 20775
##JCAMP-DX=Revision 4.10 
##DATA TYPE=MASS SPECTRUM
##SAMPLE DESCRIPTION=D.HENNEBERG, MAX-PLANCK INSTITUTE, MULHEIM, WEST GERMAN
Y
##NAMES=HP
##CAS NAME=Decane, 5-cyclohexyl-
##MOLFORM=C16H32
##CAS REGISTRY NO=13151-76-3
##MP= -300
##BP= -300
##MW= 224
##$RETENTION INDEX=1577
##$CONDENSED SPECTRUM=NO
##NPOINTS= 76
##XYDATA=(XY..XY) 1 
    25          2
    26          9
    27        104
    28         83
    29        232
    30          8
    31          2
    33          2
    35          1
    38          6
    39         80
    40         11
    41        624
    42         92
    43        735
    44          6
    45          1
    49          1
    50          2
    51          9
    52          4
    53         51
    54        103
    55        999
    56        214
    57        806
    58         30
    61          2
    65         15
    66          6
    67        371
    68         58
    69        401
    70        160
    71        486
    72         25
    77         14
    79         24
    80         15
    81        108
    82        656
    83        930
    84        175
    85        400
    86         20
    88          2
    90          3
    91         17
    92          1
    93          2
    95         61
    96        100
    97        588
    98        106
    99         58
   100          2
   109         33
   110         27
   111        260
   112         57
   113          3
   123          8
   124          9
   125         31
   138          4
   139          6
   140        247
   141         49
   142          1
   152         49
   153         95
   154          8
   166         41
   167         86
   168          9
   224          2