##TITLE=Library Entry 52600
##JCAMP-DX=Revision 4.10 
##DATA TYPE=MASS SPECTRUM
##SAMPLE DESCRIPTION=D.HENNEBERG, MAX-PLANCK INSTITUTE, MULHEIM, WEST GERMAN
Y
##NAMES=HP
##CAS NAME=Tridecane, 3-cyclohexyl-
##MOLFORM=C19H38
##CAS REGISTRY NO=13151-88-7
##MP= -300
##BP= -300
##MW= 266
##$RETENTION INDEX=1921
##$CONDENSED SPECTRUM=NO
##NPOINTS= 103
##XYDATA=(XY..XY) 1 
    21          0
    25          6
    26          5
    27         64
    28         65
    29        253
    31          2
    32          1
    35          2
    37          5
    39         70
    40          5
    41        569
    42        118
    43        644
    47          0
    52          3
    53         42
    54         95
    55        876
    56        227
    57        981
    58         37
    63          1
    64          0
    65          7
    66         13
    67        346
    68         56
    69        663
    70        151
    71        475
    72         16
    76          4
    77         10
    78          5
    79         17
    80          6
    81         95
    82        805
    83        999
    84        145
    85        271
    86         18
    91         18
    93          4
    94          3
    95         46
    96         99
    97        325
    98         57
    99         70
   100          7
   103          1
   105          4
   107          4
   109         24
   110         22
   111        165
   112         23
   113         39
   115          3
   117          1
   118          1
   123         13
   124        108
   125        265
   126         33
   127         13
   128          2
   129         10
   130          4
   131          1
   137          2
   138          5
   139         61
   140          7
   141         12
   143          5
   144          3
   145          5
   148          0
   152          3
   153          9
   154         23
   155          2
   159          2
   166          1
   168          0
   173         18
   180          0
   181          2
   182         75
   183         20
   184          2
   187          5
   201          5
   215          3
   236         23
   237         57
   238         16
   239          1
   244          2