##TITLE=Library Entry 19142
##JCAMP-DX=Revision 4.10 
##DATA TYPE=MASS SPECTRUM
##SAMPLE DESCRIPTION=D.HENNEBERG, MAX-PLANCK INSTITUTE, MULHEIM, WEST GERMAN
Y
##NAMES=HP
##CAS NAME=Cyclooctane, 1,4-dimethyl-, cis-
##MOLFORM=C10H20
##CAS REGISTRY NO=13151-99-0
##MP= -300
##BP= -300
##MW= 140
##$RETENTION INDEX=1054
##$CONDENSED SPECTRUM=NO
##NPOINTS= 70
##XYDATA=(XY..XY) 1 
    24          3
    25          4
    26         13
    27        226
    28         37
    29        287
    30          9
    31          1
    34          1
    35          1
    36          2
    37          4
    38          7
    39        214
    40         45
    41        732
    42        220
    43        372
    44          3
    46          1
    47          1
    48          2
    50          5
    51         14
    52          8
    53         76
    54         47
    55        999
    56        686
    57        307
    58          9
    61          1
    62          1
    63          4
    65         13
    66          6
    67         89
    68         56
    69        669
    70        500
    71         89
    72          3
    74          1
    75          0
    77         10
    78          2
    79         11
    80          1
    81         34
    82         86
    83        388
    84        148
    85         26
    86          1
    91          2
    93          0
    94          1
    95          8
    96         18
    97        144
    98         52
    99          4
   110          9
   111         96
   112         98
   113          7
   125         78
   126          8
   140          8
   141          0