##TITLE=Library Entry 52597
##JCAMP-DX=Revision 4.10 
##DATA TYPE=MASS SPECTRUM
##SAMPLE DESCRIPTION=D.HENNEBERG, MAX-PLANCK INSTITUTE, MULHEIM, WEST GERMAN
Y
##NAMES=HP
##CAS NAME=Dodecane, 3-cyclohexyl-
##MOLFORM=C18H36
##CAS REGISTRY NO=13151-83-2
##MP= -300
##BP= -300
##MW= 252
##$RETENTION INDEX=1822
##$CONDENSED SPECTRUM=NO
##NPOINTS= 82
##XYDATA=(XY..XY) 1 
    21          2
    25          0
    26         11
    27         76
    28         33
    29        218
    30          2
    31          0
    33          0
    34          2
    37          7
    38          2
    39         58
    40         13
    41        617
    42         86
    43        654
    44          1
    50          1
    51          4
    52          1
    53         40
    54         79
    55        883
    56        215
    57        996
    58         34
    63          1
    65          7
    66         13
    67        312
    68         50
    69        676
    70        161
    71        462
    72         23
    77         12
    79         36
    80         10
    81         87
    82        815
    83        999
    84        131
    85        263
    86         13
    91         13
    93          3
    95         10
    96         55
    97        271
    98         64
    99         64
   100          2
   109         13
   110         13
   111        165
   112         39
   113         37
   114          2
   119          1
   123         10
   124         75
   125        255
   126         39
   127         17
   128          1
   137          3
   138          4
   139         41
   140         25
   141          7
   145          2
   152          1
   153         15
   159          2
   167          3
   168        105
   169         27
   170          2
   222         20
   223         74
   224          8