##TITLE=Library Entry 66529
##JCAMP-DX=Revision 4.10 
##DATA TYPE=MASS SPECTRUM
##SAMPLE DESCRIPTION=Japan AIST/NIMC Database- Spectrum MS-IW-2589
##NAMES=HP
##CAS NAME=Triisopropylsilyl chloride
##MOLFORM=C9H21ClSi
##CAS REGISTRY NO=13154-24-0
##MP= -300
##BP= -300
##MW= 192
##$RETENTION INDEX=0
##$CONDENSED SPECTRUM=NO
##NPOINTS= 107
##XYDATA=(XY..XY) 1 
    15          2
    26          1
    27         36
    28          3
    29          4
    31          2
    32          1
    36          2
    38          2
    39         26
    40          5
    41         65
    42         13
    43         57
    44         10
    45         21
    46          1
    53          4
    54          1
    55          9
    56          2
    57          3
    58          7
    59         27
    60          2
    61          1
    63         86
    64         11
    65         62
    66          6
    67         13
    68          1
    69         61
    70          7
    71         12
    72         12
    73         10
    74          1
    75          1
    77          1
    78         96
    79        286
    80         50
    81        101
    82          7
    83          4
    84          1
    85          9
    86          6
    87          6
    89          1
    90          3
    91         12
    92          6
    93        999
    94         81
    95        391
    96         26
    97         12
    98          2
    99          2
   100          1
   101          1
   103          2
   104          2
   105         31
   106         29
   107         95
   108         16
   109         30
   110          3
   111          2
   113          9
   114          7
   115          8
   116          1
   117          1
   119          9
   120          4
   121        839
   122         81
   123        298
   124         27
   125          9
   129          1
   131          1
   133         10
   134          2
   135          4
   136          1
   137          2
   139          2
   147          2
   148          5
   149        564
   150         68
   151        202
   152         22
   153          7
   156          5
   157         10
   158          2
   192         99
   193         15
   194         36
   195          6
   196          1