##TITLE=Library Entry 24783
##JCAMP-DX=Revision 4.10 
##DATA TYPE=MASS SPECTRUM
##SAMPLE DESCRIPTION=D.HENNEBERG, MAX-PLANCK INSTITUTE, MULHEIM, WEST GERMAN
Y
##NAMES=HP
##CAS NAME=Dodecane, 6-cyclohexyl-
##MOLFORM=C18H36
##CAS REGISTRY NO=13151-86-5
##MP= -300
##BP= -300
##MW= 252
##$RETENTION INDEX=1760
##$CONDENSED SPECTRUM=NO
##NPOINTS= 74
##XYDATA=(XY..XY) 1 
    26          7
    27         69
    28         19
    29        212
    30          3
    33          0
    39         54
    40         10
    41        525
    42         52
    43        677
    51          3
    52          1
    53         27
    54         75
    55        830
    56        174
    57        999
    58         51
    63          1
    65          6
    66          9
    67        302
    68         46
    69        382
    70        124
    71        543
    72         25
    74          0
    75          1
    77          4
    78          2
    79         15
    80          7
    81         70
    82        583
    83        782
    84        116
    85        330
    86         18
    91         10
    93          4
    94          3
    95         38
    96         91
    97        513
    98         75
    99         84
   100          6
   105          2
   109         20
   110         18
   111        254
   112         43
   113         55
   123          6
   124         14
   125         95
   126         28
   127         14
   138          3
   139         23
   140         19
   141          0
   151          1
   153          5
   166         34
   167         59
   168        154
   169         42
   170          1
   180         26
   181         63
   182          4