##TITLE=Library Entry 25765
##JCAMP-DX=Revision 4.10 
##DATA TYPE=MASS SPECTRUM
##SAMPLE DESCRIPTION=D.HENNEBERG, MAX-PLANCK INSTITUTE, MULHEIM, WEST GERMAN
Y
##NAMES=HP
##CAS NAME=Tridecane, 5-cyclohexyl-
##MOLFORM=C19H38
##CAS REGISTRY NO=13151-90-1
##MP= -300
##BP= -300
##MW= 266
##$RETENTION INDEX=1866
##$CONDENSED SPECTRUM=NO
##NPOINTS= 79
##XYDATA=(XY..XY) 1 
    25          0
    27         62
    28          6
    29        190
    30          1
    33          1
    39         51
    40         11
    41        470
    42         72
    43        626
    45          0
    48          1
    49          2
    50          1
    51          5
    52          2
    53         27
    54         81
    55        745
    56        180
    57        999
    58         34
    65         10
    66          7
    67        270
    68         45
    69        356
    70        120
    71        574
    72         29
    75          2
    77          9
    78          4
    79         23
    80          5
    81         93
    82        599
    83        789
    84        106
    85        292
    86         17
    91         22
    93          8
    95         40
    96         81
    97        507
    98         72
    99         70
   100          3
   109         30
   110         23
   111        198
   112         41
   113         57
   114          2
   122          2
   123          1
   124         15
   125         83
   126         17
   127         33
   128          1
   137          1
   138          4
   139         40
   140          9
   141         10
   149          1
   151          7
   152         56
   153         91
   154         25
   167          3
   182        108
   183         38
   208         21
   209         39
   210          5