##TITLE=Library Entry 73716
##JCAMP-DX=Revision 4.10 
##DATA TYPE=MASS SPECTRUM
##SAMPLE DESCRIPTION=United States Army Criminal Investigation Laboratory (U
SACIL)
##NAMES=HP
##CAS NAME=(R)-(+)-[2,3-Dihydro-5-methyl-3-(4-morpholinylmethyl)pyrrolo[1,2,
3-de]-1,4-benzoxazin-6-yl]-1-naphthalenylmethanone
##MOLFORM=C27H26N2O3
##CAS REGISTRY NO=131543-23-2
##MP= -300
##BP= -300
##MW= 426
##$RETENTION INDEX=0
##$CONDENSED SPECTRUM=NO
##NPOINTS= 186
##XYDATA=(XY..XY) 1 
    39          2
    40          1
    41         10
    42         12
    43          3
    44          5
    45          2
    51          1
    54          3
    55          3
    56         55
    57          3
    58          1
    63          2
    65          1
    67          1
    68          4
    69          1
    70         22
    71          3
    72          9
    73          1
    74          1
    75          3
    76          2
    77          7
    78          2
    80          1
    82          1
    85          1
    86          1
    87          1
    88          1
    89          5
    90          2
    91          1
    94          1
    96          1
    98         13
    99          3
   100        999
   101         62
   102          6
   103          2
   113          2
   114          2
   115          8
   116          6
   117          5
   118          1
   119          1
   121          1
   125          2
   126         14
   127         79
   128         13
   129          2
   133          1
   134          1
   135          1
   139          1
   140          1
   141          2
   142          5
   143          3
   144          1
   147          1
   148          1
   149          1
   150          1
   151          1
   152          1
   153          1
   154          4
   155         45
   156          6
   157          2
   158          1
   162          1
   163          1
   164          1
   165          2
   166          1
   169          1
   170          7
   171          2
   173          2
   174          1
   175          1
   176          2
   177          1
   179          1
   184          1
   187          1
   189          2
   190          1
   191          1
   192          1
   197          1
   198          4
   199          1
   200          4
   201          3
   202          5
   203          1
   205          1
   210          1
   212          2
   213          3
   214          2
   215          3
   216          1
   217          1
   221          1
   224          1
   225          1
   226          5
   227          4
   228          4
   229          2
   230          1
   238          1
   239          3
   240          4
   241          5
   242          2
   243          1
   251          2
   252          2
   253          4
   254          6
   255          5
   256          3
   257          2
   264          1
   265          1
   266          2
   267          2
   268          4
   269          3
   270          4
   271          2
   278          2
   279          1
   280          3
   281          2
   282          3
   283          5
   284          3
   285          2
   294          1
   295          1
   296          3
   297          3
   298          5
   299          2
   307          1
   308          2
   309          1
   310          3
   311          3
   312          1
   324          3
   325          3
   326         21
   327          5
   328          1
   329          1
   331          1
   332          1
   338          1
   339          1
   340          1
   341          1
   342          1
   343          1
   355          1
   356          1
   406          1
   424          2
   425          1
   426         91
   427         28
   428          5
   429          1
   430          1