##TITLE=Library Entry 20124
##JCAMP-DX=Revision 4.10 
##DATA TYPE=MASS SPECTRUM
##SAMPLE DESCRIPTION=D.HENNEBERG, MAX-PLANCK INSTITUTE, MULHEIM, WEST GERMAN
Y
##NAMES=HP
##CAS NAME=Cyclooctane, 1,4-dimethyl-, trans-
##MOLFORM=C10H20
##CAS REGISTRY NO=13151-98-9
##MP= -300
##BP= -300
##MW= 140
##$RETENTION INDEX=1052
##$CONDENSED SPECTRUM=NO
##NPOINTS= 68
##XYDATA=(XY..XY) 1 
    24          3
    26         10
    27        182
    28         35
    29        243
    32          1
    33          1
    36          2
    37          6
    38          6
    39        197
    40         37
    41        667
    42        183
    43        341
    44          7
    45          1
    46          1
    47          1
    49          2
    50          4
    51         17
    52          6
    53         63
    54         40
    55        999
    56        660
    57        297
    58         10
    61          0
    62          0
    63          3
    64          0
    65         11
    66          9
    67         89
    68         52
    69        715
    70        517
    71         86
    72          4
    75          0
    76          0
    77          7
    78          1
    79         11
    80          0
    81         35
    82         90
    83        469
    84        146
    85         26
    86          0
    91          1
    93          1
    95          8
    96         16
    97        143
    98         52
    99          4
   110         11
   111        102
   112         73
   113          6
   125        174
   126         15
   140         10
   141          0