##TITLE=Library Entry 14879
##JCAMP-DX=Revision 4.10 
##DATA TYPE=MASS SPECTRUM
##SAMPLE DESCRIPTION=Humboldt-Universitat zu Berlin, Department of Chemistry
, Analytical Group
##NAMES=HP
##CAS NAME=1,3-Bis(bis(prop-2-yl)aminomethyl)-2-bromobenzene
##MOLFORM=C20H35BrN2
##CAS REGISTRY NO=131508-06-0
##MP= -300
##BP= -300
##MW= 382
##$RETENTION INDEX=0
##$CONDENSED SPECTRUM=NO
##NPOINTS= 193
##XYDATA=(XY..XY) 1 
    12          6
    14         10
    15         45
    16         22
    17         98
    18        304
    26         19
    27        331
    28        142
    29         81
    30        433
    31         13
    32          8
    37          7
    38         15
    39        119
    40         24
    41        539
    42        330
    43        999
    44         85
    45          6
    50         23
    51         56
    52         24
    53         17
    54         24
    55         48
    56        147
    57         91
    58         36
    61          6
    62          9
    63         40
    64         11
    65         23
    67         11
    68         16
    69         20
    70         89
    71         26
    72        159
    73         14
    74         10
    75         11
    76         20
    77        182
    78        134
    79         42
    80         11
    81          6
    82         11
    83         15
    84        137
    85         14
    86         28
    87          6
    88          6
    89         69
    90         50
    91         79
    92         17
    93          6
    95          8
    97         10
    98         61
    99          7
   100         24
   101         10
   102         42
   103        336
   104        513
   105        201
   106         20
   111          6
   112         12
   114        130
   115         57
   116         33
   117         75
   118         58
   119         30
   120          6
   121          5
   122          6
   127          9
   128         19
   129         20
   130         40
   131         31
   132         17
   134         32
   135         27
   141         11
   142         16
   143         28
   144        114
   145         48
   146         17
   147          8
   148          4
   155         23
   156         26
   157         11
   158         35
   159         51
   160         40
   161          9
   162          4
   168          4
   169         11
   170          6
   171         18
   172          5
   173          5
   176         53
   177         50
   182         81
   183        685
   184        139
   185        678
   186        100
   187         21
   188         10
   189         18
   195          4
   196          9
   197         14
   198         13
   199         11
   200         11
   201          4
   202          4
   203         11
   204          6
   211          4
   213          3
   222          3
   224         15
   225         11
   226         18
   227          9
   228          5
   231          3
   238          8
   239          5
   240         33
   241          7
   242         21
   243          4
   245          5
   254          2
   263          1
   265          1
   266         23
   267         22
   268         68
   269         28
   270         49
   271          6
   282        200
   283         43
   284        208
   285         39
   286          3
   309         24
   310          4
   311         23
   312          4
   323          4
   325         14
   326          3
   327         11
   328          2
   346          1
   348          2
   350          0
   351          2
   353          6
   354          0
   355          2
   365          2
   367        897
   368        211
   369        945
   370        204
   371         20
   372          1
   382        130
   383         36
   384        122
   385         28
   386          3