##TITLE=Library Entry 76763
##JCAMP-DX=Revision 4.10 
##DATA TYPE=MASS SPECTRUM
##SAMPLE DESCRIPTION=Institute of Organic Chemistry, Novosibirsk, USSR 1988
##NAMES=HP
##CAS NAME=2-Methyl-6-phenyl-5,6-dihydro-4H-1,3-oxazine
##MOLFORM=C11H13NO
##CAS REGISTRY NO=13157-53-4
##MP= -300
##BP= -300
##MW= 175
##$RETENTION INDEX=0
##$CONDENSED SPECTRUM=NO
##NPOINTS= 105
##XYDATA=(XY..XY) 1 
    12         11
    15         79
    16         22
    24          2
    25          9
    26         71
    27        119
    28        131
    29         53
    30         88
    36          3
    37          6
    38          6
    39         83
    40          5
    41        199
    42        347
    43        464
    44         53
    48          1
    49          4
    50         51
    51        116
    52         41
    53         21
    54         26
    55        132
    56         54
    57        119
    58         18
    59         13
    60          9
    62          6
    63         30
    64          7
    65         33
    66          2
    67         27
    68         21
    69        185
    70         30
    71         61
    72         42
    73         60
    74         13
    75         12
    76         22
    77        225
    78        235
    79         59
    80          6
    81         26
    82         30
    83         67
    84        140
    85         21
    86          7
    87         59
    88          3
    89         25
    90          7
    91         55
    92          9
    93         10
    94          7
    95         26
    96         17
    97         41
    98          8
    99          9
   101          2
   102         31
   103        131
   104        999
   105        153
   106         23
   107         14
   109          6
   110          9
   111         31
   112         10
   113         11
   114          3
   115         51
   116        116
   117         43
   118         21
   119          7
   128          2
   129          7
   130          9
   131          5
   132        143
   133         47
   134          9
   145          3
   146          8
   147         11
   159          5
   160         46
   161          7
   174         37
   175        132
   176         17
   177          5