##TITLE=Library Entry 24780
##JCAMP-DX=Revision 4.10 
##DATA TYPE=MASS SPECTRUM
##SAMPLE DESCRIPTION=D.HENNEBERG, MAX-PLANCK INSTITUTE, MULHEIM, WEST GERMAN
Y
##NAMES=HP
##CAS NAME=Undecane, 5-cyclohexyl-
##MOLFORM=C17H34
##CAS REGISTRY NO=13151-80-9
##MP= -300
##BP= -300
##MW= 238
##$RETENTION INDEX=1671
##$CONDENSED SPECTRUM=NO
##NPOINTS= 73
##XYDATA=(XY..XY) 1 
    26          3
    27         93
    29        227
    30          6
    35          1
    38          2
    39         62
    40         10
    41        627
    42         75
    43        735
    44         13
    47          2
    50          0
    51          4
    52          0
    53         36
    54         82
    55        909
    56        182
    57        999
    58         38
    62          0
    63          1
    65          8
    66          9
    67        334
    68         41
    69        412
    70        136
    71        500
    72         22
    77          8
    78          0
    79         20
    80          8
    81         69
    82        618
    83        831
    84        122
    85        343
    86         17
    91         23
    92          0
    93          0
    95         30
    96         86
    97        531
    98         72
    99         93
   100          3
   105          3
   109         15
   110         13
   111        213
   112         41
   113         21
   123          1
   124          8
   125         79
   126         31
   138          0
   139          8
   152         38
   153         72
   154        173
   155         37
   156          2
   166          5
   167          9
   180         26
   181         56
   182          7