##TITLE=Library Entry 52596
##JCAMP-DX=Revision 4.10 
##DATA TYPE=MASS SPECTRUM
##SAMPLE DESCRIPTION=D.HENNEBERG, MAX-PLANCK INSTITUTE, MULHEIM, WEST GERMAN
Y
##NAMES=HP
##CAS NAME=Undecane, 4-cyclohexyl-
##MOLFORM=C17H34
##CAS REGISTRY NO=13151-79-6
##MP= -300
##BP= -300
##MW= 238
##$RETENTION INDEX=1689
##$CONDENSED SPECTRUM=NO
##NPOINTS= 80
##XYDATA=(XY..XY) 1 
    26          4
    27         74
    28          0
    29        190
    30          2
    31          1
    33          1
    38          0
    39         59
    40          9
    41        553
    42         92
    43        616
    44          8
    47          0
    49          0
    51          3
    52          2
    53         36
    54         76
    55        876
    56        181
    57        932
    58         37
    61          0
    65          9
    66         10
    67        338
    68         46
    69        404
    70        150
    71        425
    72         24
    76          1
    77          8
    78          2
    79         20
    80         11
    81         78
    82        661
    83        999
    84        146
    85        284
    86         15
    91         12
    93          2
    95         30
    96         79
    97        407
    98         69
    99         79
   100          4
   108          0
   109         23
   110         19
   111        159
   112         35
   113         33
   114          0
   123          0
   124          5
   125         83
   126         31
   127          2
   137          1
   138         58
   139        117
   140         13
   152          1
   153          3
   154        152
   155         37
   156          2
   166          0
   167          1
   181          1
   194         23
   195         67
   196          9
   238          2