##TITLE=Library Entry 97286
##JCAMP-DX=Revision 4.10 
##DATA TYPE=MASS SPECTRUM
##SAMPLE DESCRIPTION=Humboldt-Universitat zu Berlin, Department of Chemistry
, Analytical Group
##NAMES=HP
##CAS NAME=7,12-Dihydrophthalazino[2,3-b]phthalazin-5,14-dione
##MOLFORM=C16H12N2O2
##CAS REGISTRY NO=13152-91-5
##MP= -300
##BP= -300
##MW= 264
##$RETENTION INDEX=0
##$CONDENSED SPECTRUM=NO
##NPOINTS= 146
##XYDATA=(XY..XY) 1 
    12          1
    14          1
    15          2
    16          3
    17         23
    18         78
    26          7
    27         29
    28         39
    29          7
    30          2
    31          4
    37          6
    38         17
    39         70
    40          6
    41          9
    42          3
    43          6
    44          5
    45          3
    50        233
    51        108
    52         36
    53         10
    54          2
    55          4
    56          4
    57          4
    60          1
    61          3
    62         13
    63         48
    64         16
    65         23
    66          4
    67          1
    69          2
    70          2
    71          2
    73          5
    74         47
    75         71
    76        473
    77        164
    78        108
    79          9
    80          1
    81          1
    82          1
    83          1
    84          1
    85          1
    86          2
    87          4
    88          4
    89         69
    90         71
    91         24
    92          5
    93          1
    95          1
    97          1
    98          1
    99          2
   100          1
   101          4
   102         40
   103         84
   104        490
   105        148
   106         11
   107          1
   109          1
   110          1
   111          1
   113          1
   114          2
   116        224
   117        999
   118        134
   119         10
   120          2
   121          1
   125          1
   126          1
   127          1
   128          2
   130        127
   131         81
   132         26
   133         16
   134          6
   135          1
   138          1
   139          4
   140          1
   141          1
   144          3
   146          1
   147          2
   148         17
   149          3
   150          1
   151          4
   152          6
   153          2
   159          2
   160         15
   161          2
   163          1
   164          4
   165          7
   166          1
   173          1
   176          1
   177          2
   178          5
   179          3
   180          5
   181          1
   189          0
   190          3
   191          1
   192          2
   193          1
   205          2
   206          2
   207          3
   208          4
   209          1
   217          0
   218          1
   219          4
   220          2
   221          0
   234          1
   235          4
   236          2
   247          2
   248          1
   249          0
   263         13
   264        168
   265         30
   266          3