##TITLE=Library Entry 2951
##JCAMP-DX=Revision 4.10 
##DATA TYPE=MASS SPECTRUM
##SAMPLE DESCRIPTION=T. REICHENBACH
##NAMES=HP
##CAS NAME=1-Hexene, 1-bromo-, (E)-
##MOLFORM=C6H11Br
##CAS REGISTRY NO=13154-13-7
##MP= -300
##BP= -300
##MW= 162
##$RETENTION INDEX=0
##$CONDENSED SPECTRUM=NO
##NPOINTS= 100
##XYDATA=(XY..XY) 1 
    13          4
    14         10
    15         59
    16          2
    17          7
    18         27
    25          6
    26        107
    27        696
    28        129
    29        174
    30          4
    31          3
    32          1
    36          3
    37         27
    38         75
    39        580
    40         73
    41        999
    42        128
    43        672
    44         24
    45          6
    49          7
    50         45
    51         86
    52         33
    53        230
    54         50
    55        422
    56        718
    57         38
    58          2
    59          4
    60          2
    61          6
    62          8
    63         15
    64          3
    65         21
    66         12
    67         69
    68          7
    69         19
    70          2
    71          2
    72          2
    73         31
    74          7
    75          4
    77          9
    78          3
    79         25
    80         13
    81         44
    82         55
    83        259
    84         18
    85          2
    91          4
    92          5
    93         39
    94          5
    95         36
    97          3
    98          3
    99          2
   104          4
   105         16
   106         24
   107         23
   108         20
   109          9
   111          2
   113          2
   117          7
   119        153
   120         41
   121        154
   122         42
   123         14
   124          3
   125          2
   132          3
   133         15
   134          7
   135         14
   136          4
   137         41
   138          3
   139         42
   140          3
   147          3
   149          2
   161          2
   162        186
   163         15
   164        181
   165         13