##TITLE=Library Entry 77597
##JCAMP-DX=Revision 4.10 
##DATA TYPE=MASS SPECTRUM
##SAMPLE DESCRIPTION=James Little,Eastman Chem.Co.,Kingsport,TN
##NAMES=HP
##CAS NAME=Phthalazine, 1,2,3,4-tetrahydro-
##MOLFORM=C8H10N2
##CAS REGISTRY NO=13152-89-1
##MP= -300
##BP= -300
##MW= 134
##$RETENTION INDEX=0
##$CONDENSED SPECTRUM=NO
##NPOINTS= 37
##XYDATA=(XY..XY) 1 
    27        114
    28        327
    29         75
    30        115
    38         51
    39        163
    41         24
    50        191
    51        267
    52        109
    53         40
    62         45
    63        110
    65         62
    66         77
    74         60
    76         74
    77        288
    78        351
    79         96
    80         12
    89         79
    90         41
    91         56
   102         61
   103        269
   104        999
   105        210
   106         39
   116        116
   117         51
   118         16
   131         92
   132         41
   133        205
   134        726
   135         81