##TITLE=Library Entry 24782
##JCAMP-DX=Revision 4.10 
##DATA TYPE=MASS SPECTRUM
##SAMPLE DESCRIPTION=D.HENNEBERG, MAX-PLANCK INSTITUTE, MULHEIM, WEST GERMAN
Y
##NAMES=HP
##CAS NAME=Dodecane, 5-cyclohexyl-
##MOLFORM=C18H36
##CAS REGISTRY NO=13151-85-4
##MP= -300
##BP= -300
##MW= 252
##$RETENTION INDEX=1768
##$CONDENSED SPECTRUM=NO
##NPOINTS= 83
##XYDATA=(XY..XY) 1 
    26         12
    27         79
    28         84
    29        203
    30          5
    31          3
    35          1
    36          2
    37          0
    38          1
    39         56
    40          8
    41        545
    42         83
    43        661
    44         20
    52          2
    53         35
    54         80
    55        849
    56        199
    57        999
    58         36
    59          1
    62          0
    63          1
    65          9
    66         11
    67        307
    68         47
    69        423
    70        130
    71        594
    72         26
    76          1
    77         11
    78          5
    79         23
    80          9
    81         88
    82        616
    83        841
    84        122
    85        286
    86         16
    91         21
    92          1
    93          6
    94          3
    95         52
    96         95
    97        511
    98         78
    99         85
   100          2
   105          3
   109         29
   110         29
   111        203
   112         41
   113         52
   114          0
   117          1
   119          2
   123          4
   124         13
   125         87
   126         21
   127         18
   137          2
   138          4
   139         38
   140         20
   152         49
   153         82
   154          6
   166          3
   167          3
   168        138
   169         35
   194         25
   195         55
   196          5