##TITLE=Library Entry 37339
##JCAMP-DX=Revision 4.10 
##DATA TYPE=MASS SPECTRUM
##SAMPLE DESCRIPTION=D.HENNEBERG, MAX-PLANCK INSTITUTE, MULHEIM, WEST GERMAN
Y
##NAMES=HP
##CAS NAME=1-Heptene, 5-methyl-
##MOLFORM=C8H16
##CAS REGISTRY NO=13151-04-7
##MP= -300
##BP= -300
##MW= 112
##$RETENTION INDEX=757
##$CONDENSED SPECTRUM=NO
##NPOINTS= 64
##XYDATA=(XY..XY) 1 
    24          0
    26         18
    27        230
    28         19
    29        375
    30          9
    33          0
    34          0
    36          1
    37          5
    38         11
    39        251
    40         32
    41        707
    42        187
    43        713
    44         10
    45          1
    46          0
    47          0
    48          0
    49          1
    50          9
    51         22
    52          9
    53         61
    54         45
    55        916
    56        267
    57        228
    58          9
    60          0
    61          0
    62          1
    63          4
    64          0
    65          8
    66          4
    67         48
    68         12
    69        181
    70        999
    71        190
    72          8
    73          0
    74          0
    75          0
    77          6
    78          1
    79          6
    80          0
    81          9
    82         26
    83        256
    84         77
    85          4
    91          2
    95          0
    97         15
    98          1
   105          1
   111          0
   112         17
   113          1