##TITLE=Library Entry 9361
##JCAMP-DX=Revision 4.10 
##DATA TYPE=MASS SPECTRUM
##SAMPLE DESCRIPTION=Exported from NIST MS Search
##NAMES=HP
##CAS NAME=1-Butanamine, N-sulfinyl-
##MOLFORM=C4H9NOS
##CAS REGISTRY NO=13165-70-3
##MP= -300
##BP= -300
##MW= 119
##$RETENTION INDEX=0
##$CONDENSED SPECTRUM=NO
##NPOINTS= 14
##XYDATA=(XY..XY) 1 
    27        649
    29        350
    30        130
    39        230
    41        859
    42        160
    43        999
    50        130
    55        110
    70        539
    71        140
    75        110
    76        140
    77        889