##TITLE=Library Entry 4211
##JCAMP-DX=Revision 4.10 
##DATA TYPE=MASS SPECTRUM
##SAMPLE DESCRIPTION=Institute of Organic Chemistry, Novosibirsk, USSR 1988
##NAMES=HP
##CAS NAME=5-Methyl-2-phenylimino-1,3-thiazolidine
##MOLFORM=C10H12N2S
##CAS REGISTRY NO=13163-27-4
##MP= -300
##BP= -300
##MW= 192
##$RETENTION INDEX=0
##$CONDENSED SPECTRUM=NO
##NPOINTS= 89
##XYDATA=(XY..XY) 1 
    37         39
    38        109
    39        719
    40        359
    41        999
    42        319
    43        429
    44        179
    45        229
    46         59
    47         79
    50        179
    51        549
    52        139
    53         59
    54         59
    55        239
    56        329
    57        509
    58         99
    59        239
    60        159
    61         89
    62         39
    63        139
    64        139
    65        289
    66         59
    67         49
    68         19
    69         59
    70         49
    71         79
    72         99
    73         89
    74        189
    75        119
    76        139
    77        849
    78         59
    79         49
    80         19
    81         39
    82         49
    83         29
    84          9
    86         79
    88         29
    89         24
    90         39
    91        299
    92        129
    95         29
    96         29
    97         19
   103         79
   104        659
   105        119
   106         39
   107         19
   108         19
   109         59
   110          9
   117         49
   118        869
   119        169
   120         19
   122         29
   123         49
   130         49
   131        279
   132        319
   133         39
   135         89
   136         79
   137         19
   145         29
   146         19
   149         79
   150        369
   151        139
   152         29
   164         19
   175          9
   177         19
   191        929
   192        999
   193        139
   194         49