##TITLE=Library Entry 59558
##JCAMP-DX=Revision 4.10 
##DATA TYPE=MASS SPECTRUM
##SAMPLE DESCRIPTION=K. UNDHEIM
##NAMES=HP
##CAS NAME=Cycloheptatrienylium, iodide
##MOLFORM=C7H7I
##CAS REGISTRY NO=1316-80-9
##MP= -300
##BP= -300
##MW= 218
##$RETENTION INDEX=0
##$CONDENSED SPECTRUM=NO
##NPOINTS= 16
##XYDATA=(XY..XY) 1 
    39        300
    50         80
    51        100
    52         50
    61         40
    62         90
    63        190
    64         40
    65        680
    66         40
    77         30
    78         60
    89        150
    90         90
    91        999
    92        150