##TITLE=Library Entry 30418
##JCAMP-DX=Revision 4.10 
##DATA TYPE=MASS SPECTRUM
##SAMPLE DESCRIPTION=Div. of Experiment Therapeutics WRAIR, WRAMC, Washingto
n DC 20307
##NAMES=HP
##CAS NAME=N-Benzoyl-d-threo-O-methylthreonine
##MOLFORM=C12H15NO4
##CAS REGISTRY NO=131644-54-7
##MP= -300
##BP= -300
##MW= 237
##$RETENTION INDEX=0
##$CONDENSED SPECTRUM=NO
##NPOINTS= 83
##XYDATA=(XY..XY) 1 
    41         38
    43        126
    45        131
    46          5
    47          4
    49         20
    50         78
    51        261
    52         23
    54         32
    55         12
    56         15
    57          8
    59        999
    60         23
    61          1
    62          3
    63          5
    64          2
    65          3
    66          1
    67          1
    68          5
    69          5
    70          2
    71          5
    72          4
    74         19
    75         13
    77        513
    78         37
    79          5
    80          0
    82          1
    83          4
    84          7
    85          2
    86          6
    87          4
    88          4
    89          2
    90          1
    91          3
    92          0
    98          6
    99          4
   100          1
   102          2
   103          2
   105        545
   106         42
   107          3
   115          1
   116          3
   117          2
   118          1
   121          0
   122          6
   123          0
   130          0
   132          2
   133         11
   134          2
   135          0
   146          5
   147          0
   160          6
   161        102
   162         12
   177          1
   178          2
   179        160
   180         15
   181          1
   188          0
   192          9
   193          1
   205          3
   206          2
   207          0
   220          1
   237         10
   238          1