##TITLE=Library Entry 77548
##JCAMP-DX=Revision 4.10 
##DATA TYPE=MASS SPECTRUM
##SAMPLE DESCRIPTION=V.Zaikin,Inst.Petrochem.Synth.,RAS,Moscow
##NAMES=HP
##CAS NAME=4-Cyanobenzoic acid, 2-phenylethyl ester
##MOLFORM=C16H13NO2
##CAS REGISTRY NO=131786-46-4
##MP= -300
##BP= -300
##MW= 251
##$RETENTION INDEX=0
##$CONDENSED SPECTRUM=NO
##NPOINTS= 50
##XYDATA=(XY..XY) 1 
    26          5
    27         20
    29         10
    39         42
    40          5
    41         16
    42          2
    43          7
    50         42
    51         73
    52         16
    53          6
    55          3
    57          3
    61          2
    62          6
    63         20
    64          7
    65         54
    66          2
    69          3
    70          3
    73          3
    74         11
    75         46
    76         33
    77         43
    78         32
    79         18
    81          3
    84          2
    89          7
    90          7
    91        131
    92         14
    95          3
    99          2
   100          2
   101          9
   102        214
   103         62
   104        999
   105        109
   106          5
   119          4
   129          6
   130        321
   131         31
   132          4
   147          5