##TITLE=Library Entry 17066
##JCAMP-DX=Revision 4.10 
##DATA TYPE=MASS SPECTRUM
##SAMPLE DESCRIPTION=D.HENNEBERG, MAX-PLANCK INSTITUTE, MULHEIM, WEST GERMAN
Y
##NAMES=HP
##CAS NAME=Butane, 1,4-dimethoxy-
##MOLFORM=C6H14O2
##CAS REGISTRY NO=13179-96-9
##MP= -300
##BP= -300
##MW= 118
##$RETENTION INDEX=807
##$CONDENSED SPECTRUM=NO
##NPOINTS= 46
##XYDATA=(XY..XY) 1 
    27         38
    28         74
    29         79
    30          8
    31         23
    33         14
    37          1
    38          1
    39         17
    40          7
    41         83
    42         20
    43         56
    44          8
    45        999
    46         18
    47          7
    50          3
    51          1
    53         20
    54          4
    55         57
    56         41
    57         14
    58        814
    59         34
    60          5
    69         10
    70          2
    71        102
    72          8
    73          2
    75          4
    79          1
    81          1
    84          1
    85         25
    86         66
    87          6
    88          8
    90          1
    95          1
   103         81
   104          5
   108          1
   119          1