##TITLE=Library Entry 56251
##JCAMP-DX=Revision 4.10 
##DATA TYPE=MASS SPECTRUM
##SAMPLE DESCRIPTION=Chemical Concepts
##NAMES=HP
##CAS NAME=Diethylpent-4-enylamine
##MOLFORM=C9H19N
##CAS REGISTRY NO=13173-21-2
##MP= -300
##BP= -300
##MW= 141
##$RETENTION INDEX=0
##$CONDENSED SPECTRUM=NO
##NPOINTS= 83
##XYDATA=(XY..XY) 1 
    26          4
    27         50
    28         57
    29         76
    30        129
    31          2
    37          0
    38          2
    39         43
    40          7
    41        115
    42         83
    43         23
    44         41
    45          3
    46          0
    50          1
    51          3
    52          2
    53          9
    54         13
    55         21
    56         68
    57         19
    58        191
    59          8
    60          1
    63          1
    64          0
    65          4
    66          1
    67          9
    68          5
    69         15
    70         19
    71         17
    72        205
    73         10
    74          0
    76          0
    77          0
    78          0
    79          1
    80          2
    81          1
    82          4
    83          3
    84         24
    85          5
    86        999
    87         75
    88          2
    91          1
    92          0
    93          0
    94          1
    95          1
    96          4
    97          1
    98         12
    99         10
   100          3
   101          0
   107          0
   108          1
   109          0
   110          4
   111          1
   112         10
   113         27
   114          2
   115          0
   121          0
   122          0
   124          4
   125          0
   126         79
   127          8
   128          2
   140         11
   141         31
   142          4
   143          2