##TITLE=Library Entry 18084
##JCAMP-DX=Revision 4.10 
##DATA TYPE=MASS SPECTRUM
##SAMPLE DESCRIPTION=J. F. SMITH, LA TROBE UNIVERSITY, AUSTRALIA
##NAMES=HP
##CAS NAME=Benzoic acid, 4-nitroso-, methyl ester
##MOLFORM=C8H7NO3
##CAS REGISTRY NO=13170-28-0
##MP= -300
##BP= -300
##MW= 165
##$RETENTION INDEX=0
##$CONDENSED SPECTRUM=NO
##NPOINTS= 75
##XYDATA=(XY..XY) 1 
    12         20
    13         15
    14         55
    15        590
    16         15
    25          5
    26         35
    27         50
    28         70
    29        290
    30        750
    31          5
    36          5
    37         95
    38        140
    39        180
    40         20
    41         30
    42         10
    43         10
    44         10
    45         15
    49         45
    50        999
    51        180
    52         45
    53         75
    54          5
    55          5
    59        140
    60         10
    61         60
    62        110
    63        220
    64        150
    65         80
    66         15
    73         55
    74        380
    75        610
    76        830
    77        460
    78         45
    79         55
    80          5
    86         10
    87         15
    88         25
    89         20
    90         30
    91         30
    92        230
    93         20
   103        510
   104        470
   105         65
   106         20
   107         40
   108         10
   117          5
   118         10
   119        250
   120        400
   121         35
   122         10
   134        120
   135        630
   136         70
   137         10
   150          5
   151         20
   152          5
   165        850
   166         85
   167         20