##TITLE=Library Entry 24687
##JCAMP-DX=Revision 4.10 
##DATA TYPE=MASS SPECTRUM
##SAMPLE DESCRIPTION=G. Lange, Inst. Org. Chem., Univ. Wurzburg, Germany
##NAMES=HP
##CAS NAME=tert-Butyl cyclopropylmethyl sulfide
##MOLFORM=C8H16S
##CAS REGISTRY NO=131791-38-3
##MP= -300
##BP= -300
##MW= 144
##$RETENTION INDEX=0
##$CONDENSED SPECTRUM=NO
##NPOINTS= 40
##XYDATA=(XY..XY) 1 
    38          6
    39        142
    40         16
    41        385
    42         17
    43          5
    45         56
    46         49
    47         65
    49         10
    50          5
    51         11
    53         44
    54        167
    55        398
    56        102
    57        999
    58         63
    59         67
    60        138
    61         13
    62          6
    69         10
    73         28
    74          5
    75         12
    83         11
    85         10
    86          6
    87         47
    88        178
    89         34
    90         14
    95          7
   103         20
   118          5
   129         10
   144        206
   145         19
   146         10