##TITLE=Library Entry 32124
##JCAMP-DX=Revision 4.10 
##DATA TYPE=MASS SPECTRUM
##SAMPLE DESCRIPTION=Chemical Concepts
##NAMES=HP
##CAS NAME=Bicyclo[3.2.0]hept-2-en-6-one
##MOLFORM=C7H8O
##CAS REGISTRY NO=13173-09-6
##MP= -300
##BP= -300
##MW= 108
##$RETENTION INDEX=787
##$CONDENSED SPECTRUM=NO
##NPOINTS= 64
##XYDATA=(XY..XY) 1 
    26         23
    27         81
    28          6
    29          4
    31          1
    36          1
    37         12
    38         29
    39        130
    40         83
    41         23
    42         16
    43         13
    44          1
    45          0
    48          0
    49          2
    50         30
    51         44
    52         28
    53         24
    54         10
    55         10
    56          1
    57          2
    58          0
    60          1
    61          5
    62          6
    63         16
    64          5
    65         93
    66        999
    67         62
    68          2
    69          1
    70          0
    71          1
    73          2
    74          2
    75          0
    76          0
    77         64
    78         13
    79        209
    80         34
    81          6
    82          1
    83          0
    84          0
    85          1
    87          0
    89          1
    90          0
    91          2
    92          0
    93          1
   103          0
   104          0
   105          0
   106          1
   107          3
   108          8
   109          0