##TITLE=Library Entry 90827
##JCAMP-DX=Revision 4.10 
##DATA TYPE=MASS SPECTRUM
##SAMPLE DESCRIPTION=A.A.Kutin, Moscow, Russia
##NAMES=HP
##CAS NAME=3,3'-Iminodipropanenitrile, N-(1,3,4-thiadiazol-2-yl)-
##MOLFORM=C8H9N5S
##CAS REGISTRY NO=131706-30-4
##MP= -300
##BP= -300
##MW= 207
##$RETENTION INDEX=0
##$CONDENSED SPECTRUM=NO
##NPOINTS= 133
##XYDATA=(XY..XY) 1 
    33         10
    34          6
    35          2
    36          3
    37          5
    38         12
    39         27
    40        126
    41         98
    42        145
    43         42
    44         55
    45        235
    46         78
    47         20
    48          6
    49          3
    50          4
    51         28
    52         90
    53         72
    54        758
    55        333
    56         25
    57         17
    58         64
    59         49
    60         28
    61          3
    62          2
    63          1
    64          3
    65          3
    66         10
    67         24
    68         10
    69         10
    70         13
    71         16
    72         87
    73         13
    74         10
    75          1
    76          1
    77          2
    78          3
    79          8
    80          7
    81         88
    82         14
    83         90
    84         22
    85        157
    86         30
    87         40
    88          2
    89          1
    91          1
    92          1
    93          4
    94         18
    95          5
    96         12
    97          5
    98         17
    99         20
   100          9
   101         15
   102          7
   103          1
   104          0
   105          0
   106          1
   107          3
   108         17
   109          3
   110          2
   111         12
   112         14
   114        999
   115         54
   116         42
   117          4
   118          2
   119          3
   120          0
   121          3
   122         21
   123          5
   125          3
   126         10
   127         11
   128          4
   129          4
   130          0
   137          0
   138          6
   139         23
   140         19
   141          4
   142          2
   143          0
   147          0
   148          1
   149          4
   150          1
   151          2
   153         87
   154        104
   155         11
   156          5
   157          0
   161          1
   165          7
   167        651
   168         56
   169         27
   170          2
   171          2
   178          4
   179          4
   180          6
   181          2
   182          0
   184          0
   187          0
   189          0
   205          1
   206          7
   207        267
   208         32
   209         14
   210          1