##TITLE=Library Entry 61943
##JCAMP-DX=Revision 4.10 
##DATA TYPE=MASS SPECTRUM
##SAMPLE DESCRIPTION=G. Lange, Inst. Org. Chem., Univ. Wurzburg, Germany
##NAMES=HP
##CAS NAME=(2,3-Diphenylcyclopropyl)methyl phenyl sulfoxide, trans-
##MOLFORM=C22H20OS
##CAS REGISTRY NO=131758-71-9
##MP= -300
##BP= -300
##MW= 332
##$RETENTION INDEX=0
##$CONDENSED SPECTRUM=NO
##NPOINTS= 91
##XYDATA=(XY..XY) 1 
    39         18
    41          3
    44         17
    45         12
    50          8
    51         45
    52          6
    53          7
    55          1
    63         14
    64          4
    65         49
    66         10
    69          5
    74          3
    75          5
    76         10
    77         98
    78         34
    79         11
    81          3
    82          3
    84          3
    89         23
    90          3
    91        999
    92         75
    93          2
    94          2
    95          2
    97         16
   101          9
   102         17
   103         48
   104         12
   105         12
   109         19
   110         25
   111          2
   115        160
   116         33
   117         83
   118          8
   123          7
   125         27
   126         13
   127         62
   128        137
   129        959
   130        103
   131          6
   139          3
   141          3
   151          5
   152         15
   153          3
   163          2
   164          3
   165         37
   166          9
   167         10
   176          8
   177          8
   178         58
   179         25
   180          5
   186          2
   187          1
   189         18
   190         15
   191         40
   192         15
   193         89
   194         14
   199         26
   200          5
   201          4
   202         18
   203         20
   204         15
   205         30
   206         63
   207        238
   208         41
   209          3
   225          1
   226          1
   314          1
   316          7
   317          1
   332          2