##TITLE=Library Entry 91303
##JCAMP-DX=Revision 4.10 
##DATA TYPE=MASS SPECTRUM
##SAMPLE DESCRIPTION=Chemical Concepts
##NAMES=HP
##CAS NAME=Butanoic acid, 4-bromo-3-oxo-, ethyl ester
##MOLFORM=C6H9BrO3
##CAS REGISTRY NO=13176-46-0
##MP= -300
##BP= -300
##MW= 208
##$RETENTION INDEX=0
##$CONDENSED SPECTRUM=NO
##NPOINTS= 88
##XYDATA=(XY..XY) 1 
    25          8
    26         58
    27        240
    28         57
    29        687
    30         32
    31        234
    36          5
    37          7
    38         12
    39         31
    40          9
    41         55
    42        404
    43        810
    44        185
    45        167
    46         59
    47          7
    53         10
    55         54
    56         14
    57         45
    58          6
    59         12
    60         48
    61         16
    67          8
    69        245
    70         42
    71         14
    72          5
    73         36
    77          7
    79         16
    80         13
    81         16
    82         11
    83         15
    84         27
    85         12
    86          5
    87        174
    88         29
    91          7
    92          9
    93        120
    94         14
    95        109
    96          6
   100         51
   101         34
   105          6
   106          5
   107          5
   108         22
   109          5
   110         16
   115        999
   116         71
   117         11
   119          5
   120         26
   121        205
   122         32
   123        183
   124          6
   128         68
   129        372
   130         27
   131          6
   136         55
   137          5
   138         48
   139          6
   161         62
   163        169
   164         73
   165        161
   166         13
   167          7
   168          6
   180         15
   182         13
   208         33
   209          5
   210         33
   211          5