##TITLE=Library Entry 100201
##JCAMP-DX=Revision 4.10 
##DATA TYPE=MASS SPECTRUM
##SAMPLE DESCRIPTION=NIST Mass Spectrometry Data Center, 2010
##NAMES=HP
##CAS NAME=m-Xylylenediamine, N,N'-diacetyl
##MOLFORM=C12H16N2O2
##CAS REGISTRY NO=131711-99-4
##MP= -300
##BP= -300
##MW= 220
##$RETENTION INDEX=0
##$CONDENSED SPECTRUM=NO
##NPOINTS= 94
##XYDATA=(XY..XY) 1 
    14          1
    15          6
    27          2
    28         20
    29          2
    30         27
    31          1
    38          1
    39          8
    40          2
    41          5
    42         15
    43        188
    44          5
    45          1
    50          6
    51         16
    52          7
    53          3
    54          3
    55          1
    56          2
    59          1
    60         17
    61          1
    62          3
    63         13
    64          5
    65         24
    66          3
    67          1
    72          3
    74          2
    75          3
    76          6
    77         43
    78         20
    79         22
    80          5
    81          2
    87          1
    89         37
    90         38
    91        128
    92         50
    93          9
    94          1
   101          1
   102          5
   103         14
   104         28
   105         17
   106         80
   107         11
   108          1
   115          2
   116         12
   117         41
   118        210
   119        999
   120        138
   121         11
   128          1
   129          1
   130          2
   131          5
   132          3
   133         30
   134         11
   135         10
   136          2
   142          1
   143         10
   144          3
   145          1
   146          4
   147          1
   148          9
   149          6
   150          1
   159          2
   161        206
   162         30
   163          3
   175          1
   177         65
   178         13
   179          1
   201          1
   202         16
   203          2
   220         54
   221          7
   222          1