##TITLE=Library Entry 67008
##JCAMP-DX=Revision 4.10 
##DATA TYPE=MASS SPECTRUM
##SAMPLE DESCRIPTION=Zaikin V.G., TIPS RAS, Moscow, Russia
##NAMES=HP
##CAS NAME=Carbonic acid, isobutyl phenyl ester
##MOLFORM=C11H14O3
##CAS REGISTRY NO=13183-18-1
##MP= -300
##BP= -300
##MW= 194
##$RETENTION INDEX=1393
##$CONDENSED SPECTRUM=NO
##NPOINTS= 40
##XYDATA=(XY..XY) 1 
    26          3
    27         15
    29         56
    30          2
    39         72
    40         14
    41        120
    42          6
    44          9
    50          9
    51         29
    52          4
    54          5
    55         19
    56          6
    57        122
    58          5
    62          3
    63         10
    64          5
    65         55
    66         32
    67         10
    68          7
    74          2
    76          3
    77        120
    78         12
    81          6
    82          7
    90          2
    91          2
    93          8
    94        999
    95         76
    96          7
   107         16
   108          3
   121         11
   194          5