##TITLE=Library Entry 30928
##JCAMP-DX=Revision 4.10 
##DATA TYPE=MASS SPECTRUM
##SAMPLE DESCRIPTION=CARL DJERASSI DEPT OF CHEM STANFORD UNIV STANFORD CALIF
 94305
##NAMES=HP
##CAS NAME=Butyraldehyde, semicarbazone
##MOLFORM=C5H11N3O
##CAS REGISTRY NO=13183-21-6
##MP= -300
##BP= -300
##MW= 129
##$RETENTION INDEX=0
##$CONDENSED SPECTRUM=NO
##NPOINTS= 40
##XYDATA=(XY..XY) 1 
    41        490
    42        180
    43        490
    44        470
    45         40
    50         10
    51         20
    52         20
    53         30
    54         70
    55        120
    56         60
    57        510
    58        900
    59         30
    60        999
    61        280
    62         10
    66         10
    67         20
    68         50
    69         40
    70        380
    71        460
    72         30
    81         10
    83         10
    84         20
    85         50
    86        140
    87         10
    89         10
    95         10
    97         20
   100         10
   101        140
   102         10
   114         20
   129        220
   130         20