##TITLE=Library Entry 28279
##JCAMP-DX=Revision 4.10 
##DATA TYPE=MASS SPECTRUM
##SAMPLE DESCRIPTION=Chemical Concepts
##NAMES=HP
##CAS NAME=Carbamic acid, diethyl-, 2-hydroxy-1-methylethyl ester
##MOLFORM=C8H17NO3
##CAS REGISTRY NO=13188-38-0
##MP= -300
##BP= -300
##MW= 175
##$RETENTION INDEX=0
##$CONDENSED SPECTRUM=NO
##NPOINTS= 88
##XYDATA=(XY..XY) 1 
    26         58
    27        330
    28        228
    29        689
    30        238
    31        852
    32         12
    33          2
    36          1
    37          3
    38          5
    39         55
    40         20
    41        317
    42        274
    43        160
    44        340
    45        150
    46          6
    47          0
    50          2
    51          1
    52          4
    53          1
    54         10
    55         11
    56        148
    57        112
    58        999
    59        989
    60         37
    61          3
    62          5
    65          1
    66          2
    67          0
    68          1
    69          2
    70         42
    71         29
    72        665
    73         42
    74         14
    75          3
    77          2
    79          2
    80          0
    84         13
    85          1
    86         19
    87          6
    88         24
    89          2
    90         33
    91          3
    98          5
    99          2
   100        873
   101         54
   102        253
   103         20
   104          2
   114          4
   115          2
   116        618
   117         48
   118        635
   119         40
   120          3
   121          1
   123          0
   130         10
   131        115
   132          9
   135          1
   142          2
   144          7
   145         23
   146          3
   157          0
   158          2
   159          1
   160        223
   161         19
   162          2
   174          1
   175         24
   176          4