##TITLE=Library Entry 114
##JCAMP-DX=Revision 4.10 
##DATA TYPE=MASS SPECTRUM
##SAMPLE DESCRIPTION=Chemical Concepts
##NAMES=HP
##CAS NAME=1H-Indole-3-propanenitrile, .alpha.-amino-
##MOLFORM=C11H11N3
##CAS REGISTRY NO=131829-27-1
##MP= -300
##BP= -300
##MW= 185
##$RETENTION INDEX=0
##$CONDENSED SPECTRUM=NO
##NPOINTS= 105
##XYDATA=(XY..XY) 1 
    26        196
    27        999
    28         66
    29         48
    30          5
    31          7
    37          4
    38         10
    39         30
    40          5
    41         17
    42         18
    43        313
    44         10
    45         40
    46          2
    47          1
    49          9
    50         30
    51         59
    52         28
    53          9
    54          6
    55         25
    56          8
    57         19
    60          5
    61         34
    62         14
    63         29
    64         11
    65         16
    66          3
    67          4
    68          2
    69          7
    70         21
    71          7
    73         13
    74         18
    75         29
    76         33
    77        151
    78         25
    79         16
    80          2
    81          4
    83          5
    84          4
    85          4
    86          3
    87          6
    88         13
    89         13
    90          9
    91          5
    92          2
    93          1
    95          2
    96          2
    97          4
    98          3
    99          3
   100          3
   101         18
   102         54
   103        102
   104         15
   105          5
   107          2
   109          1
   111          2
   113          4
   114          6
   115          8
   116          4
   117         10
   118          3
   123          1
   125          1
   126          1
   127          3
   128         28
   129         38
   130        736
   131        112
   132          9
   139          1
   140          6
   141          6
   142          4
   143          3
   149          9
   150          1
   155          9
   156         12
   157         26
   158        149
   159         20
   160          2
   167          1
   168          2
   169          1
   185         26
   186          4