##TITLE=Library Entry 96426
##JCAMP-DX=Revision 4.10 
##DATA TYPE=MASS SPECTRUM
##SAMPLE DESCRIPTION=Japan AIST/NIMC Database- Spectrum MS-IW-4201
##NAMES=HP
##CAS NAME=1-Methyl-5-mercaptotetrazole
##MOLFORM=C2H4N4S
##CAS REGISTRY NO=13183-79-4
##MP= -300
##BP= -300
##MW= 116
##$RETENTION INDEX=0
##$CONDENSED SPECTRUM=NO
##NPOINTS= 51
##XYDATA=(XY..XY) 1 
    14          4
    15         46
    26          2
    27         12
    28        133
    29         18
    30          9
    32          8
    33          6
    34          8
    35          1
    36          1
    38          2
    39          2
    40          4
    41          5
    42         53
    43         45
    44         31
    45         25
    46         29
    47         24
    48          2
    49          1
    52          1
    53         15
    54          6
    55        151
    56         75
    57         10
    58         19
    59         31
    60         35
    61         22
    62          2
    63          1
    64          6
    70          2
    71          2
    72         52
    73        215
    74         10
    75          9
    76          6
    83          2
    87          1
   116        999
   117         49
   118         46
   119          2
   120          1