##TITLE=Library Entry 47581
##JCAMP-DX=Revision 4.10 
##DATA TYPE=MASS SPECTRUM
##SAMPLE DESCRIPTION=Exported from NIST MS Search
##NAMES=HP
##CAS NAME=Sydnone, 4-bromo-3-phenyl-
##MOLFORM=C8H5BrN2O2
##CAS REGISTRY NO=13183-09-0
##MP= -300
##BP= -300
##MW= 240
##$RETENTION INDEX=0
##$CONDENSED SPECTRUM=NO
##NPOINTS= 26
##XYDATA=(XY..XY) 1 
    39         80
    44         60
    50        160
    51        270
    52         50
    63         40
    64         30
    74         40
    75         60
    76        230
    77        999
    78         70
    91         60
    92         60
   101         20
   102         50
   103        410
   104         30
   182        480
   183         50
   184        480
   185         50
   240        120
   241         10
   242        120
   243         10