##TITLE=Library Entry 60873
##JCAMP-DX=Revision 4.10 
##DATA TYPE=MASS SPECTRUM
##SAMPLE DESCRIPTION=Exported from NIST MS Search
##NAMES=HP
##CAS NAME=1,3,4-Thiadiazole, 2,3-dihydro-2,3,5-triphenyl-
##MOLFORM=C20H16N2S
##CAS REGISTRY NO=13187-62-7
##MP= -300
##BP= -300
##MW= 316
##$RETENTION INDEX=0
##$CONDENSED SPECTRUM=NO
##NPOINTS= 19
##XYDATA=(XY..XY) 1 
    91        999
    92         84
   103        105
   104        768
   105         78
   121         57
   122         26
   180         94
   181         52
   194        271
   195         39
   207        205
   208         31
   239        281
   240         52
   315         26
   316        657
   317        189
   318         52