##TITLE=Library Entry 66723
##JCAMP-DX=Revision 4.10 
##DATA TYPE=MASS SPECTRUM
##SAMPLE DESCRIPTION=Japan AIST/NIMC Database- Spectrum MS-IW-7853
##NAMES=HP
##CAS NAME=1H-Imidazole-4-carboxamide, N-phenyl-
##MOLFORM=C10H9N3O
##CAS REGISTRY NO=13189-13-4
##MP= -300
##BP= -300
##MW= 187
##$RETENTION INDEX=0
##$CONDENSED SPECTRUM=NO
##NPOINTS= 76
##XYDATA=(XY..XY) 1 
    26          1
    27          9
    28         24
    29          1
    37          2
    38          6
    39         22
    40         39
    41         36
    42          3
    43          1
    44          3
    45          1
    46          1
    50          6
    51         18
    52          7
    53          4
    54          2
    55          1
    56          1
    57          1
    59          1
    61          1
    62          2
    63          9
    64         13
    65         41
    66         49
    67         35
    68         99
    69          6
    71          1
    74          2
    75          1
    76          5
    77         23
    78          6
    79          1
    89          1
    90          2
    91         15
    92         16
    93        999
    94         76
    95        386
    96         20
    97          1
   103          5
   104          8
   105          1
   114          1
   115          1
   116          2
   117          2
   118          1
   119         40
   120          4
   131          3
   132          4
   141          2
   142          3
   144          1
   145          1
   149          5
   158          1
   159          9
   160          8
   168          2
   169          7
   170          2
   185          1
   186         29
   187        579
   188         72
   189          5