##TITLE=Library Entry 24334
##JCAMP-DX=Revision 4.10 
##DATA TYPE=MASS SPECTRUM
##SAMPLE DESCRIPTION=Japan AIST/NIMC Database- Spectrum MS-NW-5847
##NAMES=HP
##CAS NAME=2-Bromo dodecane
##MOLFORM=C12H25Br
##CAS REGISTRY NO=13187-99-0
##MP= -300
##BP= -300
##MW= 248
##$RETENTION INDEX=1505
##$CONDENSED SPECTRUM=NO
##NPOINTS= 93
##XYDATA=(XY..XY) 1 
    15          2
    26          4
    27         83
    28         11
    29        147
    30          4
    38          2
    39         59
    40         12
    41        308
    42         92
    43        629
    44         25
    45          1
    50          1
    51          3
    52          3
    53         22
    54         25
    55        280
    56        126
    57        999
    58         45
    59          1
    63          1
    65          4
    66          2
    67         25
    68         16
    69        165
    70         78
    71        593
    72         36
    73          1
    75          1
    77          4
    79          4
    80          4
    81         10
    82         12
    83         72
    84         39
    85        396
    86         27
    87          1
    91          1
    93          1
    95          5
    96          6
    97         44
    98         15
    99        139
   100         12
   105          1
   106          1
   107          4
   109          5
   110          3
   111         18
   112          8
   113         96
   114          9
   119          1
   120          1
   121          3
   122          1
   123          3
   124          1
   125          5
   126          4
   127         48
   128          6
   133          1
   134          1
   135          2
   136          1
   137          2
   139          2
   140          4
   141          1
   149          5
   151          5
   155          1
   163          1
   165          2
   166          1
   167          2
   168         12
   169        105
   170         15
   171          1
   248          1
   250          1