##TITLE=Library Entry 1889
##JCAMP-DX=Revision 4.10 
##DATA TYPE=MASS SPECTRUM
##SAMPLE DESCRIPTION=NIST Mass Spectrometry Data Center, 1994
##NAMES=HP
##CAS NAME=1,1-Dibromopropene
##MOLFORM=C3H4Br2
##CAS REGISTRY NO=13195-80-7
##MP= -300
##BP= -300
##MW= 198
##$RETENTION INDEX=0
##$CONDENSED SPECTRUM=NO
##NPOINTS= 56
##XYDATA=(XY..XY) 1 
     4          4
    12          4
    13          3
    14          4
    15         11
    24          4
    25         19
    26         28
    27         22
    28         15
    32          0
    36         31
    37        164
    38        264
    39        999
    40         53
    79         84
    80         20
    81         84
    82         18
    83          4
    91         22
    93         75
    94          8
    95         48
    99          1
   100          3
   101          1
   103          3
   104         17
   105          3
   106         16
   107          2
   115          3
   116         12
   117         51
   118          1
   119        463
   120          1
   121        402
   122         13
   158          3
   160          4
   162          2
   170          5
   171          5
   172         12
   173         11
   174          6
   175          4
   185          3
   198        117
   200        247
   201         14
   202        121
   203          3