##TITLE=Library Entry 29379
##JCAMP-DX=Revision 4.10 
##DATA TYPE=MASS SPECTRUM
##SAMPLE DESCRIPTION=MI-0151
##NAMES=HP
##CAS NAME=D-Brompheniramine
##MOLFORM=C16H19BrN2
##CAS REGISTRY NO=132-21-8
##MP= -300
##BP= -300
##MW= 318
##$RETENTION INDEX=0
##$CONDENSED SPECTRUM=NO
##NPOINTS= 164
##XYDATA=(XY..XY) 1 
    35          1
    36         22
    37          1
    38         14
    39         51
    40         19
    41         44
    42        208
    43         68
    44         97
    45         41
    46          8
    49          2
    50         21
    51         62
    52         41
    53         22
    54         18
    55         27
    56         71
    57         60
    58        999
    59         54
    60          1
    61          2
    62         18
    63         35
    64         18
    65         20
    66          7
    67         18
    68         14
    69         11
    70         28
    71         43
    72        392
    73         28
    74          8
    75         27
    76         18
    77         47
    78         56
    79         38
    80         19
    81         14
    82         19
    83          9
    84         28
    85         12
    86        188
    87         19
    88         11
    89         35
    90         24
    91         36
    92         12
    93         25
    94         17
    95          9
    96         14
    97         11
    98         11
    99         39
   100         23
   101         16
   102         20
   103         29
   104         18
   105         11
   106         11
   111          6
   112         10
   113         18
   114         20
   115         49
   116         19
   117         23
   118         28
   119         10
   126          8
   127         11
   128         13
   129          9
   130          1
   137          6
   138         11
   139         49
   140         37
   141         14
   142          7
   143         10
   144         11
   145         15
   146          2
   147          3
   148          1
   149          8
   150          3
   151         14
   152         19
   153         12
   154         18
   155          1
   162          8
   163         11
   164         20
   165         24
   166         60
   167        339
   168        220
   169         60
   170          6
   171          8
   172          1
   177          7
   178         15
   179         18
   180         63
   181         36
   182         17
   183          1
   184          5
   185          1
   189          8
   190         16
   191         43
   192         44
   193         63
   194         27
   195         13
   196          1
   202          3
   203         12
   204          4
   205         12
   206          1
   245         10
   246        134
   247        738
   248        224
   249        788
   250        118
   251         18
   252          3
   258          8
   260         24
   261          9
   262         18
   263          1
   270          3
   271         48
   272         19
   273         51
   274         33
   275         16
   276         23
   277         10
   278          1
   300          1
   301         11
   302          4
   303         10
   318          3
   320          4