##TITLE=Library Entry 13177
##JCAMP-DX=Revision 4.10 
##DATA TYPE=MASS SPECTRUM
##SAMPLE DESCRIPTION=NIST Mass Spectrometry Data Center
##NAMES=HP
##CAS NAME=Oplopanonyl acetate
##MOLFORM=C17H28O3
##CAS REGISTRY NO=132032-86-1
##MP= -300
##BP= -300
##MW= 280
##$RETENTION INDEX=1886
##$CONDENSED SPECTRUM=NO
##NPOINTS= 113
##XYDATA=(XY..XY) 1 
    27         14
    28         24
    29         19
    39         32
    40         11
    41        152
    42          9
    43        999
    44         18
    45         25
    51          8
    52          6
    53         44
    54          6
    55         93
    56         14
    57         13
    58          9
    59          4
    60          8
    61          5
    63         11
    65         34
    66         22
    67        126
    68         22
    69        136
    70          7
    71        138
    72         18
    77        101
    78         21
    79        187
    80         12
    81        127
    82         22
    83         21
    84         11
    85         35
    89          4
    91        158
    92         28
    93        145
    94         29
    95        102
    96         16
    97         20
   102          3
   103         12
   104          6
   105         91
   106         22
   107        217
   108         41
   109         83
   110         30
   111         58
   112          5
   113          5
   115         20
   116         11
   117         26
   118         11
   119         72
   120         25
   121        127
   122         22
   123         30
   124         13
   125         12
   126         82
   127          7
   130          5
   131         13
   132         12
   133        119
   134         34
   135        284
   136         39
   137         43
   139          8
   142          5
   145         22
   146          8
   147         74
   148         10
   149         42
   150        434
   151         44
   153        142
   154         18
   157          4
   159         83
   160         31
   161         27
   162         63
   163         24
   169          4
   175         22
   176         14
   177        500
   178         74
   179          9
   187         41
   188          5
   195          3
   202         27
   203         31
   205        145
   206         22
   220        315
   221         70
   222          9