##TITLE=Library Entry 67070
##JCAMP-DX=Revision 4.10 
##DATA TYPE=MASS SPECTRUM
##SAMPLE DESCRIPTION=Chemical Concepts
##NAMES=HP
##CAS NAME=1-(3-Chlorophenyl)-3-(2-pyridyl)urea
##MOLFORM=C12H10ClN3O
##CAS REGISTRY NO=13208-35-0
##MP= -300
##BP= -300
##MW= 247
##$RETENTION INDEX=0
##$CONDENSED SPECTRUM=NO
##NPOINTS= 94
##XYDATA=(XY..XY) 1 
    33          1
    35          4
    36          9
    37         29
    38         63
    39        127
    40         46
    41         61
    42          7
    43          5
    44          7
    45         10
    47          6
    49          9
    50         37
    51         79
    52         42
    53          9
    54          8
    55          2
    56          1
    57          2
    60          5
    61         12
    62         27
    63         75
    64         49
    65         70
    67        481
    68         21
    69          2
    70          1
    71          2
    73         22
    74         10
    75         38
    76         10
    78        171
    79         10
    80          1
    81          1
    83          5
    85          9
    86          2
    87          4
    88          5
    90         69
    91         22
    92         47
    94        999
    95         51
    96          2
    97          2
    98          6
    99         33
   100         15
   101         11
   102          5
   105          1
   106         13
   109          1
   111         17
   112          2
   113          6
   114          1
   117          1
   120         63
   121        106
   122          7
   124          7
   125         37
   127        271
   128         18
   129         75
   130          4
   134          1
   140          1
   152          1
   153         58
   155         23
   156          2
   161          1
   163          1
   168          2
   169          1
   183          1
   203          1
   210          2
   211          1
   212          1
   247         73
   248          9
   249         21
   250          3