##TITLE=Library Entry 57274
##JCAMP-DX=Revision 4.10 
##DATA TYPE=MASS SPECTRUM
##SAMPLE DESCRIPTION=J. SHAW, BORRISTON RESEARCH, ROCKVILLE, MD, USA
##NAMES=HP
##CAS NAME=2,4-DB isooctyl ester
##MOLFORM=C18H26Cl2O3
##CAS REGISTRY NO=1320-15-6
##MP= -300
##BP= -300
##MW= 360
##$RETENTION INDEX=0
##$CONDENSED SPECTRUM=NO
##NPOINTS= 138
##XYDATA=(XY..XY) 1 
    33          2
    34         11
    35          1
    36          9
    37          3
    38          8
    39         92
    40        160
    41        607
    42        256
    43        622
    44         52
    45         86
    46          2
    47          1
    49          2
    50          6
    51          7
    52          2
    53         21
    54         11
    55        246
    56         71
    57        678
    58         45
    59          9
    60          5
    61          4
    62          9
    63         47
    64          5
    65          6
    66          2
    67         13
    68         14
    69        422
    70        137
    71        580
    72         39
    73         22
    74         10
    75         20
    76          3
    77          9
    78          1
    79          4
    80          1
    81          7
    82          6
    83         44
    84         16
    85         44
    87        999
    88        111
    89         15
    90          1
    91          8
    92          1
    93          2
    94          1
    95          4
    96          2
    97         14
    98         21
    99         16
   100         23
   101         18
   102          6
   103          3
   105          3
   107          4
   109         21
   110          6
   111         24
   112         15
   113        120
   114         10
   115          3
   116          1
   118          1
   119          1
   121          1
   123          1
   125          5
   126          8
   127          6
   128         11
   129          3
   130          3
   131          1
   133         27
   134          2
   135         17
   136          1
   137          4
   138          1
   139          2
   140          1
   141          4
   143          1
   145         18
   146          2
   147         14
   148          1
   149          7
   150          1
   151          1
   153          2
   154          2
   155          1
   159          1
   161         15
   162        173
   163         19
   164        107
   165          9
   166         17
   167          2
   168          2
   169          2
   170          1
   175         14
   177         11
   178          1
   179          1
   188          1
   189          4
   190          1
   191          3
   199         38
   200          4
   203          1
   231         25
   233         18
   234          1
   235          2
   360          1
   362          1