##TITLE=Library Entry 15318
##JCAMP-DX=Revision 4.10 
##DATA TYPE=MASS SPECTRUM
##SAMPLE DESCRIPTION=NIST Mass Spectrometry Data Center, 1990.
##NAMES=HP
##CAS NAME=1-Methyldecylamine
##MOLFORM=C11H25N
##CAS REGISTRY NO=13205-56-6
##MP= -300
##BP= -300
##MW= 171
##$RETENTION INDEX=0
##$CONDENSED SPECTRUM=NO
##NPOINTS= 64
##XYDATA=(XY..XY) 1 
    14          0
    15          5
    16          0
    17          0
    18         44
    26          3
    27         39
    28         27
    29         51
    30         59
    31          0
    32          0
    37          0
    39         22
    40          7
    41         87
    42         49
    43        110
    44        999
    45         28
    46          0
    50          0
    51          1
    52          0
    53          4
    54          5
    55         47
    56         35
    57         23
    58          6
    59          2
    65          0
    66          0
    67          4
    68          2
    69         20
    70         12
    71          4
    72          0
    77          0
    79          0
    80          0
    81          1
    82          1
    83         12
    84          2
    85          0
    86          0
    95          0
    96          0
    97          4
    98          1
   100          1
   111          0
   112          0
   114          0
   126          0
   154          0
   156         27
   157          3
   158          0
   170          5
   171          1
   172          0