##TITLE=Library Entry 72933
##JCAMP-DX=Revision 4.10 
##DATA TYPE=MASS SPECTRUM
##SAMPLE DESCRIPTION=Exported from NIST MS Search
##NAMES=HP
##CAS NAME=2-Butenoic acid, 2-methyl-
##MOLFORM=C5H8O2
##CAS REGISTRY NO=13201-46-2
##MP= -300
##BP= -300
##MW= 100
##$RETENTION INDEX=928
##$CONDENSED SPECTRUM=NO
##NPOINTS= 60
##XYDATA=(XY..XY) 1 
     7          0
    14          3
    15         10
    17          3
    18         11
    19          2
    25          4
    26         39
    27        218
    28        100
    29        263
    30          7
    31         10
    32          6
    36          2
    37         13
    38         22
    39        212
    40         18
    41        109
    42         13
    43         68
    45         93
    46          4
    47          2
    48          2
    49         12
    50         54
    51         57
    52         22
    53        152
    54        191
    55        730
    56         78
    57         45
    58         11
    59          3
    60         14
    66          3
    67         10
    68          2
    69         11
    70          2
    71         16
    72         24
    73         17
    78          2
    79          2
    81         22
    82        156
    83        104
    84          7
    85        255
    86         12
    87          2
    97          4
    99         38
   100        999
   101         63
   102          4