##TITLE=Library Entry 28887
##JCAMP-DX=Revision 4.10 
##DATA TYPE=MASS SPECTRUM
##SAMPLE DESCRIPTION=Chemical Concepts
##NAMES=HP
##CAS NAME=Boron, [[1-[(dimethylamino)methyl]-2-ethyl-1-methylbutyl]dimethyl
silanolato(2-)]ethyl-, (t-4)-
##MOLFORM=C14H32BNOSi
##CAS REGISTRY NO=132021-13-7
##MP= -300
##BP= -300
##MW= 269
##$RETENTION INDEX=0
##$CONDENSED SPECTRUM=NO
##NPOINTS= 159
##XYDATA=(XY..XY) 1 
    26          1
    27         10
    29         27
    30         24
    31         10
    37          0
    39          9
    40          1
    41         37
    42         36
    43         27
    44         16
    45         21
    46         15
    47          0
    51          1
    52          0
    53          7
    54          2
    55         25
    57          8
    58        999
    59        135
    60         10
    61          4
    63          0
    64          0
    65          2
    66          1
    67         10
    68          3
    69         39
    70          8
    71          9
    72         10
    73         90
    74          9
    75          4
    77          2
    78          0
    79          4
    80          1
    81          9
    82          3
    83          2
    84          5
    85         14
    86         11
    87         18
    88         14
    89          1
    90          0
    91          1
    93          1
    94          1
    95         10
    96          4
    97          9
    98          3
    99         18
   100          3
   101          4
   102        209
   103         22
   104          7
   105          0
   107          0
   108          1
   109          3
   110         10
   111         14
   112          4
   113          8
   114          7
   115         11
   116         60
   117          6
   118          1
   120          0
   121          1
   122          0
   123          1
   124          0
   125          5
   126          3
   127          5
   128          6
   129          3
   130          5
   131          0
   133          1
   136          0
   137          1
   138          1
   139          9
   140          3
   141          2
   142          2
   143          4
   144          8
   145          0
   150          1
   152          0
   153          7
   154          2
   155          6
   156          4
   157         20
   158         75
   159          9
   160          3
   165          2
   166          6
   167          1
   168         22
   169          7
   170          3
   171          0
   175          1
   176          0
   178          0
   181          0
   182          2
   183          1
   184          8
   185          1
   186          0
   189          1
   191          0
   193          0
   196          0
   197          0
   198          3
   199          0
   207          3
   208          0
   209          0
   210          0
   211          2
   212          0
   213         13
   214          3
   215          0
   223          3
   224         12
   225          2
   226          0
   237          0
   239          0
   240          3
   241          0
   249          0
   250          0
   254          0
   263          0
   267          0
   268          0
   269          3
   270          0