##TITLE=Library Entry 84804
##JCAMP-DX=Revision 4.10 
##DATA TYPE=MASS SPECTRUM
##SAMPLE DESCRIPTION=Leung Pu, NIH, Bethesda, Maryland, U.S.
##NAMES=HP
##CAS NAME=Hydrazinecarbothioamide, N,1-diphenyl-
##MOLFORM=C13H13N3S
##CAS REGISTRY NO=13207-47-1
##MP= -300
##BP= -300
##MW= 243
##$RETENTION INDEX=0
##$CONDENSED SPECTRUM=NO
##NPOINTS= 128
##XYDATA=(XY..XY) 1 
    41         10
    42          3
    43          6
    44          6
    45          8
    47          1
    48          1
    49          6
    50         31
    51        135
    52         22
    53         10
    54          3
    55          4
    56          2
    57          5
    58          2
    59          3
    60          6
    61          2
    62          5
    63         22
    64         31
    65        100
    66         18
    67          4
    68          3
    69         23
    70          4
    71          2
    72          1
    73          2
    74          7
    75          9
    76         16
    77        373
    78         73
    79         43
    80         13
    81         22
    82          4
    83          4
    84         16
    85          2
    86          3
    87          1
    88          1
    90          7
    91        117
    92        143
    93         62
    94          8
    95          2
    96          7
    97          6
    98          2
    99          2
   100          4
   102          1
   103          3
   104          9
   105          6
   106          5
   107         50
   108        999
   109        146
   110         11
   111          5
   112         18
   113         14
   115          0
   117          2
   118          8
   119          6
   120          1
   121          2
   122          4
   123          6
   124          7
   125          3
   128          2
   129          1
   131          5
   133          4
   134         14
   135         67
   136        133
   137         15
   138          8
   139          1
   140          0
   141          0
   148          0
   149          4
   150          7
   151          5
   152          3
   153          0
   154          1
   160          0
   161          2
   162          1
   166          2
   167          5
   168          2
   169          1
   180          1
   181          1
   184          0
   192          1
   193          2
   194          8
   195          5
   196          0
   198          2
   208          3
   209          0
   212          1
   219         11
   224          3
   225         17
   226          4
   227          4
   228          3
   243        298
   244         51
   245         16
   246          2