##TITLE=Library Entry 28894
##JCAMP-DX=Revision 4.10 
##DATA TYPE=MASS SPECTRUM
##SAMPLE DESCRIPTION=Chemical Concepts
##NAMES=HP
##CAS NAME=Boron, [[1-[(dimethylamino)methyl]-2-ethyl-1-phenylbutyl]dimethyl
silanolato(2-)]ethyl-, (t-4)-
##MOLFORM=C19H34BNOSi
##CAS REGISTRY NO=132021-11-5
##MP= -300
##BP= -300
##MW= 331
##$RETENTION INDEX=0
##$CONDENSED SPECTRUM=NO
##NPOINTS= 193
##XYDATA=(XY..XY) 1 
    26          1
    27          5
    28          2
    29          8
    30         11
    31          8
    39          2
    40         21
    41          8
    42         28
    43         28
    44         13
    45         14
    46         11
    47          1
    51          2
    53          2
    54          1
    55          7
    56          8
    57          8
    58        999
    59        199
    60         14
    61          6
    63          0
    65          2
    67          2
    68          0
    69          4
    70          2
    71          6
    72         12
    73         24
    74          4
    75          1
    76          0
    77          6
    78          1
    79          1
    81          2
    82          0
    83          4
    84          5
    85         10
    86         13
    87         21
    88         29
    89          4
    90          1
    91         15
    92          1
    93          1
    94          0
    95          2
    96          0
    97          2
    98          1
    99          7
   100          3
   101          7
   102        523
   103         69
   104         22
   105         12
   106          1
   107          6
   108          0
   109          1
   111          1
   112          1
   113          4
   114         12
   115         38
   116        165
   117         24
   118          7
   119          4
   120          1
   121         16
   122          2
   123          1
   125          0
   126          0
   127          5
   128         11
   129         12
   130          9
   131         10
   132          3
   133          4
   134          1
   135         92
   136         12
   137          3
   138          0
   139          0
   140          0
   141          3
   142          5
   143         10
   144          6
   145         18
   146          4
   147         10
   148          2
   149          2
   150          0
   152          0
   153          0
   154          0
   155          2
   156         11
   157         79
   158        296
   159         48
   160         14
   161          5
   162          3
   163          0
   164          5
   165          0
   169          1
   170          2
   171          2
   172          2
   173          7
   174          3
   175          2
   176          1
   178          0
   179          2
   183          0
   184          1
   185          1
   186          1
   187          3
   188          2
   189          2
   190         13
   191          3
   192          0
   198          0
   200          0
   201          8
   202          2
   203          1
   204          2
   205          7
   206          1
   207          0
   213          0
   214          0
   215          6
   216          3
   217          7
   218          2
   227          0
   228          3
   229          2
   230         24
   231          8
   232          7
   233          1
   244          0
   246         14
   247          2
   248          0
   257          1
   258          0
   260          6
   261          1
   271          0
   272          1
   273          2
   274          2
   275         20
   276          5
   277          1
   285          0
   286          2
   287          0
   301          1
   302          5
   303          1
   304          0
   315          0
   316          2
   317          0
   330          4
   331         15
   332          4
   333          1