##TITLE=Library Entry 22533
##JCAMP-DX=Revision 4.10 
##DATA TYPE=MASS SPECTRUM
##SAMPLE DESCRIPTION=Exported from NIST MS Search
##NAMES=HP
##CAS NAME=1-Azabicyclo[2.2.2]octane, 2,6-dimethyl-, (1.alpha.,2.beta.,4.alp
ha.,6.beta.)-
##MOLFORM=C9H17N
##CAS REGISTRY NO=13218-10-5
##MP= -300
##BP= -300
##MW= 139
##$RETENTION INDEX=0
##$CONDENSED SPECTRUM=NO
##NPOINTS= 22
##XYDATA=(XY..XY) 1 
    41        295
    42        213
    43         33
    55        197
    56        999
    57         82
    68         82
    69        180
    70        492
    71         82
    82         82
    83         49
    84         25
    85         16
    96        393
    97        230
    98         98
   110         74
   111         66
   124        361
   138         41
   139        295