##TITLE=Library Entry 64821
##JCAMP-DX=Revision 4.10 
##DATA TYPE=MASS SPECTRUM
##SAMPLE DESCRIPTION=K. Kirk, LC, NIDDK, NIH, Bethesda, MD 20892
##NAMES=HP
##CAS NAME=Fluorobenzene, 2,3-dibenzyloxy-6-oxiranylmethoxy-
##MOLFORM=C23H21FO4
##CAS REGISTRY NO=132178-22-4
##MP= -300
##BP= -300
##MW= 380
##$RETENTION INDEX=0
##$CONDENSED SPECTRUM=NO
##NPOINTS= 143
##XYDATA=(XY..XY) 1 
    41         14
    42          3
    43          5
    44          3
    45          2
    46          0
    49          1
    50         10
    51         15
    52          4
    53          2
    54          1
    55          3
    57         52
    58          2
    59          2
    60          0
    61          2
    62          5
    63         16
    65         97
    66          5
    67          0
    68          0
    69          5
    70          2
    71          2
    73          1
    74          1
    75          1
    76          1
    77          6
    78          2
    79          3
    81          1
    82          1
    83          1
    84          0
    85          1
    86          3
    87          1
    89         22
    91        999
    92         69
    93          2
    95          0
    97          5
    98          1
    99          0
   101          2
   103          4
   104          2
   105          4
   106          1
   107          1
   109          1
   112          0
   113          0
   114          1
   115          2
   117          1
   125          1
   126          1
   127          7
   128          1
   129          1
   131          1
   133          1
   139          1
   141          1
   143          1
   144          4
   145          0
   146          1
   147          1
   149          0
   152          0
   153          0
   154          0
   155          3
   156          1
   157          1
   159          1
   165          2
   166          1
   167          2
   168          0
   169          0
   170          1
   175          0
   178          1
   179          1
   180          2
   181         48
   182          9
   183          1
   185          0
   187         10
   188          1
   192          0
   197          0
   199          1
   200          8
   201          1
   203          1
   205         21
   206          2
   207          0
   211          0
   212          1
   213          1
   215          3
   216          1
   217          4
   218          1
   231          6
   232          4
   233          2
   234          0
   243          0
   245          1
   261          7
   262          2
   269          0
   271          1
   272          0
   273          1
   274          1
   288          5
   289         29
   290         10
   291          1
   324          2
   325          1
   335          1
   336          0
   360          0
   362          0
   364          1
   380        167
   381         41
   382          6
   383          0