##TITLE=Library Entry 1052
##JCAMP-DX=Revision 4.10 
##DATA TYPE=MASS SPECTRUM
##SAMPLE DESCRIPTION=Japan AIST/NIMC Database- Spectrum MS-NW-5567
##NAMES=HP
##CAS NAME=Benzenebutanamine
##MOLFORM=C10H15N
##CAS REGISTRY NO=13214-66-9
##MP= -300
##BP= -300
##MW= 149
##$RETENTION INDEX=1285
##$CONDENSED SPECTRUM=NO
##NPOINTS= 77
##XYDATA=(XY..XY) 1 
    15          2
    17          3
    18         10
    26          2
    27         15
    28         11
    29          5
    30        999
    31         20
    32          1
    38          3
    39         34
    40          3
    41         20
    42          9
    43         39
    44         16
    45        294
    46          7
    50          9
    51         26
    52          8
    53          5
    54          3
    55          2
    56         24
    57          3
    58          6
    61          1
    62          4
    63         14
    64          4
    65         53
    66          4
    69          1
    70          2
    71          4
    74          3
    75          3
    76          3
    77         29
    78         16
    79         11
    80          1
    84          1
    86          1
    87          1
    89          9
    90          5
    91        144
    92         17
    93          1
   102          3
   103         14
   104        121
   105         24
   106         17
   107          2
   115         11
   116          6
   117         22
   118          7
   119          1
   120          1
   127          1
   128          2
   129          4
   130          2
   131         18
   132         38
   133          5
   145          3
   146          1
   148          6
   149        157
   150         18
   151          1