##TITLE=Library Entry 64650
##JCAMP-DX=Revision 4.10 
##DATA TYPE=MASS SPECTRUM
##SAMPLE DESCRIPTION=K. Kirk, LBC, NIDDK, NIH, Bethesda, MD 20892
##NAMES=HP
##CAS NAME=Phenol, 4,5-dibenzyloxy-2-fluoro-
##MOLFORM=C20H17FO3
##CAS REGISTRY NO=132178-21-3
##MP= -300
##BP= -300
##MW= 324
##$RETENTION INDEX=0
##$CONDENSED SPECTRUM=NO
##NPOINTS= 110
##XYDATA=(XY..XY) 1 
    41         10
    42          1
    43          1
    44          0
    45          1
    49          1
    50          4
    51         15
    52          4
    53          3
    55          1
    57          4
    58          2
    62          3
    63         14
    64          6
    65         91
    66          5
    69         14
    70          3
    71          2
    72          0
    73          4
    74          0
    75          1
    76          0
    77          8
    78          2
    79          6
    80          0
    81          0
    83          0
    84          1
    85          0
    86         11
    87          0
    88          0
    89         21
    91        999
    92         44
    93          3
    95          0
    97          1
    98          0
    99          2
   102          0
   103          0
   104          4
   105          5
   106          1
   107          2
   108          1
   113          2
   114         13
   115          3
   116          0
   117          0
   126          0
   127          3
   128          1
   129          1
   131          0
   133          0
   135          0
   139          1
   141          1
   143          0
   144          6
   145          0
   146          0
   152          0
   155          4
   156          2
   157          2
   159          2
   165          2
   166          1
   167          3
   168          0
   177          0
   178          0
   179          1
   180          1
   181         63
   182         15
   183          3
   185          1
   186          0
   187          0
   191          1
   203          0
   204          0
   205          1
   206          0
   215          2
   216          0
   217          0
   231          5
   232         12
   233         35
   234          6
   235          0
   261          0
   262          4
   263          0
   323          1
   324        409
   325         92
   326         12
   327          1