##TITLE=Library Entry 27269
##JCAMP-DX=Revision 4.10 
##DATA TYPE=MASS SPECTRUM
##SAMPLE DESCRIPTION=Chemical Concepts
##NAMES=HP
##CAS NAME=2,4-Di-t-butyladamantane-2,4-diol
##MOLFORM=C18H32O2
##CAS REGISTRY NO=132156-48-0
##MP= -300
##BP= -300
##MW= 280
##$RETENTION INDEX=0
##$CONDENSED SPECTRUM=NO
##NPOINTS= 226
##XYDATA=(XY..XY) 1 
    36          1
    37          1
    38          2
    39         79
    40         13
    41        454
    42         37
    43        291
    44         11
    45         26
    46          0
    47          0
    49          0
    50          4
    51         14
    52          7
    53         55
    54         14
    55        230
    56         36
    57        999
    58         52
    59         55
    60         15
    61          5
    62          1
    63          4
    64          2
    65         34
    66         19
    67        125
    68         19
    69        132
    70         41
    71         75
    72          8
    73         18
    74          4
    75          4
    76          2
    77         83
    78         31
    79        198
    80         35
    81        163
    82         25
    83        119
    84         19
    85        129
    86         11
    87         13
    88          3
    89          6
    90          2
    91        156
    92         53
    93        209
    94         43
    95        195
    96         53
    97         71
    98         16
    99         18
   100          3
   101          7
   102          7
   103         16
   104          9
   105        188
   106         42
   107        199
   108         33
   109        123
   110         24
   111         47
   112         14
   113         19
   114          3
   115         20
   116          9
   117         36
   118          8
   119        168
   120         37
   121        245
   122         32
   123         54
   124         11
   125         25
   126          8
   127         12
   128          9
   129         17
   130          5
   131        127
   132         21
   133         63
   134         19
   135         88
   136         19
   137         33
   138         43
   139         14
   140          3
   141          9
   142          3
   143          8
   144          3
   145         92
   146         17
   147         87
   148         70
   149        149
   150         26
   151         14
   152          4
   153         10
   154          6
   155          5
   156          1
   157          4
   158          2
   159         30
   160         13
   161         82
   162         25
   163         85
   164         15
   165         42
   166          9
   167         20
   168          4
   169          5
   171         31
   172          6
   173         14
   174          3
   175         16
   176          7
   177         74
   178         14
   179          9
   180          5
   181         10
   182          4
   183          4
   184          1
   185          5
   186          3
   187        397
   188         66
   189         71
   190         15
   191         37
   192          9
   193          6
   194          2
   195          3
   196          2
   197          2
   198          0
   199          2
   200          1
   201         12
   202          3
   203         15
   204        106
   205        523
   206        114
   207         16
   208          2
   209          2
   210          1
   211          2
   212          0
   213          1
   215         22
   216          4
   217          2
   218          1
   219         13
   220          4
   221          9
   222          2
   223         16
   224          3
   225          2
   226          0
   227          0
   228          3
   229         22
   230          4
   231          1
   232          2
   233         15
   234          3
   235          1
   236          1
   237          2
   238          1
   239          1
   240          0
   242          0
   243          1
   244          8
   245          2
   246          0
   247        314
   248         58
   249          7
   250          1
   251          1
   253          0
   256          1
   257          1
   258          1
   259          0
   260          1
   261          2
   262         71
   263         24
   264          3
   265          0
   279          0
   280          0
   281          1