##TITLE=Library Entry 100152
##JCAMP-DX=Revision 4.10 
##DATA TYPE=MASS SPECTRUM
##SAMPLE DESCRIPTION=Chemical Concepts
##NAMES=HP
##CAS NAME=Boron, diethyl[1-ethyl-2-[methylphenyl[(trimethylgermyl)oxy]silyl
]-1-propenyl-C,O]-, (t-4)-
##MOLFORM=C19H35BGeOSi
##CAS REGISTRY NO=132126-08-0
##MP= -300
##BP= -300
##MW= 392
##$RETENTION INDEX=0
##$CONDENSED SPECTRUM=NO
##NPOINTS= 160
##XYDATA=(XY..XY) 1 
    27         21
    29          7
    37          3
    39         12
    41         75
    43         39
    44          1
    45          5
    50          3
    51         10
    53          7
    55          5
    57          4
    59         17
    61          3
    65          4
    67          7
    69         10
    71          5
    73         23
    74          2
    75          9
    77          5
    78          3
    79          4
    81          4
    83         19
    85         10
    87         18
    88          5
    89         23
    90          3
    91         15
    93          6
    95          6
    97          5
    99          2
   100          7
   101          8
   102          9
   103         14
   104         16
   105         57
   106          8
   107         13
   109          3
   110          2
   111          9
   115        548
   116         19
   117        763
   118        229
   119        999
   120         36
   121        236
   122         12
   123          6
   129          5
   131         12
   132          3
   133         11
   135         91
   136         11
   137         20
   138          5
   139         14
   140          3
   143          6
   145         19
   146          5
   147         13
   148          2
   149         21
   150          4
   151         17
   153          4
   159         40
   160          9
   161          9
   162          3
   163         12
   164          3
   165          8
   166          6
   167         19
   168          3
   169          2
   171          3
   172          2
   173         33
   174          8
   175          5
   177         77
   178          6
   179        102
   180         33
   181        123
   182         10
   183         26
   184          2
   187          5
   188         11
   189          4
   191          3
   193          5
   197          4
   201         12
   202          6
   203          3
   205          5
   207          3
   209          4
   215          5
   217          3
   221          4
   223          5
   225          6
   227          3
   228         11
   229         44
   230          9
   231          4
   235          8
   237          9
   238          3
   239         12
   240          3
   241          7
   243          4
   244          5
   245          2
   249          2
   251         27
   252          4
   253         33
   254         15
   255         46
   256          7
   257         12
   265          2
   267          2
   269          4
   277          2
   279          3
   313          3
   315          5
   316          2
   317          6
   346          2
   347          3
   348          2
   358         14
   359         66
   360         32
   361         98
   362         73
   363        124
   364         32
   365         29
   366          6