##TITLE=Library Entry 100157
##JCAMP-DX=Revision 4.10 
##DATA TYPE=MASS SPECTRUM
##SAMPLE DESCRIPTION=Chemical Concepts
##NAMES=HP
##CAS NAME=Boron, [1-[[dimethyl[(trimethylgermyl)oxy]silyl]phenylmethylene]p
ropyl-C,O]diethyl-, (t-4)-
##MOLFORM=C19H35BGeOSi
##CAS REGISTRY NO=132126-12-6
##MP= -300
##BP= -300
##MW= 392
##$RETENTION INDEX=0
##$CONDENSED SPECTRUM=NO
##NPOINTS= 179
##XYDATA=(XY..XY) 1 
    26          4
    27         19
    29          7
    31          2
    37          2
    38          1
    39          8
    41         87
    42          1
    43         21
    44          1
    45          6
    47          1
    51          1
    53          2
    55          3
    58         11
    59         47
    60          4
    61          4
    63          2
    65          1
    67          1
    68          2
    69         12
    70          2
    71          5
    72          2
    73         50
    74          4
    75         15
    76          1
    77          0
    81          1
    83          4
    84          1
    85          9
    86          6
    87         15
    88          4
    89         24
    90          2
    91          7
    93          1
    95          2
    97          2
    99          5
   100          6
   101         11
   102         11
   103         19
   104         16
   105         25
   106          3
   107          5
   109          1
   111          4
   112          4
   113         16
   114          6
   115        567
   116         22
   117        749
   118        245
   119        999
   120         36
   121        210
   122          7
   125          1
   126          1
   127          5
   128         25
   129         30
   130          1
   131         22
   132          7
   133         23
   134          2
   135         34
   136          3
   137          2
   139          2
   140          2
   141          7
   142          4
   143         14
   144          3
   145         48
   146          7
   147         11
   148          1
   149          9
   150          1
   151          5
   155          2
   157          5
   158          2
   159         56
   160         10
   161         17
   162          5
   163         19
   164          2
   165          5
   167          2
   171          5
   172          2
   173         76
   174         13
   175         16
   176          2
   177         20
   178          4
   179         20
   180          3
   181         12
   183          2
   185          2
   186          1
   187         10
   188         18
   189         60
   190          7
   191         79
   192         29
   193        109
   194         12
   195         24
   196          2
   197          1
   199          1
   200          3
   201         15
   202         12
   203          8
   205          9
   206          2
   207          6
   214          1
   215          3
   216          1
   217          2
   219          1
   228          4
   229         17
   230          3
   231          2
   233          1
   235          1
   243          0
   244          4
   247          3
   251          2
   253          2
   255          3
   273          2
   275          2
   277          3
   279          4
   288          1
   289          6
   290          2
   291          3
   293          1
   305          1
   343          2
   345          2
   346          1
   347          2
   358         15
   359         64
   360         35
   361         91
   362         67
   363        117
   364         35
   365         30
   366          6
   367          1