##TITLE=Library Entry 60407
##JCAMP-DX=Revision 4.10 
##DATA TYPE=MASS SPECTRUM
##SAMPLE DESCRIPTION=K. Kirk, LC, NIDDK, NIH, Bethesda, MD 20892
##NAMES=HP
##CAS NAME=Phenoxypropylamine, N-t-butyl-4,5-dibenzyloxy-2-fluoro-.beta.-hyd
roxy-
##MOLFORM=C27H32FNO4
##CAS REGISTRY NO=132178-26-8
##MP= -300
##BP= -300
##MW= 453
##$RETENTION INDEX=0
##$CONDENSED SPECTRUM=NO
##NPOINTS= 177
##XYDATA=(XY..XY) 1 
    41         52
    42         20
    43         14
    44         54
    45        194
    46        102
    47          3
    48          2
    49          8
    50          5
    51         13
    52          5
    53          4
    54          4
    55         13
    56         39
    57        111
    58         33
    59          1
    60         27
    61          1
    62          3
    63         12
    64          4
    65         79
    66          3
    67          5
    68          2
    69         11
    70         48
    71         69
    72         17
    73          1
    74         84
    75          3
    76          1
    77         11
    78         18
    79          5
    80          0
    81          2
    82          6
    83          2
    84         17
    85          8
    86        447
    87         23
    89         15
    91        999
    92         76
    93          3
    94          1
    95          2
    96          8
    97          8
    98         13
    99          1
   100         11
   102          1
   103          1
   104          2
   105          6
   106          9
   107          3
   108          0
   109          1
   110          1
   111          2
   112          4
   113          1
   114         50
   115          7
   116         23
   117          3
   119          1
   120          2
   121          1
   123          1
   124          8
   125          1
   127          3
   128          6
   129          1
   130        172
   131         14
   132          2
   133          1
   135          1
   139          0
   141          1
   142          0
   143          1
   144          8
   145          0
   146          0
   149          1
   153          0
   155          1
   156          1
   157          0
   159          0
   160          0
   162          0
   164          4
   165          1
   166          1
   167          3
   168          0
   169          0
   175          0
   178          1
   179          1
   180          3
   181         69
   182         14
   183          1
   184          0
   186          0
   187          1
   196          1
   205          0
   206          1
   208          0
   213          0
   215          1
   216          0
   219          1
   231          2
   232          9
   233         30
   234          7
   235          0
   236          1
   241          1
   242          0
   256         15
   257          3
   258          5
   259          0
   264          0
   268          0
   270          5
   271          0
   286          4
   287          0
   306          3
   308          1
   318          1
   319          2
   324        333
   325         90
   326         12
   327          1
   342         10
   343          4
   346          1
   347          1
   348          6
   349          1
   350          0
   360          1
   362          5
   363          3
   364          0
   366          2
   409          7
   410          2
   433         51
   434         14
   435          3
   438         85
   439         24
   440          4
   452          1
   453         16
   454         12
   455          3