##TITLE=Library Entry 64825
##JCAMP-DX=Revision 4.10 
##DATA TYPE=MASS SPECTRUM
##SAMPLE DESCRIPTION=K. Kirk, LBC, NIDDK, NIH, Bethesda, MD 20892
##NAMES=HP
##CAS NAME=Benzene-1,2,4-triol, 1,2-O-benzyl-5-fluoro-4-O-[2,3-epoxypropyl]-
##MOLFORM=C23H21FO4
##CAS REGISTRY NO=132178-23-5
##MP= -300
##BP= -300
##MW= 380
##$RETENTION INDEX=0
##$CONDENSED SPECTRUM=NO
##NPOINTS= 120
##XYDATA=(XY..XY) 1 
    41          8
    42          0
    43          3
    44          0
    45          0
    49          1
    50          1
    51          7
    52          2
    53          3
    55          2
    56          1
    57         28
    58          1
    59          1
    62          0
    63          7
    64          4
    65         60
    66          3
    68          0
    69          8
    70          3
    71          2
    72          0
    73          4
    75          0
    76          0
    77          5
    78          1
    79          3
    81          1
    83          1
    84          2
    85          1
    86          2
    89         13
    91        999
    92         77
    93          3
    95          0
    97          4
    98          1
    99          1
   103          3
   104          2
   105          6
   106          0
   107          2
   108          2
   112          0
   113          3
   114          1
   115          2
   117          1
   125          1
   127          3
   128          0
   129          1
   131          1
   133          1
   139          0
   141          9
   142          0
   144          0
   146          0
   147          0
   149          0
   152          0
   153          0
   155          2
   156          1
   157          1
   159          1
   165          2
   166          0
   167          2
   170          0
   171          1
   178          0
   179          1
   180          1
   181         21
   182          6
   183          5
   184          0
   185          1
   186          0
   187         46
   188          6
   189          0
   199          0
   200          1
   203          0
   204          0
   205          1
   213          0
   215          2
   217          1
   231          4
   232          3
   233          0
   241          0
   261          2
   262         10
   263          2
   269          1
   273          0
   287          0
   288          1
   289         71
   290         14
   291          2
   324          0
   335          0
   379          1
   380        429
   381        109
   382         17
   383          1