##TITLE=Library Entry 64644
##JCAMP-DX=Revision 4.10 
##DATA TYPE=MASS SPECTRUM
##SAMPLE DESCRIPTION=K. Kirk, LC, NIDDK, NIH, Bethesda, MD 20892
##NAMES=HP
##CAS NAME=Phenol, 3,4-dibenzyloxy-2-fluoro-
##MOLFORM=C20H17FO3
##CAS REGISTRY NO=132178-20-2
##MP= -300
##BP= -300
##MW= 324
##$RETENTION INDEX=0
##$CONDENSED SPECTRUM=NO
##NPOINTS= 70
##XYDATA=(XY..XY) 1 
    41         12
    42          1
    43          3
    44          7
    45          0
    50          8
    51         19
    52          5
    53          3
    55          4
    57          7
    58          1
    60          2
    62          4
    63         19
    64          5
    65        104
    66          6
    67          0
    69          4
    70          3
    71          2
    73          0
    77         10
    78          2
    79          6
    83          1
    86         14
    87          1
    89         27
    90          4
    91        999
    92         69
    93          2
    97          1
   104          3
   105          5
   107          4
   114          8
   115          3
   127          5
   128          2
   133          0
   139          1
   141          0
   144         13
   146          0
   155          4
   156          4
   157          0
   159          2
   165          3
   166          2
   167          4
   179          2
   180          2
   181         87
   182         14
   183          1
   205          3
   215          4
   217          0
   231          7
   232         16
   233         28
   234          5
   262          0
   324        150
   325         33
   326          5