##TITLE=Library Entry 7684
##JCAMP-DX=Revision 4.10 
##DATA TYPE=MASS SPECTRUM
##SAMPLE DESCRIPTION=Div. of Experiment Therapeutics WRAIR, WRAMC, Washingto
n DC 20307
##NAMES=HP
##CAS NAME=2-Acetonyl-9-[3-deoxy-.beta.-d-ribouranosyl]hypoxanthine
##MOLFORM=C13H16N4O5
##CAS REGISTRY NO=132121-67-6
##MP= -300
##BP= -300
##MW= 308
##$RETENTION INDEX=0
##$CONDENSED SPECTRUM=NO
##NPOINTS= 201
##XYDATA=(XY..XY) 1 
    41        584
    42        647
    43        999
    44        376
    45        177
    46          6
    47        170
    48          2
    49          4
    50         15
    51         19
    52         18
    53         85
    54         53
    55        115
    56         45
    57        882
    58        179
    59         27
    60         99
    61         34
    62          3
    63          3
    64          4
    65          7
    66          7
    67         17
    68         70
    69        327
    70        266
    71        118
    72         28
    73         45
    74         14
    75         13
    76          1
    77          6
    78          6
    79          7
    80         10
    81         86
    82         85
    83         24
    84        107
    85        373
    86        222
    87         35
    88         10
    89         18
    90          1
    91          4
    92          3
    93          4
    94          8
    95         17
    96          9
    97         34
    98        132
    99        164
   100         56
   101         45
   102          6
   103         11
   104          2
   105          3
   106          4
   107          5
   108          9
   109         16
   110         29
   111          9
   112         13
   113          4
   114          9
   115         21
   116        176
   117         71
   118          6
   119          4
   120          4
   121          5
   122         10
   123          5
   124          6
   125          7
   126          4
   127          7
   128          4
   129          5
   130          2
   131          2
   132          3
   133          6
   134          5
   135         10
   136         10
   137          6
   138          7
   139          4
   140          5
   141          5
   142          2
   143          4
   144          2
   145         42
   146          4
   147          3
   148          2
   149          6
   150         68
   151          7
   152          4
   153          5
   154          2
   155          3
   156          3
   157          3
   158          6
   159         30
   160          4
   161          3
   162          2
   163          7
   164          6
   165          5
   166          2
   167          1
   168          1
   169          1
   170          0
   171          3
   172          1
   173          6
   174          3
   175          3
   176          2
   177         15
   178          8
   179          4
   180          2
   181          1
   182          0
   183         18
   184          2
   185          1
   186          2
   187         15
   188          4
   189          2
   190          1
   191          2
   192         25
   193          6
   194          1
   195          1
   196          2
   197          1
   198          0
   199          1
   200          2
   201         51
   202          7
   203          2
   204          0
   205          2
   206          2
   207          1
   211          1
   212          0
   213          1
   214          3
   215          4
   216          7
   217          3
   220          2
   221          1
   224          0
   225          1
   227          0
   228          0
   229         10
   230          5
   231          4
   232          1
   233          2
   239          0
   241          0
   243          6
   244          2
   254          1
   255          0
   256          1
   257          1
   258          0
   259          1
   261          0
   267          0
   272          1
   273          0
   274          0
   290          1