##TITLE=Library Entry 56911
##JCAMP-DX=Revision 4.10 
##DATA TYPE=MASS SPECTRUM
##SAMPLE DESCRIPTION=K. Kirk, LC, NIDDK, NIH, Bethesda, MD 20892
##NAMES=HP
##CAS NAME=3-(Phenoxy)propylamine, N-t-butyl-2-fluoro-.beta.,3,4-trihydroxy-
##MOLFORM=C13H20FNO4
##CAS REGISTRY NO=132178-18-8
##MP= -300
##BP= -300
##MW= 273
##$RETENTION INDEX=0
##$CONDENSED SPECTRUM=NO
##NPOINTS= 208
##XYDATA=(XY..XY) 1 
    41        252
    42         98
    43         99
    44         75
    45         70
    46         29
    47          7
    48          2
    49         28
    50          8
    51         37
    52          6
    53         24
    54         21
    55         90
    56         99
    57        300
    58        125
    59         19
    60         79
    61          6
    62          1
    63          4
    65          7
    66          5
    67         36
    68         21
    69         60
    70        142
    71        206
    72         41
    73         13
    74         45
    75          6
    76          1
    77         12
    78          6
    79         25
    80          9
    81         34
    82         23
    83         27
    84         47
    85         35
    86        999
    87         68
    88          5
    89          7
    90          3
    91         23
    92          3
    93          9
    94          5
    95         26
    96         29
    97         36
    98         43
    99         15
   100         23
   101          7
   102          5
   103          8
   104          3
   105         14
   106          5
   107         11
   108          4
   109         16
   110          8
   111         17
   112          9
   113          5
   114         37
   115         39
   116         39
   117         38
   118         10
   119         23
   120          5
   121          7
   122          3
   123          9
   124          5
   125         11
   126          7
   127         19
   128         11
   129         32
   130         15
   131          9
   132          6
   133          9
   134          4
   135         11
   136          3
   137          8
   138          3
   139          6
   141          9
   142          4
   143         80
   144         88
   145         12
   146          3
   147          5
   149          5
   150          4
   151          4
   152          5
   153          5
   154          4
   155          9
   156          3
   157         27
   158          6
   159          5
   160          4
   161          3
   163          7
   165         12
   166          4
   167          6
   168          4
   169          6
   170          1
   171          5
   173          4
   175          1
   177          1
   178          5
   179          4
   180          3
   181          5
   183         17
   184          4
   185          5
   186         11
   187          3
   189          1
   191          5
   192          1
   193          3
   194          1
   195          4
   197          6
   199          3
   200          1
   202          4
   203          4
   205          4
   206          1
   207          4
   209          1
   211          4
   213          3
   215          5
   216          5
   217          4
   218          5
   219          5
   220          3
   221          4
   222          3
   223          4
   225          3
   227          1
   228          3
   229         25
   230          3
   231          1
   232          0
   233          1
   234          5
   235          4
   236          4
   237          5
   238          1
   239         10
   240          5
   241          4
   242          3
   243          3
   245          3
   246          3
   247          8
   248          4
   249          3
   250          1
   253         16
   254          4
   255          3
   256          6
   257          5
   258        482
   259         71
   260         10
   261          3
   262          1
   264          3
   268          3
   269          3
   270          4
   271          3
   272          6
   273         27
   274         13
   275         10
   276          1