##TITLE=Library Entry 45225
##JCAMP-DX=Revision 4.10 
##DATA TYPE=MASS SPECTRUM
##SAMPLE DESCRIPTION=Chemical Concepts
##NAMES=HP
##CAS NAME=10-Undecyn-1-ol, TBDMS derivative
##MOLFORM=C17H34OSi
##CAS REGISTRY NO=132260-32-3
##MP= -300
##BP= -300
##MW= 282
##$RETENTION INDEX=0
##$CONDENSED SPECTRUM=NO
##NPOINTS= 123
##XYDATA=(XY..XY) 1 
    26          2
    27          8
    28          0
    29         17
    31          2
    38          1
    39         12
    40          4
    41         43
    42          4
    43         12
    44          2
    45         11
    46          0
    47         15
    50          0
    51          2
    52          1
    53          8
    54          4
    55         39
    56          5
    57         12
    58          9
    59         50
    60          5
    61         28
    62          2
    63          0
    65          3
    66          1
    67         96
    68          7
    69         29
    70          2
    71          3
    72          2
    73         94
    74          9
    75        999
    76         63
    77         39
    78          3
    79         26
    80          3
    81         73
    82          6
    83         15
    84          1
    85         14
    86          1
    87         13
    88          3
    89         55
    90          4
    91          8
    92          1
    93         36
    94          4
    95         29
    96          2
    97          7
    98          1
    99         23
   100          3
   101         36
   102          4
   103          4
   105          3
   107         30
   108          3
   109         12
   110          1
   111          6
   113         11
   114          2
   115         36
   116          4
   117          3
   119          2
   120          1
   121         10
   122          1
   123          3
   125          7
   127          6
   128          1
   129         17
   130          2
   131          1
   133          1
   135          3
   137          3
   139         16
   140          2
   141          4
   143         24
   144          3
   145          2
   147          4
   149         68
   150          8
   151          4
   153          2
   155          3
   157          3
   165          3
   167          3
   169          5
   171          3
   179          4
   183          1
   185          1
   193          1
   195          2
   197          5
   207          7
   208          1
   211          2
   225         46
   226          9
   227          2
   267          1