##TITLE=Library Entry 28901
##JCAMP-DX=Revision 4.10 
##DATA TYPE=MASS SPECTRUM
##SAMPLE DESCRIPTION=Chemical Concepts
##NAMES=HP
##CAS NAME=Ethanamine, 2-[bis(1-methylethyl)phosphino]-N,N-dimethyl-
##MOLFORM=C10H24NP
##CAS REGISTRY NO=132280-91-2
##MP= -300
##BP= -300
##MW= 189
##$RETENTION INDEX=0
##$CONDENSED SPECTRUM=NO
##NPOINTS= 96
##XYDATA=(XY..XY) 1 
    26          1
    27         22
    28         16
    29         10
    30         23
    31          0
    38          0
    39          7
    40         11
    41         42
    42         42
    43         65
    44         21
    45         10
    46          7
    47         11
    48          2
    49          1
    51          0
    53          0
    54          1
    55          8
    56         25
    57         24
    58        999
    59         48
    60          8
    61         21
    62          8
    63          2
    64          0
    65          0
    67          0
    68          0
    69          6
    70         20
    71        121
    72         23
    73         17
    74          7
    75         29
    76         39
    77          4
    78          0
    81          0
    82          0
    83          2
    84          0
    85          1
    86          0
    87          2
    88          2
    89         12
    90          2
    91          1
    92          3
    95          0
    98          0
    99          0
   100          2
   101          9
   102         12
   103          9
   104        136
   105          7
   106          0
   115          2
   116          0
   117         12
   118         20
   119          2
   120          2
   121          1
   122          0
   129          1
   130          0
   131         10
   132          1
   133          2
   134          1
   135          0
   143          0
   144          4
   145          4
   146         96
   147          9
   148          0
   162          5
   163          0
   174          2
   186          0
   187          0
   188          1
   189         50
   190          7
   191          0