##TITLE=Library Entry 100875
##JCAMP-DX=Revision 4.10 
##DATA TYPE=MASS SPECTRUM
##SAMPLE DESCRIPTION=Japan AIST/NIMC Database- Spectrum MS-IW-7808
##NAMES=HP
##CAS NAME=4-Methylbenzoic acid anhydride
##MOLFORM=C16H14O3
##CAS REGISTRY NO=13222-85-0
##MP= -300
##BP= -300
##MW= 254
##$RETENTION INDEX=0
##$CONDENSED SPECTRUM=NO
##NPOINTS= 42
##XYDATA=(XY..XY) 1 
    27          1
    28          1
    38          2
    39         20
    40          2
    41          7
    50          5
    51          9
    52          2
    53          1
    62          4
    63         16
    64          5
    65         84
    66          4
    74          1
    75          1
    76          1
    77          1
    89         21
    90         16
    91        212
    92         17
   118          5
   119        999
   120         91
   121          6
   135          1
   136          8
   165          1
   195         15
   196          2
   209          1
   210          9
   211          1
   226         59
   227          9
   228          1
   252          1
   254        222
   255         39
   256          4