##TITLE=Library Entry 107526
##JCAMP-DX=Revision 4.10 
##DATA TYPE=MASS SPECTRUM
##SAMPLE DESCRIPTION=Exported from NIST MS Search
##NAMES=HP
##CAS NAME=Methanone, bis(4-ethyl-3,5-dimethyl-1H-pyrrol-2-yl)-
##MOLFORM=C17H24N2O
##CAS REGISTRY NO=13228-22-3
##MP= -300
##BP= -300
##MW= 272
##$RETENTION INDEX=0
##$CONDENSED SPECTRUM=NO
##NPOINTS= 54
##XYDATA=(XY..XY) 1 
   106        193
   107        234
   108        795
   109         40
   113         40
   120        102
   121        673
   122        316
   123        999
   124        173
   128         51
   130         61
   131         40
   134        261
   135         51
   136         20
   143         14
   144         40
   145         20
   148        102
   149        612
   150        581
   151         81
   156         10
   157         10
   158          4
   168         20
   169          2
   170         24
   171          4
   182         10
   183         10
   184         24
   185         16
   196         10
   197         10
   198         20
   199         30
   212         20
   213         20
   214         57
   215         36
   227         30
   228        224
   229         44
   241         16
   242         24
   243        142
   244         40
   257        653
   258        122
   272        857
   273        183
   274         44