##TITLE=Library Entry 18157
##JCAMP-DX=Revision 4.10 
##DATA TYPE=MASS SPECTRUM
##SAMPLE DESCRIPTION=V.A.Korolev, Moscow, Russia
##NAMES=HP
##CAS NAME=2-Phenylpyrazole-3-carbaldehyde
##MOLFORM=C10H8N2O
##CAS REGISTRY NO=132274-70-5
##MP= -300
##BP= -300
##MW= 172
##$RETENTION INDEX=0
##$CONDENSED SPECTRUM=NO
##NPOINTS= 47
##XYDATA=(XY..XY) 1 
    37        118
    38        332
    39        486
    40        175
    41         53
    49         17
    50        372
    51        999
    52        181
    53         64
    59          6
    61         15
    62         64
    63        174
    64        100
    65        162
    66        123
    67         52
    72          6
    73          8
    74         79
    75         58
    76         79
    77        869
    78        374
    79         22
    88         13
    89        232
    90        177
    91         34
    92          4
    93          9
    95         34
   102          6
   104         26
   105         19
   115         39
   116        169
   117        334
   118         76
   142          9
   143        132
   144        142
   145         19
   171         90
   172        601
   173         69