##TITLE=Library Entry 58216
##JCAMP-DX=Revision 4.10 
##DATA TYPE=MASS SPECTRUM
##SAMPLE DESCRIPTION=Japan AIST/NIMC Database- Spectrum MS-IW- 158
##NAMES=HP
##CAS NAME=(p-Methoxyphenoxy)(phenylimino)methyl N,N-dimethyldithiocarbamate
##MOLFORM=C17H18N2O2S2
##CAS REGISTRY NO=13222-72-5
##MP= -300
##BP= -300
##MW= 346
##$RETENTION INDEX=0
##$CONDENSED SPECTRUM=NO
##NPOINTS= 123
##XYDATA=(XY..XY) 1 
    15          5
    17          2
    18          1
    26          2
    27          4
    28          8
    29          1
    30          2
    32          2
    37          2
    38          4
    39          8
    40          1
    41          8
    42         20
    43          4
    44         12
    45          5
    46          1
    47          9
    49          1
    50         12
    51         40
    52          7
    53          4
    54          5
    55          1
    56          9
    57          1
    58          1
    59          1
    60          1
    61          6
    62          2
    63          9
    64         12
    65          6
    66          1
    67          8
    68          1
    69          2
    70          2
    71          1
    72        295
    73         34
    74          6
    75          5
    76         12
    77        159
    78         11
    79          2
    80          2
    81          6
    82          2
    83          1
    84          2
    87          2
    88        999
    89         48
    90         46
    91         13
    92         11
    93          1
    95          9
    96          2
    99          1
   102          1
   103          7
   104          2
   105          3
   106          1
   107         17
   108         11
   109         26
   110          2
   111          1
   119          2
   120          1
   121          1
   123         15
   124         26
   125          2
   131          2
   132         10
   133          1
   134          2
   135        253
   136         26
   137         11
   138          1
   139          7
   140          1
   147         54
   148          6
   149          1
   153          1
   154          1
   163          1
   164          2
   167          1
   179          2
   180          1
   183          2
   195          1
   196          1
   198          3
   207        370
   208         49
   209         19
   210          2
   211        112
   212         13
   213          6
   223         21
   224          3
   225          2
   226         20
   227          3
   239          1
   270          3
   346         18
   347          4
   348          2