##TITLE=Library Entry 40745
##JCAMP-DX=Revision 4.10 
##DATA TYPE=MASS SPECTRUM
##SAMPLE DESCRIPTION=Japan AIST/NIMC Database- Spectrum MS-IW-2633
##NAMES=HP
##CAS NAME=4,6-O-Ethylidene-.alpha.-D-glucose
##MOLFORM=C8H14O6
##CAS REGISTRY NO=13224-99-2
##MP= -300
##BP= -300
##MW= 206
##$RETENTION INDEX=0
##$CONDENSED SPECTRUM=NO
##NPOINTS= 128
##XYDATA=(XY..XY) 1 
    14          6
    15         49
    16          2
    17         22
    18         99
    19          7
    25          1
    26         12
    27         94
    28         57
    29        168
    30         25
    31        221
    32         21
    33          1
    37          1
    38          3
    39         41
    40          9
    41        109
    42         91
    43        488
    44        278
    45        772
    46         18
    47         26
    49          1
    50          1
    51          2
    52          2
    53         14
    54         19
    55         72
    56         47
    57        263
    58         93
    59         88
    60        293
    61        169
    62          6
    63          2
    67          2
    68         25
    69        163
    70         65
    71        168
    72         51
    73        999
    74         56
    75         16
    76          1
    77          1
    80          1
    81         27
    82          8
    83         25
    84          9
    85         87
    86         75
    87        195
    88         49
    89         28
    90         29
    91         32
    92          1
    95          2
    96          3
    97         37
    98         69
    99         80
   100         65
   101        101
   102         11
   103        130
   104          8
   105          1
   109         22
   110          3
   111          3
   112          1
   113         12
   114          7
   115         24
   116         85
   117        275
   118         16
   119         55
   120          3
   125          2
   126          3
   127         50
   128         11
   129         94
   130          8
   131         12
   132          6
   133         13
   136          2
   141          2
   142         15
   143          8
   144         95
   145         35
   146          6
   147          6
   148          2
   149          1
   153          3
   155          1
   157          2
   158          1
   159         28
   160          3
   161          1
   162          2
   171          3
   173         19
   174          1
   175          7
   187          4
   188          3
   189          2
   191         13
   192          1
   201          1
   203          7
   205         17
   206          2