##TITLE=Library Entry 57832
##JCAMP-DX=Revision 4.10 
##DATA TYPE=MASS SPECTRUM
##SAMPLE DESCRIPTION=Japan AIST/NIMC Database- Spectrum MS-IW- 151
##NAMES=HP
##CAS NAME=(p-Nitrophenylimino)(p-tolyloxy)methyl N,N-dimethyldithiocarbamat
e
##MOLFORM=C17H17N3O3S2
##CAS REGISTRY NO=13222-73-6
##MP= -300
##BP= -300
##MW= 375
##$RETENTION INDEX=0
##$CONDENSED SPECTRUM=NO
##NPOINTS= 146
##XYDATA=(XY..XY) 1 
    15          5
    17          2
    18          1
    26          1
    27          6
    28          9
    29          1
    30          3
    32          2
    37          2
    38          3
    39         17
    40          2
    41          3
    42         28
    43          6
    44         24
    45          9
    46          1
    47         12
    49          1
    50         21
    51         12
    52          6
    53          5
    54          1
    55          1
    56         12
    57          1
    58          1
    59          1
    60          2
    61          9
    62          4
    63         26
    64         11
    65         31
    66          2
    69          4
    70          3
    71          1
    72        492
    73         53
    74         11
    75         17
    76         18
    77         25
    78          9
    79         15
    80          3
    81          1
    82          1
    83          4
    84          3
    87          4
    88        999
    89         52
    90        112
    91        205
    92         16
    93          1
    94          1
    95          2
    96         25
    97          3
    99          1
   102          2
   105          3
   106          2
   107         79
   108         50
   109          5
   110          1
   118          2
   119          6
   120          7
   121          3
   122         25
   123         15
   124          4
   125          1
   131          1
   133          9
   134         85
   135          9
   136          5
   137          1
   146         14
   147          3
   148          4
   149          5
   150         37
   151          5
   152          2
   162          1
   163          2
   164          9
   165          1
   176          1
   177          1
   178          2
   179          2
   180        300
   181         32
   182         15
   183          1
   192         77
   193          9
   194          2
   195        160
   196         19
   197          9
   198          1
   206          1
   207          1
   208          4
   209          6
   210          3
   211          8
   212          1
   214          2
   221          2
   222          3
   223          1
   225          1
   227          1
   230          3
   235          1
   236          1
   238          1
   239          1
   252        273
   253         35
   254         15
   255        110
   256         17
   257          2
   268         18
   269          2
   270          2
   284          1
   289          1
   375         63
   376         12
   377          7
   378          1