##TITLE=Library Entry 10579
##JCAMP-DX=Revision 4.10 
##DATA TYPE=MASS SPECTRUM
##SAMPLE DESCRIPTION=V.A.Korolev, Moscow, Russia
##NAMES=HP
##CAS NAME=3-Tert-butylpentane-2,4-dione
##MOLFORM=C9H16O2
##CAS REGISTRY NO=13221-94-8
##MP= -300
##BP= -300
##MW= 156
##$RETENTION INDEX=0
##$CONDENSED SPECTRUM=NO
##NPOINTS= 38
##XYDATA=(XY..XY) 1 
    37          3
    39        148
    40         34
    41        202
    43        999
    44         29
    45          6
    50          7
    51         15
    52          6
    53         38
    55         74
    56         21
    57        164
    58          6
    59          3
    63          2
    65          5
    66          2
    67          8
    69         13
    70          2
    71          3
    72          2
    77          4
    79         13
    81         20
    83         41
    85         80
    86          2
    97          5
    99        256
   100         48
   113          1
   114         34
   115          3
   156         15
   157          1