##TITLE=Library Entry 71804
##JCAMP-DX=Revision 4.10 
##DATA TYPE=MASS SPECTRUM
##SAMPLE DESCRIPTION=Chemical Concepts
##NAMES=HP
##CAS NAME=Phosphoric acid, 1,1-dimethylethyl diethyl ester
##MOLFORM=C8H19O4P
##CAS REGISTRY NO=13232-08-1
##MP= -300
##BP= -300
##MW= 210
##$RETENTION INDEX=0
##$CONDENSED SPECTRUM=NO
##NPOINTS= 72
##XYDATA=(XY..XY) 1 
    25         10
    26         74
    27        264
    28        181
    29        350
    30         20
    31         73
    36          8
    37         32
    38         66
    39        412
    40        101
    41        820
    42         56
    43        165
    44         25
    45         92
    46         12
    47         26
    48          5
    49         17
    50         59
    51         44
    52         12
    53         47
    54         21
    55        140
    56        308
    57        225
    58         27
    59         48
    60          5
    63         15
    64          4
    65         45
    67          9
    69          6
    71          4
    77          7
    78         12
    79         11
    81        187
    82        132
    83         46
    91         34
    92          6
    93         11
    95          5
    96          4
    99        999
   100          5
   101         10
   103          3
   104          3
   106          4
   109         33
   110         18
   111         45
   113          7
   125         36
   127        429
   128         14
   129          6
   139         17
   153         10
   154         24
   155        187
   156         10
   167         21
   168          3
   195         59
   196          6