##TITLE=Library Entry 12620
##JCAMP-DX=Revision 4.10 
##DATA TYPE=MASS SPECTRUM
##SAMPLE DESCRIPTION=B. Derendyaev, Novosibirsk Institute of Organic Chemist
ry
##NAMES=HP
##CAS NAME=1S,3R,4S,5R,6S-1-Hydroxy-2,2,3,4,5,6-hexamethyl-8-oxo-7,9-dioxatr
icyclo[4.2.1.0(3,5)]nonane
##MOLFORM=C13H20O4
##CAS REGISTRY NO=132305-28-3
##MP= -300
##BP= -300
##MW= 240
##$RETENTION INDEX=0
##$CONDENSED SPECTRUM=NO
##NPOINTS= 101
##XYDATA=(XY..XY) 1 
    40         12
    41        360
    42         56
    43        999
    44         27
    45         60
    46          1
    49          2
    50          1
    51         18
    52          5
    53        106
    54         18
    55        293
    56         23
    57        134
    58         21
    59         36
    60          2
    65         35
    66         11
    67        283
    68         18
    69        129
    70        460
    71         43
    72         14
    73         11
    74          2
    75          2
    76          1
    77         67
    78          8
    79         86
    80         15
    81        191
    82         28
    83        192
    84         19
    85         14
    86          9
    88          9
    91         48
    92         13
    93         64
    94         15
    95         83
    96         39
    97        216
    98         25
    99         98
   100         12
   104          2
   105         21
   106          9
   107         81
   108         19
   109        257
   110         47
   111        254
   112         36
   113         15
   115          6
   119         29
   121         46
   122         10
   123        102
   124        456
   125        555
   126        147
   127        116
   128          8
   130          4
   133          6
   134          6
   135        316
   136         48
   137         86
   138         20
   139         16
   140          5
   149         43
   150         98
   151        135
   152         16
   153        777
   154         78
   155         21
   163         25
   164          9
   165          9
   166          6
   167         57
   168          8
   178         13
   179         11
   181        131
   196         71
   197          9
   240         23
   241          4