##TITLE=Library Entry 67929
##JCAMP-DX=Revision 4.10 
##DATA TYPE=MASS SPECTRUM
##SAMPLE DESCRIPTION=Chemical Concepts
##NAMES=HP
##CAS NAME=Bicyclo[2.2.1]heptane, 7-bromo-
##MOLFORM=C7H11Br
##CAS REGISTRY NO=13237-88-2
##MP= -300
##BP= -300
##MW= 174
##$RETENTION INDEX=0
##$CONDENSED SPECTRUM=NO
##NPOINTS= 61
##XYDATA=(XY..XY) 1 
    26          6
    27         44
    28         11
    29         18
    37          5
    38         16
    39        143
    40         32
    41        123
    42         10
    43          3
    45          6
    46          5
    50         13
    51         33
    52         14
    53        100
    54         94
    55        132
    56          6
    61          3
    62          9
    63         19
    64          7
    65         85
    66        127
    67        579
    68         92
    69          5
    74          3
    77         62
    78         15
    79         91
    80         20
    81         58
    82          5
    91         27
    92          4
    93         35
    94         19
    95        999
    96         94
    97          4
   107          4
   119         11
   121          9
   132        106
   133         11
   134        106
   135         13
   145          3
   146         20
   147          3
   148         19
   149          2
   173          4
   174         69
   175          8
   176         66
   177          4
   178          0