##TITLE=Library Entry 64428
##JCAMP-DX=Revision 4.10 
##DATA TYPE=MASS SPECTRUM
##SAMPLE DESCRIPTION=NIST Mass Spectrometry Data Center
##NAMES=HP
##CAS NAME=Benzyl (E)-ferulate
##MOLFORM=C17H16O4
##CAS REGISTRY NO=132335-97-8
##MP= -300
##BP= -300
##MW= 284
##$RETENTION INDEX=2596
##$CONDENSED SPECTRUM=NO
##NPOINTS= 159
##XYDATA=(XY..XY) 1 
    26          1
    27          3
    29          3
    37          1
    38          6
    39         47
    40          4
    41         15
    45          2
    49          1
    50         28
    51         96
    52         52
    53         27
    54          3
    55         16
    56          1
    61          3
    62         17
    63         71
    64         20
    65        188
    66         16
    67          8
    68          2
    69         35
    70          2
    74          7
    75          8
    76         15
    77        140
    78        101
    79         52
    80         10
    81          5
    82          2
    83          2
    85          2
    86          2
    87          4
    88          3
    89        199
    90         49
    91        999
    92         84
    93         10
    95          3
    97          4
   101          3
   102          6
   103         10
   104          3
   105         70
   106         41
   107         34
   108         14
   109          7
   110         21
   111          2
   112          1
   113          1
   115         42
   116         13
   117        113
   118         41
   119         14
   120          4
   121          6
   122          6
   123          5
   124         16
   125         52
   126          5
   127          1
   130          4
   132          4
   133         71
   134         57
   135         64
   136          9
   137         19
   138          2
   141          2
   142          2
   145        169
   146         42
   147         42
   148         20
   149         54
   150        502
   151         57
   152          7
   153          5
   154          1
   160          7
   161        176
   162         21
   163         19
   164          5
   165         10
   166          3
   167          3
   168          1
   169          1
   175          3
   176          2
   177        234
   178         53
   179         30
   180          5
   181          4
   182          2
   191          3
   192         11
   193         44
   194         10
   195          6
   196          2
   197          1
   205          3
   206          9
   207         93
   208         21
   209         10
   210          3
   211          2
   213          4
   214          1
   220          1
   221          3
   222          1
   223         27
   224         24
   225         11
   226          3
   233          2
   234          6
   235          5
   237          7
   238         38
   239        108
   240         21
   241          4
   248          1
   249          1
   251         11
   252          4
   253         10
   254          2
   265          3
   266         51
   267         15
   268          2
   269          6
   270          1
   284        560
   285        106
   286         14
   287          1