##TITLE=Library Entry 4749
##JCAMP-DX=Revision 4.10 
##DATA TYPE=MASS SPECTRUM
##SAMPLE DESCRIPTION=LAC, NIDDK, NIH, Bethesda, MD 20892
##NAMES=HP
##CAS NAME=1H-Imidazole, 1,2-dimethyl-4-nitro-
##MOLFORM=C5H7N3O2
##CAS REGISTRY NO=13230-04-1
##MP= -300
##BP= -300
##MW= 141
##$RETENTION INDEX=0
##$CONDENSED SPECTRUM=NO
##NPOINTS= 38
##XYDATA=(XY..XY) 1 
    41        124
    42        999
    43         50
    44         92
    46        169
    51          4
    52        115
    53         78
    54        162
    55         93
    56        712
    57         25
    63          3
    64          8
    65          6
    66         26
    67         94
    68         50
    69         21
    70          7
    72         24
    79         13
    80         22
    81          9
    82          4
    83         53
    84          5
    93         24
    94         56
    95         57
    96         10
    97          8
   111         55
   124         62
   125         10
   140         11
   141        214
   142         35