##TITLE=Library Entry 7196
##JCAMP-DX=Revision 4.10 
##DATA TYPE=MASS SPECTRUM
##SAMPLE DESCRIPTION=Exported from NIST MS Search
##NAMES=HP
##CAS NAME=1-Hexanol, 3-methyl-
##MOLFORM=C7H16O
##CAS REGISTRY NO=13231-81-7
##MP= -300
##BP= -300
##MW= 116
##$RETENTION INDEX=895
##$CONDENSED SPECTRUM=NO
##NPOINTS= 63
##XYDATA=(XY..XY) 1 
    14          2
    15         18
    16          2
    26         17
    27        244
    28        120
    29        269
    30          9
    31        281
    32         16
    33          3
    37          4
    38         10
    39        188
    40         41
    41        621
    42        277
    43        999
    44         59
    45         56
    46         15
    47          1
    49          1
    50          8
    51         11
    52          3
    53         38
    54         27
    55        933
    56        685
    57        189
    58          8
    59         11
    60          1
    61          1
    62          1
    63          1
    65          4
    66          1
    67         18
    68         24
    69        483
    70        683
    71         95
    72          7
    73         67
    74         44
    77          1
    79          2
    80          1
    81          6
    82          2
    83        142
    84         11
    85         12
    86          1
    87          1
    91          1
    95          1
    96          1
    97          8
    98         30
    99          2