##TITLE=Library Entry 11327
##JCAMP-DX=Revision 4.10 
##DATA TYPE=MASS SPECTRUM
##SAMPLE DESCRIPTION=Institute of Chemistry, SAS, Bratislava, Slovakia
##NAMES=HP
##CAS NAME=Methyl(methyl-2,3,4-tri-O-acetyl.beta.d-galactofuranosid)uronate
##MOLFORM=C14H20O10
##CAS REGISTRY NO=13240-99-8
##MP= -300
##BP= -300
##MW= 348
##$RETENTION INDEX=0
##$CONDENSED SPECTRUM=NO
##NPOINTS= 28
##XYDATA=(XY..XY) 1 
    43        999
    44         16
    45          8
    59          6
    71          4
    73          7
    74          5
    75          2
    85         26
    86          2
    87         15
    90          4
   103          8
   104          4
   115         53
   116          9
   126          4
   127         15
   144         12
   145          8
   157         19
   169          8
   186          8
   197          7
   217         13
   257          1
   289         10
   317         23