##TITLE=Library Entry 9526
##JCAMP-DX=Revision 4.10 
##DATA TYPE=MASS SPECTRUM
##SAMPLE DESCRIPTION=A.A.Kutin, Moscow, Russia
##NAMES=HP
##CAS NAME=.beta.-D-Glucopyranose, 1,6-anhydro-, triacetate
##MOLFORM=C12H16O8
##CAS REGISTRY NO=13242-55-2
##MP= -300
##BP= -300
##MW= 288
##$RETENTION INDEX=0
##$CONDENSED SPECTRUM=NO
##NPOINTS= 74
##XYDATA=(XY..XY) 1 
    33         39
    34          2
    40         45
    41         16
    43        999
    45         13
    47          0
    50          0
    51          3
    52          0
    53          3
    55          8
    56          2
    57          8
    58          0
    59          0
    60          9
    61          4
    67          0
    69         32
    70         28
    71          8
    73         13
    74          1
    77          2
    81         89
    82          5
    83          1
    84          1
    85          7
    86          5
    87          1
    89          1
    91          0
    97         32
    98         55
    99         14
   102         37
   103         19
   105          3
   109          0
   112         23
   113          3
   115         44
   116          2
   125          1
   126          7
   127         10
   128          2
   129          1
   131          1
   139          8
   140         15
   141          9
   142          0
   143          3
   144          7
   145          5
   152          0
   153          0
   154          0
   157         45
   158          3
   165         10
   166          2
   167          4
   169          1
   186         13
   187          3
   228          5
   229          7
   239          0
   241          1
   245          1