##TITLE=Library Entry 86058
##JCAMP-DX=Revision 4.10 
##DATA TYPE=MASS SPECTRUM
##SAMPLE DESCRIPTION=Japan AIST/NIMC Database- Spectrum MS-IW-3980
##NAMES=HP
##CAS NAME=Pyrazole, 1-(2,4-dichlorophenoxyacetyl)-3,5-dimethyl-
##MOLFORM=C13H12Cl2N2O2
##CAS REGISTRY NO=13241-78-6
##MP= -300
##BP= -300
##MW= 298
##$RETENTION INDEX=0
##$CONDENSED SPECTRUM=NO
##NPOINTS= 165
##XYDATA=(XY..XY) 1 
    15          4
    26          2
    27          9
    28         20
    29          4
    30          2
    32          1
    36          7
    37          1
    38          4
    39         35
    40         11
    41         73
    42         74
    43          5
    44          3
    49          1
    50          6
    51          6
    52          8
    53         16
    54         13
    55         11
    56         10
    57          1
    61          3
    62          6
    63         19
    64          2
    65         11
    66         12
    67          9
    68         39
    69          7
    70          1
    72          2
    73         10
    74         14
    75         24
    76          2
    77          4
    78          1
    79         11
    80         13
    81         12
    82         26
    83          3
    84          4
    85          6
    86          1
    87          1
    92          5
    93          2
    94          3
    95         54
    96        241
    97        244
    98         16
    99          4
   100          3
   101          1
   102          1
   103          2
   107          5
   108         17
   109        999
   110         81
   111         45
   112         11
   113         10
   114          2
   117          2
   120          1
   121          2
   122          1
   123          8
   124         11
   125          3
   126          5
   127          1
   128          3
   130          1
   131          1
   132          1
   133         19
   134          1
   135         13
   136          2
   137        161
   138         14
   139          6
   140          2
   141          2
   144          1
   145         56
   146          9
   147         45
   148          7
   149         14
   150          3
   151          1
   153          2
   155          1
   161         15
   162         25
   163         10
   164         16
   165          3
   166          3
   167         23
   168          3
   169          8
   170          1
   173         46
   174          9
   175         51
   176          8
   177         18
   178          2
   179          2
   185          1
   186          1
   193          1
   198          1
   199          1
   200          1
   202          5
   204          3
   205          7
   206          1
   207          2
   219          1
   220          6
   221          1
   222          4
   233         22
   234          3
   235         26
   236          3
   237          6
   238          1
   239          2
   240         26
   241         43
   242         21
   243         27
   244          6
   245          4
   253          1
   255          1
   263         93
   264         14
   265         31
   266          4
   269         14
   270          2
   271          9
   272          1
   273          1
   298        194
   299         29
   300        123
   301         18
   302         20
   303          3