##TITLE=Library Entry 9226
##JCAMP-DX=Revision 4.10 
##DATA TYPE=MASS SPECTRUM
##SAMPLE DESCRIPTION=Chemical Concepts
##NAMES=HP
##CAS NAME=D-Glucitol, 4-O-hexyl-
##MOLFORM=C12H26O6
##CAS REGISTRY NO=132591-04-9
##MP= -300
##BP= -300
##MW= 266
##$RETENTION INDEX=0
##$CONDENSED SPECTRUM=NO
##NPOINTS= 155
##XYDATA=(XY..XY) 1 
    24          0
    25          0
    26          3
    27         59
    29        107
    30          4
    31         63
    33          0
    34          0
    36          0
    37          0
    38          0
    39         23
    40          4
    41        164
    42         30
    43        999
    44         40
    45         76
    46          2
    47          2
    49          1
    50          0
    51          1
    52          0
    53          8
    54          4
    55         75
    56         41
    57        150
    58         16
    59          5
    60         51
    61        298
    62          9
    63          1
    65          1
    66          0
    67          7
    68          2
    69         28
    70          5
    71         22
    72          7
    73        399
    74         93
    75         23
    76          0
    77          1
    78          0
    79          1
    80          0
    81          2
    82         13
    83         31
    84         22
    85        285
    86         17
    87         17
    88          3
    89          4
    90          5
    91        313
    92         11
    93          2
    94          1
    95          2
    96          4
    97          7
    98          2
    99          5
   100          2
   101          9
   102          2
   103        365
   104         19
   105          7
   106          0
   107          0
   109         15
   110          1
   111          3
   112          1
   113         49
   114          3
   115         22
   116          3
   117          4
   118          0
   119          0
   121          8
   122          0
   123          2
   124          0
   125          0
   127          2
   128          2
   129          4
   130          1
   131          2
   132          0
   133         46
   134          2
   135          0
   137          1
   138          0
   139          0
   140          0
   141          0
   142          0
   143          0
   144          2
   145         24
   146          3
   147          1
   151          3
   152          2
   153          0
   155          0
   157        127
   158         35
   159          3
   160          0
   165          1
   169          3
   170          0
   171          0
   173          0
   174          1
   175         40
   176          4
   177          0
   183          0
   185          0
   186          0
   187         24
   188          6
   189          0
   199          2
   200          0
   205         17
   206          1
   207          1
   208          0
   209          0
   212          0
   213          0
   217         15
   218          2
   227          0
   231          0
   235          0
   249          0
   267          3
   268          0