##TITLE=Library Entry 10517
##JCAMP-DX=Revision 4.10 
##DATA TYPE=MASS SPECTRUM
##SAMPLE DESCRIPTION=NIST Mass Spectrometry Data Center, 1998.
##NAMES=HP
##CAS NAME=Dipentylamine, N-nitroso-
##MOLFORM=C10H22N2O
##CAS REGISTRY NO=13256-06-9
##MP= -300
##BP= -300
##MW= 186
##$RETENTION INDEX=1510
##$CONDENSED SPECTRUM=NO
##NPOINTS= 87
##XYDATA=(XY..XY) 1 
    15          4
    26          5
    27         87
    28         15
    29        162
    30        100
    31          3
    32          1
    37          1
    38          3
    39         81
    40         13
    41        328
    42        280
    43        999
    44        348
    45         18
    47          5
    50          1
    51          4
    52          3
    53         19
    54         18
    55        121
    56         99
    57        133
    58         44
    59          8
    60          4
    61          1
    65          2
    66          1
    67          9
    68         13
    69         84
    70        127
    71        197
    72         12
    73          9
    74         55
    75          2
    80          2
    81          2
    82          6
    83          4
    84        237
    85         18
    86         21
    87         10
    88          5
    94          1
    96          3
    98        367
    99         51
   100        101
   101          9
   102          1
   110          1
   111          3
   112          8
   113        314
   114         31
   115         24
   116          2
   117         42
   118          3
   126         17
   127          9
   129         93
   130         77
   131          6
   139          1
   140         12
   141          4
   143          4
   144          1
   154          3
   155          2
   156         18
   157          5
   169        273
   170         32
   171          2
   185          1
   186         29
   187          6
   188          1