##TITLE=Library Entry 30080
##JCAMP-DX=Revision 4.10 
##DATA TYPE=MASS SPECTRUM
##SAMPLE DESCRIPTION=W.Jennings, T.Shibamoto
##NAMES=HP
##CAS NAME=2-Heptanol, 2,6-dimethyl-
##MOLFORM=C9H20O
##CAS REGISTRY NO=13254-34-7
##MP= -300
##BP= -300
##MW= 144
##$RETENTION INDEX=1023
##$CONDENSED SPECTRUM=NO
##NPOINTS= 21
##XYDATA=(XY..XY) 1 
    29         37
    31        118
    41        138
    42         19
    43        329
    44          8
    45         59
    55        178
    56         89
    57         68
    58         77
    59        999
    60         77
    69        401
    70         49
    71         39
    83          8
    85          7
    96          9
   111         68
   129         68