##TITLE=Library Entry 42080
##JCAMP-DX=Revision 4.10 
##DATA TYPE=MASS SPECTRUM
##SAMPLE DESCRIPTION=H.ROPER HAMBURG UNIVERSITY, HAMBURG, GERMANY, F.R.G.
##NAMES=HP
##CAS NAME=1-Pentanamine, N-methyl-N-nitroso-
##MOLFORM=C6H14N2O
##CAS REGISTRY NO=13256-07-0
##MP= -300
##BP= -300
##MW= 130
##$RETENTION INDEX=0
##$CONDENSED SPECTRUM=NO
##NPOINTS= 44
##XYDATA=(XY..XY) 1 
    26         16
    27        114
    28         46
    29        210
    30         95
    39         84
    41        290
    42        456
    43        482
    44        535
    45         24
    53         12
    54         11
    55        109
    56         61
    57        254
    58        143
    59         26
    60         34
    61        108
    67         19
    68         20
    69        195
    70        269
    71        131
    72         13
    73        999
    74        443
    75         22
    84        112
    85        133
    86         16
    87         30
    98         61
    99         32
   100         55
   101         19
   102         11
   103        118
   113        717
   114         53
   115         15
   130        266
   131         24