##TITLE=Library Entry 4569
##JCAMP-DX=Revision 4.10 
##DATA TYPE=MASS SPECTRUM
##SAMPLE DESCRIPTION=W.T.RAINEY OAK RIDGE NATIONAL LABORATORY,OAK RIDGE,TN.U
SA
##NAMES=HP
##CAS NAME=Glycine, N-methyl-N-nitroso-
##MOLFORM=C3H6N2O3
##CAS REGISTRY NO=13256-22-9
##MP= -300
##BP= -300
##MW= 118
##$RETENTION INDEX=0
##$CONDENSED SPECTRUM=NO
##NPOINTS= 20
##XYDATA=(XY..XY) 1 
    30        195
    31         65
    38         79
    39        143
    40         46
    41         78
    42        999
    43        546
    44        187
    45        179
    58         12
    59         24
    60         35
    73        328
    74         32
    88         12
    89          8
   118        140
   119         12
   120          1