##TITLE=Library Entry 8898
##JCAMP-DX=Revision 4.10 
##DATA TYPE=MASS SPECTRUM
##SAMPLE DESCRIPTION=Chemical Concepts
##NAMES=HP
##CAS NAME=d-Glucitol, 4-O-nonyl-
##MOLFORM=C15H32O6
##CAS REGISTRY NO=132591-06-1
##MP= -300
##BP= -300
##MW= 308
##$RETENTION INDEX=0
##$CONDENSED SPECTRUM=NO
##NPOINTS= 182
##XYDATA=(XY..XY) 1 
    24          0
    25          1
    26          7
    27         86
    28          1
    29        212
    30         15
    31         98
    33          1
    34          0
    36          0
    37          1
    38          1
    39         38
    40         11
    41        363
    42         91
    43        999
    44         46
    45         93
    46          3
    47          2
    49          1
    50          1
    51          2
    52          1
    53         16
    54         13
    55        238
    56        129
    57        723
    58         30
    59          6
    60         76
    61        317
    62         10
    63          2
    64          0
    65          3
    66          5
    67         20
    68         23
    69        137
    70         68
    71        804
    72         39
    73        609
    74        132
    75         37
    76          1
    77         20
    78          1
    79          4
    80          2
    81         17
    82         33
    83         60
    84         26
    85        408
    86         24
    87         27
    88          5
    89          6
    90          8
    91        452
    92         15
    93          4
    94          1
    95         20
    96         11
    97         31
    98         17
    99         15
   100          4
   101          3
   102          4
   103        644
   104         32
   105         13
   106          0
   107          1
   108          0
   109          7
   110          2
   111          5
   112          2
   113          3
   114          1
   115         33
   116          5
   117          8
   118          0
   119          1
   120          0
   121         22
   122          1
   123          1
   124         37
   125         17
   126         12
   127         98
   128         10
   129         11
   130          2
   131          1
   132          0
   133         72
   134          4
   135          1
   136          0
   137          1
   138          1
   139          1
   140          0
   141          4
   142          1
   143          5
   144          1
   145          1
   146          5
   147          5
   148          0
   149          0
   151          6
   152          1
   153          0
   154          0
   155         51
   156          6
   157          4
   158          0
   159          0
   163          0
   164          0
   165          2
   167          0
   169          1
   170          2
   171          3
   172          1
   173          1
   180          0
   181          0
   182          0
   183          2
   184          0
   185          0
   186          2
   187         17
   188          1
   191          0
   193          0
   197          0
   199        218
   200         42
   201          4
   202          0
   207          2
   208          0
   209          0
   211          1
   212          1
   213          0
   215          0
   216          2
   217         47
   218          6
   219          0
   228          0
   229         28
   230          5
   231          0
   240          0
   241          2
   242          0
   247         16
   248          2
   259         14
   260          2
   291          1
   309          3
   310          0