##TITLE=Library Entry 13567
##JCAMP-DX=Revision 4.10 
##DATA TYPE=MASS SPECTRUM
##SAMPLE DESCRIPTION=A.A.Kutin, Moscow, Russia
##NAMES=HP
##CAS NAME=3-Acethyl-6-methoxycoumarine
##MOLFORM=C12H10O4
##CAS REGISTRY NO=13252-80-7
##MP= -300
##BP= -300
##MW= 218
##$RETENTION INDEX=0
##$CONDENSED SPECTRUM=NO
##NPOINTS= 89
##XYDATA=(XY..XY) 1 
    34          2
    37         24
    39         84
    40         32
    41         36
    43        999
    44         57
    50        238
    51        132
    53        113
    54         72
    55         18
    57          3
    58          3
    59          4
    60          4
    61         30
    62        108
    63        102
    64         22
    65         98
    66         13
    67          5
    68          3
    69          8
    70          1
    73         11
    74         54
    75         54
    76        215
    77        157
    78         19
    79         33
    82         18
    83          1
    84          2
    85         15
    86         30
    87         35
    88         37
    89         52
    90         17
    91         26
    92          6
    93          4
    94          2
    95          2
    97          1
    98          6
    99          2
   100          1
   101         14
   102         11
   104         29
   105         83
   106         17
   107          2
   118         31
   119        221
   120         10
   132         27
   133        167
   134          2
   146          5
   147         21
   148        141
   149         14
   150          2
   151          0
   159          8
   160         15
   161        147
   162         15
   163          1
   175        106
   176         55
   177          7
   178          0
   189          2
   190         11
   191          1
   203        548
   204         67
   205         10
   206          0
   218        411
   219         55
   220          7
   222          0