##TITLE=Library Entry 94342
##JCAMP-DX=Revision 4.10 
##DATA TYPE=MASS SPECTRUM
##SAMPLE DESCRIPTION=Div. of Experiment Therapeutics WRAIR, WRAMC, Washingto
n DC 20307
##NAMES=HP
##CAS NAME=2-Naphthyl-p-tolyl sulfone
##MOLFORM=C17H14O2S
##CAS REGISTRY NO=13250-06-1
##MP= -300
##BP= -300
##MW= 282
##$RETENTION INDEX=0
##$CONDENSED SPECTRUM=NO
##NPOINTS= 110
##XYDATA=(XY..XY) 1 
    41         58
    43         23
    45         58
    47         12
    48          4
    49         42
    50         16
    51        363
    53         35
    54          3
    55          5
    57          3
    58          2
    59          1
    60          1
    61          2
    62         45
    63        282
    65        359
    67         54
    69         29
    71         13
    73          5
    74         35
    75        184
    77        509
    78          7
    79          8
    81          1
    82          7
    84         16
    86         24
    87         54
    89        226
    91        353
    95         30
    96          7
    98         17
    99         26
   100         18
   101        133
   102          3
   103         21
   104          1
   107         37
   108         25
   109        110
   111         29
   113          2
   115        999
   121          8
   122          8
   123         11
   126        231
   127        636
   129          3
   131         20
   132          1
   134          3
   138          2
   139        814
   141         48
   143        193
   144         28
   145          1
   147         92
   148          2
   149          1
   150          6
   151          2
   152          9
   155          4
   158          9
   159          6
   161          1
   163          3
   165          7
   166          0
   174          5
   175        247
   176         31
   177         13
   178          6
   187          2
   188          1
   189         15
   190          1
   191          2
   200          5
   202         72
   203         20
   204          3
   205          1
   208          1
   213          8
   215         38
   217         30
   218         15
   219          1
   221          2
   232          7
   234          8
   235          3
   247          1
   250         11
   281          4
   282        225
   283         40
   284         17
   285          2