##TITLE=Library Entry 59339
##JCAMP-DX=Revision 4.10 
##DATA TYPE=MASS SPECTRUM
##SAMPLE DESCRIPTION=Institute of Organic Chemistry, USSR, 1990
##NAMES=HP
##CAS NAME=2-Ethyl-3-benzyl-1,3,2-oxaazaborinane
##MOLFORM=C12H18BNO
##CAS REGISTRY NO=132573-68-3
##MP= -300
##BP= -300
##MW= 203
##$RETENTION INDEX=0
##$CONDENSED SPECTRUM=NO
##NPOINTS= 75
##XYDATA=(XY..XY) 1 
    50         77
    51         39
    52         31
    53         28
    54         46
    55        200
    56        923
    57        246
    58         30
    59         26
    60          9
    65        162
    66         31
    67         27
    68         45
    69        154
    70        269
    71         42
    77         55
    78         31
    79         25
    82         39
    83         50
    84        139
    85         35
    86         27
    89         39
    90         38
    91        999
    92        346
    93         42
    95         14
    96         29
    97         69
    98        300
    99        508
   100         52
   101         29
   110         29
   111        208
   112        769
   113        123
   114         19
   115         21
   116         27
   117         52
   118         58
   119         28
   120         11
   123         50
   124        231
   125        308
   126        923
   127         92
   128         12
   132         12
   133         16
   134         48
   135          8
   139         42
   140        177
   141         25
   142          9
   145         16
   146         77
   147         11
   172         19
   173         41
   174        162
   175         21
   201        108
   202        500
   203        754
   204        100
   205         11