##TITLE=Library Entry 100957
##JCAMP-DX=Revision 4.10 
##DATA TYPE=MASS SPECTRUM
##SAMPLE DESCRIPTION=Japan AIST/NIMC Database- Spectrum MS-IW-2434
##NAMES=HP
##CAS NAME=6-Methyl-2-(p-acetamidophenyl)-4-chromanone
##MOLFORM=C18H17NO3
##CAS REGISTRY NO=132593-00-1
##MP= -300
##BP= -300
##MW= 295
##$RETENTION INDEX=0
##$CONDENSED SPECTRUM=NO
##NPOINTS= 157
##XYDATA=(XY..XY) 1 
    15          4
    27          5
    28          5
    29          1
    38          2
    39         20
    40          2
    41          6
    42          4
    43        106
    44          3
    50          8
    51         34
    52         24
    53         10
    54          2
    55          4
    57          2
    62          3
    63         15
    64          7
    65         32
    66          5
    67          2
    69          1
    71          1
    74          2
    75          4
    76          8
    77         69
    78         65
    79         12
    80          3
    81          1
    83          1
    85          1
    87          1
    88          2
    89         17
    90         14
    91         67
    92         13
    93         47
    94          5
    95          1
    97          1
   101          2
   102          4
   103          8
   104          9
   105         47
   106        107
   107         29
   108          3
   109          1
   111          1
   115          4
   116          9
   117         28
   118        118
   119        999
   120        105
   121          6
   126          4
   127          2
   128          1
   129          1
   130          2
   131          5
   132          7
   133         29
   134        142
   135        137
   136         21
   137          2
   139          1
   140          1
   141          1
   144         30
   145          9
   146         17
   147          4
   148        156
   149         17
   150          1
   151          1
   152          2
   153          2
   154          1
   155          1
   159          1
   160         20
   161        613
   162         73
   163          6
   164          1
   165          4
   166          1
   167          2
   168          2
   177          6
   178          2
   179          2
   180          4
   181          4
   182          5
   183          4
   186          1
   188          7
   189          1
   190          1
   191          1
   192          1
   193          1
   194          2
   195          2
   196          4
   197          1
   206          1
   207          2
   208          3
   209          3
   210         15
   211          3
   219          2
   220          1
   222          1
   223          1
   224          5
   225         10
   226          2
   234          4
   235         16
   236         14
   237         36
   238         12
   239          2
   248          2
   250          2
   251          3
   252         40
   253         25
   254          5
   262          1
   266          3
   267          3
   276          3
   277          4
   278         28
   279          6
   280         12
   281          2
   294        163
   295        655
   296        129
   297         15
   298          1