##TITLE=Library Entry 41875
##JCAMP-DX=Revision 4.10 
##DATA TYPE=MASS SPECTRUM
##SAMPLE DESCRIPTION=Chemical Concepts
##NAMES=HP
##CAS NAME=Glucitol, 6-O-nonyl-
##MOLFORM=C15H32O6
##CAS REGISTRY NO=132696-05-0
##MP= -300
##BP= -300
##MW= 308
##$RETENTION INDEX=0
##$CONDENSED SPECTRUM=NO
##NPOINTS= 212
##XYDATA=(XY..XY) 1 
    25          0
    26          4
    27         43
    28          8
    29        124
    30          2
    31         56
    33          0
    34          1
    35          0
    36          8
    37          0
    38          2
    39         21
    40         18
    41        216
    42         39
    43        418
    44         48
    45        100
    46          2
    47          2
    49          1
    50          1
    51          2
    52          0
    53         11
    54          8
    55        125
    56         53
    57        304
    58         25
    59          8
    60         59
    61        188
    62          7
    63          2
    64          0
    65          3
    66          2
    67         18
    68         11
    69        126
    70         33
    71        457
    72         18
    73        999
    74        118
    75         73
    76          3
    77          8
    78          2
    79          4
    80          2
    81         14
    82         26
    83         68
    84         19
    85        245
    86         56
    87         37
    88          5
    89          8
    90          1
    91        130
    92          5
    93          3
    94          1
    95         11
    96         10
    97         36
    98         16
    99         22
   100          4
   101          4
   102          5
   103        573
   104         54
   105         18
   106          1
   107          2
   108          6
   109          4
   110          4
   111         12
   112          4
   113          4
   114          8
   115        108
   116         20
   117         41
   118          2
   119          1
   120          0
   121         12
   122          2
   123          2
   124         19
   125         40
   126         22
   127         76
   128          6
   129         20
   130          5
   131          1
   132          2
   133        140
   134         10
   135          4
   136          0
   137          2
   138          2
   139          1
   140          1
   141          5
   142          1
   143          9
   144          2
   145          3
   146         16
   147          8
   148          1
   149          0
   150          0
   151          5
   153          1
   154          2
   155         34
   156          3
   157         38
   158          4
   159          2
   160          0
   161          0
   162          0
   163          0
   164          1
   165          7
   166          1
   167          0
   168          0
   169          2
   170          1
   171          2
   172          4
   173          1
   174          0
   175          0
   177          0
   180          0
   181          0
   182          1
   183         12
   184          3
   185          2
   186          2
   187         69
   188          7
   189          0
   190          0
   191          0
   192          0
   193          0
   197          0
   198          0
   199         93
   200         18
   201          3
   202          0
   205          0
   207          1
   208          0
   211         10
   212          3
   213          0
   215          0
   217         64
   218          8
   219          1
   221          0
   228          0
   229         10
   230          1
   231          0
   241          4
   242          0
   247         46
   248          5
   249          1
   254          0
   255          0
   257          0
   259         40
   260          5
   261          2
   262          9
   263          2
   272          0
   273          1
   275          2
   276          1
   277          3
   278          0
   279          0
   284          0
   291          0
   296          0
   297          0
   300          0
   309          6
   310          1
   311          0