##TITLE=Library Entry 65967
##JCAMP-DX=Revision 4.10 
##DATA TYPE=MASS SPECTRUM
##SAMPLE DESCRIPTION=D. Rasala, Inst. Chem., Pedagogical Univ., Kielce, Pola
nd
##NAMES=HP
##CAS NAME=3-Pyridinamine, 2-nitro-
##MOLFORM=C5H5N3O2
##CAS REGISTRY NO=13269-19-7
##MP= -300
##BP= -300
##MW= 139
##$RETENTION INDEX=0
##$CONDENSED SPECTRUM=NO
##NPOINTS= 15
##XYDATA=(XY..XY) 1 
    50         40
    52        150
    53        120
    64        110
    65        140
    66        480
    81         50
    92         40
    93        999
    94         60
   109          1
   138          1
   139        330
   140         56
   141          2