##TITLE=Library Entry 38662
##JCAMP-DX=Revision 4.10 
##DATA TYPE=MASS SPECTRUM
##SAMPLE DESCRIPTION=Japan AIST/NIMC Database- Spectrum MS-IW-2782
##NAMES=HP
##CAS NAME=1,2-Dibutyroxy-1-ethoxyethane
##MOLFORM=C12H22O5
##CAS REGISTRY NO=13264-32-9
##MP= -300
##BP= -300
##MW= 246
##$RETENTION INDEX=0
##$CONDENSED SPECTRUM=NO
##NPOINTS= 68
##XYDATA=(XY..XY) 1 
    14          1
    15         12
    26          4
    27         53
    28         11
    29         54
    30          2
    31         15
    38          1
    39         16
    40          3
    41         56
    42         42
    43        795
    44         39
    45         26
    47         29
    55         16
    56          1
    57         15
    58          2
    59          8
    60         84
    61         19
    69          8
    70         15
    71        999
    72         61
    73         26
    74          6
    75         16
    84          1
    85          4
    86          9
    87         14
    88         78
    89         12
    99          1
   100          2
   101         40
   102          9
   103         26
   104          1
   105          1
   113          1
   114         23
   115          6
   116          6
   117         75
   118          4
   129         16
   130         16
   131        102
   132          7
   133          1
   142          3
   143          5
   144          5
   145         22
   146          2
   157          2
   158          9
   159        199
   160         17
   161          2
   172          1
   173          3
   201          1