##TITLE=Library Entry 60920
##JCAMP-DX=Revision 4.10 
##DATA TYPE=MASS SPECTRUM
##SAMPLE DESCRIPTION=LAC, NIDDK, NIH, Bethesda, MD 20892
##NAMES=HP
##CAS NAME=Tribenzyl N-acetyl-N,1-dibenzoylgalactosamine
##MOLFORM=C43H41NO8
##CAS REGISTRY NO=13262-62-9
##MP= -300
##BP= -300
##MW= 699
##$RETENTION INDEX=0
##$CONDENSED SPECTRUM=NO
##NPOINTS= 159
##XYDATA=(XY..XY) 1 
    41         67
    42         10
    43        100
    44          6
    45         19
    49          7
    50         39
    51         70
    52         12
    53          6
    54          4
    55         41
    56         20
    57         30
    60          2
    63          6
    65         42
    66          5
    67          8
    68         13
    69         31
    70         17
    71         13
    73          5
    74         10
    75          6
    76          7
    77        231
    78         21
    79         10
    81         10
    82         16
    83         26
    84         14
    85          6
    89         10
    91        999
    92         76
    93          2
    94          5
    96          9
    97         22
    98          7
   101          4
   103          2
   105        842
   106         64
   107         14
   108          2
   110          4
   111         11
   112          4
   117          5
   122         72
   123          6
   124          2
   125          4
   126          2
   129          2
   131          2
   132          5
   133          2
   134          4
   138          3
   145          4
   146         14
   147          2
   148          2
   149          2
   150          2
   161          4
   162         12
   163         14
   164          3
   167          3
   168          5
   169          3
   174          4
   175          6
   177          2
   181         42
   182          4
   187         89
   188         13
   195          3
   197          2
   198          2
   200         16
   201          3
   202          7
   204          2
   213          2
   214          8
   216          4
   217          2
   224         11
   225          3
   228          2
   230          3
   231          3
   232          2
   236          3
   242         16
   243          2
   246          3
   249          3
   253         14
   254          3
   255          8
   258          2
   259          2
   264          3
   266          6
   267         13
   274          3
   276          8
   278          2
   282         34
   283          4
   295          3
   296          2
   307          3
   308         12
   318         41
   319         17
   320          6
   321          2
   322          2
   323          3
   324         19
   325          2
   336          2
   338          5
   340          2
   354         11
   363          5
   364          4
   365          2
   366          2
   380          7
   382         10
   398          9
   428          6
   444         35
   445          6
   446          6
   469          4
   470          2
   472          2
   486         11
   487          2
   534          2
   566         16
   567          5
   577         14
   578          5
   608         22
   609          7
   699          2