##TITLE=Library Entry 40960
##JCAMP-DX=Revision 4.10 
##DATA TYPE=MASS SPECTRUM
##SAMPLE DESCRIPTION=Institute of Chemistry, SAS, Bratislava, Slovakia
##NAMES=HP
##CAS NAME=D-arabino-Hex-1-enitol, 1,5-anhydro-2-deoxy-
##MOLFORM=C6H10O4
##CAS REGISTRY NO=13265-84-4
##MP= -300
##BP= -300
##MW= 146
##$RETENTION INDEX=0
##$CONDENSED SPECTRUM=NO
##NPOINTS= 34
##XYDATA=(XY..XY) 1 
    29        163
    30         15
    31         89
    32         19
    39         89
    40         19
    41         59
    42         49
    43        119
    44         59
    45         43
    46         15
    53         19
    54         15
    55        177
    56        239
    57        115
    58         11
    68         39
    69         19
    71        113
    72         11
    73        999
    74        199
    75         19
    81         19
    82         11
    83         15
    97         59
    98          9
   115          7
   128         11
   146         43
   147          7