##TITLE=Library Entry 15167
##JCAMP-DX=Revision 4.10 
##DATA TYPE=MASS SPECTRUM
##SAMPLE DESCRIPTION=F. TURECEK,HEYROVSKY INST PHYS CHEM & ELECTROCHEM,PRAGU
E,CZECH
##NAMES=HP
##CAS NAME=1,1-Dichloro-2-methyl-3-(4,4-diformyl-1,3-butadien-1-yl)cycloprop
ane
##MOLFORM=C10H10Cl2O2
##CAS REGISTRY NO=132607-16-0
##MP= -300
##BP= -300
##MW= 232
##$RETENTION INDEX=0
##$CONDENSED SPECTRUM=NO
##NPOINTS= 149
##XYDATA=(XY..XY) 1 
    26         40
    27        313
    29        125
    31         18
    36        694
    37         30
    40         57
    41        208
    42         30
    43        132
    44        999
    45         54
    46         18
    49         27
    50        125
    51        326
    52         85
    53        194
    54         28
    55        194
    56         54
    57        139
    58         22
    59         17
    60         34
    61         36
    62         49
    63        153
    64         40
    65        229
    66         91
    67         94
    68         85
    69         97
    70         39
    71         80
    72         16
    73         54
    74         44
    75         94
    76         39
    77        514
    78        125
    79        333
    80         40
    81        167
    82         34
    83         75
    84         28
    85         47
    86         15
    87         62
    88         12
    89         91
    90         25
    91        292
    92         57
    93         59
    94         44
    95         69
    96         30
    97         52
    98         17
    99         34
   100         16
   101         59
   102         34
   103        174
   104         55
   105        403
   106         70
   107         44
   108         22
   109        347
   110         44
   111         28
   112         28
   113         57
   114         21
   115        181
   116         91
   117         58
   118         25
   119         52
   120         15
   121         64
   122        125
   123         51
   124         12
   125         70
   126         30
   127         64
   128         39
   129         55
   130         17
   131         58
   132         28
   133        201
   134         69
   135         29
   136         23
   137         12
   138         17
   139         47
   140         18
   141         64
   142         12
   143         55
   144         18
   145         23
   147         13
   149        285
   150         37
   151         65
   152         18
   153         34
   154         10
   155         25
   156         18
   157         26
   158         23
   159         21
   160         22
   161         97
   162         35
   163         17
   165         11
   167         27
   168         39
   169        125
   170         23
   171         41
   175         10
   178         10
   179         12
   181         18
   183         17
   184         12
   185         23
   187         15
   196         13
   197         84
   198         22
   199         35
   204         10
   205         10
   232         18
   234          9
   235          3