##TITLE=Library Entry 92504
##JCAMP-DX=Revision 4.10 
##DATA TYPE=MASS SPECTRUM
##SAMPLE DESCRIPTION=ASES Database, Dalian Institute, P.R. China
##NAMES=HP
##CAS NAME=1-(2-Nitrophenyl)-2,2-dibromocyclopropane
##MOLFORM=C9H7Br2NO2
##CAS REGISTRY NO=132608-16-3
##MP= -300
##BP= -300
##MW= 319
##$RETENTION INDEX=0
##$CONDENSED SPECTRUM=NO
##NPOINTS= 19
##XYDATA=(XY..XY) 1 
    50        220
    51        238
    57         49
    58         29
    63        327
    65        129
    75        150
    77        287
    89        198
   103         99
   114         99
   115        999
   160        140
   161        230
   240        200
   242        198
   319         30
   321         59
   323         29