##TITLE=Library Entry 12602
##JCAMP-DX=Revision 4.10 
##DATA TYPE=MASS SPECTRUM
##SAMPLE DESCRIPTION=Chemical Concepts
##NAMES=HP
##CAS NAME=Ethyl 2-acetamido-4,5-dimethyl-3-thiophenecarboxylate
##MOLFORM=C11H15NO3S
##CAS REGISTRY NO=13267-52-2
##MP= -300
##BP= -300
##MW= 241
##$RETENTION INDEX=0
##$CONDENSED SPECTRUM=NO
##NPOINTS= 79
##XYDATA=(XY..XY) 1 
    34         33
    36         25
    38        162
    40        589
    41        149
    43        999
    44        168
    45        122
    47         12
    48          9
    50         17
    51         41
    52         42
    53        113
    55        114
    56         33
    57         79
    58         51
    59         59
    61         10
    63         17
    64         29
    65         71
    66         75
    67         37
    68         23
    69         59
    70         39
    71         42
    72         12
    73          9
    76          8
    77         20
    78         22
    80         78
    81         31
    82         24
    83         31
    84         25
    85         25
    91         12
    92         17
    93         47
    95         24
    97         98
    98         30
    99         16
   107          8
   109          9
   110         21
   111          9
   112          9
   113         11
   119          9
   123         17
   124         28
   125         48
   126         19
   136          9
   137         43
   138         30
   149          9
   153        965
   154        111
   155         49
   171         10
   180         10
   185         25
   195         47
   196         25
   197         11
   199        234
   200        184
   201         19
   227         18
   240          9
   241        250
   242         32
   243         13