##TITLE=Library Entry 19008
##JCAMP-DX=Revision 4.10 
##DATA TYPE=MASS SPECTRUM
##SAMPLE DESCRIPTION=Exported from NIST MS Search
##NAMES=HP
##CAS NAME=3-Hexene, (E)-
##MOLFORM=C6H12
##CAS REGISTRY NO=13269-52-8
##MP= -300
##BP= -300
##MW= 84
##$RETENTION INDEX=593
##$CONDENSED SPECTRUM=NO
##NPOINTS= 58
##XYDATA=(XY..XY) 1 
     1          5
     2          4
    12          1
    13          1
    14          6
    15         85
    16          3
    25          1
    26         33
    27        385
    28         69
    29        253
    30          6
    36          1
    37          9
    38         30
    39        381
    40         74
    41        811
    42        692
    43        165
    44          5
    48          1
    49          2
    50         21
    51         43
    52         19
    53        102
    54         69
    55        999
    56        276
    57         12
    58          1
    61          1
    62          3
    63          8
    64          1
    65         14
    66          8
    67         47
    68         11
    69        300
    70         16
    71          1
    73          1
    74          1
    75          1
    76          1
    77          6
    78          1
    79          4
    80          1
    81          3
    82          1
    83          4
    84        369
    85         25
    86          1