##TITLE=Library Entry 41871
##JCAMP-DX=Revision 4.10 
##DATA TYPE=MASS SPECTRUM
##SAMPLE DESCRIPTION=Chemical Concepts
##NAMES=HP
##CAS NAME=Glucitol, 6-O-decyl-
##MOLFORM=C16H34O6
##CAS REGISTRY NO=132696-06-1
##MP= -300
##BP= -300
##MW= 322
##$RETENTION INDEX=0
##$CONDENSED SPECTRUM=NO
##NPOINTS= 182
##XYDATA=(XY..XY) 1 
    26          2
    27         46
    29        107
    30          2
    31         44
    33          0
    35          1
    36          8
    37          0
    38          3
    39         21
    40          1
    41        183
    42         44
    43        362
    44         43
    45         95
    46          2
    47          3
    49          1
    50          0
    51          1
    52          1
    53          7
    54          9
    55        152
    56         53
    57        413
    58         28
    59          8
    60         53
    61        183
    62          6
    63          2
    65          3
    66          4
    67         17
    68         14
    69         82
    70         34
    71        276
    72         14
    73        999
    74        123
    75         65
    76          3
    77         11
    78          1
    79          7
    80          4
    81         15
    82         24
    83        119
    84         22
    85        271
    86         35
    87         31
    88          7
    89          7
    90          2
    91        127
    92          5
    93          6
    94          2
    95         12
    96         15
    97         48
    98         15
    99         62
   100          6
   101          4
   102          6
   103        588
   104         59
   105         22
   106          2
   107          2
   108          1
   109          7
   110          6
   111         14
   112         12
   113          2
   114          5
   115        112
   116         21
   117         35
   118          3
   119          1
   120          1
   121         14
   122          1
   123          2
   124          1
   125          2
   126          1
   127          2
   128          3
   129         18
   130          4
   131          1
   132          2
   133        161
   134         11
   135          5
   136          0
   137          1
   138         22
   139         18
   140         14
   141         65
   142          7
   143          1
   145          2
   146         21
   147         12
   148          1
   149          1
   150          0
   151          7
   152          1
   153          1
   154          0
   155          3
   156          1
   157          9
   158          1
   159          2
   164          0
   165          8
   166          0
   167          1
   168          1
   169         23
   170          3
   171         34
   172          5
   173          1
   177          0
   178          0
   179          0
   183          7
   184          1
   185          1
   186          3
   187          1
   189          1
   196          2
   197          2
   198          0
   200          2
   201         67
   202          7
   203          1
   207          1
   208          0
   211          0
   213         92
   214         19
   215          4
   219          0
   225          8
   226          4
   227          1
   229          0
   231         66
   232         11
   233          1
   243         11
   244          3
   255          3
   256          1
   261         41
   262          6
   263          1
   268          1
   273         42
   274          7
   275          1
   286          0
   323          5
   324          0