##TITLE=Library Entry 33173
##JCAMP-DX=Revision 4.10 
##DATA TYPE=MASS SPECTRUM
##SAMPLE DESCRIPTION=Chemical Concepts
##NAMES=HP
##CAS NAME=2-Cyclohexenone,3-bromo,5,5-dimethyl-
##MOLFORM=C8H11BrO
##CAS REGISTRY NO=13271-49-3
##MP= -300
##BP= -300
##MW= 202
##$RETENTION INDEX=0
##$CONDENSED SPECTRUM=NO
##NPOINTS= 132
##XYDATA=(XY..XY) 1 
    26          9
    27         78
    28         15
    29         52
    30          2
    31          2
    35          2
    36          1
    37         15
    38         59
    39        353
    40         41
    41        168
    42         23
    43         23
    44          2
    45          4
    46          3
    47          5
    48          2
    49          5
    50         35
    51         68
    52         34
    53         96
    54         11
    55         70
    56         79
    57          7
    58          0
    59          1
    60          0
    61          5
    62         15
    63         32
    64          8
    65         49
    66         29
    67        999
    68         38
    69          5
    70          9
    71          1
    72          0
    73          2
    74          7
    75          5
    76          4
    77         79
    78         66
    79        105
    80         80
    81         34
    82          4
    83         24
    84          2
    85         13
    86          1
    87          2
    88          0
    89          1
    90          2
    91         17
    92          3
    93         10
    94          7
    95         65
    96          5
    97          1
   101          1
   103          1
   104          3
   105          4
   106          6
   107          9
   108         26
   109          2
   110          0
   111          0
   112          1
   116          5
   118          2
   119          9
   120          1
   121          5
   122          1
   123         99
   124         10
   131          5
   132          1
   133          5
   134          1
   135          2
   140          1
   141          0
   142          0
   143          1
   144          1
   145          5
   146        767
   147         40
   148        764
   149         40
   150          3
   151          1
   155          1
   156          0
   157          0
   158          1
   159         33
   160          5
   161         27
   162          4
   163          0
   169          0
   170          5
   171          1
   172          6
   173          3
   174         39
   175          5
   176         38
   177          2
   187         58
   188          4
   189         57
   190          4
   202        307
   203         33
   204        304
   205         33
   206          1