##TITLE=Library Entry 90579
##JCAMP-DX=Revision 4.10 
##DATA TYPE=MASS SPECTRUM
##SAMPLE DESCRIPTION=Div. of Experiment Therapeutics WRAIR, WRAMC, Washingto
n DC 20307
##NAMES=HP
##CAS NAME=Phosphinic acid, bis(chloromethyl),- ethyl ester
##MOLFORM=C4H9Cl2O2P
##CAS REGISTRY NO=13274-84-5
##MP= -300
##BP= -300
##MW= 190
##$RETENTION INDEX=0
##$CONDENSED SPECTRUM=NO
##NPOINTS= 76
##XYDATA=(XY..XY) 1 
    41         28
    42         39
    43         83
    44         52
    45         71
    47        317
    48         88
    49        700
    51        267
    53          2
    55          5
    57         12
    59         10
    61        103
    62         33
    63         13
    64         11
    65         42
    66          8
    67         16
    68          8
    69         11
    77         66
    78         66
    79         40
    80         32
    81         16
    83        379
    85        158
    86         18
    88          7
    91         17
    93          5
    95          9
    97        141
    99         54
   101          2
   105         10
   106          6
   108          5
   109          7
   111          3
   113        999
   115        491
   117         86
   119         12
   123          7
   125          4
   127         10
   128          5
   129          4
   131         11
   133          4
   136          2
   139          3
   141        955
   143        318
   145         71
   146         32
   147         32
   148         18
   149          9
   150          2
   159          4
   160        120
   161        360
   163        249
   165         37
   175         19
   177         14
   190         81
   191         40
   192         51
   193         26
   194          8
   195          2