##TITLE=Library Entry 47068
##JCAMP-DX=Revision 4.10 
##DATA TYPE=MASS SPECTRUM
##SAMPLE DESCRIPTION=Exported from NIST MS Search
##NAMES=HP
##CAS NAME=Acetamide, N-(5-phenyl-3-isoxazolyl)-
##MOLFORM=C11H10N2O2
##CAS REGISTRY NO=13273-63-7
##MP= -300
##BP= -300
##MW= 202
##$RETENTION INDEX=0
##$CONDENSED SPECTRUM=NO
##NPOINTS= 30
##XYDATA=(XY..XY) 1 
    43        620
    44         30
    50        300
    51        610
    52         30
    55        180
    56         20
    63        150
    64         10
    74        140
    75        140
    76        200
    77        999
    78        120
    79         10
    89        140
    90         10
   101        110
   102        590
   103         50
   104        210
   105        980
   106         80
   129         80
   131         90
   132         10
   160        710
   161         70
   202        300
   203         30