##TITLE=Library Entry 100108
##JCAMP-DX=Revision 4.10 
##DATA TYPE=MASS SPECTRUM
##SAMPLE DESCRIPTION=Div. of Experiment Therapeutics WRAIR, WRAMC, Washingto
n DC 20307
##NAMES=HP
##CAS NAME=N-(Phenylaminocarbonyl)aziridine
##MOLFORM=C9H10N2O
##CAS REGISTRY NO=13279-22-6
##MP= -300
##BP= -300
##MW= 162
##$RETENTION INDEX=0
##$CONDENSED SPECTRUM=NO
##NPOINTS= 39
##XYDATA=(XY..XY) 1 
    41         58
    42        317
    43        161
    44         44
    50         30
    51        108
    52         33
    59         11
    62         17
    63         65
    64         74
    65        244
    66         45
    70        238
    74          8
    76         11
    77        297
    78         35
    79         62
    90          3
    91        143
    92        183
    93        105
    94         12
   104         17
   106        675
   107         55
   118          5
   119        999
   120        127
   121         10
   134         77
   135          4
   147        105
   148         11
   149          3
   161         19
   162        551
   163         68