##TITLE=Library Entry 24276
##JCAMP-DX=Revision 4.10 
##DATA TYPE=MASS SPECTRUM
##SAMPLE DESCRIPTION=AP-2113
##NAMES=HP
##CAS NAME=Heptadecane, 8-methyl-
##MOLFORM=C18H38
##CAS REGISTRY NO=13287-23-5
##MP= -300
##BP= -300
##MW= 254
##$RETENTION INDEX=1738
##$CONDENSED SPECTRUM=NO
##NPOINTS= 92
##XYDATA=(XY..XY) 1 
    40         12
    41        390
    42        110
    43        869
    44         29
    49          1
    50          2
    51          2
    52          2
    53         20
    54         20
    55        270
    56        180
    57        999
    58         44
    59          1
    63          1
    65          3
    66          2
    67         22
    68         23
    69        117
    70        114
    71        779
    72         43
    73          1
    77          2
    78          1
    79          4
    80          2
    81          9
    82         26
    83         76
    84         77
    85        509
    86         33
    87          1
    91          1
    93          1
    94          1
    95          3
    96         15
    97         79
    98         61
    99        100
   100          8
   109          1
   110          5
   111         28
   112         18
   113         47
   114          4
   124          3
   125         17
   126        340
   127        150
   128         14
   129          1
   139          2
   140         11
   141         14
   142          1
   153          2
   154        230
   155        153
   156         17
   157          1
   167          1
   168         12
   169         13
   170          2
   182         12
   183         12
   184          2
   196         10
   197         13
   198          2
   210         10
   211         16
   212          2
   224         10
   225         22
   226          4
   238          4
   239         31
   240          6
   241          1
   252          1
   253          2
   254         76
   255         15
   256          2