##TITLE=Library Entry 8841
##JCAMP-DX=Revision 4.10 
##DATA TYPE=MASS SPECTRUM
##SAMPLE DESCRIPTION=Exported from NIST MS Search
##NAMES=HP
##CAS NAME=Butane, 2-methyl-2-(methylthio)-
##MOLFORM=C6H14S
##CAS REGISTRY NO=13286-92-5
##MP= -300
##BP= -300
##MW= 118
##$RETENTION INDEX=847
##$CONDENSED SPECTRUM=NO
##NPOINTS= 35
##XYDATA=(XY..XY) 1 
    26         30
    27        265
    28         37
    29        221
    39        232
    40         27
    41        336
    42         64
    43        999
    44         36
    45        124
    46         37
    47         90
    48         20
    49         42
    50         15
    51         23
    53         47
    54         11
    55        340
    56         26
    57         15
    58         18
    59         61
    61         43
    69         22
    70        119
    71        584
    72         35
    73         12
    75         17
    89        193
    90         10
   103         29
   118        287