##TITLE=Library Entry 7847
##JCAMP-DX=Revision 4.10 
##DATA TYPE=MASS SPECTRUM
##SAMPLE DESCRIPTION=Exported from NIST MS Search
##NAMES=HP
##CAS NAME=Tridecane, 3-ethyl-
##MOLFORM=C15H32
##CAS REGISTRY NO=13286-73-2
##MP= -300
##BP= -300
##MW= 212
##$RETENTION INDEX=1464
##$CONDENSED SPECTRUM=NO
##NPOINTS= 87
##XYDATA=(XY..XY) 1 
    26         16
    27        263
    28         50
    29        438
    30         10
    31          1
    37          2
    38          4
    39        123
    40         24
    41        544
    42        160
    43        999
    44         33
    50          2
    51          5
    52          3
    53         35
    54         25
    55        285
    56         99
    57        698
    58         30
    59          1
    62          1
    63          1
    65          4
    66          3
    67         23
    68         15
    69         91
    70        255
    71        606
    72         38
    73          1
    77          3
    78          1
    79          3
    80          1
    81          6
    82          9
    83         38
    84         34
    85        293
    86         19
    87          1
    91          1
    93          1
    95          1
    96          6
    97         28
    98         17
    99         81
   100          6
   109          1
   110          3
   111         16
   112         11
   113         60
   114          5
   124          2
   125          9
   126          7
   127         42
   128          4
   135          1
   137          1
   138          1
   139          4
   140          8
   141         21
   142          2
   152          1
   153          2
   154          7
   155          2
   168          5
   169          5
   170          1
   182        127
   183        161
   184         22
   185          2
   197          1
   211          1
   212          3
   213          1