##TITLE=Library Entry 40415
##JCAMP-DX=Revision 4.10 
##DATA TYPE=MASS SPECTRUM
##SAMPLE DESCRIPTION=NIST Mass Spectrometry Data Center, 2010
##NAMES=HP
##CAS NAME=Dimethylamine, N-heptafluorobutyryl-
##MOLFORM=C6H6F7NO
##CAS REGISTRY NO=13280-31-4
##MP= -300
##BP= -300
##MW= 241
##$RETENTION INDEX=0
##$CONDENSED SPECTRUM=NO
##NPOINTS= 102
##XYDATA=(XY..XY) 1 
    14          1
    15         23
    18         16
    27          4
    28         21
    29          4
    30          1
    31         13
    33          3
    38          1
    39          2
    40          8
    41         14
    42        143
    43         46
    44         18
    45          1
    46          1
    47          1
    50          8
    51          3
    52          1
    54          2
    56         42
    57          4
    58         10
    59          1
    60          4
    62          2
    63          1
    64          4
    65          1
    69        196
    70          4
    72        999
    73         39
    74          5
    75          2
    76          1
    78         13
    79          2
    80          1
    81          9
    82          1
    90          2
    91          4
    93         20
    94          9
    95          2
    96          1
   100         64
   101          2
   102          1
   106          1
   107          1
   109         22
   110          6
   111          1
   112          4
   119         50
   120          1
   122         26
   123          1
   124          2
   125         19
   126          1
   128         12
   129          1
   131          7
   134          1
   138          1
   144          2
   146          1
   150          2
   151          4
   152          1
   159          4
   160         17
   161          1
   162          4
   169        229
   170          8
   172          8
   178         19
   179          2
   180          1
   194        166
   195         10
   197          3
   210         12
   211          1
   212         21
   213          1
   222        211
   223         13
   224          1
   226         13
   227          1
   240         98
   241        456
   242         32
   243          2