##TITLE=Library Entry 25345
##JCAMP-DX=Revision 4.10 
##DATA TYPE=MASS SPECTRUM
##SAMPLE DESCRIPTION=James Little, Eastman Chemical Co.
##NAMES=HP
##CAS NAME=Nonadecane, 9-methyl-
##MOLFORM=C20H42
##CAS REGISTRY NO=13287-24-6
##MP= -300
##BP= -300
##MW= 282
##$RETENTION INDEX=1936
##$CONDENSED SPECTRUM=NO
##NPOINTS= 73
##XYDATA=(XY..XY) 1 
    27         36
    29        114
    30          3
    39         33
    40          8
    41        313
    42         78
    43        651
    44         21
    51          2
    53         14
    54         17
    55        236
    56        147
    57        999
    58         45
    65          4
    66          3
    67         24
    68         23
    69        126
    70        105
    71        712
    72         39
    79          5
    81          9
    82         33
    83         89
    84         66
    85        584
    86         39
    95          4
    96         23
    97         99
    98         43
    99        168
   100         13
   110         12
   111         71
   112         45
   113         70
   114          7
   124          5
   125         21
   126         11
   127         30
   128          4
   138          2
   139          9
   140        191
   141         71
   142          7
   154          5
   155          8
   168        118
   169         62
   170          8
   182          6
   183          7
   196          4
   197          7
   210          5
   211          6
   224          5
   225          5
   238          4
   239          7
   252          6
   253          9
   266          3
   267         17
   268          4
   282          3