##TITLE=Library Entry 48340
##JCAMP-DX=Revision 4.10 
##DATA TYPE=MASS SPECTRUM
##SAMPLE DESCRIPTION=Div. of Experiment Therapeutics WRAIR, WRAMC, Washingto
n DC 20307
##NAMES=HP
##CAS NAME=Thiourea, N-(6-aminopyrid-2-yl)-N'-[[1-(pyrid-2-yl)ethylidene]ami
no]-
##MOLFORM=C13H14N6S
##CAS REGISTRY NO=132856-20-3
##MP= -300
##BP= -300
##MW= 286
##$RETENTION INDEX=0
##$CONDENSED SPECTRUM=NO
##NPOINTS= 98
##XYDATA=(XY..XY) 1 
    42        111
    43         65
    45         37
    46         11
    50         58
    51        243
    52        177
    53         68
    54         88
    55         34
    57         57
    58          4
    59         29
    60         21
    63         29
    64         55
    65         58
    66        392
    67         88
    68         26
    69         19
    70         18
    71         23
    72          4
    74          8
    75         13
    76         55
    78        999
    79        522
    81        282
    82        186
    83         25
    84          4
    85         15
    86          3
    91         33
    92        119
    93        618
    94        121
    96         29
    97         36
    98         30
    99          8
   104        267
   105        174
   106        431
   107         95
   109        416
   110         19
   111         26
   112         19
   113          8
   117          7
   119         90
   120        211
   121        186
   122         25
   124         66
   125         28
   126         14
   127          3
   134        325
   135        232
   136         34
   138         42
   139        233
   140         46
   141         10
   143         25
   148         19
   150        153
   152        796
   153         61
   154         34
   165          4
   166        423
   167        198
   168         43
   169         13
   174          8
   176         29
   177         46
   178         19
   206          5
   208        349
   209         40
   210         11
   212          4
   225         17
   253         18
   257         14
   269          3
   271        322
   272         44
   273         18
   286        786
   287        125
   288         42