##TITLE=Library Entry 51552
##JCAMP-DX=Revision 4.10 
##DATA TYPE=MASS SPECTRUM
##SAMPLE DESCRIPTION=HD Science, UK
##NAMES=HP
##CAS NAME=Thiophene-2-carboxamide, N-(1-benzylpiperidin-4-yl)-
##MOLFORM=C17H20N2OS
##CAS REGISTRY NO=132863-26-4
##MP= -300
##BP= -300
##MW= 300
##$RETENTION INDEX=0
##$CONDENSED SPECTRUM=NO
##NPOINTS= 149
##XYDATA=(XY..XY) 1 
    15          6
    18         11
    26          3
    27         24
    28         60
    29         26
    30         17
    37          3
    39        185
    40         12
    41         50
    42         93
    43         23
    44         28
    45         19
    47          1
    50         10
    51         22
    52          9
    53         20
    54         26
    55         59
    56         78
    57         29
    58          9
    59          2
    60          1
    61          1
    63         18
    65        143
    66         11
    67         12
    68         10
    69         22
    70         19
    71          3
    72          3
    74          1
    75          2
    76          3
    77         17
    78          7
    79          7
    80         30
    82        999
    83        117
    84         12
    85          9
    86          1
    87          1
    89         25
    91        965
    92         98
    93          5
    94          3
    96         48
    97         13
    98          3
    99          1
   100          1
   102          1
   103          5
   104         22
   105         12
   106         27
   107          3
   109          4
   111        409
   112         30
   113         21
   114          2
   115          4
   116          3
   117         17
   118         48
   119         24
   120         16
   121          2
   124          1
   125          3
   127         10
   128         20
   129          5
   130          9
   132        180
   133         24
   134         13
   135          2
   136          2
   137          1
   138          1
   139          2
   140          2
   142          1
   144         30
   145         42
   146         41
   147          7
   148          2
   151          1
   152          2
   153          1
   154          4
   155          1
   156          3
   158         32
   159          5
   160          5
   161          2
   162          1
   164          1
   165          1
   166          5
   167          2
   168          5
   169          4
   170         11
   172        167
   173        211
   174         36
   175          3
   180         25
   181         25
   182          4
   183          2
   187          4
   189         24
   190          3
   194          1
   195          1
   196          5
   209         85
   210         11
   211          5
   212          1
   215          1
   216          1
   223          4
   224          1
   250          1
   257          2
   271          3
   283          7
   284          2
   285          1
   300         70
   301         16
   302          5
   303          1