##TITLE=Library Entry 18631
##JCAMP-DX=Revision 4.10 
##DATA TYPE=MASS SPECTRUM
##SAMPLE DESCRIPTION=Japan AIST/NIMC Database- Spectrum MS-NW-2968
##NAMES=HP
##CAS NAME=2-Pentenenitrile
##MOLFORM=C5H7N
##CAS REGISTRY NO=13284-42-9
##MP= -300
##BP= -300
##MW= 81
##$RETENTION INDEX=755
##$CONDENSED SPECTRUM=NO
##NPOINTS= 47
##XYDATA=(XY..XY) 1 
    12          2
    13          1
    14          5
    15         29
    24          1
    25          5
    26         86
    27        202
    28        315
    29         36
    30          1
    36          4
    37         47
    38         72
    39        371
    40         51
    41        535
    42         26
    43          2
    44          2
    48          2
    49         11
    50         46
    51         73
    52        116
    53        177
    54        999
    55         58
    56          2
    57          1
    61          2
    62          3
    63          9
    64         50
    65         16
    66        160
    67          8
    74          1
    75          9
    76          9
    77          2
    78          7
    79          7
    80        157
    81        358
    82         19
    83          1