##TITLE=Library Entry 25352
##JCAMP-DX=Revision 4.10 
##DATA TYPE=MASS SPECTRUM
##SAMPLE DESCRIPTION=Chemical Concepts
##NAMES=HP
##CAS NAME=Heneicosane, 10-methyl-
##MOLFORM=C22H46
##CAS REGISTRY NO=13287-25-7
##MP= -300
##BP= -300
##MW= 310
##$RETENTION INDEX=2135
##$CONDENSED SPECTRUM=NO
##NPOINTS= 102
##XYDATA=(XY..XY) 1 
    26          1
    27         45
    29        156
    30          4
    39         12
    41        261
    42         66
    43        669
    44         19
    45          0
    53          5
    54         10
    55        185
    56         85
    57        999
    58         38
    66          0
    67         10
    68         19
    69        117
    70         92
    71        683
    72         35
    73          1
    81          8
    82         37
    83         86
    84         62
    85        519
    86         37
    87          1
    96         40
    97        131
    98         51
    99        238
   100         19
   109          0
   110         32
   111         85
   112         40
   113        159
   114         14
   124         14
   125         70
   126         72
   127        102
   128          7
   138          7
   139         20
   140         19
   141         53
   142          7
   152          9
   153         22
   154        297
   155        150
   156         17
   157          1
   166          0
   168         13
   169         21
   170          1
   171          2
   172          0
   180          5
   181         10
   182        179
   183        130
   184         15
   185          1
   194          0
   196         11
   197         19
   198          3
   209          1
   210          9
   211         17
   212          2
   224          8
   225         14
   226          2
   237          0
   238         10
   239         16
   240          3
   252          6
   253         11
   254          1
   266          6
   267         13
   268          2
   279          0
   280          7
   281         15
   282          3
   294          4
   295         23
   296          5
   297          0
   310         51
   311         12
   312          1