##TITLE=Library Entry 47167
##JCAMP-DX=Revision 4.10 
##DATA TYPE=MASS SPECTRUM
##SAMPLE DESCRIPTION=Div. of Experiment Therapeutics WRAIR, WRAMC, Washingto
n DC 20307
##NAMES=HP
##CAS NAME=Thiourea, N-(2-aminophenyl)-N'-[(1-phenylethylidene)amino]-
##MOLFORM=C15H16N4S
##CAS REGISTRY NO=132856-24-7
##MP= -300
##BP= -300
##MW= 284
##$RETENTION INDEX=0
##$CONDENSED SPECTRUM=NO
##NPOINTS= 178
##XYDATA=(XY..XY) 1 
    42        158
    43         21
    44         31
    45         26
    46          6
    47          7
    48          4
    49         34
    50        135
    51        415
    52        163
    53        126
    54         45
    55         12
    56         21
    57         35
    58         23
    59         19
    60         21
    61         14
    62         31
    63        104
    64         66
    65        225
    66         44
    67         18
    68          6
    69         10
    70         11
    71          4
    72          5
    73          7
    74         33
    75         59
    76        123
    77        999
    78        203
    79         68
    80        350
    81         74
    82         17
    83          4
    84         22
    85          3
    86         14
    87          5
    88          8
    89         23
    90         64
    91        114
    92        148
    93        125
    94         17
    95          4
    96         25
    97          9
    98          5
    99          4
   100          0
   101          4
   102         32
   103        192
   104        158
   105        141
   106         65
   107        159
   108        879
   109         83
   110          8
   111          5
   112          3
   114          1
   115          3
   116         16
   117         68
   118        569
   119        299
   120        440
   121         45
   122         37
   123         30
   124         18
   125         21
   126          3
   127          1
   128          1
   129          2
   130          3
   131         12
   132        337
   133        732
   134        375
   135        151
   136         19
   137         19
   138         12
   139          4
   140          1
   141          1
   142         10
   143          4
   144          3
   145          2
   146         10
   147         16
   148          1
   149         42
   150        531
   151        374
   152         58
   153         18
   154          2
   155          0
   158          1
   159          7
   160         13
   161          7
   162          2
   163          2
   164         14
   165         37
   166         23
   167          8
   168          2
   169          0
   172          0
   173         16
   174          2
   175          0
   176        310
   177        122
   178         30
   179          8
   180          6
   189          0
   191          0
   192          3
   193          3
   201          1
   206          1
   207          6
   208          3
   209          1
   218          1
   219          2
   220          1
   221         28
   222          6
   223          0
   224          1
   225          1
   226          0
   227          2
   233          2
   234         11
   235         50
   236         21
   237          5
   238          0
   240          0
   242          0
   249         36
   250        108
   251        671
   252        123
   253         12
   254          1
   268          3
   269         68
   270         12
   271          4
   276          0
   277          0
   283          4
   284        760
   285        144
   286         46
   287          7