##TITLE=Library Entry 84041
##JCAMP-DX=Revision 4.10 
##DATA TYPE=MASS SPECTRUM
##SAMPLE DESCRIPTION=Japan AIST/NIMC Database- Spectrum MS-NW-9853
##NAMES=HP
##CAS NAME=2-Bromoethyl p-nitrophenyl ether
##MOLFORM=C8H8BrNO3
##CAS REGISTRY NO=13288-06-7
##MP= -300
##BP= -300
##MW= 245
##$RETENTION INDEX=0
##$CONDENSED SPECTRUM=NO
##NPOINTS= 71
##XYDATA=(XY..XY) 1 
    15          1
    26          7
    27        209
    28         11
    29          1
    30         19
    37          3
    38         17
    39         26
    40          1
    41          1
    43          3
    44          7
    45          1
    50         25
    51         10
    52          6
    53          8
    54          3
    55          2
    61          3
    62         12
    63         54
    64         52
    65         49
    66          5
    67          1
    68          2
    73          1
    74          9
    75         22
    76         22
    77          4
    78          3
    79          5
    80          3
    81         10
    82          2
    89          1
    90          1
    91         14
    92         24
    93         23
    94          3
   105          1
   106          4
   107        999
   108         24
   109        977
   110         21
   118          2
   119          3
   120          4
   121          1
   122         13
   123          6
   139          5
   143          3
   145          3
   148          1
   149          1
   152          8
   165          2
   166          3
   229          4
   231          4
   245        263
   246         26
   247        255
   248         25
   249          2