##TITLE=Library Entry 83514
##JCAMP-DX=Revision 4.10 
##DATA TYPE=MASS SPECTRUM
##SAMPLE DESCRIPTION=A.A.Kutin, Moscow, Russia
##NAMES=HP
##CAS NAME=Carbonic acid, chloromethyl (4-methylphenyl) diester
##MOLFORM=C9H9ClO3
##CAS REGISTRY NO=132905-79-4
##MP= -300
##BP= -300
##MW= 200
##$RETENTION INDEX=0
##$CONDENSED SPECTRUM=NO
##NPOINTS= 105
##XYDATA=(XY..XY) 1 
    35          9
    36          9
    37         14
    38         37
    39        185
    40         18
    41         24
    42          2
    43          5
    44         26
    45         12
    47         13
    49        397
    50        114
    51        308
    52        128
    53        119
    54          7
    55          6
    56          0
    57          0
    58          1
    59          0
    60          1
    61          9
    62         34
    63         97
    64         31
    65        198
    66         13
    67          2
    68          1
    69          1
    70          0
    71          0
    73          3
    74         14
    75         11
    77        880
    78        192
    79        567
    80         37
    81          2
    83          8
    84          0
    85          3
    86          4
    87          3
    89         51
    90         52
    91        595
    92         65
    93        158
    94         11
    95          0
    97          0
    99          0
   102          0
   103          3
   104          0
   105          7
   107        999
   108         79
   109          4
   110          0
   111          0
   112          0
   113          0
   114          0
   116          0
   118          0
   119          5
   121        456
   122         37
   123          2
   124          0
   125          2
   126          4
   127          1
   128          2
   129          0
   130          1
   133          0
   135        133
   136         10
   137          1
   138          0
   141          1
   143          0
   144          1
   155         12
   156        187
   157         19
   158         60
   159          5
   165          1
   170          0
   172          0
   195          0
   197          0
   198          1
   200        173
   201         18
   202         52
   203          4