##TITLE=Library Entry 73789
##JCAMP-DX=Revision 4.10 
##DATA TYPE=MASS SPECTRUM
##SAMPLE DESCRIPTION=Chemical Concepts
##NAMES=HP
##CAS NAME=.alpha.-d-Glucofuranose, 1,2:5,6-bis-O-(1-methylethylidene)-3-O-.
alpha.-d-ribopyranosyl-
##MOLFORM=C17H28O10
##CAS REGISTRY NO=132970-06-0
##MP= -300
##BP= -300
##MW= 392
##$RETENTION INDEX=0
##$CONDENSED SPECTRUM=NO
##NPOINTS= 211
##XYDATA=(XY..XY) 1 
    23          1
    26         14
    27         75
    29         90
    30          6
    31        117
    33          1
    37          1
    38          1
    39         39
    41        119
    42         42
    43        653
    44         44
    45        103
    46          2
    47         10
    49          1
    50          0
    51          2
    52          1
    53         20
    54          4
    55        107
    56         17
    57        253
    58         44
    59        339
    60        139
    61        138
    62          5
    63          1
    65          2
    66          1
    67          3
    68         31
    69        145
    70         19
    71        102
    72         77
    73        642
    74         29
    75         11
    76          1
    77          2
    78          1
    79          3
    80          2
    81        105
    82         13
    83         88
    84         27
    85        307
    86        145
    87         55
    88          5
    89         10
    90          1
    91          2
    93          3
    94          3
    95         18
    96          4
    97         88
    98         20
    99        144
   100         83
   101        999
   102         62
   103         71
   104          6
   105          5
   107          3
   108          2
   109         93
   110         14
   111         32
   112          5
   113        138
   114         69
   115        207
   116         14
   117         14
   118          2
   119          2
   121          5
   122          0
   123         12
   124          1
   125         24
   126         14
   127        492
   128         40
   129         96
   130          9
   131         36
   132         20
   133        135
   134         10
   135          2
   137          5
   138          1
   139         15
   140          2
   141         17
   142         19
   143         69
   144         22
   145        139
   146         12
   147          3
   149          9
   150          2
   151          2
   152          1
   153          6
   154          0
   155         30
   156          6
   157         18
   158         15
   159         64
   160          5
   161          7
   162          1
   163          1
   165          2
   166          1
   167         23
   168          5
   169         22
   170          2
   171          8
   172          7
   173        129
   174         10
   175          7
   176          1
   181          2
   183          3
   184          6
   185        179
   186         25
   187        458
   188         43
   189         10
   190          1
   191          8
   192          1
   193          0
   196          0
   197          3
   198          1
   199          5
   200          1
   201         14
   202          7
   203        147
   204         16
   205          4
   209          0
   212          1
   213         16
   214          7
   215         21
   216          3
   217          1
   218          1
   219          5
   220          0
   227          4
   228          1
   229          4
   230          1
   231        136
   232         16
   233         15
   234          1
   235          1
   241          2
   242          2
   243         13
   244          9
   245        105
   246         14
   247          2
   257          1
   259          4
   260          0
   261        166
   262         23
   263          3
   271          0
   272          7
   273         13
   274          1
   275          2
   276          1
   289         76
   290         10
   291          2
   299          1
   301          9
   302          2
   303          1
   316          2
   319          1
   335          0
   377         76
   378         13
   379          4