##TITLE=Library Entry 31457
##JCAMP-DX=Revision 4.10 
##DATA TYPE=MASS SPECTRUM
##SAMPLE DESCRIPTION=Japan AIST/NIMC Database- Spectrum MS-IW-3829
##NAMES=HP
##CAS NAME=Borane-methyl sulfide complex
##MOLFORM=C2H9BS
##CAS REGISTRY NO=13292-87-0
##MP= -300
##BP= -300
##MW= 76
##$RETENTION INDEX=0
##$CONDENSED SPECTRUM=NO
##NPOINTS= 42
##XYDATA=(XY..XY) 1 
    12          1
    13          3
    14          6
    15         13
    22          1
    23          6
    24         13
    25          9
    26         19
    27         81
    28          8
    29          8
    31          9
    32          6
    33          5
    34          7
    35        180
    36          2
    37          8
    41          2
    42          1
    43          3
    44         39
    45        358
    46        302
    47        797
    48         30
    49         37
    50          1
    56          6
    57         26
    58         33
    59         34
    60          5
    61        379
    62        999
    63         49
    64         48
    65          1
    73          1
    74          7
    76          1