##TITLE=Library Entry 58876
##JCAMP-DX=Revision 4.10 
##DATA TYPE=MASS SPECTRUM
##SAMPLE DESCRIPTION=D.HENNEBERG, MAX-PLANCK INSTITUTE, MULHEIM, WEST GERMAN
Y
##NAMES=HP
##CAS NAME=Benzenamine, 2-bromo-4-nitro-
##MOLFORM=C6H5BrN2O2
##CAS REGISTRY NO=13296-94-1
##MP= -300
##BP= -300
##MW= 216
##$RETENTION INDEX=0
##$CONDENSED SPECTRUM=NO
##NPOINTS= 136
##XYDATA=(XY..XY) 1 
    27         54
    28        210
    29          5
    30         96
    31          0
    36          2
    38         26
    39         72
    40         26
    41        107
    42          9
    43          4
    44         52
    46          3
    49          1
    50          8
    51         54
    52        315
    53         45
    54         10
    55          4
    56          1
    57          2
    58          0
    59          0
    60          0
    61          1
    62         29
    63        315
    64        229
    65        115
    66         13
    67          5
    68          2
    69          2
    70          1
    71          1
    74          6
    75          5
    76          9
    77         11
    78         73
    79         55
    80         28
    81          5
    82         13
    83          1
    85          1
    87          0
    88          4
    89         40
    90        999
    91        636
    92         44
    93          3
    94          1
    95          6
    96          1
    97          1
   102          0
   103          0
   104          4
   105         30
   106         27
   107         19
   108          4
   109          1
   111          0
   116          1
   117         12
   118          1
   119         18
   120          2
   121          3
   122          1
   129          1
   130          1
   131          6
   132          3
   133          6
   134          2
   135          1
   137         11
   138          4
   139          1
   141          4
   142          3
   143        130
   144         13
   145        121
   146          9
   149          1
   150          0
   156          1
   157          1
   158         91
   159          8
   160         91
   161          9
   164          3
   165          1
   167          0
   168         10
   169         19
   170        204
   171         34
   172        186
   173         10
   178          0
   181          0
   182          0
   184          7
   185          4
   186        569
   187         41
   188        548
   189         36
   190          1
   195          0
   197          0
   198          1
   199          0
   200         28
   201          2
   202         32
   203          1
   209          0
   210          0
   214          1
   215          2
   216        794
   217         59
   218        791
   219         55
   220          4
   221          1