##TITLE=Library Entry 4856
##JCAMP-DX=Revision 4.10 
##DATA TYPE=MASS SPECTRUM
##SAMPLE DESCRIPTION=A.A.Kutin, Moscow, Russia
##NAMES=HP
##CAS NAME=Piperidine, 1,2,5-trimethyl-4-(2-tolylimino)-
##MOLFORM=C15H22N2
##CAS REGISTRY NO=132982-44-6
##MP= -300
##BP= -300
##MW= 230
##$RETENTION INDEX=0
##$CONDENSED SPECTRUM=NO
##NPOINTS= 104
##XYDATA=(XY..XY) 1 
    38         15
    39        266
    40        150
    41        332
    42        999
    43        242
    44        261
    45         14
    50         40
    51        114
    52         76
    53         86
    54         59
    55         97
    56        465
    57        171
    58         81
    61          6
    62          5
    63         79
    65        519
    66         63
    67         36
    68         50
    69         61
    70        598
    71        159
    72         39
    75          7
    77        177
    78         53
    79         61
    80         11
    81         17
    82         38
    83         21
    84         89
    89        170
    91        563
    92         46
    93         14
    94         21
    96         23
    97         10
    98         58
   103         35
   104         15
   105         20
   106         59
   107         65
   108         20
   111         17
   115         33
   116         34
   117        124
   118        128
   119         15
   120         30
   121          7
   123         11
   124        154
   125         29
   126         12
   128         22
   130        261
   131        124
   132         64
   133         15
   134         61
   135         12
   139         16
   141          5
   142         18
   143         48
   144        223
   145         89
   146         25
   155          6
   156         25
   157         33
   158        204
   159         20
   160         19
   168          9
   170         22
   172         57
   173         20
   174         22
   185         11
   186         67
   187          7
   188         12
   199         16
   201         28
   202         41
   203          8
   213         22
   215        410
   216         31
   227         10
   228          6
   229         49
   230        110
   231         10