##TITLE=Library Entry 15299
##JCAMP-DX=Revision 4.10 
##DATA TYPE=MASS SPECTRUM
##SAMPLE DESCRIPTION=Chemical Concepts
##NAMES=HP
##CAS NAME=Ethyl 7-cyano-6-([(dimethylamino)methylene]amino)-2,3-dihydro-1H-
pyrrolizine-5-carboxylate
##MOLFORM=C14H18N4O2
##CAS REGISTRY NO=132994-06-0
##MP= -300
##BP= -300
##MW= 274
##$RETENTION INDEX=0
##$CONDENSED SPECTRUM=NO
##NPOINTS= 140
##XYDATA=(XY..XY) 1 
    33         47
    34          6
    39        105
    40        107
    42        691
    44        999
    45         76
    46         13
    51         57
    52         29
    53         25
    54         24
    55         20
    57        172
    58          7
    59          3
    60          2
    63         41
    64         43
    65         47
    66         21
    67         36
    68         17
    69          6
    70          5
    72         38
    73         12
    76         79
    77         59
    78         29
    79         19
    80         12
    81          7
    82          8
    83         29
    84          3
    85          3
    86          9
    87          9
    88          8
    90         51
    91         63
    92         63
    93         17
    94          4
    95          4
    96          2
    97          2
   100         31
   102         52
   103         34
   104         36
   105         21
   106         10
   107          5
   108          4
   109          2
   114        103
   116         12
   117         36
   118         21
   119         22
   120          5
   121          2
   123         27
   125          2
   128         23
   129         40
   130         72
   131         46
   132         31
   133         39
   134          5
   137         22
   141          3
   142          5
   143         16
   144         26
   145         46
   146         51
   147          9
   148          2
   149          1
   154          5
   156         64
   157         46
   158         99
   160        601
   161         61
   162          4
   168          2
   170         12
   171         25
   172         54
   173         54
   174         81
   175         12
   176          3
   177          1
   181          2
   182          7
   184         57
   186        258
   187        126
   188         18
   189         29
   190          3
   191          2
   197          3
   199         53
   200        105
   201        263
   202        118
   204         88
   205          8
   213         32
   214          7
   215          7
   216          5
   217          9
   218         25
   219          6
   227          8
   228         16
   229         49
   230         16
   232        223
   233         25
   234          2
   243          4
   245         28
   246         54
   247          9
   248          2
   259        126
   260         17
   261          1
   274        611
   275         84
   276          9