##TITLE=Library Entry 78682
##JCAMP-DX=Revision 4.10 
##DATA TYPE=MASS SPECTRUM
##SAMPLE DESCRIPTION=A.A.Kutin, Moscow, Russia
##NAMES=HP
##CAS NAME=Benzamide, N-(phenyl)(1H-1,2,4-triazol-1-yl)methyl-
##MOLFORM=C16H14N4O
##CAS REGISTRY NO=132904-05-3
##MP= -300
##BP= -300
##MW= 278
##$RETENTION INDEX=0
##$CONDENSED SPECTRUM=NO
##NPOINTS= 154
##XYDATA=(XY..XY) 1 
    33          1
    34          0
    36          0
    37          3
    38         12
    39         26
    40         33
    41         16
    42         85
    43          7
    44         12
    45          0
    46          0
    48          0
    49          4
    50         70
    51        225
    52         20
    53          4
    54          1
    55          1
    56          0
    57          0
    58          0
    60          0
    61          1
    62          4
    63          9
    64          3
    65          3
    66          0
    67          0
    69        130
    70         36
    71          1
    72          0
    73          3
    74         15
    75         18
    76         54
    77        595
    78         50
    79          3
    80          0
    81          0
    82          0
    83          0
    85          0
    86          0
    87          0
    89          6
    90          3
    91          4
    92          1
    93          1
    94          0
    95          0
    97          0
    98          0
    99          0
   100          0
   101          0
   102          3
   103         18
   104        138
   105        999
   106         88
   107          6
   108          0
   109          0
   110          0
   111          0
   113          0
   114          0
   115          0
   116          0
   117          0
   118          0
   119          0
   120          0
   121          3
   122          1
   123          0
   125          0
   126          0
   127          0
   128          0
   129          0
   130          0
   131          1
   132          3
   133          0
   134          0
   135          0
   139          2
   140          0
   141          0
   146          3
   147          1
   148          0
   149          0
   150          0
   151          1
   152          2
   153          0
   154          0
   155          0
   156          1
   157          2
   158          2
   159          0
   161          0
   162          0
   163          0
   164          0
   165          1
   166          0
   167          0
   173         31
   174          5
   175          1
   176          1
   177          0
   178          0
   179          0
   180          2
   181          1
   182          0
   193          0
   195          0
   201          6
   202          0
   206          0
   209        123
   210         55
   211          7
   212          0
   222          0
   223          1
   224          0
   225          1
   226          0
   234          0
   243          0
   244          0
   250         16
   251         11
   252          1
   253          0
   260          0
   261          0
   277          0
   278          2
   279          0