##TITLE=Library Entry 68578
##JCAMP-DX=Revision 4.10 
##DATA TYPE=MASS SPECTRUM
##SAMPLE DESCRIPTION=NIST Mass Spectrometry Data Center
##NAMES=HP
##CAS NAME=Glycine, N-(2-furanylcarbonyl)-, methyl ester
##MOLFORM=C8H9NO4
##CAS REGISTRY NO=13290-00-1
##MP= -300
##BP= -300
##MW= 183
##$RETENTION INDEX=1523
##$CONDENSED SPECTRUM=NO
##NPOINTS= 55
##XYDATA=(XY..XY) 1 
    15          6
    26          1
    27          2
    28         14
    29         12
    30          4
    31          3
    33          2
    37          9
    38         30
    39        114
    40          7
    41          9
    42          9
    43          4
    44          5
    45          6
    49          1
    50          2
    51          8
    52          3
    53         10
    54          2
    55          4
    56         21
    57          2
    58          1
    59         15
    60          1
    62          1
    64          1
    65          2
    66         12
    67         34
    68          8
    69          1
    81          2
    82          1
    83          1
    88          6
    93          2
    95        999
    96         70
    97          7
   107          2
   108          1
   124        434
   125         33
   126          3
   151         39
   152         14
   153          1
   183        108
   184         10
   185          1