##TITLE=Library Entry 18903
##JCAMP-DX=Revision 4.10 
##DATA TYPE=MASS SPECTRUM
##SAMPLE DESCRIPTION=NIST Mass Spectrometry Data Center, 1990.
##NAMES=HP
##CAS NAME=2-Bromo-2-butene
##MOLFORM=C4H7Br
##CAS REGISTRY NO=13294-71-8
##MP= -300
##BP= -300
##MW= 134
##$RETENTION INDEX=0
##$CONDENSED SPECTRUM=NO
##NPOINTS= 53
##XYDATA=(XY..XY) 1 
    12          2
    13          3
    14          6
    15         11
    17          0
    18          0
    24          2
    25         11
    26         75
    27        304
    28         53
    29        346
    30          8
    36          3
    37         23
    38         44
    39        251
    40         17
    41          3
    48          3
    49         26
    50         81
    51         80
    52         36
    53        202
    54          3
    55        999
    56         44
    57          1
    66          1
    67          1
    79         12
    80          7
    81         14
    82          4
    83          1
    91          0
    93          3
    94          1
    95          2
   104          1
   105          3
   106          3
   107          4
   108          1
   109          1
   117          1
   118          0
   119          4
   121          4
   134        134
   136        124
   137          6