##TITLE=Library Entry 61842
##JCAMP-DX=Revision 4.10 
##DATA TYPE=MASS SPECTRUM
##SAMPLE DESCRIPTION=Chemical Concepts
##NAMES=HP
##CAS NAME=Diazene, 1-(4-nitrophenyl)-2-(3-methylphenylamino)-
##MOLFORM=C13H12N4O2
##CAS REGISTRY NO=132942-70-2
##MP= -300
##BP= -300
##MW= 256
##$RETENTION INDEX=0
##$CONDENSED SPECTRUM=NO
##NPOINTS= 171
##XYDATA=(XY..XY) 1 
    25          1
    26          8
    27         25
    28         52
    29         18
    30         56
    31          7
    33          1
    37         10
    38         31
    39        126
    40         16
    41         55
    42         10
    43         40
    44         16
    45         18
    46          7
    48          0
    49          3
    50         98
    51         72
    52         58
    53         35
    54          9
    55         20
    56          9
    57         31
    58          2
    59          3
    60         16
    61         18
    62         23
    63         89
    64         79
    65        273
    66         26
    67          8
    68          4
    69         15
    70          6
    71         14
    72          1
    73          9
    74         23
    75        142
    76        134
    77         94
    78         97
    79         92
    80         25
    81          9
    82          4
    83          9
    84          4
    85          9
    86          1
    87          4
    88          4
    89         27
    90         25
    91        999
    92        216
    93         23
    94          2
    95          4
    96          2
    97          7
    98          3
    99          4
   100          1
   101          1
   102          1
   103          2
   104         12
   105         17
   106        135
   107         90
   108         48
   109          5
   110          1
   111          4
   112          2
   113          2
   115          4
   116          2
   117          2
   118          1
   119        173
   120         20
   121          4
   122        418
   123         35
   124          4
   125          2
   126          1
   127          4
   128          6
   129          3
   130          2
   131          2
   132          1
   133          1
   134          8
   135          1
   136          1
   137          1
   138         89
   139         10
   140          3
   141          2
   142          1
   143          2
   144          1
   147          1
   149         23
   150        317
   151         26
   152          6
   153          4
   154          4
   155          3
   156          1
   157          1
   158          1
   164          1
   165          3
   166          6
   167         27
   168          6
   169          2
   170          1
   171          1
   178          1
   179          2
   180         16
   181         20
   182         14
   183          6
   184          1
   193          1
   194          1
   195          5
   196          9
   197          9
   198         26
   199          4
   200          1
   205          1
   208          0
   209          1
   210          4
   211          1
   212          3
   213          1
   220          0
   223          2
   226          2
   227          1
   228         21
   229          3
   230          0
   236          0
   239          0
   240          1
   241          1
   254          0
   255          1
   256         35
   257          5
   258          0