##TITLE=Library Entry 80099
##JCAMP-DX=Revision 4.10 
##DATA TYPE=MASS SPECTRUM
##SAMPLE DESCRIPTION=G. Lange, Inst. Org. Chem., Univ. Wurzburg, Germany
##NAMES=HP
##CAS NAME=6,5,7-[1]Propanyl[3]ylidenecyclopenta[c]pyran-3(4H)-one, 4a,5,6,7
-tetrahydro-1,4-diphenyl-3-oxo, trans-
##MOLFORM=C23H20O2
##CAS REGISTRY NO=132911-10-5
##MP= -300
##BP= -300
##MW= 328
##$RETENTION INDEX=0
##$CONDENSED SPECTRUM=NO
##NPOINTS= 127
##XYDATA=(XY..XY) 1 
    39         24
    41         54
    43          5
    51         40
    52          5
    53         11
    55          6
    63         11
    65         38
    66          8
    67        135
    68          6
    76         12
    77        494
    78         60
    79         45
    80          6
    83          9
    89         39
    90        119
    91        167
    92         16
    97         10
   102         15
   103         30
   104         17
   105        999
   106         81
   107         12
   111         12
   115         96
   116         20
   117         82
   118        169
   119         18
   120          5
   126          7
   127         26
   128         66
   129         60
   130         23
   131         14
   132          5
   133         18
   139          9
   141         38
   142         13
   143         20
   144          7
   145          5
   151          7
   152         41
   153         34
   154         18
   155         22
   156         15
   157          9
   165         81
   166         36
   167        151
   168         33
   169          9
   170          6
   177          5
   178         38
   179         28
   180         26
   181         40
   182         16
   183         13
   189          8
   190          5
   191         16
   192          7
   193         19
   194         25
   195        170
   196         66
   197          8
   202         13
   203         11
   204          7
   205         16
   206          6
   208         23
   209         42
   210         28
   211          5
   215         14
   216          5
   217          6
   220         10
   221         12
   222          8
   223         38
   224          7
   229          5
   231          5
   232          7
   233         45
   234         20
   241          7
   245          5
   251         12
   252          5
   253          6
   254          7
   255          6
   257         20
   258          7
   259         26
   260          6
   271         24
   272         38
   273         10
   282          8
   283         10
   284         13
   285         18
   299         26
   300        194
   301         44
   310          9
   327         23
   328        209
   329         53
   330          6