##TITLE=Library Entry 62563
##JCAMP-DX=Revision 4.10 
##DATA TYPE=MASS SPECTRUM
##SAMPLE DESCRIPTION=Exported from NIST MS Search
##NAMES=HP
##CAS NAME=Benzenesulfonyl chloride, 2-methyl-
##MOLFORM=C7H7ClO2S
##CAS REGISTRY NO=133-59-5
##MP= -300
##BP= -300
##MW= 190
##$RETENTION INDEX=0
##$CONDENSED SPECTRUM=NO
##NPOINTS= 55
##XYDATA=(XY..XY) 1 
    39        166
    40          6
    41         38
    43          6
    44          6
    45         38
    48         27
    49          4
    50         42
    51         79
    52         27
    53          2
    61          4
    62         36
    63        126
    64         64
    65        284
    66         17
    69          8
    73          4
    74          6
    75         12
    76          4
    77         55
    78         17
    79         12
    85          8
    86          8
    87          8
    88         12
    89        115
    90        217
    91        999
    92        117
    93         15
    99          4
   106         17
   107          4
   108          2
   109         64
   110         12
   111         10
   136         10
   137         91
   138         12
   139         21
   140          8
   141         10
   154         19
   155        367
   156         38
   157         21
   190        222
   191         17
   192         81