##TITLE=Library Entry 770
##JCAMP-DX=Revision 4.10 
##DATA TYPE=MASS SPECTRUM
##SAMPLE DESCRIPTION=Japan AIST/NIMC Database- Spectrum MS-NW-3768
##NAMES=HP
##CAS NAME=Propanedioic acid, ethyl-, diethyl ester
##MOLFORM=C9H16O4
##CAS REGISTRY NO=133-13-1
##MP= -300
##BP= -300
##MW= 188
##$RETENTION INDEX=1148
##$CONDENSED SPECTRUM=NO
##NPOINTS= 85
##XYDATA=(XY..XY) 1 
    15         23
    18          2
    26         22
    27        222
    28         18
    29        999
    30         21
    31         41
    32          1
    37          1
    38          5
    39         57
    40         12
    41        117
    42         40
    43        309
    44         11
    45        119
    46          4
    47          7
    53          6
    54          2
    55        186
    56          8
    57          5
    58          9
    59         10
    60         12
    61          4
    67          1
    68         14
    69        101
    70        147
    71         88
    72          5
    73        471
    74         19
    75          3
    82          6
    83          1
    85         10
    86         80
    87        155
    88        144
    89         24
    90          1
    96          3
    97          5
    98          1
    99         35
   100          2
   101        220
   102         12
   103          2
   104         20
   105         13
   106          1
   110          2
   113          3
   114         59
   115         89
   116         97
   117          9
   118          1
   119          1
   127          5
   129         28
   130          3
   131          1
   132         52
   133         79
   134          5
   135          1
   141          1
   142         46
   143        597
   144         48
   145          7
   160        467
   161         64
   162          8
   173         12
   174          1
   188          5
   189          1