##TITLE=Library Entry 56506
##JCAMP-DX=Revision 4.10 
##DATA TYPE=MASS SPECTRUM
##SAMPLE DESCRIPTION=Association of Official Racing Chemists
##NAMES=HP
##CAS NAME=Benzoic acid, 4-amino-2-chloro-, 2-(diethylamino)ethyl ester
##MOLFORM=C13H19ClN2O2
##CAS REGISTRY NO=133-16-4
##MP= -300
##BP= -300
##MW= 270
##$RETENTION INDEX=2229
##$CONDENSED SPECTRUM=NO
##NPOINTS= 62
##XYDATA=(XY..XY) 1 
    46          2
    50          3
    51          4
    52          7
    53          3
    54          8
    55          7
    56         52
    57         15
    58         97
    59          2
    61          1
    62          5
    63         26
    64          8
    65          9
    66          3
    68          2
    69          2
    70         16
    71         38
    72         10
    73          5
    74          2
    75          4
    76          1
    77          2
    79          2
    81          1
    82          2
    84         30
    86        999
    87         57
    88          4
    89          4
    90         27
    91         10
    92          6
    96          0
    97          3
    99        261
   100         22
   101         10
   114          2
   118          1
   119          0
   120         11
   125          4
   126         30
   128         14
   140          1
   142          1
   154        147
   155         14
   156         45
   157          4
   171          5
   173          2
   198         25
   199          4
   200         10
   255          1