##TITLE=Library Entry 48757
##JCAMP-DX=Revision 4.10 
##DATA TYPE=MASS SPECTRUM
##SAMPLE DESCRIPTION=Tox21 Consortium/NIST Mass Spectrometry Data Center, 20
12
##NAMES=HP
##CAS NAME=Captan
##MOLFORM=C9H8Cl3NO2S
##CAS REGISTRY NO=133-06-2
##MP= -300
##BP= -300
##MW= 299
##$RETENTION INDEX=2060
##$CONDENSED SPECTRUM=NO
##NPOINTS= 167
##XYDATA=(XY..XY) 1 
    15          1
    26          7
    27         34
    28         13
    29          3
    30          1
    32          5
    34          1
    35          7
    36         14
    37          6
    38         13
    39         77
    40         15
    41         24
    42          5
    43          4
    44         30
    45          7
    46         10
    47         15
    48          2
    49          6
    50         26
    51         71
    52         51
    53         57
    54         31
    55         14
    56          9
    57          1
    58          1
    59          2
    60          6
    61          1
    62          4
    63         12
    64          4
    65         32
    66         14
    67         22
    68          5
    69          5
    70         51
    71          3
    72         10
    73          2
    74          4
    75          4
    76         17
    77        257
    78        152
    79        999
    80        234
    81         64
    82         24
    83          4
    84         10
    85          3
    86          6
    87          1
    88          3
    89          1
    90          1
    91          2
    92          4
    93          9
    94          6
    95         13
    96          5
    97          6
    98          4
    99          5
   100          3
   101          1
   102          1
   103          2
   104          9
   105         59
   106         56
   107        150
   108         18
   109          6
   110          1
   111         17
   112          3
   113          3
   114         53
   115          4
   116         34
   117        145
   118          8
   119        134
   120          4
   121         84
   122         16
   123         16
   124          3
   125          6
   126          3
   127          3
   128          2
   129          1
   130         13
   131          2
   132         10
   133          1
   134         33
   135          4
   136         10
   137          2
   138          2
   139          1
   140          2
   141          1
   142          1
   145          1
   146          1
   147          1
   148         35
   149        217
   150         26
   151         57
   152          6
   153          1
   154          7
   155          1
   156         37
   157          4
   158         27
   159          2
   160          5
   161          1
   165          1
   167          1
   172          5
   173          1
   174          2
   180          8
   181          1
   182         30
   183          3
   184          2
   200          2
   202          1
   204          2
   206          2
   208          1
   210          1
   228          1
   230          1
   235          1
   236         14
   237          2
   238         10
   239          1
   240          2
   263         26
   264         42
   265         23
   266         28
   267          7
   268          6
   269          1
   299          3
   301          3
   303          1