##TITLE=Library Entry 46281
##JCAMP-DX=Revision 4.10 
##DATA TYPE=MASS SPECTRUM
##SAMPLE DESCRIPTION=Japan AIST/NIMC Database- Spectrum MS-NW-5031
##NAMES=HP
##CAS NAME=DL-Tartaric acid
##MOLFORM=C4H6O6
##CAS REGISTRY NO=133-37-9
##MP= -300
##BP= -300
##MW= 150
##$RETENTION INDEX=1262
##$CONDENSED SPECTRUM=NO
##NPOINTS= 71
##XYDATA=(XY..XY) 1 
    12          2
    13          5
    14         20
    15         72
    16          5
    17         15
    18         65
    19         16
    24          1
    25          4
    26         11
    27          7
    28         69
    29        289
    30        147
    31        214
    32          9
    34          1
    36          1
    40          3
    41         14
    42        116
    43        110
    44         94
    45        116
    46         12
    47         16
    48          1
    49         27
    52          1
    53          5
    54          2
    55          1
    56          3
    57          2
    58        320
    59        197
    60         55
    61         34
    62          1
    63          1
    64          1
    68          1
    69         70
    70        225
    71         43
    72          4
    73          1
    75         16
    76        999
    77        171
    78          9
    79          1
    80          3
    81          1
    82          3
    86          1
    87         23
    88        113
    89          9
    90          1
    93          2
    98          2
   104          2
   105        196
   106          8
   107          2
   128          1
   132          3
   149          1
   151          1