##TITLE=Library Entry 12266
##JCAMP-DX=Revision 4.10 
##DATA TYPE=MASS SPECTRUM
##SAMPLE DESCRIPTION=Chemical Concepts
##NAMES=HP
##CAS NAME=.alpha.-d-Ribopyranoside, 2,3,4-tri-O-acetyl-.beta.-d-ribopyranos
yl, triacetate
##MOLFORM=C22H30O15
##CAS REGISTRY NO=133008-07-8
##MP= -300
##BP= -300
##MW= 534
##$RETENTION INDEX=0
##$CONDENSED SPECTRUM=NO
##NPOINTS= 140
##XYDATA=(XY..XY) 1 
    26          1
    27          5
    28          4
    29          7
    30          0
    31          4
    36          0
    38          0
    39          6
    40          0
    41         15
    42         12
    43        999
    44         24
    45          5
    46          0
    47          1
    50          0
    51          1
    52          0
    53          2
    54          0
    55          9
    56          1
    57         11
    58          2
    59          0
    60          4
    61          8
    65          0
    67          1
    68         10
    69         60
    70          6
    71          9
    72          1
    73         14
    74          0
    75          0
    77          0
    78          0
    79          0
    80          0
    81          8
    82          1
    83          1
    84          1
    85         23
    86         14
    87          3
    88          0
    89          1
    91          0
    95          0
    96          2
    97        323
    98         38
    99          8
   100          2
   101          2
   102          7
   103         15
   104          0
   105          1
   106          0
   107          0
   109          0
   110          0
   111          3
   112          1
   113         21
   114         10
   115         79
   116          5
   117          1
   119          0
   120          0
   121          0
   123          0
   125          2
   126          0
   127         16
   128         27
   129          5
   130          0
   131          5
   132          1
   133          0
   135          0
   136          0
   138          0
   139        846
   140         65
   141          7
   142          1
   143          1
   144          1
   145          3
   146          0
   147          0
   149          1
   152          0
   153          0
   155          1
   156          4
   157        232
   158         19
   159          2
   161          0
   165          0
   167          0
   169          0
   170         15
   171          2
   173          9
   174          2
   175          1
   177          0
   181          0
   185          0
   187          1
   197          0
   199         30
   200          3
   201          0
   203          0
   205          0
   213          0
   215          0
   216          4
   217          2
   218          0
   219          0
   245          2
   252          0
   258          0
   259        445
   260         55
   261         10
   262          1