##TITLE=Library Entry 18550
##JCAMP-DX=Revision 4.10 
##DATA TYPE=MASS SPECTRUM
##SAMPLE DESCRIPTION=Exported from NIST MS Search
##NAMES=HP
##CAS NAME=Lumazine, 8-ethyl-6,7-dimethyl-
##MOLFORM=C10H12N4O2
##CAS REGISTRY NO=13300-49-7
##MP= -300
##BP= -300
##MW= 220
##$RETENTION INDEX=0
##$CONDENSED SPECTRUM=NO
##NPOINTS= 65
##XYDATA=(XY..XY) 1 
    50        125
    51        300
    52        405
    53        999
    54        405
    55        737
    56        280
    57        487
    58         80
    59        120
    60        345
    64         75
    65        157
    66        207
    67        539
    68        380
    69        699
    70        300
    76         45
    77        117
    78         80
    79        350
    80        380
    81        292
    82         75
    83        120
    84         50
    85         55
    91         85
    92         37
    93        125
    94        145
    95        225
    96        105
   105        125
   106        155
   107        255
   108         95
   109         70
   119        100
   120        320
   121        612
   122        155
   123        355
   133         80
   134        150
   135        100
   136         50
   137         20
   147         90
   148        275
   149        749
   150        105
   151        499
   175         65
   176         85
   177        115
   190         50
   191         50
   192        659
   193        125
   218         67
   219         42
   220        242
   221         45