##TITLE=Library Entry 16142
##JCAMP-DX=Revision 4.10 
##DATA TYPE=MASS SPECTRUM
##SAMPLE DESCRIPTION=Asinex Ltd, Moscow, Russia
##NAMES=HP
##CAS NAME=Methanol, (4-amino-1,2,5-oxadiazol-3-yl)(imino)-
##MOLFORM=C3H4N4O2
##CAS REGISTRY NO=13300-88-4
##MP= -300
##BP= -300
##MW= 128
##$RETENTION INDEX=0
##$CONDENSED SPECTRUM=NO
##NPOINTS= 51
##XYDATA=(XY..XY) 1 
    33         40
    34          1
    38         41
    39         27
    40         55
    41         53
    42        123
    43        206
    44        999
    45         81
    46          2
    50          0
    51          4
    53        435
    54        392
    55        707
    58        639
    59          6
    60          0
    64          0
    65          1
    66          4
    67          7
    68         23
    69         15
    70         68
    71        438
    72         11
    73          2
    76         26
    77          0
    81          0
    82          3
    84         27
    85        219
    86          6
    87          6
    91          0
    93          0
    96          0
    98         21
    99          0
   101          0
   107          0
   110          1
   111          0
   112          2
   121          0
   128        724
   129         29
   130          1