##TITLE=Library Entry 87551
##JCAMP-DX=Revision 4.10 
##DATA TYPE=MASS SPECTRUM
##SAMPLE DESCRIPTION=J.E.DOOLEY ENERGY RES. CENTRE, BARTLESVILLE, OKLA., USA
##NAMES=HP
##CAS NAME=Benzene, [(2-methylpropyl)thio]-
##MOLFORM=C10H14S
##CAS REGISTRY NO=13307-61-4
##MP= -300
##BP= -300
##MW= 166
##$RETENTION INDEX=1303
##$CONDENSED SPECTRUM=NO
##NPOINTS= 129
##XYDATA=(XY..XY) 1 
    25          1
    26         22
    27        209
    28         20
    29        248
    30          5
    32          2
    33          1
    34          2
    35          0
    36          0
    37         12
    38         34
    39        283
    40         22
    41        265
    42         23
    43         44
    44          2
    45        310
    46         23
    47         25
    48          1
    49          4
    50         64
    51        170
    52         18
    53         18
    54          2
    55         44
    56          9
    57        245
    58         25
    59         17
    60          2
    61          4
    62          9
    63         27
    64          5
    65        137
    66         61
    67          4
    68          3
    69         79
    70          7
    71         17
    72          3
    73         11
    74         16
    75         13
    76         12
    77        136
    78         37
    79         38
    80          3
    81          9
    82         20
    83         11
    84         24
    85          3
    86          1
    87          2
    88          0
    89          5
    90          2
    91         34
    92          3
    93          2
    94          0
    95          2
    96          0
    97          6
    98          0
    99          0
   102          0
   103          2
   104          1
   105          3
   106          1
   107          2
   108         27
   109        158
   110        999
   111         84
   112         46
   113          3
   114          0
   115          5
   116          2
   117          3
   118          0
   119          0
   120          0
   121         13
   122          3
   123        612
   124         87
   125         31
   126          3
   127          0
   128          0
   129          0
   130          0
   131          0
   132          0
   133          0
   134          4
   135          7
   136          1
   137         17
   138          1
   139          0
   145          0
   147          1
   148          0
   149          4
   150          0
   151          7
   152          2
   153          0
   161          0
   163          0
   164          0
   165          4
   166        626
   167         73
   168         31
   169          3
   170          0