##TITLE=Library Entry 18883
##JCAMP-DX=Revision 4.10 
##DATA TYPE=MASS SPECTRUM
##SAMPLE DESCRIPTION=NIST Mass Spectrometry Data Center, 1994
##NAMES=HP
##CAS NAME=N-Benzylacrylamide
##MOLFORM=C10H11NO
##CAS REGISTRY NO=13304-62-6
##MP= -300
##BP= -300
##MW= 161
##$RETENTION INDEX=0
##$CONDENSED SPECTRUM=NO
##NPOINTS= 83
##XYDATA=(XY..XY) 1 
    14          3
    15          9
    16          1
    18         12
    25         11
    26         92
    27        627
    28        419
    29         28
    30         52
    31          5
    37         13
    38         36
    39        179
    40         15
    41         48
    42         10
    43         19
    44         26
    45          3
    49          8
    50        122
    51        288
    52         79
    53         37
    54          3
    55        999
    56         81
    57         10
    58          3
    59         36
    61          8
    62         32
    63         89
    64         27
    65        237
    66         15
    67          5
    73          5
    74         28
    75         21
    76         34
    77        273
    78        106
    79        334
    80         29
    82         11
    83         36
    84         66
    85          3
    86          3
    89         74
    91        485
    92         50
    93          7
   102          7
   103         22
   104        130
   105         45
   106        514
   107         83
   108         18
   115         95
   116         96
   117        531
   118        183
   119         29
   120          6
   128          5
   130          7
   131         13
   132         51
   133         29
   134          7
   142         11
   143         12
   144         51
   145          8
   146         14
   160        215
   161        540
   162         56
   163          3