##TITLE=Library Entry 15127
##JCAMP-DX=Revision 4.10 
##DATA TYPE=MASS SPECTRUM
##SAMPLE DESCRIPTION=ATLAS OF MASS SPECTRA OF ORGANIC COMPOUNDS, V. A. KOPTY
UG, ED.
##NAMES=HP
##CAS NAME=2-Tetrazene, 1,1,4,4-tetraethyl-
##MOLFORM=C8H20N4
##CAS REGISTRY NO=13304-29-5
##MP= -300
##BP= -300
##MW= 172
##$RETENTION INDEX=0
##$CONDENSED SPECTRUM=NO
##NPOINTS= 23
##XYDATA=(XY..XY) 1 
    27        114
    28        102
    29        537
    30         52
    31         19
    41         16
    42        108
    43         45
    44        999
    45         27
    56         54
    57         37
    58         63
    59         45
    70         10
    71         11
    72         71
    73          8
    87         33
   100         25
   157          2
   172        422
   173         43