##TITLE=Library Entry 96937
##JCAMP-DX=Revision 4.10 
##DATA TYPE=MASS SPECTRUM
##SAMPLE DESCRIPTION=NIST Mass Spectrometry Data Center, 1994
##NAMES=HP
##CAS NAME=Diisooctyl maleate
##MOLFORM=C20H36O4
##CAS REGISTRY NO=1330-76-3
##MP= -300
##BP= -300
##MW= 340
##$RETENTION INDEX=0
##$CONDENSED SPECTRUM=NO
##NPOINTS= 144
##XYDATA=(XY..XY) 1 
    12          1
    14          1
    15          4
    16          1
    18          4
    26         36
    27        136
    28         27
    29        247
    30          7
    31         11
    37          1
    39         74
    41        519
    42        118
    43        479
    44         23
    45          9
    50          1
    51          4
    53         52
    54        146
    55        435
    56        243
    57        936
    58         43
    59          7
    63          0
    65          6
    67         31
    69        247
    70        718
    71        664
    72         55
    73          6
    77          3
    79          7
    81         55
    82        239
    83        268
    84        165
    85         52
    86          6
    87          2
    91          1
    93          2
    94          2
    95         11
    96          1
    97         37
    98          1
    99        392
   100        580
   101         32
   102          4
   107          1
   108          2
   109          9
   110         38
   111         86
   112        363
   113        281
   114         27
   117        999
   118         72
   119         22
   120          1
   121          1
   122          3
   123          3
   124          3
   125          4
   126          5
   127          6
   128          7
   129         18
   130          3
   131          8
   132          1
   135          1
   136          3
   137          5
   138          2
   139          6
   140          8
   141          8
   142          4
   143          1
   144          1
   147          1
   150          4
   151          4
   152          3
   153         11
   154          8
   155          7
   156          3
   157          2
   158          1
   159          1
   163          2
   164          4
   165          4
   167         21
   168          9
   169         17
   170          1
   171         32
   172          4
   173          1
   180          7
   181         14
   182         16
   183          8
   184          1
   185         42
   186          5
   187          1
   192         10
   193          6
   194          1
   195          2
   197          1
   198          6
   199         19
   200          2
   210         26
   211         78
   212         50
   213          9
   214          1
   227         12
   228         17
   229         56
   230          9
   231          1
   243          0
   283          4
   284          1
   294          1
   297          4
   298          1
   311          3
   340          1