##TITLE=Library Entry 42372
##JCAMP-DX=Revision 4.10 
##DATA TYPE=MASS SPECTRUM
##SAMPLE DESCRIPTION=Chemical Concepts
##NAMES=HP
##CAS NAME=Ribo-ribo disaccharide
##MOLFORM=C10H18O9
##CAS REGISTRY NO=133008-06-7
##MP= -300
##BP= -300
##MW= 282
##$RETENTION INDEX=0
##$CONDENSED SPECTRUM=NO
##NPOINTS= 82
##XYDATA=(XY..XY) 1 
    25          0
    26          4
    27         25
    28          8
    29         48
    30          3
    31         47
    36          0
    37          0
    38          1
    39          2
    42         15
    43        110
    44         11
    45        114
    46          7
    47         12
    49          1
    52          0
    53          0
    54          0
    58          4
    59         17
    60         84
    61        130
    62          3
    63          1
    64          0
    66          4
    68          0
    69         16
    73        999
    74         31
    75          8
    78          1
    85         65
    86         57
    87         19
    88          5
    89         12
    90          0
    92          0
    97          2
    98          4
   100          0
   101          1
   102          0
   103         17
   108          0
   114         13
   115         89
   116         15
   117          1
   126          0
   128          1
   129          0
   130          0
   131          6
   132         30
   133        226
   134         13
   138          0
   140          0
   141          0
   143          0
   144          0
   145          4
   146          0
   147          0
   152          0
   157          2
   166          0
   175          4
   176          0
   180          0
   187          1
   189          0
   193          0
   198          0
   205         15
   206          1
   265          0