##TITLE=Library Entry 27990
##JCAMP-DX=Revision 4.10 
##DATA TYPE=MASS SPECTRUM
##SAMPLE DESCRIPTION=ATLAS OF MASS SPECTRA OF ORGANIC COMPOUNDS, V. A. KOPTY
UG, ED.
##NAMES=HP
##CAS NAME=2-Tetrazene, 1,1,4,4-tetrakis(1-methylethyl)-
##MOLFORM=C12H28N4
##CAS REGISTRY NO=13304-31-9
##MP= -300
##BP= -300
##MW= 228
##$RETENTION INDEX=0
##$CONDENSED SPECTRUM=NO
##NPOINTS= 40
##XYDATA=(XY..XY) 1 
    27        107
    29         11
    30         32
    31         52
    39         26
    40          7
    41        178
    42        264
    43        729
    44        214
    45          5
    54          3
    55          3
    56        107
    57         11
    58        999
    59         36
    60          2
    68          3
    69          2
    70         36
    71          8
    72          2
    73        307
    74         11
    84         42
    85          7
    86         56
    87          3
    98          4
    99         10
   100         23
   101          8
   115         42
   116          3
   128          5
   155          1
   228        307
   229         36
   230          2