##TITLE=Library Entry 81767
##JCAMP-DX=Revision 4.10 
##DATA TYPE=MASS SPECTRUM
##SAMPLE DESCRIPTION=Chemical Concepts
##NAMES=HP
##CAS NAME=2,2'-Thiobis[4-methyl-6-(.alpha.-methylbenzyl)phenol]
##MOLFORM=C30H30O2S
##CAS REGISTRY NO=13314-00-6
##MP= -300
##BP= -300
##MW= 454
##$RETENTION INDEX=0
##$CONDENSED SPECTRUM=NO
##NPOINTS= 197
##XYDATA=(XY..XY) 1 
    34          7
    35          3
    36          9
    37          6
    39        132
    40         47
    41         85
    43         82
    45        107
    47          9
    50         32
    51        127
    52         38
    53         74
    55         83
    56         12
    57         31
    59         35
    60          4
    61          6
    63         54
    65         89
    66         12
    67         17
    69         40
    70         14
    71         25
    73         13
    74          9
    75         16
    77        332
    78        217
    79        189
    80         13
    81          9
    82         15
    83         26
    84         10
    85         15
    86          4
    87         10
    88          6
    89         36
    91        206
    92         24
    93         15
    94          7
    95         11
    97         49
    98         11
    99          8
   100          4
   101         13
   103        467
   105        999
   106         80
   107         25
   108         23
   109         13
   110          9
   111         13
   112          9
   113         10
   115        124
   116         22
   117         15
   118          7
   119         20
   120          9
   121         28
   122         10
   123          9
   124          4
   125          8
   126         11
   127         30
   128         77
   129         29
   130         13
   131         35
   132         69
   133        110
   134        208
   135         66
   136         11
   137         32
   138         16
   139         41
   140         10
   141         48
   142         15
   143          8
   145          9
   147         11
   148          7
   149         20
   150         12
   151         39
   152        126
   153         61
   154         26
   155         21
   156          7
   157          6
   158          5
   159          5
   160          4
   161          6
   163         26
   165        280
   166        157
   167         82
   168         30
   169         15
   170          6
   171         16
   172          8
   173          7
   175          5
   176         14
   177         25
   178         76
   179         69
   180         79
   181        113
   182         69
   184        257
   185         35
   186         13
   188        160
   190          9
   191         18
   192         12
   193         18
   194         38
   195        158
   197        724
   198        114
   199         78
   200         13
   201          5
   202          4
   203          3
   205          3
   206          3
   207         15
   208         45
   209         63
   210         52
   211        128
   212        799
   213        142
   214         15
   215          5
   216          3
   221          4
   223          4
   224          5
   225         11
   226         28
   227        123
   228         27
   229         25
   230          5
   238          3
   239          6
   240          9
   241         61
   242         31
   243         41
   244         20
   245          7
   246          4
   255          6
   269          3
   271         23
   272          6
   273          8
   283          4
   286          3
   301          3
   333          3
   335          8
   348          3
   349          4
   350         20
   351          5
   376          3
   439         15
   440          5
   449          9
   451         26
   452         15
   454        568
   455        180
   456         48
   457         10