##TITLE=Library Entry 55936
##JCAMP-DX=Revision 4.10 
##DATA TYPE=MASS SPECTRUM
##SAMPLE DESCRIPTION=A.A.Kutin, Moscow, Russia
##NAMES=HP
##CAS NAME=Succinimide, N-(morpholinomethyl)-
##MOLFORM=C9H14N2O3
##CAS REGISTRY NO=13314-97-1
##MP= -300
##BP= -300
##MW= 198
##$RETENTION INDEX=0
##$CONDENSED SPECTRUM=NO
##NPOINTS= 102
##XYDATA=(XY..XY) 1 
    33          3
    34          1
    36          0
    37          1
    38          5
    39         21
    41        413
    42        371
    43        130
    44         68
    45         20
    46          0
    49          1
    50          1
    51          3
    52         11
    54        133
    55        515
    56        831
    57         88
    58         57
    59          7
    60          0
    62          0
    63          0
    64          0
    66          3
    67          6
    68         43
    69         70
    70         96
    71        136
    72         46
    73          4
    74          0
    77          0
    78          1
    80          2
    81          6
    82         18
    84        405
    86        999
    87         38
    88          7
    89          0
    91          0
    93          0
    94          1
    95          1
    96          7
    98        238
    99        474
   100        731
   101         33
   102          2
   103          0
   105          0
   106          0
   108          0
   109          4
   112        582
   113        351
   114         21
   115         10
   116          0
   122          0
   123          1
   124          1
   125          2
   126          7
   127          5
   128          0
   131          0
   135          0
   136          0
   139         55
   140        169
   141         28
   142          2
   143          0
   150          0
   152         28
   153         18
   155        367
   156         23
   157          2
   164          0
   165          1
   167        101
   168         14
   169         12
   170          1
   171          0
   180          6
   181          0
   183          0
   193          0
   194          0
   198        207
   199         17
   200          3
   201          0