##TITLE=Library Entry 5730
##JCAMP-DX=Revision 4.10 
##DATA TYPE=MASS SPECTRUM
##SAMPLE DESCRIPTION=V.G.Zaikin, Petrochem. Synth. Inst., Moscow
##NAMES=HP
##CAS NAME=Trichloroacetic acid, propyl ester
##MOLFORM=C5H7Cl3O2
##CAS REGISTRY NO=13313-91-2
##MP= -300
##BP= -300
##MW= 204
##$RETENTION INDEX=1057
##$CONDENSED SPECTRUM=NO
##NPOINTS= 44
##XYDATA=(XY..XY) 1 
    26         25
    27        225
    28         21
    29         39
    30          8
    31         13
    35         24
    36         19
    37          8
    38         13
    39         79
    40         15
    41        309
    42         68
    43        999
    44         25
    47         73
    49         27
    57          9
    59          9
    82         78
    83         12
    84         49
    85          8
    86         12
    87          2
   110         36
   111          5
   112         29
   113          2
   117         71
   118         10
   119         71
   120          9
   121         22
   122          3
   145          9
   147          9
   149          3
   169         14
   170          2
   171          8
   172          2
   173          3