##TITLE=Library Entry 100327
##JCAMP-DX=Revision 4.10 
##DATA TYPE=MASS SPECTRUM
##SAMPLE DESCRIPTION=Chemical Concepts
##NAMES=HP
##CAS NAME=Acetamide, N-(4,6,6-trimethylbicyclo[3.1.1]hept-3-en-2-yl)-, (1.a
lpha.,2.beta.,5.alpha.)-
##MOLFORM=C12H19NO
##CAS REGISTRY NO=133180-86-6
##MP= -300
##BP= -300
##MW= 193
##$RETENTION INDEX=0
##$CONDENSED SPECTRUM=NO
##NPOINTS= 142
##XYDATA=(XY..XY) 1 
    26          5
    27         87
    28         50
    29         56
    30         89
    31         12
    33          2
    37          2
    38          7
    39        110
    40         23
    41        223
    42         65
    43        273
    44         36
    45         19
    46          1
    47          2
    50         10
    51         38
    52         21
    53         76
    54         34
    55         68
    56         52
    57         30
    58        126
    59         24
    60        116
    61          8
    62          4
    63         15
    64          7
    65         60
    66         26
    67         62
    68         37
    69         56
    70         40
    71         56
    72         36
    73          9
    74          3
    75          7
    76          4
    77        103
    78         35
    79         85
    80         59
    81         60
    82         60
    83         86
    84         29
    85          6
    86         15
    87          6
    88          3
    89          8
    90          5
    91        218
    92         75
    93        133
    94        110
    95         88
    96         50
    97         13
    98          7
    99          3
   100         24
   101         10
   102          4
   103         23
   104         16
   105         86
   106         55
   107         71
   108        224
   109         57
   110         25
   111          9
   112          5
   113        107
   114         25
   115         18
   116          8
   117         36
   118         19
   119        999
   120        151
   121         47
   122         22
   123         11
   124         10
   125         18
   126          3
   127          2
   128          7
   129          3
   130          3
   131          6
   133         51
   134        439
   135         83
   136        192
   137         62
   138          9
   139          2
   140          1
   141          3
   142          1
   143          8
   144          2
   145          2
   146          2
   147          1
   148          8
   149         16
   150        100
   151         30
   152          9
   153          2
   154          2
   155          2
   159          2
   160          3
   161          1
   162          1
   163          1
   164          4
   165          9
   166          2
   167          2
   169          1
   176          2
   177          1
   178         40
   179          6
   191          2
   192          4
   193         38
   194          6
   195          1