##TITLE=Library Entry 83895
##JCAMP-DX=Revision 4.10 
##DATA TYPE=MASS SPECTRUM
##SAMPLE DESCRIPTION=Japan AIST/NIMC Database- Spectrum MS-IW- 342
##NAMES=HP
##CAS NAME=N-((Methylphenylamino)methyl)benzamide
##MOLFORM=C15H16N2O
##CAS REGISTRY NO=13315-00-9
##MP= -300
##BP= -300
##MW= 240
##$RETENTION INDEX=0
##$CONDENSED SPECTRUM=NO
##NPOINTS= 68
##XYDATA=(XY..XY) 1 
    15          1
    26          1
    27          8
    28          9
    29          1
    30          8
    37          3
    38          8
    39         18
    40          2
    41          2
    42          6
    43          1
    44          3
    49          2
    50         32
    51        101
    52         16
    53         13
    54          2
    55          1
    56          1
    57          3
    58          1
    61          1
    62          3
    63          8
    64          6
    65         21
    66          4
    73          2
    74         10
    75          8
    76         17
    77        417
    78         50
    79         69
    80          5
    89          1
    90          1
    91         23
    92         11
    93          4
    94          1
   103         17
   104         30
   105        728
   106        497
   107        999
   108         80
   109          3
   118          8
   119         93
   120         72
   121         23
   122          5
   133         21
   134          9
   135          5
   136          2
   139          1
   210          1
   225          4
   237          1
   239          1
   240        152
   241         26
   242          2