##TITLE=Library Entry 70262
##JCAMP-DX=Revision 4.10 
##DATA TYPE=MASS SPECTRUM
##SAMPLE DESCRIPTION=Leung Pu, NIH, Bethesda, Maryland, U.S.
##NAMES=HP
##CAS NAME=4-Methyl-2-pyrazolin-5-one
##MOLFORM=C4H6N2O
##CAS REGISTRY NO=13315-23-6
##MP= -300
##BP= -300
##MW= 98
##$RETENTION INDEX=0
##$CONDENSED SPECTRUM=NO
##NPOINTS= 35
##XYDATA=(XY..XY) 1 
    41        123
    42        111
    43         87
    44         70
    45          9
    48          7
    49         10
    50         10
    51         35
    52        101
    53         61
    54        150
    55         56
    56          5
    57          1
    58          3
    60          1
    66          5
    67         15
    68         37
    69        131
    70         46
    71         28
    72          1
    77          1
    79          9
    80          7
    81         23
    82          5
    84          1
    96          0
    97        999
    98        892
    99         77
   100          5