##TITLE=Library Entry 98685
##JCAMP-DX=Revision 4.10 
##DATA TYPE=MASS SPECTRUM
##SAMPLE DESCRIPTION=A.S.Moskovkin,I.M.Karnaukh, Russian Center on Disaster
 Medicine
##NAMES=HP
##CAS NAME=1,3,5-Trimethyl-2-phenylpiperidin-4-one
##MOLFORM=C14H19NO
##CAS REGISTRY NO=133227-66-4
##MP= -300
##BP= -300
##MW= 217
##$RETENTION INDEX=0
##$CONDENSED SPECTRUM=NO
##NPOINTS= 127
##XYDATA=(XY..XY) 1 
    37          3
    38          6
    39         57
    40         39
    41         94
    42        330
    43         62
    44         60
    45          2
    49          1
    50         13
    51         42
    52         13
    53         11
    54          8
    55         59
    56         38
    57         27
    58         22
    59          1
    61          1
    62          5
    63         22
    64          7
    65         47
    66         11
    67          7
    68         29
    69         21
    70         18
    71         18
    72          7
    73          2
    74          5
    75          7
    76         13
    77         98
    78         69
    79         17
    80         13
    81          4
    82          9
    83          4
    84        170
    85         11
    86          1
    87          2
    88          3
    89         30
    90         20
    91        250
    92         25
    93          2
    94          4
    95          2
    96          7
    97          4
    98         17
    99          6
   100          1
   101          2
   102         16
   103         46
   104         30
   105         19
   106          6
   107         14
   108          3
   109          1
   110          3
   111          2
   112          6
   113         11
   114          3
   115        110
   116         62
   117        320
   118        999
   119        310
   120         49
   121          4
   122          1
   124          3
   126          5
   127          3
   128          7
   129          8
   130         15
   131         56
   132        180
   133         43
   134          6
   135          1
   138          3
   139          9
   140        260
   141         25
   142          3
   143          4
   144         18
   145         14
   146         33
   147         10
   148          2
   157          2
   158          9
   159          8
   160        440
   161         66
   162          4
   171          1
   172          3
   173          2
   174         30
   175          4
   188         38
   189          6
   200          7
   202         33
   203          8
   204          1
   214          2
   215          7
   216        140
   217        540
   218         83
   219          6