##TITLE=Library Entry 98579
##JCAMP-DX=Revision 4.10 
##DATA TYPE=MASS SPECTRUM
##SAMPLE DESCRIPTION=A.S.Moskovkin,I.M.Karnaukh, Russian Center on Disaster
 Medicine
##NAMES=HP
##CAS NAME=3,5-Dimethyl-2-phenylpiperidin-4-one
##MOLFORM=C13H17NO
##CAS REGISTRY NO=133201-61-3
##MP= -300
##BP= -300
##MW= 203
##$RETENTION INDEX=0
##$CONDENSED SPECTRUM=NO
##NPOINTS= 124
##XYDATA=(XY..XY) 1 
    39         99
    40         61
    41        150
    42         71
    43         83
    44         20
    45          3
    46          1
    49          2
    50         28
    51         85
    52         32
    53         19
    54         21
    55         93
    56         72
    57         48
    58         53
    59         22
    60          2
    61          2
    62         10
    63         38
    64         16
    65         66
    66          9
    67         11
    68         21
    69         22
    70         66
    71         18
    72          8
    73         18
    74         11
    75         13
    76         29
    77        180
    78        130
    79         58
    80          8
    81          3
    82          7
    83          9
    84         20
    85         14
    86          4
    87          6
    88          4
    89         62
    90         48
    91        590
    92         53
    93          4
    94          2
    95          1
    96          4
    97          5
    98         10
    99          8
   100          3
   101          3
   102         22
   103         84
   104        530
   105        280
   106        110
   107         15
   108          2
   110          7
   112          2
   113          3
   114          4
   115        140
   116         64
   117        370
   118        999
   119        280
   120         26
   121          2
   122          1
   124          2
   125          4
   126         30
   127          6
   128         10
   129         13
   130         31
   131         38
   132        200
   133        240
   134         26
   135          2
   140          3
   141          3
   142          2
   143          7
   144         22
   146        920
   147        160
   148         12
   149          1
   156          2
   157          2
   158          5
   159          4
   160         37
   161          5
   170          1
   171          2
   172          3
   173          2
   174         19
   175          3
   185          1
   186          6
   187          1
   188         35
   189          6
   200          5
   201         10
   202         34
   203        790
   204        116
   205          8