##TITLE=Library Entry 1039
##JCAMP-DX=Revision 4.10 
##DATA TYPE=MASS SPECTRUM
##SAMPLE DESCRIPTION=NIST Mass Spectrometry Data Center, 1990.
##NAMES=HP
##CAS NAME=4-Amino-1-butanol
##MOLFORM=C4H11NO
##CAS REGISTRY NO=13325-10-5
##MP= -300
##BP= -300
##MW= 89
##$RETENTION INDEX=951
##$CONDENSED SPECTRUM=NO
##NPOINTS= 41
##XYDATA=(XY..XY) 1 
    13          0
    14          1
    15         10
    16          1
    17          6
    18         43
    19          3
    25          1
    26         10
    27         45
    28         96
    29         71
    30        999
    31         76
    32          1
    33          0
    36          0
    37          4
    38          7
    39         28
    40         11
    41         51
    42         22
    43         46
    44         31
    45        133
    46          0
    48          1
    50          1
    51          2
    52          2
    53          5
    54          3
    59         13
    68          2
    69          2
    70          3
    73          0
    74          1
    88          1
    89          7