##TITLE=Library Entry 98684
##JCAMP-DX=Revision 4.10 
##DATA TYPE=MASS SPECTRUM
##SAMPLE DESCRIPTION=A.S.Moskovkin,I.M.Karnaukh, Russian Center on Disaster
 Medicine
##NAMES=HP
##CAS NAME=4-Cyano-4-hydroxy-2-phenyl-1,3,5-trimethylpiperidine(2.alpha., 3.
beta., 4.alpha., 5.beta.)-
##MOLFORM=C15H20N2O
##CAS REGISTRY NO=133201-68-0
##MP= -300
##BP= -300
##MW= 244
##$RETENTION INDEX=0
##$CONDENSED SPECTRUM=NO
##NPOINTS= 141
##XYDATA=(XY..XY) 1 
    37          2
    38          8
    39         64
    40         12
    41         92
    42        370
    43         35
    44         75
    45          4
    50         12
    51         41
    52         13
    53         12
    54         10
    55         62
    56         30
    57         35
    58         11
    59          2
    60          2
    61          1
    62          5
    63         21
    64          6
    65         47
    66         13
    67          9
    68         27
    69         31
    70         21
    71         23
    72         11
    73          4
    74          4
    75          6
    76         12
    77         79
    78         52
    79         16
    80         17
    81          6
    82         10
    83          8
    84        190
    85         15
    87          2
    88          3
    89         22
    90         14
    91        200
    92         19
    93          2
    94          3
    95          3
    96          7
    97          6
    98         19
    99          8
   100          1
   101          2
   102         10
   103         31
   104         23
   105         16
   106          4
   107         14
   108          3
   109          2
   110          3
   111          3
   112          6
   113         12
   114          3
   115         74
   116         40
   117        270
   118        999
   119        400
   120         63
   121          5
   124          3
   125          2
   126          5
   127          3
   128          5
   129          8
   130         12
   131         52
   132        220
   133         77
   134          9
   135          1
   138          4
   139          9
   140        280
   141         26
   142          4
   143          4
   144         16
   145         14
   146         29
   147          9
   148          2
   156          2
   157          6
   158         15
   159         14
   160        500
   161         99
   162          8
   167         62
   168          7
   169          3
   170          2
   172          4
   173          2
   174         29
   175          4
   184          7
   185          2
   186          2
   188         38
   189          6
   200         10
   201          2
   202         36
   203          7
   204          7
   214          7
   215         14
   216        160
   217        650
   218        100
   219          9
   227         54
   228          9
   229          2
   243          6
   244         81
   245         14
   246          1