##TITLE=Library Entry 53233
##JCAMP-DX=Revision 4.10 
##DATA TYPE=MASS SPECTRUM
##SAMPLE DESCRIPTION=Chemical Concepts
##NAMES=HP
##CAS NAME=2-Butenamide, N,N-diethyl-2-methyl-, (E)-
##MOLFORM=C9H17NO
##CAS REGISTRY NO=133217-97-7
##MP= -300
##BP= -300
##MW= 155
##$RETENTION INDEX=0
##$CONDENSED SPECTRUM=NO
##NPOINTS= 93
##XYDATA=(XY..XY) 1 
    26         13
    27        133
    28         45
    29        173
    30         15
    31          0
    37          1
    38          4
    39         58
    40          8
    41         19
    42         52
    43          8
    44         33
    45          1
    46          1
    49          0
    50          7
    51         14
    52          9
    53         45
    54         37
    55        577
    56         57
    57          6
    58         56
    59          2
    62          0
    63          0
    64          0
    65          1
    66          1
    67          5
    68          4
    69         18
    70         13
    71          3
    72         69
    73          6
    74          3
    76          0
    77          1
    78          0
    79          1
    80          1
    81          5
    82         34
    83        999
    84         56
    85          4
    86          2
    87          0
    91          0
    92          0
    93          0
    94          3
    95          9
    96         19
    97         13
    98         14
    99          1
   100         40
   101          3
   102          0
   105          0
   106          0
   107          0
   108          1
   109          1
   110          5
   111          7
   112         67
   113          4
   114          0
   122          4
   123          1
   124          5
   125          6
   126         14
   127          2
   128          0
   136          0
   138          2
   139          1
   140        644
   141         58
   142          3
   152          0
   153          0
   154         18
   155         72
   156         15
   157          1