##TITLE=Library Entry 87028
##JCAMP-DX=Revision 4.10 
##DATA TYPE=MASS SPECTRUM
##SAMPLE DESCRIPTION=Japan AIST/NIMC Database- Spectrum MS-IW-7759
##NAMES=HP
##CAS NAME=3(2H)-Pyridazinone, 6-methyl-
##MOLFORM=C5H6N2O
##CAS REGISTRY NO=13327-27-0
##MP= -300
##BP= -300
##MW= 110
##$RETENTION INDEX=0
##$CONDENSED SPECTRUM=NO
##NPOINTS= 58
##XYDATA=(XY..XY) 1 
    13          1
    14          2
    15         11
    16          2
    17         51
    18        153
    19          1
    24          1
    25          6
    26         45
    27         80
    28         32
    29         17
    30          5
    32          1
    36          2
    37         14
    38         18
    39         54
    40         19
    41         56
    42         55
    43         11
    44          2
    48          2
    49         10
    50         52
    51         58
    52         53
    53        187
    54         68
    55         47
    56         20
    57          7
    62          1
    63          2
    64          2
    65          3
    66          9
    67          6
    68         26
    69          2
    70          1
    76          1
    77          2
    78          3
    79          8
    80         11
    81         96
    82        146
    83         13
    94          1
    95          2
   108          7
   109          9
   110        999
   111         67
   112         11