##TITLE=Library Entry 77691
##JCAMP-DX=Revision 4.10 
##DATA TYPE=MASS SPECTRUM
##SAMPLE DESCRIPTION=A.S.Moskovkin,I.M.Karnaukh, Russian Center on Disaster
 Medicine
##NAMES=HP
##CAS NAME=4-Cyano-4-hydroxy-1,3-dimethyl-6-phenylpiperidine, (4.alpha., 6.a
lpha., 3.beta.)-
##MOLFORM=C14H18N2O
##CAS REGISTRY NO=133201-67-9
##MP= -300
##BP= -300
##MW= 230
##$RETENTION INDEX=0
##$CONDENSED SPECTRUM=NO
##NPOINTS= 164
##XYDATA=(XY..XY) 1 
    37          4
    38         12
    39         86
    40         19
    41        130
    42        480
    43         74
    44        250
    45         11
    49          2
    50         30
    51         92
    52         33
    53         21
    54         32
    55         69
    56         45
    57         34
    58         48
    59          5
    60          5
    61          3
    62          8
    63         34
    64         13
    65         60
    66         20
    67         11
    68         22
    69         30
    70        320
    71         58
    72         40
    73         19
    74         10
    75         13
    76         22
    77        180
    78        150
    79         28
    80          7
    81          7
    82         25
    83         23
    84         54
    85         17
    86          3
    87         11
    88          3
    89         27
    90         18
    91        150
    92         21
    93          5
    94          5
    95          5
    96          7
    97          8
    98         17
    99          9
   100          2
   101          9
   102         36
   103        180
   104        999
   105        120
   106          8
   107          7
   108          3
   109          5
   110          6
   111          5
   112          5
   113          3
   114          5
   115         27
   116         26
   117         70
   118        570
   119        330
   120         49
   121          6
   123          2
   124          5
   125         19
   126        310
   127         32
   128         20
   129         16
   130         21
   131         60
   132        260
   133         70
   134         10
   135         35
   136          4
   137          3
   138          1
   139          4
   140          5
   141          9
   142          8
   143         23
   144         20
   145         25
   146         42
   147          7
   148          1
   151          2
   152         11
   153        720
   154         76
   155          9
   156          7
   157         18
   158         31
   159         22
   160        260
   161         61
   162          6
   166          1
   167          3
   168          4
   169          8
   170         58
   171         12
   172          5
   173          2
   174          3
   181          1
   182          2
   183          3
   184         15
   185         11
   186         12
   187          3
   188         14
   189          3
   190          9
   191          2
   195          2
   196          1
   197          4
   198          3
   199          2
   200          4
   201          6
   202         59
   203        380
   204         56
   205          5
   211          7
   212          2
   213         66
   214         19
   215          7
   216          2
   226          1
   227          8
   228         21
   229         52
   230        290
   231         46
   232          4