##TITLE=Library Entry 32382
##JCAMP-DX=Revision 4.10 
##DATA TYPE=MASS SPECTRUM
##SAMPLE DESCRIPTION=Chemical Concepts
##NAMES=HP
##CAS NAME=2-Cyclooctene-1-carboxylic acid
##MOLFORM=C9H14O2
##CAS REGISTRY NO=133341-64-7
##MP= -300
##BP= -300
##MW= 154
##$RETENTION INDEX=0
##$CONDENSED SPECTRUM=NO
##NPOINTS= 89
##XYDATA=(XY..XY) 1 
    26         50
    27        538
    29        212
    30          4
    31         21
    37          6
    38         39
    39        564
    41        864
    42        108
    43        157
    44          8
    45        115
    46          5
    47          4
    50         35
    51        104
    52         62
    53        224
    54        228
    55        283
    56         66
    57         44
    58         30
    59          9
    60          7
    61          7
    62         10
    63         19
    64          2
    65        111
    66         92
    67        999
    68        137
    69        132
    70         66
    71         54
    72          5
    73        147
    74         14
    77        130
    78         48
    79        403
    80        163
    81        356
    82        229
    83         37
    84         26
    85         17
    86        154
    87         24
    91         51
    92         26
    93        119
    94        297
    95        105
    96         11
    97        231
    98         57
    99        108
   100        204
   101         14
   103          5
   105          9
   106          4
   107         61
   108        230
   109        532
   110         66
   111        103
   112         74
   113         81
   114          9
   117          3
   118         13
   121         39
   123          3
   125         68
   126        109
   127         11
   128          2
   135          7
   136        307
   137         42
   139         47
   140          4
   154        303
   155         31
   156          7