##TITLE=Library Entry 33140
##JCAMP-DX=Revision 4.10 
##DATA TYPE=MASS SPECTRUM
##SAMPLE DESCRIPTION=NIST Mass Spectrometry Data Center, 1994
##NAMES=HP
##CAS NAME=2(1H)-Pyridinone, 1-ethyl-
##MOLFORM=C7H9NO
##CAS REGISTRY NO=13337-79-6
##MP= -300
##BP= -300
##MW= 123
##$RETENTION INDEX=0
##$CONDENSED SPECTRUM=NO
##NPOINTS= 55
##XYDATA=(XY..XY) 1 
    13          4
    14         18
    15         53
    17          0
    18          7
    25         12
    26        117
    27        290
    28        226
    29        108
    30          5
    37         55
    38        148
    39        373
    40        114
    41        175
    42         48
    43          8
    44          5
    47          4
    49         15
    50         96
    51        171
    52         96
    53        197
    54         34
    55         11
    56         12
    61          3
    62          5
    63         13
    64         26
    65         35
    66        106
    67        999
    68         79
    69          7
    75          4
    78        178
    79         45
    80        339
    81         23
    92          8
    93         15
    94         89
    95        510
    96         80
    97          4
   104         31
   108         11
   120          3
   122        139
   123        513
   124         41
   125          2