##TITLE=Library Entry 48978
##JCAMP-DX=Revision 4.10 
##DATA TYPE=MASS SPECTRUM
##SAMPLE DESCRIPTION=D.HENNEBERG, MAX-PLANCK INSTITUTE, MULHEIM, WEST GERMAN
Y
##NAMES=HP
##CAS NAME=4-Decen-6-yne, (Z)-
##MOLFORM=C10H16
##CAS REGISTRY NO=13343-76-5
##MP= -300
##BP= -300
##MW= 136
##$RETENTION INDEX=1235
##$CONDENSED SPECTRUM=NO
##NPOINTS= 101
##XYDATA=(XY..XY) 1 
    23          2
    25          2
    26         12
    27        169
    28         13
    29        216
    30          4
    31          2
    33          2
    34          2
    35          1
    36          0
    37          6
    38         14
    39        219
    40         26
    41        206
    42         23
    43         45
    44          4
    45          2
    46          3
    47          2
    48          1
    49          3
    50         34
    51        100
    52         64
    53         86
    54         14
    55        131
    56          8
    57          5
    58          3
    59          2
    60          1
    61          4
    62         11
    63         42
    64         14
    65        212
    66         63
    67         89
    68         51
    69          8
    70          2
    71          1
    72          1
    73          1
    74          6
    75         34
    76          9
    77        254
    78         69
    79        999
    80         96
    81         33
    82          3
    83          0
    84          2
    85          1
    86          2
    87          2
    88          0
    89         10
    90          6
    91        323
    92         64
    93        205
    94        181
    95         22
    96          1
   101          1
   102          1
   103         13
   104          3
   105         69
   106          9
   107        144
   108         25
   109          1
   115          7
   116          1
   117          5
   118          0
   119          5
   120          1
   121         18
   122          4
   123          0
   127          1
   128          3
   129          2
   130          1
   132          0
   133          0
   134          5
   135          2
   136        248
   137         25
   138          1