##TITLE=Library Entry 87833
##JCAMP-DX=Revision 4.10 
##DATA TYPE=MASS SPECTRUM
##SAMPLE DESCRIPTION=NIST Mass Spectrometry Data Center, 1994
##NAMES=HP
##CAS NAME=1-(2-Furyl)-3-(2-thienyl)-2-propen-1-one
##MOLFORM=C11H8O2S
##CAS REGISTRY NO=13343-95-8
##MP= -300
##BP= -300
##MW= 204
##$RETENTION INDEX=0
##$CONDENSED SPECTRUM=NO
##NPOINTS= 112
##XYDATA=(XY..XY) 1 
    26         21
    27          8
    28          3
    29         48
    33          3
    37         47
    38        146
    39        882
    40         32
    41          7
    42          6
    44          6
    45         95
    46          4
    47          6
    49          9
    50         55
    51         66
    52         11
    53         55
    54          8
    55         27
    56          4
    57         72
    58         29
    60          6
    61         26
    62         71
    63        182
    64         67
    65        364
    66         30
    68          6
    69         52
    70          8
    71          7
    72          3
    73         34
    74         39
    75         19
    76          8
    77         47
    78         12
    79          5
    80          3
    81         27
    82         39
    83        123
    84         21
    85          9
    86          7
    87          9
    88         20
    89         16
    90          5
    91          9
    92         67
    93         46
    94          6
    95          9
    96          7
    97         14
    98          4
   102         14
   103         28
   104          5
   108         39
   109         10
   111        999
   112         67
   113         52
   114          9
   115        136
   116         15
   118          5
   119          5
   120         27
   121        203
   122         49
   123          8
   131         25
   132          7
   134          9
   135          9
   136          8
   143          5
   144          4
   145          7
   146          4
   147        317
   148         79
   149         23
   150        225
   151         21
   152         12
   158          5
   159          7
   160          9
   161          4
   163         23
   164          3
   171          6
   175         55
   176         98
   177         18
   178          5
   187          8
   203         63
   204        675
   205         78
   206         37
   207          5