##TITLE=Library Entry 54512
##JCAMP-DX=Revision 4.10 
##DATA TYPE=MASS SPECTRUM
##SAMPLE DESCRIPTION=A.A.Kutin, Moscow, Russia
##NAMES=HP
##CAS NAME=Thiazol-2-amine, 5-phenyl-4-(4-piperidinoyl)-
##MOLFORM=C15H17N3OS
##CAS REGISTRY NO=133415-24-4
##MP= -300
##BP= -300
##MW= 287
##$RETENTION INDEX=0
##$CONDENSED SPECTRUM=NO
##NPOINTS= 171
##XYDATA=(XY..XY) 1 
    33          8
    34          1
    36          1
    37          0
    39         33
    40         32
    41         87
    42         39
    43         23
    44         16
    45          5
    46          0
    50          6
    51         15
    52          3
    53          7
    54         12
    55         32
    56         55
    57          7
    58          1
    60         42
    61          2
    62          6
    63         15
    64          3
    65          8
    66          2
    67          5
    68          6
    69         29
    70         22
    71          3
    72          2
    73          0
    74          2
    75          4
    76          7
    77         40
    78          5
    79          4
    80          1
    81          3
    82         15
    84        999
    85         53
    86          4
    89        143
    90         21
    91         30
    92          3
    93          5
    94          1
    97          0
    98          2
    99          0
   100          1
   101          2
   102          5
   103          8
   104         11
   105         20
   106          4
   107          0
   108          0
   111          4
   112         10
   113          1
   114          5
   115         12
   116         50
   117        125
   118         13
   119          5
   120         11
   121         63
   122          6
   123          3
   125          0
   127          0
   129          9
   131         12
   133         67
   134         48
   135          8
   136          2
   137          0
   138          1
   139          0
   141          1
   142          9
   143          5
   144         10
   145          2
   146          7
   147          7
   148         37
   149         10
   150          1
   155          0
   156          1
   157          1
   158          1
   159          2
   160          6
   161          3
   162          1
   170          0
   171          1
   173          1
   174          7
   175         23
   176        114
   177         15
   178          5
   179          0
   184          1
   186          2
   188          1
   189          4
   190         17
   191          7
   192          0
   195          0
   196          0
   198          0
   199          5
   200          3
   201          4
   203        142
   204         20
   205          7
   206          0
   211          3
   212         12
   213          2
   214          3
   215          1
   216          3
   217          3
   218         12
   219          2
   220          0
   226          3
   227          5
   228          7
   229          1
   230          3
   231          2
   232         10
   233          1
   242          6
   243          1
   244          0
   245          1
   254          0
   256          4
   257          1
   258          8
   259         17
   260          2
   261          0
   270          8
   271          1
   283          0
   284          4
   285          7
   287        240
   288         39
   289         11
   290          1