##TITLE=Library Entry 88959
##JCAMP-DX=Revision 4.10 
##DATA TYPE=MASS SPECTRUM
##SAMPLE DESCRIPTION=NIST Mass Spectrometry Data Center
##NAMES=HP
##CAS NAME=1-(2-Thienyl)-3-(2-furyl)-2-propen-1-one
##MOLFORM=C11H8O2S
##CAS REGISTRY NO=13343-96-9
##MP= -300
##BP= -300
##MW= 204
##$RETENTION INDEX=0
##$CONDENSED SPECTRUM=NO
##NPOINTS= 125
##XYDATA=(XY..XY) 1 
    26          3
    27          3
    29          8
    37         11
    38         35
    39        274
    40          8
    41          2
    42          1
    44          1
    45         35
    46          1
    47          1
    49          3
    50         20
    51         28
    52          5
    53         23
    54          4
    55         15
    56          1
    57         33
    58         16
    59          2
    60          3
    61         13
    62         32
    63        104
    64         39
    65        246
    66         19
    67          2
    68          3
    69         25
    70          5
    71          4
    72          2
    73         32
    74         43
    75         16
    76          5
    77         30
    78          7
    79          3
    80          1
    81         17
    82         23
    83         92
    84         14
    85          7
    86          4
    87          5
    88         28
    89         13
    90          4
    91          6
    92         53
    93         36
    94          4
    95          6
    96          7
    97          9
    98          3
    99          1
   101          2
   102         13
   103         27
   104          4
   105          2
   106          1
   108         41
   109          9
   111        999
   112         64
   113         52
   114          6
   115        137
   116         15
   117          2
   118          4
   119          3
   120         26
   121        239
   122         55
   123          8
   124          5
   131         30
   132          6
   133          2
   134          9
   135         10
   136          8
   137          4
   143          5
   144          5
   145          9
   146          5
   147        378
   148         84
   149         25
   150        262
   151         25
   152         13
   158          4
   159          9
   160         10
   161          5
   162          2
   163         33
   164          3
   165          1
   171          7
   172          1
   174          3
   175         61
   176        120
   177         16
   178          6
   187         10
   188          1
   203         73
   204        826
   205        112
   206         47
   207          5