##TITLE=Library Entry 49008
##JCAMP-DX=Revision 4.10 
##DATA TYPE=MASS SPECTRUM
##SAMPLE DESCRIPTION=D.HENNEBERG, MAX-PLANCK INSTITUTE, MULHEIM, WEST GERMAN
Y
##NAMES=HP
##CAS NAME=4-Decen-6-yne, (E)-
##MOLFORM=C10H16
##CAS REGISTRY NO=13343-77-6
##MP= -300
##BP= -300
##MW= 136
##$RETENTION INDEX=1244
##$CONDENSED SPECTRUM=NO
##NPOINTS= 96
##XYDATA=(XY..XY) 1 
    23          1
    25          2
    26         14
    27        179
    28         27
    29        245
    30          5
    31         14
    33          3
    34          1
    35          1
    36          0
    37          7
    38         14
    39        217
    40         29
    41        225
    42         27
    43         53
    44         27
    45          5
    46          4
    47          3
    48          2
    49          3
    50         35
    51        118
    52         68
    53         89
    54         15
    55        119
    56         11
    57         15
    59          4
    60          2
    61          5
    62         12
    63         47
    64         16
    65        251
    66         64
    67         93
    68         63
    69         11
    70          2
    71          7
    72          0
    73          1
    74          8
    75         35
    76          9
    77        265
    78         76
    79        999
    80         93
    81         33
    82          4
    83          1
    84          2
    86          3
    87          2
    88          1
    89         12
    90          7
    91        377
    92         72
    93        193
    94        161
    95         19
   102          2
   103         18
   104          6
   105         78
   106         11
   107        154
   108         23
   109          1
   115          8
   116          3
   117          7
   118          0
   119          8
   120          1
   121         16
   122          2
   127          1
   128          3
   129          2
   130          3
   131          0
   132          2
   134          9
   135          3
   136        286
   137         34
   138          2