##TITLE=Library Entry 49610
##JCAMP-DX=Revision 4.10 
##DATA TYPE=MASS SPECTRUM
##SAMPLE DESCRIPTION=Humboldt-Universitat zu Berlin, Department of Chemistry
, Analytical Group
##NAMES=HP
##CAS NAME=(2R,4As,5as,8R,9ar,9br)-perhydro-2,8-diphenyl-2H,5H,8H-bis-[1,3]d
ioxino[5,4-b:4',5'-d]-pyrrol
##MOLFORM=C20H21NO4
##CAS REGISTRY NO=133443-76-2
##MP= -300
##BP= -300
##MW= 339
##$RETENTION INDEX=0
##$CONDENSED SPECTRUM=NO
##NPOINTS= 146
##XYDATA=(XY..XY) 1 
    14          2
    15         17
    16          2
    17          4
    18         10
    26          6
    27         46
    28        111
    29         57
    30         20
    31         30
    37          1
    38          4
    39         44
    40         13
    41        155
    42         98
    43         63
    44         35
    45          8
    50         22
    51         83
    52         23
    53         28
    54         34
    55         28
    56         15
    57         24
    58          6
    59          6
    60          2
    62          3
    63         13
    64          4
    65         11
    67        244
    68        237
    69        182
    70        166
    71         12
    72          7
    73          2
    74          7
    75          6
    76         13
    77        241
    78         64
    79         93
    80        999
    81         80
    82         22
    83          5
    84          9
    85          9
    86          3
    88          5
    89         24
    90         20
    91         80
    92         16
    93          3
    94         10
    95          4
    96         30
    97         13
    98         29
    99          3
   100          6
   101          1
   102          2
   103          7
   105        282
   106         48
   107         48
   108          6
   109          2
   110         16
   111          6
   112          3
   114          2
   115          6
   116          6
   117          7
   118          8
   119         15
   120          6
   121         73
   122          8
   123          1
   125         10
   126         69
   127          8
   128          4
   129          8
   130          5
   131          4
   132          6
   133          4
   134          1
   138          1
   142          2
   143          3
   144         35
   145          6
   146          6
   147          3
   148         24
   149          3
   154          3
   155          2
   156         18
   157          5
   158          5
   159          0
   160          1
   161          4
   162         11
   163          2
   171          1
   172          1
   174        126
   175         16
   176          4
   178          1
   185          1
   190          0
   203        258
   204         37
   205          6
   206          0
   215          0
   216          0
   217          0
   218          0
   224          0
   232          4
   233         80
   234         12
   235          1
   262          0
   310          1
   311          0
   338          1
   339         18
   340          4
   341          0