##TITLE=Library Entry 24617
##JCAMP-DX=Revision 4.10 
##DATA TYPE=MASS SPECTRUM
##SAMPLE DESCRIPTION=Exported from NIST MS Search
##NAMES=HP
##CAS NAME=Butane, 1-(2-methoxyethoxy)-
##MOLFORM=C7H16O2
##CAS REGISTRY NO=13343-98-1
##MP= -300
##BP= -300
##MW= 132
##$RETENTION INDEX=0
##$CONDENSED SPECTRUM=NO
##NPOINTS= 59
##XYDATA=(XY..XY) 1 
    15         55
    16          1
    17          2
    18          9
    19          2
    26          7
    27         72
    28         59
    29        316
    30         10
    31        105
    32          6
    33         14
    38          1
    39         36
    40          5
    41        279
    42         23
    43         57
    44         28
    45        341
    46         10
    47         10
    50          1
    51          2
    53          5
    54          2
    55         38
    56         62
    57        999
    58         60
    59        268
    60        129
    61         19
    62          1
    69          3
    70          1
    71         33
    72         25
    73         11
    74          2
    75          7
    76          4
    77         41
    78          1
    82          1
    85          7
    87        134
    88          8
    89         73
    90          3
    91          1
   100         65
   101          5
   102          1
   103          2
   104          1
   132          8
   133          2