##TITLE=Library Entry 15992
##JCAMP-DX=Revision 4.10 
##DATA TYPE=MASS SPECTRUM
##SAMPLE DESCRIPTION=Exported from NIST MS Search
##NAMES=HP
##CAS NAME=4-Indancarboxylic acid, 5,6,7,7a-tetrahydro-7a-methyl-5-oxo-
##MOLFORM=C11H14O3
##CAS REGISTRY NO=13349-21-8
##MP= -300
##BP= -300
##MW= 194
##$RETENTION INDEX=0
##$CONDENSED SPECTRUM=NO
##NPOINTS= 35
##XYDATA=(XY..XY) 1 
    41        434
    43         26
    44        999
    50         53
    51        184
    52         79
    53        197
    54         21
    55        158
    63         66
    65        105
    66         58
    67         79
    77        250
    78         79
    79        705
    80        100
    81         26
    91        250
    92         39
    93        316
    94        263
    95        816
    96         39
   105         21
   106         21
   107        303
   108        303
   109         21
   121        118
   122        605
   123         39
   135         84
   150        303
   151         26