##TITLE=Library Entry 39884
##JCAMP-DX=Revision 4.10 
##DATA TYPE=MASS SPECTRUM
##SAMPLE DESCRIPTION=Chemical Concepts
##NAMES=HP
##CAS NAME=Butane, 1,4-diethoxy-
##MOLFORM=C8H18O2
##CAS REGISTRY NO=13344-00-8
##MP= -300
##BP= -300
##MW= 146
##$RETENTION INDEX=940
##$CONDENSED SPECTRUM=NO
##NPOINTS= 40
##XYDATA=(XY..XY) 1 
    26         18
    27        225
    28         24
    29        461
    30         18
    31        926
    39         71
    40         18
    41        349
    42        122
    43        389
    44        379
    45        140
    47         34
    49          6
    53         25
    54         10
    55        330
    56        206
    57        113
    58         51
    59        935
    60         35
    67          7
    69         10
    70          8
    71        739
    72        999
    73        189
    74         12
    83          6
    85         47
    86          7
    87         11
    99         25
   100         11
   101         84
   102         40
   117        296
   118         21