##TITLE=Library Entry 50008
##JCAMP-DX=Revision 4.10 
##DATA TYPE=MASS SPECTRUM
##SAMPLE DESCRIPTION=Chemical Concepts
##NAMES=HP
##CAS NAME=9-Oxabicyclo[3.3.1]nonan-2-ol
##MOLFORM=C8H14O2
##CAS REGISTRY NO=133521-31-0
##MP= -300
##BP= -300
##MW= 142
##$RETENTION INDEX=0
##$CONDENSED SPECTRUM=NO
##NPOINTS= 72
##XYDATA=(XY..XY) 1 
    26         16
    27        190
    28          8
    29        168
    30         11
    31         77
    38          9
    39        214
    40         37
    41        325
    42        112
    43        222
    44        349
    45         83
    50          7
    51         25
    52         13
    53         80
    54        301
    55        418
    56         63
    57        407
    58         57
    59          9
    60         19
    65         20
    66         36
    67        249
    68        135
    69        159
    70        222
    71         73
    72         14
    73         10
    77         25
    78         17
    79         74
    80        276
    81        999
    82        120
    83        115
    84        100
    85        361
    86         37
    87         11
    88          8
    91         19
    93         17
    94         12
    95        102
    96        114
    97        150
    98        120
    99         60
   100         17
   101          7
   105          7
   106         19
   107         10
   109         18
   111         40
   112         13
   113         16
   114         17
   123         22
   124        113
   125         15
   126         11
   141         12
   142        383
   143         46
   144          6