##TITLE=Library Entry 20271
##JCAMP-DX=Revision 4.10 
##DATA TYPE=MASS SPECTRUM
##SAMPLE DESCRIPTION=Y. Murata, LBC, NIDDK, NIH, Bethesda, MD 20892
##NAMES=HP
##CAS NAME=Z,Z-6,27-Hexatriactontadien-2-one
##MOLFORM=C36H68O
##CAS REGISTRY NO=133530-19-5
##MP= -300
##BP= -300
##MW= 516
##$RETENTION INDEX=0
##$CONDENSED SPECTRUM=NO
##NPOINTS= 231
##XYDATA=(XY..XY) 1 
    51         22
    52         38
    53        241
    55        999
    56        144
    57        439
    58        175
    59         66
    61          7
    65         29
    66         28
    67        487
    68        316
    69        682
    70        150
    71        576
    72         48
    74         23
    76          8
    77         36
    79        170
    80        276
    81        522
    82        431
    83        582
    84        189
    85        167
    86         22
    89         20
    91         30
    92         43
    93        126
    94        277
    95        452
    96        246
    97        442
    98         74
    99         43
   100          7
   102          8
   103          7
   105         46
   106         14
   107         85
   108        141
   109        277
   110        144
   111        401
   112        106
   113         21
   117          9
   118         16
   119          9
   120         23
   121         92
   122         86
   123        159
   124        105
   125        507
   126         49
   127         25
   129          9
   131          8
   134         43
   135        141
   136         49
   137         93
   138         55
   139         63
   140         11
   141          7
   142          8
   145         10
   147         16
   148         12
   149         49
   150         47
   151         16
   152         31
   153         24
   155          8
   158          7
   160          7
   161         14
   162          8
   163         38
   164         27
   166         36
   171          7
   173          8
   175         27
   176         19
   177         18
   178         17
   179         33
   180         18
   184         17
   189         21
   193         16
   194         20
   195          8
   197          8
   199         16
   203          7
   206          8
   210         10
   211         16
   217          8
   220         10
   222         19
   223         11
   224         12
   227          9
   233          7
   235          9
   236         30
   238          7
   246          9
   247          7
   249         14
   250         29
   252         18
   259          7
   261          9
   262         20
   263          9
   264         23
   265         10
   268          7
   269          8
   274          7
   275          9
   276          7
   278         23
   284         16
   289         18
   290         14
   292         27
   295          7
   296          8
   298          7
   303         27
   304          7
   305         22
   306         10
   314          7
   315          7
   316          7
   317          7
   320         21
   321          7
   324          8
   325         18
   327         27
   329         10
   331         28
   332         19
   333         10
   334         41
   336          8
   337          8
   339          7
   340          7
   344         12
   345         23
   346          7
   347         29
   348         11
   351          7
   354          8
   358          8
   359         22
   360          7
   361         18
   362         16
   367          8
   369          8
   371          8
   372         14
   373          9
   374          7
   375         18
   386         10
   387         28
   389         10
   390         25
   392         18
   399         13
   401         25
   402          7
   403         30
   404          8
   407          7
   413          8
   414          8
   415         27
   417         41
   418         20
   427         14
   430          8
   431         32
   433          9
   435          9
   443          8
   444         16
   445         16
   446         16
   448          8
   457         16
   458        101
   459         35
   461         10
   463          7
   468          7
   471          7
   473         10
   475         18
   480          9
   481          7
   485          7
   487          8
   498        131
   499         65
   500          9
   501         19
   503         22
   508          7
   515          7
   516        120
   517         64
   518          9