##TITLE=Library Entry 487
##JCAMP-DX=Revision 4.10 
##DATA TYPE=MASS SPECTRUM
##SAMPLE DESCRIPTION=Chemical Concepts
##NAMES=HP
##CAS NAME=1-(3-Tributylstannyloxiran-2-yl)pentan-1-ol
##MOLFORM=C19H40O2Sn
##CAS REGISTRY NO=133589-27-2
##MP= -300
##BP= -300
##MW= 420
##$RETENTION INDEX=0
##$CONDENSED SPECTRUM=NO
##NPOINTS= 223
##XYDATA=(XY..XY) 1 
    26         20
    27        446
    28         76
    29        999
    30         19
    31         73
    37          3
    38          7
    39        204
    40         23
    41        886
    42         55
    43        164
    44         31
    45         49
    50          5
    51          8
    52          2
    53         31
    54          7
    55        314
    56         26
    57        367
    58         19
    59          3
    60          0
    61          1
    65          3
    66          1
    67         12
    68          4
    69        161
    70          8
    71         31
    72          1
    73         20
    74          2
    75          2
    76          0
    77          4
    78          0
    79          3
    80          0
    81          8
    82          1
    83          9
    84          1
    85         14
    86          1
    87         23
    88          1
    91          1
    93          1
    95          5
    96          0
    97          1
    99          0
   111          1
   112          1
   113          6
   114          0
   115          5
   116         26
   117        135
   118        110
   119        240
   120        146
   121        327
   122         16
   123         88
   124          5
   125         48
   127          9
   129          6
   130          2
   131         12
   132         11
   133        127
   134         67
   135        196
   136         62
   137        246
   138          2
   139         30
   141         33
   143          7
   144          3
   145         16
   146          6
   147         22
   148          5
   149         19
   150          2
   151          7
   153          4
   155          3
   157          8
   158          4
   159         24
   160         11
   161         36
   162         12
   163         33
   164          3
   165          9
   166          0
   167          6
   169          5
   171         15
   172          6
   173         97
   174         52
   175        286
   176        132
   177        466
   178        102
   179        381
   180         12
   181         73
   182          3
   183         41
   184          2
   185          1
   186          2
   187          7
   188          5
   189         10
   190          7
   191         25
   192         13
   193         31
   194         11
   195         33
   196          2
   197          6
   198          1
   199          7
   200          1
   201          2
   203          2
   205          2
   207          1
   215          1
   216          1
   217          4
   218          1
   219          4
   220          0
   221          2
   227          3
   228          1
   229          6
   230          5
   231         68
   232         41
   233        118
   234         47
   235        148
   236          9
   237         16
   238          1
   239         20
   240          2
   243          4
   244          1
   245          5
   246          2
   247         79
   248         47
   249        138
   250         60
   251        186
   252         11
   253         20
   255         23
   256          2
   257          0
   273          2
   274          0
   275          3
   276          0
   277          4
   283          1
   285          1
   286          1
   287         29
   288         20
   289         48
   290         23
   291         64
   292          7
   293          9
   294          1
   295         10
   296          1
   303          1
   304          0
   305          1
   307          0
   309          0
   311          1
   312          0
   313          1
   315          1
   331          0
   333          1
   341          1
   342          0
   343          5
   344          2
   345          7
   346          2
   347          5
   348          0
   349          1
   359          9
   360          6
   361         17
   362          8
   363         22
   364          4
   365          3
   367          4