##TITLE=Library Entry 77607
##JCAMP-DX=Revision 4.10 
##DATA TYPE=MASS SPECTRUM
##SAMPLE DESCRIPTION=Chemical Concepts
##NAMES=HP
##CAS NAME=2-Oxa-6,11-dithia-8,9-benzospiro[3.8]dodecene
##MOLFORM=C13H16OS2
##CAS REGISTRY NO=133560-54-0
##MP= -300
##BP= -300
##MW= 252
##$RETENTION INDEX=0
##$CONDENSED SPECTRUM=NO
##NPOINTS= 145
##XYDATA=(XY..XY) 1 
    26          0
    27         21
    28         10
    29         16
    30          0
    31          0
    32          1
    38          1
    39         58
    40          8
    41         41
    42          5
    43         36
    44          2
    45         65
    46         13
    47         17
    48          0
    50          5
    51         25
    52         13
    53         26
    54         17
    55         38
    56          9
    57         46
    58          8
    59         11
    60          2
    61          1
    62          1
    63         14
    64          3
    65         21
    66          1
    67          6
    68          2
    69         21
    70         12
    71         35
    72         10
    73          5
    74          1
    75          3
    76          8
    77         58
    78        122
    79         12
    80          0
    81          9
    82          4
    83         38
    84          8
    85         38
    86          5
    87          5
    88          0
    89         18
    90          9
    91        101
    92          7
    93          2
    94          1
    95          6
    96          2
    97         10
    98          2
    99          4
   100          0
   101          2
   102         19
   103        117
   104        999
   105        101
   106          4
   107          1
   108          2
   109          5
   110          1
   111          5
   112          5
   113          6
   114          0
   115          7
   116          2
   117         19
   118         17
   119          3
   120          1
   121          9
   122          3
   123          4
   124          1
   125          2
   126          0
   127          3
   128          3
   129          6
   130          1
   131          0
   132          0
   133          6
   134         80
   135        566
   136         72
   137         32
   138          3
   139          1
   140          0
   141          4
   142          1
   143          5
   146          1
   147          3
   148         19
   149         28
   150          4
   151          1
   152          0
   153          1
   154          0
   155          4
   156          0
   157          1
   158          1
   161          0
   163          1
   165          1
   167         18
   168          3
   169          1
   171          0
   173          0
   175          0
   177          0
   179          0
   187          1
   189          2
   217          0
   222          0
   250          2
   252        299
   253         48
   254         30
   255          3