##TITLE=Library Entry 53197
##JCAMP-DX=Revision 4.10 
##DATA TYPE=MASS SPECTRUM
##SAMPLE DESCRIPTION=Chemical Concepts
##NAMES=HP
##CAS NAME=Phenylacetic acid, (-)-menthyl ester
##MOLFORM=C18H26O2
##CAS REGISTRY NO=133569-99-0
##MP= -300
##BP= -300
##MW= 274
##$RETENTION INDEX=0
##$CONDENSED SPECTRUM=NO
##NPOINTS= 76
##XYDATA=(XY..XY) 1 
    26          0
    27         36
    28          9
    29         54
    30          0
    31          0
    38          0
    39         40
    41        179
    42         10
    43        125
    44          3
    45          0
    50          1
    51          7
    52          2
    53         18
    54         22
    55        384
    56         21
    57        320
    58         12
    59          0
    62          0
    63          7
    64          2
    65         65
    66          4
    67         57
    68         17
    69        304
    70         17
    71         39
    72          1
    77          8
    78          1
    79         16
    80         20
    81        202
    82         52
    83        999
    84         60
    85          3
    89         15
    90         18
    91        385
    92         40
    93          7
    94         20
    95        155
    96         39
    97        136
    98          9
    99          0
   105          0
   107          0
   109         11
   110          4
   111          1
   112          0
   118         13
   119          5
   121          0
   123         46
   124          3
   136          1
   137          7
   138        611
   139        146
   140         11
   141          6
   155          0
   183          0
   273          0
   274          1
   275          0