##TITLE=Library Entry 34974
##JCAMP-DX=Revision 4.10 
##DATA TYPE=MASS SPECTRUM
##SAMPLE DESCRIPTION=Y. Murata, LBC, NIDDK, NIH, Bethesda, MD 20892
##NAMES=HP
##CAS NAME=Z,Z-6,28-Heptatriactontadien-2-one
##MOLFORM=C37H70O
##CAS REGISTRY NO=133530-21-9
##MP= -300
##BP= -300
##MW= 530
##$RETENTION INDEX=0
##$CONDENSED SPECTRUM=NO
##NPOINTS= 228
##XYDATA=(XY..XY) 1 
    51          5
    52         54
    53        518
    55        965
    56        305
    57        673
    58        213
    59         98
    65         35
    66         48
    67        862
    68        559
    69        999
    70        189
    71        674
    72         47
    78         23
    79        173
    80        374
    81        725
    82        554
    83        791
    84        176
    85        181
    86          8
    91         26
    92         30
    93        135
    94        293
    95        632
    96        484
    97        560
    98        148
    99         69
   100         11
   102          4
   105         15
   106         24
   107         91
   108        154
   109        339
   110        191
   111        334
   112        108
   113         19
   114          4
   119         13
   120          8
   121        117
   122         73
   123        161
   124        114
   125        301
   126         24
   127          9
   128          5
   133         11
   134         11
   135        130
   136         42
   137         88
   138         42
   139         28
   140         11
   141          5
   145          4
   148         11
   149         65
   150         34
   151         42
   152         46
   153         12
   154          6
   157          7
   162          7
   163         20
   164         21
   165         17
   166         34
   167          9
   168          6
   169          4
   176          6
   177         10
   178          8
   179         10
   180         13
   181          4
   182          6
   189          5
   192          8
   194          8
   195          4
   197          6
   198          3
   207         17
   217          4
   219          3
   220         10
   222          9
   224          4
   225          3
   231          5
   233          8
   234         10
   235          5
   236          6
   237          6
   248         10
   249          6
   250         10
   251          6
   253          8
   261         10
   262          4
   263          5
   264          8
   273          4
   275          8
   277          8
   278          8
   279          3
   287          8
   289          7
   290          8
   291          9
   292         10
   293          6
   295          4
   302          4
   303         10
   304          7
   305         11
   307          4
   310          4
   315          3
   316          3
   317         10
   318          9
   319         10
   321          3
   329          5
   330          3
   331         11
   332         11
   333          9
   334          8
   343          4
   345         17
   346         12
   347         18
   348          7
   349          5
   358          3
   359         18
   360         14
   361         14
   362          9
   363          4
   371          5
   372          4
   373         18
   374         11
   375         16
   376          9
   377          8
   385          4
   386          3
   387         15
   388         10
   389         14
   390          9
   391          7
   393          3
   394          5
   400          6
   401         11
   402          6
   403         18
   404         12
   405          5
   413          8
   414          3
   415         10
   416          7
   417         18
   418         11
   420          4
   428          6
   430          8
   431         18
   432         11
   433          6
   442          4
   443         12
   444          9
   445         14
   446          8
   447          3
   448          3
   449          5
   455          4
   456          3
   457         10
   459          9
   460          7
   461          4
   470          5
   472         84
   473         32
   474         11
   483          3
   487         18
   488          5
   489          5
   490          3
   497          3
   501          6
   502          4
   504          5
   512         61
   513         22
   516          4
   517          6
   529          3
   530         85
   531         37
   532          9