##TITLE=Library Entry 48118
##JCAMP-DX=Revision 4.10 
##DATA TYPE=MASS SPECTRUM
##SAMPLE DESCRIPTION=Exported from NIST MS Search
##NAMES=HP
##CAS NAME=Nicotinaldehyde azine
##MOLFORM=C12H10N4
##CAS REGISTRY NO=13362-77-1
##MP= -300
##BP= -300
##MW= 210
##$RETENTION INDEX=0
##$CONDENSED SPECTRUM=NO
##NPOINTS= 21
##XYDATA=(XY..XY) 1 
    50        437
    51        883
    52        979
    53        164
    63        100
    64        170
    65         60
    77        754
    78        999
    79        815
    91         60
   104        913
   105        224
   106         62
   132        160
   155        108
   181        570
   182        321
   183         46
   210         20
   211          6