##TITLE=Library Entry 23529
##JCAMP-DX=Revision 4.10 
##DATA TYPE=MASS SPECTRUM
##SAMPLE DESCRIPTION=NIST Mass Spectrometry Data Center
##NAMES=HP
##CAS NAME=Acetic acid, cyano-, 2-ethylhexyl ester
##MOLFORM=C11H19NO2
##CAS REGISTRY NO=13361-34-7
##MP= -300
##BP= -300
##MW= 197
##$RETENTION INDEX=0
##$CONDENSED SPECTRUM=NO
##NPOINTS= 81
##XYDATA=(XY..XY) 1 
    13          5
    14          7
    15         14
    16          1
    27        358
    28         92
    29        477
    30         20
    32          1
    39        251
    40        234
    41        872
    42        195
    43        420
    44         23
    50          5
    51         15
    52         10
    53         63
    55        524
    56        260
    57        999
    58         48
    62          1
    63          1
    65          8
    68        345
    69        146
    70        458
    71         87
    72         11
    73          4
    77          3
    79          6
    80          2
    81         11
    82         38
    83        177
    84         73
    85          9
    86         22
    87          2
    88          1
    93          1
    94          2
    95          4
    96          9
    97         23
    98         13
    99         23
   100          3
   101          2
   102          1
   108          1
   109          3
   110         16
   111         19
   112         31
   113         10
   114          8
   115          4
   116          2
   122          1
   124          3
   125          1
   126         15
   127          5
   128          3
   129          1
   136          2
   137          1
   138          4
   139          6
   140         18
   141          4
   142          2
   154         16
   155          3
   168         19
   169          6
   182          3