##TITLE=Library Entry 37260
##JCAMP-DX=Revision 4.10 
##DATA TYPE=MASS SPECTRUM
##SAMPLE DESCRIPTION=Organic Synthesis Lab, MSU, Moscow.TRC 1149
##NAMES=HP
##CAS NAME=4-[4-Methyl-1-piperazinyl]-2-(3-pyridinyl)quinoline
##MOLFORM=C19H20N4
##CAS REGISTRY NO=133671-62-2
##MP= -300
##BP= -300
##MW= 304
##$RETENTION INDEX=0
##$CONDENSED SPECTRUM=NO
##NPOINTS= 144
##XYDATA=(XY..XY) 1 
    39         11
    40          2
    41         19
    42        212
    43        608
    44         37
    50          8
    51         32
    52          3
    53          1
    54          8
    55          7
    56         53
    57         62
    58         66
    60          1
    62          4
    63          9
    64          2
    65          3
    67          1
    68          1
    69          5
    70        999
    71        365
    72         22
    73          1
    74          5
    75         61
    76         14
    77         16
    78          7
    79          2
    80          0
    82          4
    83         10
    84          5
    85         14
    86          1
    87          1
    88          3
    89         10
    90          2
    91          1
    97          3
    99         10
   100          1
   101         49
   102         20
   103         10
   104          2
   105          5
   109          2
   110          2
   113          3
   114          2
   115         13
   116          5
   117          3
   125          2
   126          3
   127          8
   128         22
   129         21
   130          4
   131         12
   138          3
   139          2
   140          6
   141          2
   142          1
   143          4
   149         17
   150          5
   151         14
   152         39
   153         17
   154          4
   155         10
   156          6
   157          2
   164          2
   165          1
   166          2
   167          4
   168          1
   169          1
   176          5
   177         15
   178         17
   179         10
   180          8
   181         12
   182          2
   190          2
   191          4
   192          4
   193          2
   194          2
   203         11
   204         15
   205        111
   206        129
   207         34
   208          2
   217          2
   218         18
   219         52
   220         44
   221         12
   222          1
   230          6
   231         18
   232         67
   233         79
   234         64
   235         11
   243          0
   244          5
   245          8
   246         52
   247         60
   248         20
   249          5
   258          5
   259          8
   260         58
   261         22
   262         41
   263          6
   273          3
   274          1
   275          4
   287          4
   288          5
   289        100
   290         16
   291          5
   301          4
   302         23
   303         98
   304        531
   305        110
   306         13