##TITLE=Library Entry 66702
##JCAMP-DX=Revision 4.10 
##DATA TYPE=MASS SPECTRUM
##SAMPLE DESCRIPTION=Chemical Concepts
##NAMES=HP
##CAS NAME=3-Hexenediamide, N,N'-diphenyl-, (E)-
##MOLFORM=C18H18N2O2
##CAS REGISTRY NO=133693-02-4
##MP= -300
##BP= -300
##MW= 294
##$RETENTION INDEX=0
##$CONDENSED SPECTRUM=NO
##NPOINTS= 131
##XYDATA=(XY..XY) 1 
    27         28
    28          0
    29          7
    30          0
    31          0
    38          3
    39         46
    40          3
    41          6
    42          1
    43          5
    44          1
    50          5
    51         41
    52         10
    53         55
    54         36
    55         67
    56         10
    57          1
    59          0
    62          1
    63          7
    64         11
    65         64
    66         41
    67          5
    68          0
    69          0
    73          0
    74          0
    75          1
    76          6
    77        217
    78         19
    79          2
    80          4
    81         52
    82         36
    83         19
    84          3
    87          1
    89          0
    90          1
    91         18
    92        125
    93        999
    94         99
    95          5
    96          0
    98          0
   100          0
   102          0
   103          1
   104          7
   105          3
   106          3
   107          0
   108          2
   109          2
   110          0
   115          1
   116          0
   117          8
   118          3
   119        102
   120        226
   121         18
   122          1
   127          0
   128          1
   129          0
   130          8
   131          6
   132         15
   133          3
   134          4
   135         37
   136         28
   137          2
   138          0
   141          0
   143          0
   144          3
   145          1
   146          9
   147          5
   148          4
   149          0
   152          0
   154          1
   155          0
   156          3
   157          1
   158          2
   159         99
   160         61
   161          6
   162          0
   167          0
   168          0
   170          0
   171          0
   172         15
   173         14
   174         27
   175        229
   176         28
   177          1
   183          1
   184          1
   185          0
   193          1
   198          0
   199          1
   200          2
   201         10
   202         16
   203          2
   211          0
   235          0
   236          0
   239          2
   240          0
   251          0
   275          0
   292          1
   294         90
   295         20
   296          2
   297          0