##TITLE=Library Entry 2440
##JCAMP-DX=Revision 4.10 
##DATA TYPE=MASS SPECTRUM
##SAMPLE DESCRIPTION=CONTINENTAL OIL CO., PONCA CITY, OKLA, USA
##NAMES=HP
##CAS NAME=1-Pentadecene
##MOLFORM=C15H30
##CAS REGISTRY NO=13360-61-7
##MP= -300
##BP= -300
##MW= 210
##$RETENTION INDEX=1492
##$CONDENSED SPECTRUM=NO
##NPOINTS= 111
##XYDATA=(XY..XY) 1 
    26         17
    27        373
    28         73
    29        570
    30         13
    36          1
    37          4
    38          8
    39        277
    40         50
    41        999
    42        240
    43        923
    44         34
    45          1
    50          5
    51         13
    52          9
    53         94
    54        162
    55        838
    56        525
    57        657
    58         29
    59          1
    62          1
    63          3
    64          1
    65         14
    66         14
    67        147
    68        138
    69        628
    70        499
    71        291
    72         15
    73          1
    75          1
    77         17
    78          6
    79         25
    80          9
    81         79
    82        162
    83        637
    84        358
    85        170
    86         11
    87          1
    89          1
    91          7
    92          2
    93          4
    94          3
    95         28
    96         66
    97        483
    98        193
    99         24
   100          1
   101          1
   103          1
   105          2
   106          1
   107          1
   108          1
   109          9
   110         29
   111        191
   112        107
   113         13
   114          1
   115          1
   117          1
   119          1
   120          0
   123          3
   124         14
   125         66
   126         64
   127          8
   128          1
   133          1
   137          1
   138          7
   139         20
   140         37
   141          5
   151          1
   152          4
   153          8
   154         19
   155          3
   165          0
   166          2
   167          5
   168         17
   169          2
   179          0
   180          1
   181          3
   182         23
   183          3
   193          0
   195          0
   207          0
   208          3
   209          1
   210         94
   211         16
   212          1