##TITLE=Library Entry 31201
##JCAMP-DX=Revision 4.10 
##DATA TYPE=MASS SPECTRUM
##SAMPLE DESCRIPTION=CATALOGUE OF MASS SPECTRA OF PESTICIDES, APRIL, 1975; J
. FREUDENTHAL & L. G. GRAMBERG, NAT'L INST. OF PUBLIC HEALTH, THE NETHERLAND
S
##NAMES=HP
##CAS NAME=Chlorbromuron
##MOLFORM=C9H10BrClN2O2
##CAS REGISTRY NO=13360-45-7
##MP= -300
##BP= -300
##MW= 292
##$RETENTION INDEX=2016
##$CONDENSED SPECTRUM=NO
##NPOINTS= 30
##XYDATA=(XY..XY) 1 
    11         20
    13         23
    14         26
    30         11
    33         12
    45         54
    46        205
    60         57
    61        999
    62         33
    63         43
    73         18
    75         13
    90         16
    97         11
    98         17
   110         19
   124         37
   125         32
   127         11
   177         25
   179         28
   204         35
   206         60
   208         20
   231         22
   233         33
   292         58
   294         92
   296         24