##TITLE=Library Entry 32772
##JCAMP-DX=Revision 4.10 
##DATA TYPE=MASS SPECTRUM
##SAMPLE DESCRIPTION=J.R.DIXON GLAMORGAN POLYTECHNIC, PONTYPRIDD, GLAMORGAN,
 UK
##NAMES=HP
##CAS NAME=4-Cyclooctene-1-methanol
##MOLFORM=C9H16O
##CAS REGISTRY NO=13366-81-9
##MP= -300
##BP= -300
##MW= 140
##$RETENTION INDEX=0
##$CONDENSED SPECTRUM=NO
##NPOINTS= 47
##XYDATA=(XY..XY) 1 
    39        320
    40         70
    41        610
    42        110
    43        290
    44        100
    51         70
    53        210
    54        360
    55        520
    56        150
    57        550
    58         80
    65         90
    66        120
    67        999
    68        390
    69        180
    70        220
    71        230
    72         60
    77        150
    78        110
    79        580
    80        480
    81        710
    82        310
    83        330
    84        100
    85        140
    91        310
    92        170
    93        420
    94        390
    95        100
    96        120
    97        170
    98         50
   105        100
   107        240
   109        310
   110         80
   111         70
   112        150
   121         70
   122        240
   140        100