##TITLE=Library Entry 22385
##JCAMP-DX=Revision 4.10 
##DATA TYPE=MASS SPECTRUM
##SAMPLE DESCRIPTION=V.G.Zaikin,TIPS,Russian Acad.Sci.Moscow
##NAMES=HP
##CAS NAME=Acetic acid, chloro-, isobutyl ester
##MOLFORM=C6H11ClO2
##CAS REGISTRY NO=13361-35-8
##MP= -300
##BP= -300
##MW= 150
##$RETENTION INDEX=976
##$CONDENSED SPECTRUM=NO
##NPOINTS= 58
##XYDATA=(XY..XY) 1 
    25          2
    26         69
    27        308
    28         26
    29        505
    30         37
    31         56
    35         11
    36         49
    37         22
    38         51
    39        245
    40         44
    41        699
    42        329
    43        561
    44         49
    45          4
    47         11
    48         34
    49        301
    50         69
    51        171
    52        158
    53         35
    54          2
    55         88
    56        999
    57        755
    58         47
    59         49
    60         10
    63          3
    64          3
    65          3
    66          1
    68          3
    69          6
    71         68
    72         19
    73         33
    75          3
    76         35
    77        519
    78         39
    79        331
    80         12
    91          2
    93          4
    95         16
    97          2
   107         78
   108        112
   109         55
   110         41
   111          3
   115          1
   135          2