##TITLE=Library Entry 30721
##JCAMP-DX=Revision 4.10 
##DATA TYPE=MASS SPECTRUM
##SAMPLE DESCRIPTION=R. Labroo, LC, NIDDK, NIH, Bethesda, MD 20892
##NAMES=HP
##CAS NAME=2,3-Dihydroindole-2-one, 3-fluoro-3-aminocarbonylethyl-
##MOLFORM=C11H11FN2O2
##CAS REGISTRY NO=133603-33-5
##MP= -300
##BP= -300
##MW= 222
##$RETENTION INDEX=0
##$CONDENSED SPECTRUM=NO
##NPOINTS= 52
##XYDATA=(XY..XY) 1 
    41        137
    42        170
    43        436
    44        404
    45        250
    50         33
    51         72
    54         32
    55        123
    57         35
    59        999
    60        220
    63        110
    65        128
    73        196
    75        106
    77        143
    84        112
    88         36
    89         70
    90         35
    91         31
    92        144
   102        157
   103         86
   116         31
   117        139
   120        443
   121         36
   130        373
   133        194
   135        190
   144        138
   145        115
   146         43
   148        752
   149        115
   150        218
   151        168
   157         36
   158         75
   159         76
   161         32
   162         40
   163         34
   174        217
   185        150
   202        776
   203        184
   205         37
   222        944
   223        121