##TITLE=Library Entry 50249
##JCAMP-DX=Revision 4.10 
##DATA TYPE=MASS SPECTRUM
##SAMPLE DESCRIPTION=J. SHAW, BORRISTON RESEARCH, ROCKVILLE, MD, USA
##NAMES=HP
##CAS NAME=Photodieldrin
##MOLFORM=C12H8Cl6O
##CAS REGISTRY NO=13366-73-9
##MP= -300
##BP= -300
##MW= 378
##$RETENTION INDEX=2415
##$CONDENSED SPECTRUM=NO
##NPOINTS= 249
##XYDATA=(XY..XY) 1 
    12          1
    14          5
    15          6
    16          4
    17         18
    18         62
    19          1
    26         18
    27        106
    28         23
    29        222
    30          4
    31         11
    32          1
    35         12
    36         30
    37         12
    38         34
    39        116
    40         11
    41          9
    42          5
    43          8
    44          3
    45          2
    47          5
    48          2
    49         20
    50         52
    51        102
    52         26
    53         58
    54          5
    55         25
    56          5
    57          7
    58          1
    60          9
    61         25
    62         43
    63         76
    64          9
    65         45
    66         11
    67         10
    68         14
    69         16
    71          4
    72         13
    73         77
    74         49
    75         77
    77        107
    78         33
    79        230
    81        999
    82         75
    83         37
    84         17
    85         53
    86         47
    87         62
    88         12
    89         26
    90          4
    91         21
    93         17
    94         18
    95         19
    96         14
    97         35
    98         21
    99         74
   100         12
   101         39
   102         15
   103         16
   104         15
   105         21
   106         11
   107         50
   108         20
   109         49
   110         16
   111         46
   112         17
   113         52
   114         13
   115         39
   116          5
   117         16
   118          8
   119         21
   120          9
   121         20
   122         12
   123         32
   124          7
   125         17
   126         11
   127         17
   128         14
   129         24
   130          6
   131         16
   133         34
   134         15
   135         31
   136         22
   137         38
   138         26
   139         58
   140         16
   141         48
   142          9
   143         23
   144          6
   145         21
   146         23
   147         38
   148         26
   149         42
   150         11
   151         16
   152          4
   153          3
   155          5
   156          2
   157         14
   158          5
   159         20
   160         10
   161         14
   162         14
   163         21
   164          7
   165         13
   167         35
   168          9
   169         31
   170         14
   171         18
   173         60
   174         14
   175         39
   176         12
   177         14
   178          6
   179          6
   180          8
   181         16
   183         41
   184          8
   185         17
   186          4
   187          3
   188          1
   189          2
   191          4
   193         13
   194          5
   195         12
   196         12
   197          8
   198          8
   199          4
   200          3
   201         10
   202          9
   203         12
   204          7
   205          7
   206          4
   207         15
   208          8
   209         30
   210         10
   211         16
   212          5
   213          3
   214          4
   215          3
   216          3
   217         10
   219         11
   220          3
   221          3
   222          1
   223          1
   225          1
   227          5
   228          1
   229          5
   230          5
   231          4
   232          4
   233          2
   234          2
   235          3
   236         13
   237          9
   238         11
   239          6
   240          4
   241          3
   243         25
   244          9
   245         21
   246          8
   247          7
   248          3
   249          2
   251          2
   253          2
   254          1
   255          2
   256          1
   257          1
   264          1
   265          1
   266          1
   267          2
   271          6
   272          4
   273          7
   274          4
   275          3
   277          4
   279         13
   280          3
   281         10
   282          2
   283          4
   291          1
   307          5
   309          6
   311          4
   313          2
   315          3
   317          2
   319          1
   343          5
   345          8
   347          6
   349          1
   378          3
   380          6
   382          5
   384          1