##TITLE=Library Entry 29413
##JCAMP-DX=Revision 4.10 
##DATA TYPE=MASS SPECTRUM
##SAMPLE DESCRIPTION=Organic Synthesis Lab, MSU, Moscow.TRC 1135
##NAMES=HP
##CAS NAME=N-[2-(Dimethylamino)ethylamino]-2-(2-furanyl)-4-quinolinamine
##MOLFORM=C17H19N3O
##CAS REGISTRY NO=133671-66-6
##MP= -300
##BP= -300
##MW= 281
##$RETENTION INDEX=0
##$CONDENSED SPECTRUM=NO
##NPOINTS= 111
##XYDATA=(XY..XY) 1 
    38          2
    39         15
    40          0
    41          2
    42         56
    43         15
    44         14
    45          0
    50          3
    51         12
    52          1
    53          0
    54          0
    55          0
    56         14
    57         13
    58        999
    59         64
    60          0
    62          2
    63          9
    64          2
    65          1
    70          4
    71         23
    72          1
    74          3
    75         22
    76          4
    77          8
    78          0
    86          0
    87          1
    88          2
    89          7
    90          1
    91          0
    93          0
    94          0
    97          1
    98          0
    99          0
   100          1
   101         28
   102          7
   103          2
   104          1
   112          0
   113          3
   114          2
   115          6
   116          4
   117          0
   125          0
   126          2
   127          6
   128          7
   129          3
   130          0
   137          1
   138          2
   139         15
   140         22
   141          3
   142          0
   143          0
   151          0
   152          1
   153          2
   154          5
   155          3
   156          0
   164          7
   165          4
   166         15
   167         11
   168          3
   169          0
   178          0
   179          2
   180          1
   181          1
   182          2
   183          0
   191          0
   192          3
   193         16
   194          9
   195          4
   196          2
   205          2
   206          2
   207          1
   208          1
   209          1
   210          1
   211          4
   221         19
   222         31
   223         35
   224          6
   235          7
   236          3
   237          6
   238          0
   278          1
   279          0
   280          0
   281        104
   282         20
   283          2