##TITLE=Library Entry 31952
##JCAMP-DX=Revision 4.10 
##DATA TYPE=MASS SPECTRUM
##SAMPLE DESCRIPTION=Chemical Concepts
##NAMES=HP
##CAS NAME=10-Iodo-4-phenyl-2,4,6-triazatricyclo[5.2.1.0(2,6)]dec-8-ene-3,5-
dione
##MOLFORM=C13H10IN3O2
##CAS REGISTRY NO=133697-93-5
##MP= -300
##BP= -300
##MW= 367
##$RETENTION INDEX=0
##$CONDENSED SPECTRUM=NO
##NPOINTS= 159
##XYDATA=(XY..XY) 1 
    26         10
    27         23
    28         15
    29         16
    30          2
    31          3
    36          1
    37         14
    38         50
    39        254
    40         25
    41         34
    42          5
    43         19
    44          3
    45          5
    49          1
    50         22
    51         58
    52         72
    53         13
    54          2
    55         12
    56         10
    57         19
    58          1
    59          1
    60          5
    61          8
    62         17
    63         66
    64        104
    65        999
    66         74
    67          8
    68          3
    69         13
    70          7
    71          6
    72          1
    73          3
    74          8
    75          4
    76          8
    77         35
    78         80
    79        119
    80         12
    81          8
    82          2
    83          5
    84          1
    85          3
    86          0
    87          5
    88          1
    89          1
    90          8
    91        123
    92         17
    93         78
    94         11
    95          5
    96          1
    97          3
    98          1
    99          2
   100          0
   101          0
   102          0
   103          1
   104          4
   105          3
   106          1
   107          4
   108          0
   109          2
   110          2
   111          1
   112          0
   113          0
   114          0
   115          1
   116          0
   117          0
   118          0
   119        204
   120         35
   121        240
   122         38
   123          3
   124          0
   125          1
   126          0
   127         17
   128         10
   129          2
   130          0
   131          0
   132          0
   133          0
   134          0
   135          2
   136          0
   137          1
   138          0
   139          0
   140          0
   141          1
   142          0
   143          1
   145          0
   146          1
   147          0
   156          3
   157          2
   163          1
   164          0
   165          1
   166          3
   167          1
   168          0
   169          3
   170          1
   171          1
   177         30
   178          3
   179          0
   180          0
   181          2
   182          0
   183          0
   184          1
   185          1
   191          7
   192        729
   193         40
   194          0
   196          0
   197          1
   198          2
   204          0
   210          1
   211          0
   213          0
   214          3
   217          0
   218          0
   219          1
   220          1
   240        219
   241         95
   242         12
   243          0
   248         16
   249          0
   367        160
   368         25
   369          2