##TITLE=Library Entry 56593
##JCAMP-DX=Revision 4.10 
##DATA TYPE=MASS SPECTRUM
##SAMPLE DESCRIPTION=Chuck Anderson, Aldrich Chemical Co.
##NAMES=HP
##CAS NAME=Morpholine, TMS derivative
##MOLFORM=C7H17NOSi
##CAS REGISTRY NO=13368-42-8
##MP= -300
##BP= -300
##MW= 159
##$RETENTION INDEX=0
##$CONDENSED SPECTRUM=NO
##NPOINTS= 111
##XYDATA=(XY..XY) 1 
    14          0
    15          5
    16          0
    25          0
    26          3
    27          2
    28         61
    29         64
    30         20
    31         42
    32          1
    33          1
    35          0
    37          0
    38          0
    39          3
    40          2
    41         17
    42         38
    43        112
    44         42
    45        173
    46         12
    47         11
    48          0
    49          0
    50          0
    51          0
    52          0
    53          7
    54         15
    55         54
    56         72
    57         37
    58         71
    59        430
    60         33
    61         26
    62          1
    63          1
    64          0
    65          1
    66          1
    67          2
    68          5
    69          3
    70         29
    71         21
    72         39
    73        589
    74         55
    75        117
    76          8
    77          4
    78          0
    79          0
    80          0
    81          0
    82          1
    83          1
    84          8
    85         17
    86        999
    87         88
    88         43
    89         23
    90          2
    91          1
    93          1
    94          0
    95          0
    96          0
    97          0
    98          5
    99          3
   100        127
   101        721
   102         80
   103         52
   104          4
   105          1
   106          0
   110          0
   111          0
   112          2
   113          1
   114        117
   115         17
   116         11
   117          1
   118          0
   119          0
   126          1
   127          0
   128         11
   129         57
   130          9
   131          3
   132          0
   142          5
   144        490
   145         58
   146         20
   147          1
   156          0
   157          1
   158        172
   159        483
   160         67
   161         20
   162          1