##TITLE=Library Entry 23169
##JCAMP-DX=Revision 4.10 
##DATA TYPE=MASS SPECTRUM
##SAMPLE DESCRIPTION=Chemical Concepts
##NAMES=HP
##CAS NAME=Propionic acid, methoxycarbonylphenylmethyl ester
##MOLFORM=C12H14O4
##CAS REGISTRY NO=133797-12-3
##MP= -300
##BP= -300
##MW= 222
##$RETENTION INDEX=0
##$CONDENSED SPECTRUM=NO
##NPOINTS= 57
##XYDATA=(XY..XY) 1 
    27         17
    28          8
    29        152
    30          3
    39         10
    41          4
    43          3
    44          2
    50          6
    51         24
    52          5
    55          6
    56          5
    57        999
    58         30
    59          7
    62          3
    63         11
    64          4
    65          4
    69          2
    73          2
    76          2
    77         69
    78         13
    79         30
    80          2
    89         22
    90         23
    91         16
    93          2
   105         95
   106         17
   107         71
   108          6
   109          2
   111          2
   114          2
   118         10
   121         28
   122          2
   127          2
   133          2
   134          5
   149         20
   150          2
   151          2
   163        142
   164         16
   165         13
   166        126
   167         14
   168          2
   190         59
   191          8
   222         10
   223          2