##TITLE=Library Entry 31103
##JCAMP-DX=Revision 4.10 
##DATA TYPE=MASS SPECTRUM
##SAMPLE DESCRIPTION=Asinex Ltd, Moscow, Russia
##NAMES=HP
##CAS NAME=4-(2,4-Dichloro-phenyl)-5-[1,2,4]triazol-1-yl-thiazol-2-ylamine
##MOLFORM=C11H7Cl2N5S
##CAS REGISTRY NO=133767-42-7
##MP= -300
##BP= -300
##MW= 311
##$RETENTION INDEX=0
##$CONDENSED SPECTRUM=NO
##NPOINTS= 224
##XYDATA=(XY..XY) 1 
    33         37
    34         23
    35         21
    37         30
    38         60
    39         30
    40         19
    41         16
    42         52
    43         59
    44         54
    45         52
    46          6
    47         12
    48         10
    49         23
    50         92
    51         40
    52         22
    53         82
    54         81
    55         12
    56          9
    58         62
    59        153
    60        999
    62        145
    63         32
    64         25
    65         21
    67         10
    68         19
    69         62
    70        106
    71         95
    72         28
    73         78
    74         99
    75        133
    76         38
    77         13
    78          5
    79         16
    80          8
    81         41
    82         16
    83         29
    84         42
    85        101
    86        124
    87         60
    88         24
    90         24
    91          8
    93         50
    94         16
    95         12
    96         12
    97         27
    98         44
    99         55
   100        187
   101         37
   102         19
   103         10
   104          4
   105         14
   106         11
   107        145
   109        183
   110         50
   111         64
   112         28
   113         20
   114          6
   115          9
   116          7
   117          9
   118          6
   119         15
   121         35
   122         12
   123          7
   124         12
   125         13
   126          5
   127         11
   128         36
   130         34
   131         21
   132          5
   133         11
   134         10
   136        195
   137         35
   138         70
   139         16
   140          5
   142          9
   143         10
   144         15
   145         43
   146         11
   147         24
   148         41
   149          8
   150         13
   151          3
   152          1
   153          5
   154         13
   155          5
   156          7
   157         28
   158          6
   159         26
   160         12
   161          9
   162         14
   163         33
   164          9
   165         15
   166         43
   167          8
   168         26
   169          7
   170         28
   171        132
   172        223
   173         95
   174        132
   175         22
   176         22
   177          3
   178          7
   179          8
   180         43
   181          7
   182         17
   183          7
   184          3
   185          4
   186          2
   187          6
   188         13
   189         47
   190         28
   191         32
   192         13
   193         15
   195        316
   196         41
   197        128
   198         17
   199         28
   201         21
   202          4
   203          8
   204          3
   205          6
   207         86
   208         15
   209         28
   210          3
   211          1
   213          8
   214         15
   215         30
   216         12
   217         27
   218         16
   219          9
   220         10
   222        223
   223         32
   224         72
   225          9
   226          3
   227          0
   228          0
   229          2
   230          1
   231          2
   232          2
   234         74
   235         14
   236         24
   237          4
   238          2
   241         99
   242         59
   243         48
   244         34
   245         15
   246          8
   247          2
   248          7
   249         24
   250          4
   251          8
   252          0
   256          0
   258          0
   260          0
   272         12
   273         17
   276        829
   277        124
   278        250
   279         41
   280         11
   281          1
   283          3
   284          0
   285          1
   307          2
   308          9
   311        236
   312         44
   313        131
   314         21
   315         24
   316          2
   317          0