##TITLE=Library Entry 58304
##JCAMP-DX=Revision 4.10 
##DATA TYPE=MASS SPECTRUM
##SAMPLE DESCRIPTION=V.G.Zaikin, Petrochem. Synth. Inst., Moscow
##NAMES=HP
##CAS NAME=Butyric acid, octadecyl ester
##MOLFORM=C22H44O2
##CAS REGISTRY NO=13373-83-6
##MP= -300
##BP= -300
##MW= 340
##$RETENTION INDEX=2363
##$CONDENSED SPECTRUM=NO
##NPOINTS= 73
##XYDATA=(XY..XY) 1 
    26          9
    27         87
    28         32
    29        146
    30          3
    31          5
    39         59
    40         15
    41        353
    42        105
    43        771
    44         26
    45          8
    53         19
    54         61
    55        418
    56        219
    57        458
    58         29
    59          3
    60         45
    61         11
    66          4
    67         75
    68        105
    69        311
    70        201
    71        681
    72         36
    73         19
    81         39
    82        129
    83        345
    84        139
    85        135
    86         20
    87         11
    88        138
    89        999
    90         48
    95         22
    96         59
    97        277
    98         96
    99         31
   101          9
   109          9
   110         28
   111        141
   112         55
   113         18
   124         15
   125         71
   126         42
   127         12
   138         11
   139         29
   140         29
   141          7
   144         32
   145          3
   151          5
   152         11
   153         18
   167          7
   168         12
   182         12
   224         31
   225          4
   252         47
   253          5
   297         12
   298          1