##TITLE=Library Entry 7721
##JCAMP-DX=Revision 4.10 
##DATA TYPE=MASS SPECTRUM
##SAMPLE DESCRIPTION=K. Jacobson, LBC, NIDDK, NIH, Bethesda, MD 20892
##NAMES=HP
##CAS NAME=Pirenzepine, 8-sulfamoyl-
##MOLFORM=C19H22N6O4S
##CAS REGISTRY NO=133727-49-8
##MP= -300
##BP= -300
##MW= 430
##$RETENTION INDEX=0
##$CONDENSED SPECTRUM=NO
##NPOINTS= 232
##XYDATA=(XY..XY) 1 
    41        605
    42        518
    43        999
    44        284
    45        249
    46         78
    47         22
    49         13
    50         37
    51         95
    52         46
    53         90
    54         87
    55        629
    56        364
    57        693
    58        116
    59         72
    60        138
    61         44
    62         18
    63         52
    64         34
    65         90
    66         39
    67        186
    68         69
    69        317
    70        534
    71        345
    72         65
    73         84
    74         78
    75         29
    76         24
    77        192
    78        186
    79        131
    80         31
    81        175
    82         92
    83        192
    84         87
    85        157
    87         85
    88        155
    89         58
    90         24
    91        273
    92         41
    93         58
    94         45
    95        156
    96         72
    97        152
    98        111
    99        101
   100         14
   101         36
   102         24
   103         75
   104         24
   105        133
   106         86
   107        203
   108         41
   109         65
   110         32
   111         67
   112         27
   113        363
   114         25
   115        141
   116         72
   117        219
   118         60
   119        170
   120         31
   121         33
   122         16
   123         48
   124         66
   125         34
   126         16
   127         30
   128         46
   129         50
   130         15
   131         53
   132         28
   133         53
   134         26
   135         28
   136         14
   137         25
   139         21
   141         67
   142         26
   143         48
   144         12
   145         24
   146         21
   147         20
   149         36
   150         20
   151         22
   152         26
   153         27
   154         20
   155         33
   156         12
   157         22
   158         13
   159         26
   161         14
   165         33
   166         15
   167         44
   168         20
   169         21
   170         19
   171         47
   172         98
   173        130
   174         14
   175         14
   178         33
   179         20
   180         12
   181         24
   182         21
   183         27
   185         18
   187         18
   189         16
   191         18
   193         13
   195         20
   197         46
   198         13
   199         24
   200         37
   201         12
   202         18
   203         16
   205         15
   207         15
   209         13
   210         19
   211        111
   212         44
   213         28
   215         47
   216         20
   217         21
   218         16
   219         29
   220         18
   221         32
   222         17
   223         22
   224         16
   225         22
   226         20
   227         18
   228         16
   229         22
   230         69
   231         69
   232         45
   233         50
   234         26
   235         23
   236         28
   237         49
   238         22
   239        181
   240         40
   241         44
   242         21
   243         60
   244         17
   245         18
   246         20
   247         40
   248         20
   249         14
   250         13
   252         21
   253         70
   254         52
   255         22
   256         23
   257         31
   258         14
   259         19
   260         13
   261         13
   264         14
   268         19
   284         22
   285        256
   286         55
   287         17
   289         40
   290        173
   291         30
   292         14
   293         25
   300        107
   301         30
   302         17
   303         12
   304         25
   305         14
   309         80
   310         24
   315        242
   316         62
   317         12
   324         25
   330        124
   331         36
   339         16
   340         12
   364         17
   371         99
   372         29
   386        107
   387         32
   430         33
   431         15