##TITLE=Library Entry 16782
##JCAMP-DX=Revision 4.10 
##DATA TYPE=MASS SPECTRUM
##SAMPLE DESCRIPTION=K. Jacobson, LBC, NIDDK, NIH, Bethesda, MD 20892
##NAMES=HP
##CAS NAME=5,11-Dihydro-11-[4-[2-(N-[4-amino-1-oxobutyl]amino)ethyl]piperazi
noacetyl-1-pyrido[1,2-b]benz[1,4]diazepin-6-one
##MOLFORM=C24H31N7O3
##CAS REGISTRY NO=133727-81-8
##MP= -300
##BP= -300
##MW= 465
##$RETENTION INDEX=0
##$CONDENSED SPECTRUM=NO
##NPOINTS= 232
##XYDATA=(XY..XY) 1 
    42        970
    43        199
    44        549
    45        999
    47         60
    48          5
    49          7
    50        553
    51        775
    52        132
    53         96
    54        132
    55        192
    56         46
    57        134
    58        127
    59         12
    60          6
    61          9
    62         26
    63         82
    64        101
    65         84
    66         78
    67         51
    68         73
    69         86
    70         28
    71         48
    72         18
    73         14
    74         38
    75         61
    76        126
    77        113
    78         91
    79         46
    80         26
    81         45
    82         91
    83         91
    84        133
    85        323
    86         72
    87         43
    88         10
    89         14
    90         58
    91         77
    92         82
    93         46
    94         19
    95        154
    96         39
    97        291
    98        227
    99        321
   100         47
   101         28
   102        110
   103         59
   104         37
   105         28
   106         15
   107          9
   108          6
   109         18
   110         19
   111        478
   112        173
   113         97
   114         37
   115         18
   116          9
   117         11
   118         11
   119         20
   120         16
   121          5
   122          4
   123         12
   124         15
   125         50
   126         19
   127         32
   128         37
   129         75
   130         47
   131         14
   132         12
   133          5
   134          3
   135          5
   136          3
   137          9
   138          7
   139         96
   140         45
   141         20
   142         66
   143         14
   144         10
   145          7
   146          4
   147          3
   148          2
   149          4
   150          5
   151         20
   152         27
   153         24
   154         15
   155        104
   156        103
   157         46
   158          9
   159          2
   160          2
   161          2
   162          2
   163          2
   164          3
   165          4
   166          7
   167         23
   168         44
   169         25
   170         38
   171         14
   172          4
   173          2
   174          1
   175          3
   176          1
   177          1
   178          2
   179          4
   180         11
   181         23
   182        203
   183        109
   184         42
   185         16
   186          3
   187          3
   188          1
   191          1
   192          2
   193          4
   194         41
   195         17
   196         30
   197         10
   198          3
   199          4
   200          1
   205          1
   206          3
   207          3
   208          3
   209          6
   210         93
   211        771
   212        167
   213         19
   214          2
   219          1
   220          2
   221          3
   222          6
   223          4
   224         69
   225         18
   226          5
   227          3
   234          1
   235          3
   236          5
   237          3
   238         37
   239          6
   240          2
   241          2
   248          1
   249          2
   250          4
   251         27
   252         27
   253          8
   254          3
   255          3
   256          1
   261          2
   262          1
   263          1
   264          1
   265          1
   266          1
   267          1
   268         21
   269          5
   279          1
   281          8
   282          3
   283          1
   294         37
   295         25
   296          5
   297          1
   298          3
   308         30
   309          8
   310          2
   312          2
   320         29
   321          7
   322         18
   323          4
   324          1
   335          1
   337          2
   338         12
   339          3
   350        162
   351         38
   352          5
   363          4
   364          1
   380          7
   381          5
   382          1
   465          0