##TITLE=Library Entry 12894
##JCAMP-DX=Revision 4.10 
##DATA TYPE=MASS SPECTRUM
##SAMPLE DESCRIPTION=Div. of Experiment Therapeutics WRAIR, WRAMC, Washingto
n DC 20307
##NAMES=HP
##CAS NAME=3-[2,3,5-Tri-O-acetyl-.beta.-d-ribofuranosyl]pyrazolo[4,3-d]pyrim
idin-7-one
##MOLFORM=C16H18N4O8
##CAS REGISTRY NO=13387-98-9
##MP= -300
##BP= -300
##MW= 394
##$RETENTION INDEX=0
##$CONDENSED SPECTRUM=NO
##NPOINTS= 102
##XYDATA=(XY..XY) 1 
    42         48
    43        999
    44         50
    47          5
    52          9
    53         12
    54         19
    55         23
    56          7
    57         14
    60         12
    61          9
    63          3
    64          3
    65          8
    66          9
    67         11
    68         22
    69         23
    70          6
    71          7
    73         13
    76          3
    77         14
    78         11
    79         13
    81         19
    82          7
    83          4
    84         16
    85         40
    86         17
    87          1
    91          1
    92          5
    93          7
    94          6
    95          4
    97          7
    99          7
   103         11
   105         45
   106          7
   107          6
   108          6
   109          1
   115          9
   119          4
   120          5
   121          4
   123          1
   127          9
   128          6
   134          2
   135          5
   136         10
   137          6
   148          6
   149         28
   150         14
   161          7
   162         27
   163         26
   165        148
   166          7
   174          3
   176          7
   177          6
   178         21
   179         31
   187          2
   189         18
   190          7
   191         26
   201         15
   202          6
   203         12
   204          4
   205          5
   207          8
   214          7
   215        102
   216         12
   219         64
   220          9
   221          6
   231         41
   232         86
   233         17
   234          1
   237          1
   249          6
   261         50
   262          7
   274          8
   275          1
   291          7
   292          9
   334         24
   335          4
   394          2
   395          0