##TITLE=Library Entry 63013
##JCAMP-DX=Revision 4.10 
##DATA TYPE=MASS SPECTRUM
##SAMPLE DESCRIPTION=VERIFIN - Methodology B1-1979
##NAMES=HP
##CAS NAME=Phenyl methylphosphonofluoridate
##MOLFORM=C7H8FO2P
##CAS REGISTRY NO=133826-40-1
##MP= -300
##BP= -300
##MW= 174
##$RETENTION INDEX=1207
##$CONDENSED SPECTRUM=NO
##NPOINTS= 43
##XYDATA=(XY..XY) 1 
    28         10
    36          9
    38         20
    39         90
    40          7
    41          7
    47         30
    50         60
    51         60
    52          7
    53          9
    54         10
    55          6
    61          5
    62         10
    63         40
    64         20
    65         90
    66         30
    67         10
    74         20
    75         20
    76         60
    77        120
    78         10
    79         30
    81         50
    82          5
    90         30
    91        999
    92         90
    93         10
    94        100
    95          8
    99         80
   107         30
   108          5
   146         10
   158          5
   159          8
   173          3
   174        450
   175         30