##TITLE=Library Entry 14732
##JCAMP-DX=Revision 4.10 
##DATA TYPE=MASS SPECTRUM
##SAMPLE DESCRIPTION=Exported from NIST MS Search
##NAMES=HP
##CAS NAME=5.alpha.-Pregnan-20-one, 3.beta.,11.alpha.,12.beta.-trihydroxy-
##MOLFORM=C21H34O4
##CAS REGISTRY NO=13384-56-0
##MP= -300
##BP= -300
##MW= 350
##$RETENTION INDEX=0
##$CONDENSED SPECTRUM=NO
##NPOINTS= 180
##XYDATA=(XY..XY) 1 
    26         44
    27        356
    28        200
    29        644
    31        211
    39        262
    40         40
    41        822
    42        222
    43        999
    44        122
    45        111
    51         40
    53        182
    54         84
    55        933
    56        300
    57        933
    58         93
    59         40
    65         84
    66         40
    67        633
    68        173
    69        844
    70        278
    71        756
    72         44
    77        244
    78         44
    79        433
    80         93
    81        733
    82        182
    83        556
    84        200
    85        333
    86         27
    91        367
    92         71
    93        367
    94        111
    95        556
    96        144
    97        367
    98         71
    99         78
   103         27
   104         27
   105        344
   106         93
   107        289
   108        100
   109        356
   110        100
   111        222
   112         44
   113         62
   115         44
   117         84
   118         33
   119        213
   120         62
   121        422
   122        222
   123        182
   124         71
   125        111
   126         40
   127         44
   128         40
   131        111
   132         27
   133        151
   134        122
   135        244
   136         78
   137        111
   138         40
   139         44
   140         22
   141         44
   142         22
   143         71
   144         27
   145        138
   146         33
   147        167
   148         84
   149        122
   150         27
   151         49
   152         22
   153         33
   154         22
   155         44
   157         62
   159        111
   160         33
   161        111
   162         27
   163         62
   165         40
   166         22
   167         27
   169         40
   171         40
   173         56
   174         22
   175         56
   177         40
   178         22
   179         27
   181         22
   183         27
   185         27
   187         49
   188         22
   189         71
   190         18
   191         44
   192         27
   193         27
   195         27
   196         22
   197         27
   199         22
   201         27
   203         27
   205        156
   206         40
   207         22
   209         22
   211         44
   213         22
   215         22
   217         22
   218         62
   219         27
   225         27
   227         33
   229        589
   230        100
   231         27
   239         27
   243         22
   244         49
   245        100
   246         40
   247         78
   248         18
   251         22
   252         22
   253         84
   256         40
   259         27
   262        200
   263         40
   265         62
   269         49
   271        178
   272         40
   281         27
   287         44
   288         11
   289         18
   296         18
   297         22
   298         11
   299         78
   300         18
   313         40
   314        160
   315         40
   317         33
   330         40
   332        999
   333        222
   334         27
   350         18