##TITLE=Library Entry 52334
##JCAMP-DX=Revision 4.10 
##DATA TYPE=MASS SPECTRUM
##SAMPLE DESCRIPTION=Chemical Concepts
##NAMES=HP
##CAS NAME=Ethanone, 1-(1-methylcyclopentyl)-
##MOLFORM=C8H14O
##CAS REGISTRY NO=13388-93-7
##MP= -300
##BP= -300
##MW= 126
##$RETENTION INDEX=0
##$CONDENSED SPECTRUM=NO
##NPOINTS= 66
##XYDATA=(XY..XY) 1 
    26          3
    27         51
    28          9
    29         41
    30          0
    31          0
    36          8
    38          5
    39         79
    40         12
    41        237
    42         16
    43        223
    44          5
    45          2
    49          0
    50          6
    51         12
    52          6
    53         32
    54         11
    55        669
    56         34
    57         10
    58          1
    59          1
    62          0
    63          2
    64          0
    65          9
    66          5
    67        143
    68         13
    69          9
    70          1
    71          6
    72          0
    77          9
    78          2
    79         14
    80          2
    81         28
    82        283
    83        999
    84         71
    85         53
    86          2
    91          3
    92          0
    93          5
    95          1
    96          0
    97          2
    98          3
   105          1
   107          0
   108          1
   109          1
   111         44
   112          3
   120          0
   121          0
   125          0
   126        150
   127         15
   128          1