##TITLE=Library Entry 1072
##JCAMP-DX=Revision 4.10 
##DATA TYPE=MASS SPECTRUM
##SAMPLE DESCRIPTION=Chemical Concepts
##NAMES=HP
##CAS NAME=2,2-Dimethylhex-4-enylamine
##MOLFORM=C8H17N
##CAS REGISTRY NO=133885-74-2
##MP= -300
##BP= -300
##MW= 127
##$RETENTION INDEX=0
##$CONDENSED SPECTRUM=NO
##NPOINTS= 76
##XYDATA=(XY..XY) 1 
    26          8
    27        134
    28         11
    29        165
    30        999
    31         41
    37          1
    38          7
    39        151
    40         19
    41        213
    42         43
    43         62
    44         40
    45          1
    49          0
    50          8
    51         22
    52         12
    53         78
    54         45
    55        859
    56        206
    57         71
    58         21
    59          1
    62          1
    63          4
    64          1
    65         13
    66          8
    67         76
    68         37
    69        136
    70        288
    71         69
    72        172
    73          9
    74          1
    75          0
    76          0
    77         17
    78          4
    79         28
    80         11
    81        173
    82         35
    83          6
    84         14
    85          1
    91          7
    92          1
    93         10
    94          5
    95        266
    96        113
    97         48
    98         30
    99          1
   104          0
   105          1
   106          1
   107          1
   108          4
   109          3
   110        285
   111         24
   112         32
   113          2
   123          6
   124          6
   125          6
   126          4
   127         35
   128         10
   129          0