##TITLE=Library Entry 36225
##JCAMP-DX=Revision 4.10 
##DATA TYPE=MASS SPECTRUM
##SAMPLE DESCRIPTION=P.A. Leclercq, Lab. Instrum. Anal., Eindhoven Univ. Tec
hnol., Netherlands
##NAMES=HP
##CAS NAME=Cyclohexanecarboxylic acid, 4-propyl-, 2,3-dicyano-4-ethoxyphenyl
 ester
##MOLFORM=C20H24N2O3
##CAS REGISTRY NO=133856-82-3
##MP= -300
##BP= -300
##MW= 340
##$RETENTION INDEX=0
##$CONDENSED SPECTRUM=NO
##NPOINTS= 37
##XYDATA=(XY..XY) 1 
    14         26
    26         30
    27        153
    29        223
    39         86
    41        369
    42         42
    43        119
    53         72
    54         91
    55        415
    57        225
    67        174
    69        999
    70         52
    76         24
    77         46
    79         59
    81        192
    82        162
    83        541
    84         38
    95         48
    96         29
   104         53
   109         33
   124        144
   125        788
   126         86
   131         41
   153        320
   154         34
   159         77
   160        233
   161         57
   187         25
   188         43