##TITLE=Library Entry 70133
##JCAMP-DX=Revision 4.10 
##DATA TYPE=MASS SPECTRUM
##SAMPLE DESCRIPTION=P.A. Leclercq, Lab. Instrum. Anal., Eindhoven Univ. Tec
hnol., Netherlands
##NAMES=HP
##CAS NAME=Cyclohexanecarboxylic acid, 4-pentyl-, 2,3-dicyano-4-ethoxyphenyl
 ester
##MOLFORM=C22H28N2O3
##CAS REGISTRY NO=133856-87-8
##MP= -300
##BP= -300
##MW= 368
##$RETENTION INDEX=0
##$CONDENSED SPECTRUM=NO
##NPOINTS= 30
##XYDATA=(XY..XY) 1 
    15         45
    27        155
    29        249
    39         90
    41        418
    42         47
    43        233
    53         66
    55        560
    57        185
    67        222
    69        375
    71        193
    79         74
    81        274
    83        715
    84         58
    95        115
    97        999
    98         86
   109         61
   111        254
   125         75
   152         97
   153        351
   159         97
   160        252
   161         66
   181        277
   182         27