##TITLE=Library Entry 82710
##JCAMP-DX=Revision 4.10 
##DATA TYPE=MASS SPECTRUM
##SAMPLE DESCRIPTION=Japan AIST/NIMC Database- Spectrum MS-IW- 72
##NAMES=HP
##CAS NAME=4,7-Methano-5H-inden-5-one, octahydro-
##MOLFORM=C10H14O
##CAS REGISTRY NO=13380-94-4
##MP= -300
##BP= -300
##MW= 150
##$RETENTION INDEX=0
##$CONDENSED SPECTRUM=NO
##NPOINTS= 100
##XYDATA=(XY..XY) 1 
    15          4
    18          2
    26          9
    27        125
    28         19
    29         36
    31          1
    37          2
    38         12
    39        227
    40         56
    41        208
    42         20
    43         18
    44          2
    45          3
    46          4
    50         19
    51         63
    52         39
    53        143
    54        144
    55         95
    56          6
    57          6
    58          6
    59          4
    60          3
    61          2
    62          6
    63         18
    64          5
    65         83
    66        177
    67        371
    68        135
    69         17
    70         10
    71          5
    72          1
    74          3
    75          3
    76          2
    77        195
    78        130
    79        850
    80        538
    81        398
    82        103
    83         38
    84         17
    85         20
    86          2
    89          4
    90          1
    91        221
    92         82
    93        385
    94        162
    95         66
    96         20
    97          5
    98          3
    99          1
   102          1
   103         11
   104         52
   105         57
   106        999
   107        422
   108        244
   109        477
   110         38
   111          5
   115          5
   116          2
   117         55
   118          9
   119        108
   120         26
   121        309
   122        147
   123         16
   124          2
   125          1
   129          1
   130          3
   131         12
   132         50
   133         19
   134         19
   135         54
   136          6
   137          1
   147          2
   148         29
   149         48
   150        781
   151         92
   152         10