##TITLE=Library Entry 74501
##JCAMP-DX=Revision 4.10 
##DATA TYPE=MASS SPECTRUM
##SAMPLE DESCRIPTION=L. Cohen, LC, NIDDK, NIH, Bethesda, MD 20892
##NAMES=HP
##CAS NAME=Capramide, 2,6-diamino-n-hexadecyl-
##MOLFORM=C22H47N3O
##CAS REGISTRY NO=133831-22-8
##MP= -300
##BP= -300
##MW= 369
##$RETENTION INDEX=0
##$CONDENSED SPECTRUM=NO
##NPOINTS= 152
##XYDATA=(XY..XY) 1 
    41         32
    42         15
    43         75
    44         13
    45          4
    46          1
    51          1
    53          2
    54          5
    55         34
    56         70
    57         37
    58          8
    59          6
    60          2
    65          1
    67         15
    68          5
    69         15
    70         15
    71         25
    72         29
    73          9
    74          0
    77          2
    78          4
    79          1
    80          1
    81          4
    82         28
    83         26
    84        912
    85         62
    86          5
    87          1
    94          0
    95          2
    96          2
    97          5
    98          5
    99          7
   100         22
   101        999
   102         61
   103          2
   106          4
   109          2
   110          3
   111          3
   112          7
   113          6
   114          2
   115          1
   124          5
   125          1
   126          2
   127          4
   128         35
   129          7
   130          0
   132          0
   135          0
   136          0
   138          0
   139          3
   140          2
   141          2
   142          2
   143          2
   149          2
   151          0
   154          1
   155          1
   156          2
   158          0
   159          1
   160          0
   161          2
   168          2
   169          0
   170          0
   171          0
   173          2
   178          1
   181          0
   183          0
   184          0
   186          1
   197          1
   198          0
   200          1
   201          0
   211          0
   212          0
   214          2
   224          0
   225          1
   226          2
   227          1
   228          2
   238          1
   239          0
   240         16
   241          4
   242         30
   243          5
   253          0
   254          1
   255          0
   256          3
   257          1
   262          0
   267          0
   268          6
   269          3
   270          3
   280          0
   283          1
   284          3
   285          1
   294          0
   296          7
   297         10
   298         20
   299          4
   309          0
   310          1
   311         17
   312          5
   313          0
   314          0
   322          2
   323          1
   325          3
   326          2
   327          0
   329          0
   339          1
   340          3
   341          1
   346          0
   350          6
   351          8
   352          4
   353          7
   354          4
   355          1
   356          0
   368          6
   369        110
   370         40
   371          6