##TITLE=Library Entry 87356
##JCAMP-DX=Revision 4.10 
##DATA TYPE=MASS SPECTRUM
##SAMPLE DESCRIPTION=P.A. Leclercq, Lab. Instrum. Anal., Eindhoven Univ. Tec
hnol., Netherlands
##NAMES=HP
##CAS NAME=Cyclohexanecarboxylic acid, 4-butyl-, 4-hydroxyphenyl ester
##MOLFORM=C17H24O3
##CAS REGISTRY NO=133856-80-1
##MP= -300
##BP= -300
##MW= 276
##$RETENTION INDEX=0
##$CONDENSED SPECTRUM=NO
##NPOINTS= 92
##XYDATA=(XY..XY) 1 
    27        107
    28          8
    29        186
    30          3
    39         71
    41        311
    42         33
    43        197
    44          5
    50          1
    51          8
    53         39
    54         43
    55        260
    56         20
    57         63
    58          2
    59          5
    62          1
    63          6
    65         13
    67         83
    68         30
    69        137
    70         11
    71         26
    72          1
    75          6
    77         29
    78          4
    79         28
    80          8
    81         58
    83        195
    84         12
    85         20
    89          8
    90          1
    91          9
    92          1
    93          7
    95         57
    96         36
    97        152
    98         12
   101          9
   102          3
   103         29
   104          3
   107         12
   109        878
   110        999
   111        171
   112         11
   115          7
   120          2
   121         16
   122         85
   123         56
   124         20
   125         18
   126          1
   127          3
   128          2
   129          1
   133         13
   134          3
   135         19
   136          3
   137          6
   138          3
   146          7
   147          9
   148          3
   149          7
   150          2
   151          8
   152          3
   161          2
   163          3
   164          5
   165          1
   166          5
   167          9
   177          2
   178          1
   180          1
   204          3
   205          5
   276        106
   277         23
   278          1