##TITLE=Library Entry 69342
##JCAMP-DX=Revision 4.10 
##DATA TYPE=MASS SPECTRUM
##SAMPLE DESCRIPTION=Exported from NIST MS Search
##NAMES=HP
##CAS NAME=2-Cyclohexen-1-one, 4,4,6-trimethyl-
##MOLFORM=C9H14O
##CAS REGISTRY NO=13395-73-8
##MP= -300
##BP= -300
##MW= 138
##$RETENTION INDEX=1646
##$CONDENSED SPECTRUM=NO
##NPOINTS= 35
##XYDATA=(XY..XY) 1 
    41        260
    42         40
    43         30
    50         20
    51         60
    52         30
    53        150
    54         60
    55        100
    56         10
    63         20
    65         40
    66         20
    67        250
    68        100
    69         50
    77         50
    78         10
    79         50
    80         10
    81        240
    82        350
    83         30
    91         20
    93         10
    95        250
    96        999
    97         70
   109         10
   110         90
   111         10
   123        100
   124         10
   138        350
   139         30