##TITLE=Library Entry 15310
##JCAMP-DX=Revision 4.10 
##DATA TYPE=MASS SPECTRUM
##SAMPLE DESCRIPTION=A.A.Kutin, Moscow, Russia
##NAMES=HP
##CAS NAME=1-Adamantanemethylamine, .alpha.-methyl-
##MOLFORM=C12H21N
##CAS REGISTRY NO=13392-28-4
##MP= -300
##BP= -300
##MW= 179
##$RETENTION INDEX=1388
##$CONDENSED SPECTRUM=NO
##NPOINTS= 85
##XYDATA=(XY..XY) 1 
    33          1
    35         16
    36         90
    38         35
    39         29
    40         15
    41         48
    43        629
    44        999
    46          0
    50          1
    51          6
    52          4
    53         18
    54          6
    55         19
    56          4
    57          4
    58          0
    60          0
    62          0
    63          1
    65         13
    66          6
    67         26
    68          5
    69          6
    70          6
    71          1
    73          0
    75          0
    77         34
    78          9
    79         65
    80         10
    81         16
    82          2
    83          1
    84          2
    85          0
    89          0
    91         31
    92         12
    93         40
    94          7
    95          3
    96          1
    97          0
   102          0
   103          1
   104          1
   105         10
   106          3
   107         14
   108          3
   109          0
   110          0
   111          0
   115          1
   116          0
   117          1
   118          0
   119          5
   120          3
   121          2
   122          1
   128          0
   129          0
   131          0
   133          1
   134          1
   135         30
   136          3
   137          0
   151          0
   159          0
   162          0
   163          0
   164         19
   165          2
   171          0
   177          0
   178          3
   179          6
   180          0