##TITLE=Library Entry 59466
##JCAMP-DX=Revision 4.10 
##DATA TYPE=MASS SPECTRUM
##SAMPLE DESCRIPTION=ASES Database, Dalian Institute, P.R. China
##NAMES=HP
##CAS NAME=Chloromethyl 2-chloropropanoate
##MOLFORM=C4H6Cl2O2
##CAS REGISTRY NO=13398-02-2
##MP= -300
##BP= -300
##MW= 156
##$RETENTION INDEX=0
##$CONDENSED SPECTRUM=NO
##NPOINTS= 19
##XYDATA=(XY..XY) 1 
    36          9
    41         30
    42         19
    43         20
    49        291
    51         98
    55        179
    56         70
    57        168
    62         39
    63        540
    65        178
    71         70
    90         50
    91        999
    92        170
    93        338
   121         59
   123         20