##TITLE=Library Entry 27012
##JCAMP-DX=Revision 4.10 
##DATA TYPE=MASS SPECTRUM
##SAMPLE DESCRIPTION=Chemical Concepts
##NAMES=HP
##CAS NAME=1-Imidazolidinecarboxylic acid, 2-(1,1-dimethylethyl)-5-hydroxy-3
-methyl-4-oxo-, 1,1-dimethylethyl ester, cis-(.+-.)-
##MOLFORM=C13H24N2O4
##CAS REGISTRY NO=133984-45-9
##MP= -300
##BP= -300
##MW= 272
##$RETENTION INDEX=0
##$CONDENSED SPECTRUM=NO
##NPOINTS= 39
##XYDATA=(XY..XY) 1 
    27         30
    28         13
    29        125
    30         16
    31          7
    39         44
    40          9
    41        212
    42        172
    43         20
    44         10
    46         18
    55         18
    56         38
    57        999
    58         55
    59         18
    69         18
    70          9
    72         10
    84          9
    85         52
    86         19
    87         21
    88          8
    97        140
    98         17
   100         11
   112         20
   114          7
   115        326
   116         16
   139          6
   159        328
   160         21
   199         29
   200          3
   215        140
   216         14