##TITLE=Library Entry 84248
##JCAMP-DX=Revision 4.10 
##DATA TYPE=MASS SPECTRUM
##SAMPLE DESCRIPTION=Japan AIST/NIMC Database- Spectrum MS-IW- 922
##NAMES=HP
##CAS NAME=Benzeneethanol, 3-hydroxy-
##MOLFORM=C8H10O2
##CAS REGISTRY NO=13398-94-2
##MP= -300
##BP= -300
##MW= 138
##$RETENTION INDEX=1384
##$CONDENSED SPECTRUM=NO
##NPOINTS= 81
##XYDATA=(XY..XY) 1 
    15          1
    18          2
    26          2
    27         22
    28          8
    29          9
    30          2
    31         40
    32          1
    37          3
    38         10
    39         61
    40          8
    41         10
    42          4
    43         11
    44          2
    45          5
    49          1
    50         14
    51         39
    52         17
    53         36
    54          3
    55         20
    56          1
    57          2
    58          4
    59          3
    60          1
    61          3
    62          8
    63         23
    64          8
    65         32
    66         11
    67          6
    68          7
    69          3
    73          1
    74          4
    75          4
    76          2
    77        224
    78         35
    79        118
    80         41
    81         13
    82          3
    86          1
    87          1
    89         22
    90        122
    91         69
    92          9
    93          4
    94        123
    95         46
    96          3
   101          1
   103          4
   105          6
   106          2
   107        999
   108        742
   109         60
   110         25
   111          2
   118          2
   119         11
   120         56
   121         11
   122          2
   123          1
   134          2
   135          1
   136         20
   137          7
   138        761
   139         67
   140          6