##TITLE=Library Entry 61965
##JCAMP-DX=Revision 4.10 
##DATA TYPE=MASS SPECTRUM
##SAMPLE DESCRIPTION=Chemical Concepts
##NAMES=HP
##CAS NAME=Benzene, 1,4,9-decatrienyl-
##MOLFORM=C16H20
##CAS REGISTRY NO=13393-63-0
##MP= -300
##BP= -300
##MW= 212
##$RETENTION INDEX=0
##$CONDENSED SPECTRUM=NO
##NPOINTS= 114
##XYDATA=(XY..XY) 1 
    26          5
    27        131
    29        156
    30          2
    37          1
    38          4
    39        128
    41        118
    42          8
    43         10
    50         11
    51         48
    52         16
    53         44
    54          8
    55         89
    56          5
    62          4
    63         24
    64          7
    65         75
    66         24
    67         52
    68          5
    69          4
    71          3
    74          4
    75          9
    76         16
    77        124
    78         50
    79        163
    80         36
    81         28
    82          6
    83          3
    84          1
    85          1
    87          3
    88          3
    89         29
    90          6
    91        999
    92        108
    93         99
    94         27
    95         30
    96          2
   101          5
   102         37
   103         36
   104         83
   105         29
   106          5
   107         13
   108         45
   109          3
   113          4
   114          3
   115        519
   116        104
   117        138
   118         20
   119          7
   120         26
   121        193
   122         22
   123          1
   126          5
   127         76
   128        314
   129        568
   130        760
   131        100
   132         10
   133          5
   134          8
   135          1
   139         11
   140          4
   141        163
   142        121
   143        145
   144         56
   145         11
   146          1
   151          5
   152         27
   153         44
   154         31
   155        136
   156        194
   157        138
   158         22
   159          2
   164          1
   165         16
   166          4
   167         10
   168          4
   169         71
   170         28
   171         12
   178          2
   179          2
   183         20
   184          9
   185          1
   197         11
   198          2
   211          3
   212        269
   213         49
   214          4