##TITLE=Library Entry 3208
##JCAMP-DX=Revision 4.10 
##DATA TYPE=MASS SPECTRUM
##SAMPLE DESCRIPTION=Chemical Concepts
##NAMES=HP
##CAS NAME=1,4,9-Decatriene, (E)-
##MOLFORM=C10H16
##CAS REGISTRY NO=13393-60-7
##MP= -300
##BP= -300
##MW= 136
##$RETENTION INDEX=0
##$CONDENSED SPECTRUM=NO
##NPOINTS= 82
##XYDATA=(XY..XY) 1 
    24          1
    25          0
    26         16
    27        322
    28          1
    29        199
    30          3
    35          0
    36          0
    37          6
    38         18
    39        510
    40         62
    41        999
    42         45
    43         16
    44          0
    47          1
    48          0
    49          1
    50         21
    51         64
    52         38
    53        339
    54        620
    55        349
    56         15
    57          1
    58          1
    61          1
    62          5
    63         15
    64          4
    65         89
    66        158
    67        927
    68        187
    69         36
    70          2
    72          0
    73          0
    74          3
    75          4
    76          2
    77        138
    78         39
    79        816
    80        183
    81        305
    82        160
    83          9
    84          0
    87          0
    89          2
    90          1
    91         61
    92          9
    93        164
    94        304
    95        343
    96         22
    97          1
   102          0
   103          1
   104          0
   105          5
   106          1
   107         67
   108         36
   109          4
   115          0
   116          0
   117          0
   118          0
   119          0
   120          0
   121         57
   122          5
   128          0
   134          0
   135          2
   136          3