##TITLE=Library Entry 29902
##JCAMP-DX=Revision 4.10 
##DATA TYPE=MASS SPECTRUM
##SAMPLE DESCRIPTION=Chemical Concepts
##NAMES=HP
##CAS NAME=Benzene, 2-bromo-1,3-bis(2,5-dioxahexyl)-
##MOLFORM=C14H21BrO4
##CAS REGISTRY NO=133969-57-0
##MP= -300
##BP= -300
##MW= 332
##$RETENTION INDEX=0
##$CONDENSED SPECTRUM=NO
##NPOINTS= 180
##XYDATA=(XY..XY) 1 
    26          2
    27         13
    28          9
    29         87
    30          1
    31        103
    33          6
    38          0
    39         13
    40          1
    41          7
    42          2
    43         29
    44          3
    45        502
    46         11
    47          1
    50          5
    51         17
    52          4
    53          3
    55          0
    57          1
    58         14
    59        999
    60         39
    61          3
    62          3
    63         17
    64          3
    65         10
    66          0
    69          0
    71          0
    73          6
    74          2
    75         15
    76          8
    77         79
    78         25
    79          7
    80          0
    81          0
    82          0
    86          0
    87          1
    88          1
    89         47
    90         24
    91         36
    92          6
    93          0
    95          0
    97          0
   101          4
   102         24
   103        145
   104        179
   105         38
   106          2
   107          0
   108          0
   113          0
   114          0
   115          4
   116          2
   117         32
   118         21
   119         33
   120          5
   121          1
   122          0
   123          0
   124          0
   125          0
   128          0
   129          0
   130          0
   131          3
   132          2
   133         13
   134          2
   135          2
   137          0
   138          4
   139         16
   140          3
   141          5
   142          0
   143          0
   144          0
   145          4
   146          1
   147          8
   148          3
   149          3
   152          0
   153          4
   154          0
   155          1
   156          0
   157          1
   158          0
   159          0
   161          4
   162          1
   163          4
   164          0
   165          0
   167          0
   168          2
   169          5
   170          3
   171          5
   172          0
   173          0
   177          3
   178          1
   179          0
   180          0
   181          1
   182         94
   183        377
   184        127
   185        367
   186         31
   187          1
   191          1
   192          0
   193          2
   194          0
   195          0
   196          3
   197        104
   198         16
   199        112
   200         13
   201          6
   202          0
   209          0
   210          0
   211         12
   212         11
   213         15
   214          7
   215          6
   216          0
   217          1
   219          0
   223          0
   224          1
   225          1
   226          1
   227         18
   228          4
   229         16
   230          2
   234          0
   237          0
   241          0
   242          1
   243          1
   244          2
   245          0
   249          0
   253         36
   254          5
   255          0
   256        318
   257         49
   258        300
   259         45
   260          6
   261          1
   331          0
   332         17
   333          2
   334         17
   335          4
   336          0