##TITLE=Library Entry 56807
##JCAMP-DX=Revision 4.10 
##DATA TYPE=MASS SPECTRUM
##SAMPLE DESCRIPTION=Japan AIST/NIMC Database- Spectrum MS-IW-6844
##NAMES=HP
##CAS NAME=n-Hexanoyl-dl-leucine
##MOLFORM=C12H23NO3
##CAS REGISTRY NO=133906-92-0
##MP= -300
##BP= -300
##MW= 229
##$RETENTION INDEX=0
##$CONDENSED SPECTRUM=NO
##NPOINTS= 133
##XYDATA=(XY..XY) 1 
    15          2
    17          3
    18          5
    26          2
    27         46
    28         33
    29         69
    30        113
    31          3
    32          1
    38          1
    39         27
    40          5
    41        129
    42         40
    43        368
    44        207
    45          9
    46          2
    51          2
    52          1
    53          9
    54         12
    55         68
    56         28
    57         62
    58          4
    59         54
    60          9
    65          1
    66          1
    67          9
    68          9
    69         41
    70        100
    71        156
    72         20
    73         22
    74         35
    75         27
    76         10
    77          1
    79          2
    80          3
    81          7
    82          6
    83         11
    84         44
    85         37
    86        999
    87         65
    88         35
    89          9
    90          1
    91          1
    93          1
    94          1
    95          5
    96         10
    97         11
    98         26
    99        259
   100         36
   101          7
   102          1
   108          1
   109          2
   110          9
   111          5
   112         27
   113         31
   114         13
   115         16
   116         82
   117        273
   118         14
   119          2
   122          1
   123          1
   124         19
   125          5
   126         11
   127         50
   128         29
   129          9
   130         54
   131         20
   132         35
   133          3
   135          1
   137          1
   138          1
   139          1
   140         21
   141         22
   142         57
   143          5
   144         10
   145          4
   149          1
   152          1
   153          1
   154          8
   155        205
   156         20
   157          2
   158         18
   159          3
   167          1
   168         54
   169          8
   170          3
   172          3
   173        373
   174         35
   175          4
   182          4
   183          3
   184         91
   185         25
   186         24
   187          5
   196          3
   197          1
   200          9
   201          1
   211          5
   212          2
   214         13
   215          2
   228          2
   229         15
   230          5