##TITLE=Library Entry 38225
##JCAMP-DX=Revision 4.10 
##DATA TYPE=MASS SPECTRUM
##SAMPLE DESCRIPTION=Tox21 Consortium/NIST Mass Spectrometry Data Center, 20
12
##NAMES=HP
##CAS NAME=Phenmetrazine
##MOLFORM=C11H15NO
##CAS REGISTRY NO=134-49-6
##MP= -300
##BP= -300
##MW= 177
##$RETENTION INDEX=1462
##$CONDENSED SPECTRUM=NO
##NPOINTS= 91
##XYDATA=(XY..XY) 1 
    15          5
    18          4
    26          3
    27         21
    28        129
    29         18
    30         14
    31          1
    37          1
    38          5
    39         31
    40          6
    41         28
    42        478
    43        345
    44         58
    45          2
    49          1
    50         25
    51         76
    52         23
    53          7
    54         14
    55          8
    56        463
    57         24
    58          4
    61          1
    62          8
    63         28
    64          8
    65         23
    66          3
    67          1
    68          8
    69         10
    70         58
    71        999
    72         50
    73          2
    74          7
    75          7
    76         11
    77        141
    78         34
    79         26
    80          2
    85          1
    86          2
    87          2
    89         38
    90         18
    91         72
    92          8
    93          1
    98          1
    99          1
   101          1
   102          7
   103         16
   104          7
   105        105
   106         15
   107          3
   113          1
   114          1
   115         50
   116         13
   117         67
   118         21
   119          6
   120          1
   128          1
   129          1
   130          6
   131          2
   132          3
   133          2
   134          1
   143          1
   144          4
   145          1
   146          1
   161          1
   162          1
   174          1
   175          1
   176          2
   177         88
   178         11
   179          1