##TITLE=Library Entry 100730
##JCAMP-DX=Revision 4.10 
##DATA TYPE=MASS SPECTRUM
##SAMPLE DESCRIPTION=Japan AIST/NIMC Database- Spectrum MS-NW-6294
##NAMES=HP
##CAS NAME=Methanone, (4-methylphenyl)phenyl-
##MOLFORM=C14H12O
##CAS REGISTRY NO=134-84-9
##MP= -300
##BP= -300
##MW= 196
##$RETENTION INDEX=1694
##$CONDENSED SPECTRUM=NO
##NPOINTS= 88
##XYDATA=(XY..XY) 1 
    26          2
    27         12
    28          9
    29          1
    37          2
    38          8
    39         59
    40          5
    41         18
    43          1
    44          4
    49          1
    50         32
    51        105
    52          9
    53          3
    57          1
    61          3
    62         11
    63         39
    64         10
    65        133
    66          7
    69          2
    70          1
    71          2
    73          1
    74         11
    75         10
    76         17
    77        239
    78         15
    81          1
    82          6
    83         11
    84         23
    85          2
    86          4
    87          4
    88          3
    89         33
    90         21
    91        301
    92         23
    97          1
    98          2
    99          1
   101          1
   102          2
   104          2
   105        298
   106         23
   107          1
   113          2
   115          8
   118          5
   119        999
   120         91
   121          5
   126          2
   127          2
   128          3
   139          5
   140          1
   141          2
   150          2
   151          5
   152         20
   153          9
   154          1
   163          3
   164          3
   165         25
   166          7
   167         17
   168          9
   169          1
   178          2
   179          1
   180          1
   181         80
   182         12
   183          1
   194          3
   195         21
   196        609
   197         94
   198          8