##TITLE=Library Entry 99903
##JCAMP-DX=Revision 4.10 
##DATA TYPE=MASS SPECTRUM
##SAMPLE DESCRIPTION=NIST Mass Spectrometry Data Center, 2010
##NAMES=HP
##CAS NAME=Methyl anthranilate
##MOLFORM=C8H9NO2
##CAS REGISTRY NO=134-20-3
##MP= -300
##BP= -300
##MW= 151
##$RETENTION INDEX=1343
##$CONDENSED SPECTRUM=NO
##NPOINTS= 70
##XYDATA=(XY..XY) 1 
    15         10
    26          1
    27          6
    28         21
    29         11
    30          3
    31          5
    36          1
    37         12
    38         28
    39         79
    40         12
    41         16
    42          8
    44         11
    45          4
    46         13
    49          3
    50         19
    51         15
    52         51
    53         17
    54          6
    55          2
    59          4
    60         11
    61         11
    62         27
    63         84
    64         91
    65        254
    66         39
    67          3
    68          2
    69          1
    74         10
    75         12
    76         17
    77          7
    78          3
    79          6
    80          4
    81          1
    86          1
    87          2
    88          3
    89          6
    90         40
    91         99
    92        561
    93         52
    94          5
    95          1
   103          1
   106          1
   107          3
   108          2
   117          2
   119        999
   120        299
   121         23
   122          1
   127          1
   135          3
   136          2
   146         15
   147         24
   151        559
   152         47
   153          5