##TITLE=Library Entry 81168
##JCAMP-DX=Revision 4.10 
##DATA TYPE=MASS SPECTRUM
##SAMPLE DESCRIPTION=Japan AIST/NIMC Database- Spectrum MS-NW-8778
##NAMES=HP
##CAS NAME=Methanone, (4-chlorophenyl)phenyl-
##MOLFORM=C13H9ClO
##CAS REGISTRY NO=134-85-0
##MP= -300
##BP= -300
##MW= 216
##$RETENTION INDEX=1850
##$CONDENSED SPECTRUM=NO
##NPOINTS= 94
##XYDATA=(XY..XY) 1 
    26          1
    27          9
    36          3
    37          1
    38          4
    39          9
    44          1
    49          2
    50         72
    51        163
    52          9
    53          4
    61          5
    62          7
    63         12
    64          1
    65          1
    73          6
    74         36
    75        156
    76         85
    77        435
    78         29
    79          1
    81          2
    82          1
    84          3
    85         14
    86          5
    87          8
    88          1
    89          2
    90          2
    91          1
    93          2
    94         38
    95         11
    97          1
    98          4
    99          4
   100          1
   101          3
   102          2
   104          9
   105        999
   106         77
   107          5
   108          1
   109          1
   110          9
   111        282
   112         21
   113         93
   114          7
   115          1
   122          1
   123          1
   125          3
   126          6
   127          4
   136          1
   137          1
   138          2
   139        769
   140         59
   141        247
   142         18
   143          1
   149          2
   150          9
   151         18
   152         48
   153         20
   154          2
   162          1
   163          2
   164          1
   165          1
   180          2
   181        132
   182         18
   183          1
   186          2
   188         11
   189          2
   190          4
   199          1
   214          1
   215          9
   216        504
   217         74
   218        168
   219         23
   220          2