##TITLE=Library Entry 99688
##JCAMP-DX=Revision 4.10 
##DATA TYPE=MASS SPECTRUM
##SAMPLE DESCRIPTION=Japan AIST/NIMC Database- Spectrum MS-NW-3834
##NAMES=HP
##CAS NAME=Diethyltoluamide
##MOLFORM=C12H17NO
##CAS REGISTRY NO=134-62-3
##MP= -300
##BP= -300
##MW= 191
##$RETENTION INDEX=1571
##$CONDENSED SPECTRUM=NO
##NPOINTS= 75
##XYDATA=(XY..XY) 1 
    14          1
    15          6
    26          3
    27         21
    28          9
    29         30
    30          3
    38          3
    39         35
    40          3
    41         13
    42         21
    43          2
    44         13
    45          1
    50          6
    51         15
    52          3
    53          2
    54          1
    55          1
    56         14
    57          2
    58          1
    61          1
    62          5
    63         20
    64          7
    65         99
    66          5
    70          7
    71          2
    72         10
    74          2
    75          2
    76          2
    77          9
    78          1
    79          1
    81          2
    86          1
    87          1
    88          2
    89         24
    90         21
    91        308
    92         26
    93          2
   100          2
   103          1
   104          1
   105         16
   106          2
   116          1
   117          2
   118          8
   119        999
   120         89
   121          6
   132          1
   134          1
   135          1
   146          1
   148         17
   149          2
   160          1
   162         39
   163          7
   176         27
   177          5
   189          4
   190        292
   191        196
   192         25
   193          2