##TITLE=Library Entry 97431
##JCAMP-DX=Revision 4.10 
##DATA TYPE=MASS SPECTRUM
##SAMPLE DESCRIPTION=D.HENNEBERG, MAX-PLANCK INSTITUTE, MULHEIM, WEST GERMAN
Y
##NAMES=HP
##CAS NAME=1,3,5,7-Cyclooctatetraene, 1-butyl-
##MOLFORM=C12H16
##CAS REGISTRY NO=13402-37-4
##MP= -300
##BP= -300
##MW= 160
##$RETENTION INDEX=0
##$CONDENSED SPECTRUM=NO
##NPOINTS= 86
##XYDATA=(XY..XY) 1 
    27         39
    28         39
    29         25
    31          4
    33          1
    39         57
    40          5
    41         48
    42          2
    43         10
    44          8
    45          3
    47          1
    50          4
    51         32
    52         18
    53         26
    54          3
    55          9
    56          1
    57          2
    59          1
    61         12
    62          2
    63         13
    64          3
    65         64
    66          7
    67         10
    68          1
    69          2
    74          1
    75         26
    76         11
    77        102
    78        158
    79         32
    80          4
    81          7
    82          1
    87          2
    89         21
    90          6
    91        318
    92         44
    93          4
    94          2
    95          2
   101          4
   102         41
   103        144
   104        161
   105         40
   106          4
   113          6
   114          5
   115        296
   116        129
   117        999
   118        427
   119         44
   120          2
   127         10
   128         26
   129         29
   130         12
   131        111
   132         20
   133          6
   134          1
   135          4
   137         12
   138          2
   141          2
   142          1
   143          2
   145         11
   146          1
   149         10
   150          1
   151          1
   152          1
   159          3
   160        199
   161         28
   162          1