##TITLE=Library Entry 34630
##JCAMP-DX=Revision 4.10 
##DATA TYPE=MASS SPECTRUM
##SAMPLE DESCRIPTION=Chemical Concepts
##NAMES=HP
##CAS NAME=6-Methyl-2-nitro-6,7-dihydro-9H-5-oxa-9-azabenzocyclohepten-8-one
##MOLFORM=C10H10N2O4
##CAS REGISTRY NO=134076-74-7
##MP= -300
##BP= -300
##MW= 222
##$RETENTION INDEX=0
##$CONDENSED SPECTRUM=NO
##NPOINTS= 155
##XYDATA=(XY..XY) 1 
    35          2
    36          4
    37          7
    38         17
    39        123
    40         25
    41        416
    42         87
    43         33
    44         11
    45          5
    46          2
    47          0
    48          0
    49          2
    50         42
    51        136
    52         54
    53         33
    54         11
    55         26
    56          5
    57         13
    58          1
    59          4
    60          3
    61          4
    62         19
    63         52
    64         15
    65         11
    66         10
    67         12
    68         18
    69        999
    70         49
    71          9
    72          2
    73          3
    74          3
    75          6
    76         18
    77         40
    78         79
    79         74
    80         28
    81          6
    82          4
    83          5
    84          2
    85          4
    86          1
    87          1
    88          2
    89          4
    90          4
    91         16
    92         12
    93          4
    94          6
    95         15
    96          9
    97          4
    98          1
    99          2
   100          0
   101          1
   102          0
   103          2
   104          5
   105          5
   106         49
   107         29
   108         20
   109          3
   110          1
   111          2
   112          1
   113          1
   115          0
   116          1
   117          2
   118          3
   119         42
   120          5
   121          2
   122         15
   123          5
   124          8
   125          2
   126          1
   127          1
   128          0
   129          1
   130          0
   131          1
   132          4
   133         12
   134         37
   135          9
   136          2
   137          2
   138          8
   139          1
   140          0
   141          0
   145          1
   146          1
   147          2
   148          3
   149          3
   150         58
   151          5
   152          1
   153          4
   154         71
   155          5
   156          0
   157          0
   158          1
   159          0
   161          0
   162          0
   163          0
   164          5
   165         39
   166          3
   167          1
   169          1
   174          0
   175          0
   176          1
   177          0
   178          2
   179         10
   180         22
   181          8
   182          1
   183          0
   191          0
   192          2
   193          1
   194          4
   195          1
   201          0
   204          0
   205          0
   206          1
   207          0
   208          0
   221          0
   222        172
   223         20
   224          2
   225          0