##TITLE=Library Entry 27909
##JCAMP-DX=Revision 4.10 
##DATA TYPE=MASS SPECTRUM
##SAMPLE DESCRIPTION=A.A.Kutin, Moscow, Russia
##NAMES=HP
##CAS NAME=Carbamic acid, N-(10,11-dihydro-5-ethylaminoacetyl-3-dibenzo[b,f]
azepinyl)-, isopropyl ester
##MOLFORM=C22H27N3O3
##CAS REGISTRY NO=134068-26-1
##MP= -300
##BP= -300
##MW= 381
##$RETENTION INDEX=0
##$CONDENSED SPECTRUM=NO
##NPOINTS= 225
##XYDATA=(XY..XY) 1 
    33          2
    34          3
    35          0
    37          8
    38         16
    39         90
    40         59
    41        273
    42        115
    43        527
    44         70
    45         82
    48          0
    49          0
    50         12
    51         33
    52         18
    53         10
    54         10
    55         24
    56        105
    58        999
    59         38
    61          1
    62          5
    63         19
    64         10
    65         22
    66          6
    67          5
    69         13
    70          9
    71         10
    72          4
    73          2
    74          3
    75          6
    76         11
    77         42
    78         17
    79          7
    80          4
    81          2
    82          3
    83          5
    84          9
    85          2
    86         17
    87          3
    89         31
    90         14
    91         30
    92          7
    93         10
    94          3
    95          2
    96          2
    97          3
    98         15
    99          3
   101          4
   102          8
   103         10
   104         13
   105          6
   106         13
   107          3
   108          0
   109          1
   110          1
   111          2
   112          4
   113          4
   114          2
   115         12
   116         12
   117         15
   118          8
   119          4
   120          2
   121          1
   122          0
   124          0
   125          2
   126          3
   127          9
   128         11
   129          7
   130         14
   131          8
   132          8
   133          2
   135          0
   136          0
   138          0
   139          6
   140          6
   141          3
   142          3
   143          4
   144          2
   145          0
   146          1
   147          1
   148          1
   149          0
   150          1
   151          6
   152         14
   153          8
   154          9
   155          3
   156          2
   157          2
   158          0
   159          0
   161          0
   162          0
   163          2
   164          4
   165         19
   166         13
   167         28
   168         16
   169          4
   171          9
   174          0
   176          1
   177          6
   178         11
   179         12
   180         43
   181         19
   182         19
   183          5
   184          0
   189          1
   190          8
   191         24
   192         46
   193         53
   194         37
   195         25
   196          3
   197          0
   202          0
   203          1
   204          2
   205         12
   206         14
   207         46
   208         40
   209        123
   210         49
   211          8
   212          0
   217          1
   218          0
   219          4
   220          4
   221         11
   222          3
   223          2
   224          0
   232          0
   233          5
   234          7
   235         33
   236         30
   237         13
   238          4
   239          5
   240          0
   245          0
   247          1
   248          1
   249          5
   250          4
   251          4
   252          9
   253         31
   254        150
   255         23
   256          2
   261          0
   262          0
   263          1
   264          1
   265          1
   266          1
   267          0
   268          1
   275          0
   276          0
   277          3
   278          4
   279          1
   280          0
   281          5
   282          1
   283          1
   290          0
   291          0
   292          1
   293          4
   294          6
   295         17
   296        234
   297         51
   298          5
   299          0
   322          2
   323          1
   324          0
   325          0
   336          9
   337          3
   338         52
   339         10
   340          0
   366          0
   379          0
   380          1
   381          8
   382          1