##TITLE=Library Entry 22670
##JCAMP-DX=Revision 4.10 
##DATA TYPE=MASS SPECTRUM
##SAMPLE DESCRIPTION=RADIAN CORP
##NAMES=HP
##CAS NAME=2-Propenoic acid, 2-chloro-, butyl ester
##MOLFORM=C7H11ClO2
##CAS REGISTRY NO=13401-85-9
##MP= -300
##BP= -300
##MW= 162
##$RETENTION INDEX=0
##$CONDENSED SPECTRUM=NO
##NPOINTS= 66
##XYDATA=(XY..XY) 1 
    15          2
    25          8
    26         86
    27        151
    29        189
    30          8
    31         16
    35          2
    37          5
    38         10
    39        135
    40         23
    41        369
    42         41
    43         60
    44          8
    45         12
    47          1
    49          2
    50          4
    51          7
    52          4
    53         73
    54         73
    55        128
    56        999
    57        120
    58          4
    59          2
    60         24
    61        431
    62         26
    63        142
    64          5
    65          1
    67          1
    68          2
    69          7
    71         29
    72          4
    73          5
    79         10
    81         11
    83          1
    85          2
    89        787
    90         38
    91        264
    92         11
    93          1
    94          1
    97          3
    99          2
   102          2
   104          5
   106          4
   107        395
   108         21
   109        129
   110          4
   119         26
   120          4
   121          8
   127          4
   133         14
   135          4