##TITLE=Library Entry 34571
##JCAMP-DX=Revision 4.10 
##DATA TYPE=MASS SPECTRUM
##SAMPLE DESCRIPTION=Chemical Concepts
##NAMES=HP
##CAS NAME=2-Chloro-6-methyl-6,7-dihydro-9H-5-oxa-9-azabenzocyclohepten-8-on
e
##MOLFORM=C10H10ClNO2
##CAS REGISTRY NO=134076-73-6
##MP= -300
##BP= -300
##MW= 211
##$RETENTION INDEX=0
##$CONDENSED SPECTRUM=NO
##NPOINTS= 148
##XYDATA=(XY..XY) 1 
    38         28
    39        163
    40         30
    41        499
    42        105
    43         60
    44         16
    45          9
    46          0
    47          1
    49          9
    50         56
    51        249
    52         74
    53         21
    54          8
    55         41
    56         11
    57         33
    58          2
    59         21
    60         10
    61         11
    62         28
    63         79
    64         14
    65          9
    66          3
    67          8
    68         10
    69        999
    70         50
    71         18
    72         11
    73         20
    74          6
    75         16
    76         57
    77         35
    78        221
    79         39
    80         29
    81         10
    82          3
    83          9
    84          4
    85         11
    86         15
    87         16
    88          7
    89          9
    90         13
    91          9
    92          3
    93          2
    94          1
    95          7
    96          3
    97          9
    98         12
    99         26
   100          6
   101          8
   102          3
   103          2
   104          9
   105          5
   106          9
   107          4
   108          4
   109          4
   110          1
   111          5
   112         15
   113        139
   114         62
   115         49
   116         19
   117          3
   118          1
   119          3
   120          2
   121          2
   123          1
   124          4
   125          9
   126          7
   127         20
   128          4
   129          6
   130          2
   131          1
   132          1
   133          3
   134          1
   135          2
   136          1
   137          1
   138          1
   139          2
   140         15
   141          6
   142         31
   143        312
   144         30
   145         99
   146          8
   147          1
   148          3
   149          3
   150          0
   151          1
   152          1
   153          1
   154         66
   155          5
   156         20
   157          2
   158          0
   162          1
   163          0
   165          0
   166          0
   167         13
   168         21
   169        154
   170         24
   171         51
   172          5
   173          0
   176          2
   177          0
   180          0
   182          3
   183          5
   184          2
   185          1
   191          0
   192          1
   193          1
   194          1
   196          0
   209          0
   211        211
   212         25
   213         68
   214          7
   215          0