##TITLE=Library Entry 61256
##JCAMP-DX=Revision 4.10 
##DATA TYPE=MASS SPECTRUM
##SAMPLE DESCRIPTION=Chemical Concepts
##NAMES=HP
##CAS NAME=2-Oxepanone, 7-[2-(phenylmethoxy)ethyl]-, (R)-
##MOLFORM=C15H20O3
##CAS REGISTRY NO=134005-34-8
##MP= -300
##BP= -300
##MW= 248
##$RETENTION INDEX=0
##$CONDENSED SPECTRUM=NO
##NPOINTS= 126
##XYDATA=(XY..XY) 1 
    27         37
    28         17
    29         76
    31         10
    39         60
    40          9
    41        125
    42         30
    43         81
    44         10
    45         26
    50          7
    51         27
    52          9
    53         17
    54         32
    55        282
    56         62
    57         91
    58         28
    59         13
    60         71
    61          7
    63         15
    64          5
    65        115
    66         14
    67        125
    68        149
    69         68
    70         86
    71         39
    72         63
    73        138
    74         34
    75          5
    77         56
    78         21
    79        149
    80         48
    81         59
    82        262
    83        169
    84         24
    85         61
    86         12
    87         39
    88          5
    89         25
    90         21
    91        999
    92        153
    93         38
    94          5
    95         62
    96        297
    97         59
    98         14
    99         30
   100         59
   101         22
   104         38
   105        129
   106         38
   107        996
   108         96
   109         25
   110          5
   111         23
   112          6
   113         32
   114        211
   115         17
   117         15
   118          8
   119         14
   120         66
   121         15
   122          4
   123         11
   124        187
   125         24
   126         17
   127         16
   129         18
   130          8
   131          7
   133         36
   134          7
   139         22
   140          9
   141         24
   142         46
   143         12
   144          7
   145          4
   146          5
   147         52
   148         19
   149          7
   157         12
   158          4
   159         22
   160          5
   161          3
   163          4
   164          5
   170         16
   171          4
   174         47
   175          8
   184          3
   192          2
   202         72
   203         11
   204          7
   205          3
   220         62
   221          9
   229          2
   230          3
   231          3
   247         77
   248        394
   249         71
   250          8