##TITLE=Library Entry 34490
##JCAMP-DX=Revision 4.10 
##DATA TYPE=MASS SPECTRUM
##SAMPLE DESCRIPTION=Chemical Concepts
##NAMES=HP
##CAS NAME=2-Butene, 1-chloro-2-methyl-
##MOLFORM=C5H9Cl
##CAS REGISTRY NO=13417-43-1
##MP= -300
##BP= -300
##MW= 104
##$RETENTION INDEX=755
##$CONDENSED SPECTRUM=NO
##NPOINTS= 62
##XYDATA=(XY..XY) 1 
    25          4
    26         45
    27        237
    28         25
    29         95
    30          2
    31          9
    33          0
    35          9
    36         20
    37         35
    38         69
    39        396
    40         96
    41        921
    42         85
    43         21
    44          1
    47          2
    48          4
    49         35
    50         63
    51         95
    52         32
    53        340
    54         63
    55        293
    56         13
    57          0
    60          3
    61         16
    62         19
    63         29
    64          4
    65         42
    66         14
    67        204
    68        181
    69        999
    70         86
    71          3
    72          0
    73          7
    74          2
    75         26
    76         17
    77          9
    78          6
    79          0
    84          1
    85          0
    87          3
    88          2
    89         97
    90          5
    91         31
    92          2
   104        430
   105         27
   106        148
   107          8
   108          0