##TITLE=Library Entry 21443
##JCAMP-DX=Revision 4.10 
##DATA TYPE=MASS SPECTRUM
##SAMPLE DESCRIPTION=J.E. WILKINSON S-CUBED, SAN DIEGO, CA.
##NAMES=HP
##CAS NAME=Benzene, 1-[(2-methyl-2-propenyl)oxy]-2-nitro-
##MOLFORM=C10H11NO3
##CAS REGISTRY NO=13414-54-5
##MP= -300
##BP= -300
##MW= 193
##$RETENTION INDEX=0
##$CONDENSED SPECTRUM=NO
##NPOINTS= 102
##XYDATA=(XY..XY) 1 
    45          2
    46          7
    48          0
    49          3
    50        130
    51        181
    52        120
    53        262
    54         79
    55        999
    56         95
    57          4
    58          0
    59          0
    60          0
    61         11
    62         45
    63        269
    64        160
    65        104
    66         18
    67          7
    68          5
    69         51
    70          4
    71         73
    72          2
    73          2
    74         22
    75         20
    76         33
    77         48
    78         89
    79         44
    80         17
    81         37
    82          1
    83          0
    86          0
    87          0
    88          0
    89          4
    90          3
    91         41
    92         51
    93         43
    94         37
    95         31
    96          1
   101          0
   102          3
   103          8
   104          3
   105         17
   106        243
   107         23
   108          4
   109         30
   110          1
   115         12
   116          3
   117          7
   118          5
   119          6
   120         18
   121         14
   122         51
   123        636
   124         69
   125          5
   126          0
   127          1
   128          1
   130          4
   131         21
   132          6
   133         11
   134          5
   135          5
   136          0
   139         25
   140          1
   144          0
   145          8
   146         10
   147         19
   148          6
   149          0
   150          0
   152          0
   158          0
   159          0
   160          1
   161          0
   163          4
   164          1
   174          0
   176          3
   177          0
   178          1
   193          7
   194          0