##TITLE=Library Entry 89478
##JCAMP-DX=Revision 4.10 
##DATA TYPE=MASS SPECTRUM
##SAMPLE DESCRIPTION=Darrick Lee, Cayman Chemical, Ann Arbor, MI
##NAMES=HP
##CAS NAME=a-PBP
##MOLFORM=C14H19NO
##CAS REGISTRY NO=13415-54-8
##MP= -300
##BP= -300
##MW= 217
##$RETENTION INDEX=0
##$CONDENSED SPECTRUM=NO
##NPOINTS= 96
##XYDATA=(XY..XY) 1 
    41         71
    42         51
    43         19
    44          3
    50         13
    51         47
    52          5
    53          8
    54         27
    55         61
    56         16
    57          2
    58         13
    59          1
    62          1
    63          2
    64          1
    65          3
    66          1
    67          4
    68         19
    69         19
    70         75
    71          4
    72          1
    74          3
    75          3
    77        114
    78         11
    79          2
    80          4
    81          2
    82          8
    83          3
    84          6
    85          1
    89          2
    90          1
    91         11
    92          1
    93          1
    94          4
    96         31
    97         19
    98          2
   102          2
   103          2
   105         43
   106          4
   107          1
   108          4
   110         50
   112        999
   113         78
   114          3
   115          3
   116          1
   117          2
   118          1
   119          1
   120          1
   127          1
   128          2
   129          1
   130          2
   131          3
   132          1
   133          1
   143          1
   144          1
   145          1
   146          1
   147          1
   148          1
   156          1
   158          1
   159          1
   160          2
   161          1
   170          1
   172          1
   173          1
   182          1
   184          1
   186          2
   187          1
   188          7
   189          1
   200          1
   201          1
   202          1
   213          1
   214          1
   215          3
   216          1
   217          1