##TITLE=Library Entry 24913
##JCAMP-DX=Revision 4.10 
##DATA TYPE=MASS SPECTRUM
##SAMPLE DESCRIPTION=Exported from NIST MS Search
##NAMES=HP
##CAS NAME=Aziridine, 1-acetyl-2-methyl-
##MOLFORM=C5H9NO
##CAS REGISTRY NO=13416-47-2
##MP= -300
##BP= -300
##MW= 99
##$RETENTION INDEX=0
##$CONDENSED SPECTRUM=NO
##NPOINTS= 29
##XYDATA=(XY..XY) 1 
    26         25
    27         59
    28        206
    29        122
    30        101
    40         25
    41         92
    42         84
    43        527
    44         25
    54         38
    55         75
    56        903
    57        999
    58         42
    67        211
    68        548
    69        801
    70        295
    71        295
    72        253
    73        147
    83         16
    84        160
    85         21
    97         12
    98         21
    99        185
   100         42