##TITLE=Library Entry 67450
##JCAMP-DX=Revision 4.10 
##DATA TYPE=MASS SPECTRUM
##SAMPLE DESCRIPTION=NIST Mass Spectrometry Data Center
##NAMES=HP
##CAS NAME=3-Tigloyloxy-6-(2-Methylpropanoyl)oxy-7-hydroxytropane
##MOLFORM=C17H27NO5
##CAS REGISTRY NO=1341219-31-5
##MP= -300
##BP= -300
##MW= 325
##$RETENTION INDEX=2208
##$CONDENSED SPECTRUM=NO
##NPOINTS= 65
##XYDATA=(XY..XY) 1 
    27         10
    29         12
    30          4
    39         15
    41         34
    42         76
    43        137
    44         20
    53         17
    54         14
    55        148
    56         17
    57         31
    58         14
    67         21
    68         19
    69         20
    70         61
    71         63
    72         12
    81         24
    82         37
    83        134
    84         26
    86         12
    93         14
    94        999
    95        457
    96         95
    97         34
    98         29
   100          7
   102          7
   108        101
   109         34
   110         43
   112         23
   114         16
   120         58
   124         28
   125          9
   126         21
   136        121
   137        531
   138        696
   139         68
   154         43
   155          6
   196         37
   203          5
   222          7
   224          9
   225          9
   226         38
   227          4
   237         49
   238         12
   242         14
   243          3
   245          3
   296          3
   307          3
   310          2
   325          7
   326          2