##TITLE=Library Entry 57367
##JCAMP-DX=Revision 4.10 
##DATA TYPE=MASS SPECTRUM
##SAMPLE DESCRIPTION=NIST Mass Spectrometry Data Center
##NAMES=HP
##CAS NAME=2-Trimethylsilyl-1,3-dithiane
##MOLFORM=C7H16S2Si
##CAS REGISTRY NO=13411-42-2
##MP= -300
##BP= -300
##MW= 192
##$RETENTION INDEX=0
##$CONDENSED SPECTRUM=NO
##NPOINTS= 100
##XYDATA=(XY..XY) 1 
    14          3
    15         28
    17          1
    18          4
    26         10
    27         54
    28         37
    29         59
    30          5
    31         48
    32          3
    33          2
    34          1
    35          2
    37          1
    39         80
    40         13
    41        113
    42         38
    43        174
    44         51
    45        402
    46         54
    47         47
    48          2
    49          1
    53         29
    54          5
    55         26
    56          4
    57         22
    58         67
    59        176
    60         27
    61         38
    62          4
    63          7
    64          4
    65          2
    66          2
    67          5
    68          1
    69          3
    70          4
    71         16
    73        896
    74         84
    75        155
    76         24
    77         41
    78          6
    79          3
    83          2
    85         56
    87        999
    88         57
    89         53
    90         24
    91         61
    92          7
    93          5
    95          1
    97          3
   101          3
   102          3
   103         18
   104          4
   105         13
   106          3
   107          7
   108          3
   109          9
   110          1
   111          1
   115         35
   116          4
   117         20
   119        164
   120         11
   121         18
   122          2
   123          1
   131          9
   132          2
   133          7
   135         20
   136          3
   137          2
   145          1
   149         91
   150         11
   151         11
   152          1
   164          2
   177          9
   178          1
   192         89
   193         12
   194         11
   195          1