##TITLE=Library Entry 41184
##JCAMP-DX=Revision 4.10 
##DATA TYPE=MASS SPECTRUM
##SAMPLE DESCRIPTION=RADIAN CORP
##NAMES=HP
##CAS NAME=2-Hexenoic acid, (E)-
##MOLFORM=C6H10O2
##CAS REGISTRY NO=13419-69-7
##MP= -300
##BP= -300
##MW= 114
##$RETENTION INDEX=1045
##$CONDENSED SPECTRUM=NO
##NPOINTS= 65
##XYDATA=(XY..XY) 1 
    14          1
    15         10
    16          4
    26         25
    27        127
    28         43
    29        126
    30          2
    31         16
    32         11
    37         14
    38         40
    39        272
    40         82
    41        276
    42        295
    43        125
    44         18
    45        128
    46          2
    47          1
    49          3
    50         26
    51         37
    52         14
    53        104
    54         33
    55        345
    56         48
    57         77
    58         31
    59         56
    60        115
    61          8
    62         11
    63         14
    65         22
    66         13
    67         78
    68        378
    69        160
    70         13
    71         95
    72         16
    73        999
    74         35
    75          4
    77          3
    79          3
    81        117
    82          7
    83          2
    84          1
    85         28
    86         53
    87          3
    95         21
    96         78
    97         50
    98          3
    99        327
   100         18
   113          6
   114         81
   115          5