##TITLE=Library Entry 50608
##JCAMP-DX=Revision 4.10 
##DATA TYPE=MASS SPECTRUM
##SAMPLE DESCRIPTION=Chemical Concepts
##NAMES=HP
##CAS NAME=Bicyclo[4.1.0]heptane-7-carboxylic acid, 2-oxo-, methyl ester, (1
.alpha.,6.alpha.,7.beta.)-
##MOLFORM=C9H12O3
##CAS REGISTRY NO=134115-61-0
##MP= -300
##BP= -300
##MW= 168
##$RETENTION INDEX=0
##$CONDENSED SPECTRUM=NO
##NPOINTS= 101
##XYDATA=(XY..XY) 1 
    26         55
    27        395
    28         74
    29         87
    30          8
    31         25
    35         35
    37         21
    38         64
    39        478
    40         90
    41        367
    42         73
    43        266
    44         16
    45         30
    47         81
    49         50
    50         65
    51        141
    52        125
    53        605
    54        109
    55        337
    56         38
    57         61
    58         71
    59        194
    60         10
    61         15
    62         12
    63         29
    64          9
    65         82
    66        137
    67        269
    68        107
    69         77
    70         18
    71         58
    72         23
    73         11
    74        126
    75         29
    76          6
    77        100
    78         30
    79        288
    80        336
    81        999
    82        156
    83         62
    84        271
    85         60
    86        163
    87         29
    88         29
    91         43
    92         13
    93         17
    94         71
    95         69
    96         20
    97        134
    98         57
    99         26
   100         27
   101         37
   104          7
   105          9
   106          5
   107         81
   108        671
   109        260
   110         29
   111        405
   112         92
   113        456
   114         41
   115          7
   117        113
   118          8
   119        115
   120         15
   121         42
   123          9
   124         12
   125         43
   126         15
   127          9
   135         19
   136        468
   137        264
   138         28
   139         57
   140        389
   141         42
   153          8
   168        190
   169         24
   170          2