##TITLE=Library Entry 86688
##JCAMP-DX=Revision 4.10 
##DATA TYPE=MASS SPECTRUM
##SAMPLE DESCRIPTION=Chemical Concepts
##NAMES=HP
##CAS NAME=Benzenemethanol, 3-methoxy-.alpha.-phenyl-
##MOLFORM=C14H14O2
##CAS REGISTRY NO=134172-65-9
##MP= -300
##BP= -300
##MW= 214
##$RETENTION INDEX=0
##$CONDENSED SPECTRUM=NO
##NPOINTS= 108
##XYDATA=(XY..XY) 1 
    31          9
    32        194
    36         10
    37         11
    38         38
    39        145
    40         26
    41         17
    42          5
    43         39
    44          7
    45          5
    47          5
    49          3
    50         95
    51        200
    52         87
    53         35
    55         27
    57         10
    58         10
    59          6
    61          6
    62         19
    63         87
    64         71
    65        122
    66         65
    67          8
    69          7
    70          9
    71          6
    73          6
    74         32
    75         32
    76         75
    77        603
    78        447
    80         18
    81         12
    82         18
    83         11
    84          5
    85          7
    86          5
    87          8
    89         17
    90          9
    91         34
    92         75
    93         36
    94        213
    95         19
    99         13
   101          6
   102         11
   103          5
   105        679
   106         67
   107        188
   108        308
   109        999
   110         83
   111          7
   115         44
   116          6
   119          5
   120          5
   121         17
   126         10
   127         17
   135        437
   136        122
   137         87
   138          9
   139         19
   140          6
   141         24
   142          8
   150          8
   151         30
   152         95
   153         96
   154         29
   155         15
   156          5
   163         10
   165         79
   166         32
   167         24
   168         19
   169         19
   170         24
   171         12
   172         18
   173          4
   181         71
   182         37
   183         71
   184         14
   185         14
   195         45
   197         46
   199         13
   203         12
   214        734
   215        116
   216         11