##TITLE=Library Entry 29862
##JCAMP-DX=Revision 4.10 
##DATA TYPE=MASS SPECTRUM
##SAMPLE DESCRIPTION=Exported from NIST MS Search
##NAMES=HP
##CAS NAME=2-Propanol, 1-(2-methoxypropoxy)-
##MOLFORM=C7H16O3
##CAS REGISTRY NO=13429-07-7
##MP= -300
##BP= -300
##MW= 148
##$RETENTION INDEX=1532
##$CONDENSED SPECTRUM=NO
##NPOINTS= 68
##XYDATA=(XY..XY) 1 
    15         19
    16          0
    17          1
    18          5
    19          3
    26          2
    27         19
    28         14
    29         68
    30          3
    31        102
    32          3
    33         17
    35          3
    37          2
    39         17
    40          4
    41         70
    42         65
    43         66
    44          6
    45        105
    46          2
    47          1
    53          0
    55          7
    56          1
    57         19
    58         59
    59        999
    60         34
    61          4
    63          0
    69          0
    71          7
    72         20
    73         96
    74          5
    75          9
    77          1
    79          0
    80          0
    81          0
    82          1
    83          2
    85          0
    87          0
    88          1
    89          8
    90          0
    91          2
    95          0
    97          1
    99          0
   101          7
   102          0
   103         32
   104         54
   105          4
   106          0
   110          0
   115          1
   116          1
   117          0
   129          0
   130          2
   131          0
   133          0