##TITLE=Library Entry 22079
##JCAMP-DX=Revision 4.10 
##DATA TYPE=MASS SPECTRUM
##SAMPLE DESCRIPTION=Japan AIST/NIMC Database- Spectrum MS-NW-7687
##NAMES=HP
##CAS NAME=Furan, tetrahydro-3-methyl-
##MOLFORM=C5H10O
##CAS REGISTRY NO=13423-15-9
##MP= -300
##BP= -300
##MW= 86
##$RETENTION INDEX=705
##$CONDENSED SPECTRUM=NO
##NPOINTS= 43
##XYDATA=(XY..XY) 1 
    14          3
    15         13
    18          1
    26         18
    27        106
    28        131
    29        143
    30         10
    31         20
    37          4
    38          9
    39        115
    40         37
    41        676
    42         42
    43         41
    44         46
    45         23
    47          1
    49          1
    50          7
    51          9
    52          3
    53         17
    54         13
    55        121
    56        999
    57         67
    58          9
    59          2
    60          2
    65          1
    67          7
    68          1
    69          4
    70          1
    71         80
    72          6
    83          2
    84          1
    85         46
    86        202
    87         11