##TITLE=Library Entry 87571
##JCAMP-DX=Revision 4.10 
##DATA TYPE=MASS SPECTRUM
##SAMPLE DESCRIPTION=Exported from NIST MS Search
##NAMES=HP
##CAS NAME=D-Homoestr-4-en-3-one, 17-hydroxy-, (17.beta.)-
##MOLFORM=C19H28O2
##CAS REGISTRY NO=13421-98-2
##MP= -300
##BP= -300
##MW= 288
##$RETENTION INDEX=0
##$CONDENSED SPECTRUM=NO
##NPOINTS= 79
##XYDATA=(XY..XY) 1 
    90        158
    91         39
    92         87
    93         27
    94        142
    95         25
    96         31
   104         15
   105        107
   106         48
   107         78
   108         39
   110        999
   111        107
   114         27
   116         41
   117         44
   118         68
   119         46
   120         44
   121         60
   122        195
   123         44
   130         31
   131         21
   132         60
   133         31
   134         97
   135         27
   143         19
   144         13
   145         78
   146         29
   147         50
   148         70
   149         31
   150         15
   157         15
   158         15
   159         48
   160         99
   161        216
   162         68
   163         21
   165         23
   166         17
   171         17
   172          9
   173         29
   174         19
   175         17
   178         95
   179        234
   180         70
   185         21
   186         19
   187         21
   188         31
   189         11
   197         11
   199         11
   202          7
   203          7
   204         19
   213         19
   214          9
   215         31
   216          7
   217         15
   218          9
   228         15
   231         17
   246         27
   260         17
   270         46
   271         11
   272          9
   288        191
   289         46