##TITLE=Library Entry 34221
##JCAMP-DX=Revision 4.10 
##DATA TYPE=MASS SPECTRUM
##SAMPLE DESCRIPTION=D.HENNEBERG, MAX-PLANCK INSTITUTE, MULHEIM, WEST GERMAN
Y
##NAMES=HP
##CAS NAME=1-Hexene, 3,3,5-trimethyl-
##MOLFORM=C9H18
##CAS REGISTRY NO=13427-43-5
##MP= -300
##BP= -300
##MW= 126
##$RETENTION INDEX=0
##$CONDENSED SPECTRUM=NO
##NPOINTS= 65
##XYDATA=(XY..XY) 1 
    22          0
    23          0
    24          1
    25          1
    26          4
    27        128
    28          9
    29        112
    30          3
    35          4
    36          0
    37          4
    38          4
    39        117
    40         23
    41        691
    42         70
    43        188
    45          1
    46          2
    47          1
    49          0
    50          4
    51         11
    52          5
    53         51
    54         10
    55        453
    56        297
    57        216
    58          8
    59          0
    62          0
    63          2
    64          0
    65          9
    66          6
    67         56
    68         76
    69        999
    70        394
    71         28
    72          0
    76          0
    77          5
    78          0
    79          4
    80          0
    81          4
    82         10
    83        145
    84         74
    85          6
    91          1
    93          0
    95          2
    96          0
    97          3
    98         12
    99          3
   109          0
   111         18
   112          1
   126         14
   127          1