##TITLE=Library Entry 61340
##JCAMP-DX=Revision 4.10 
##DATA TYPE=MASS SPECTRUM
##SAMPLE DESCRIPTION=Chemical Concepts
##NAMES=HP
##CAS NAME=N-(Benzyloxycarbonyl)-3,3,3-trifluoroalanine ethyl ester
##MOLFORM=C13H14F3NO4
##CAS REGISTRY NO=134356-87-9
##MP= -300
##BP= -300
##MW= 305
##$RETENTION INDEX=0
##$CONDENSED SPECTRUM=NO
##NPOINTS= 102
##XYDATA=(XY..XY) 1 
    33          1
    34          4
    37          3
    38          8
    39         57
    40         67
    41         25
    42          6
    43         17
    44         75
    45         25
    46          2
    47          1
    48          4
    49          1
    50         19
    51         48
    52         17
    53          8
    54          4
    55          9
    56          8
    57          8
    58          2
    59          2
    60          2
    61          2
    62          7
    63         30
    64         10
    65        137
    66          7
    67          2
    68          1
    69         14
    70          4
    71          3
    72          1
    73          5
    74         23
    75          5
    77         96
    78         29
    79        194
    80         14
    81          3
    82          2
    83          4
    84          4
    85          2
    86          2
    87          2
    89         70
    90        174
    91        999
    92         76
    93          4
    94          1
    95          2
    96          2
    97          3
    98         57
    99          3
   101          1
   102          2
   103          1
   105         30
   106         15
   107        219
   108        747
   109         62
   110          7
   112          1
   116          4
   117          1
   118          1
   119          6
   121          1
   123          2
   124         30
   125          4
   128          9
   129          2
   131          1
   135          1
   142         17
   143          2
   144          1
   149          2
   151          1
   154          1
   156          1
   170          6
   171          2
   172          3
   186          1
   187          1
   198          1
   244          1
   252          1
   305         34
   306          5