##TITLE=Library Entry 16074
##JCAMP-DX=Revision 4.10 
##DATA TYPE=MASS SPECTRUM
##SAMPLE DESCRIPTION=A.A.Kutin, Moscow, Russia
##NAMES=HP
##CAS NAME=5-Amino-N-hydroxy-[1,3,4]oxadiazole-2-carboxamidine
##MOLFORM=C3H5N5O2
##CAS REGISTRY NO=134318-60-8
##MP= -300
##BP= -300
##MW= 143
##$RETENTION INDEX=0
##$CONDENSED SPECTRUM=NO
##NPOINTS= 85
##XYDATA=(XY..XY) 1 
    33         11
    34         22
    35          7
    36         32
    37          3
    38         34
    39         41
    40        184
    41        204
    42        534
    43        534
    44        999
    45         37
    46          5
    48          2
    50          2
    51          5
    52         13
    53        102
    54         66
    55         98
    56         79
    57         78
    58         53
    59        290
    60         29
    61          5
    64         21
    65          4
    66          3
    67         23
    68         72
    69        122
    70        624
    71         52
    72          6
    73         20
    74          3
    76          9
    77          7
    78          2
    79          9
    80          3
    81         12
    82         12
    83         36
    84         95
    85         56
    86         33
    87         10
    88          1
    89          1
    91          5
    92          1
    93          2
    94          2
    95          8
    96          7
    97         11
    98          6
    99          5
   100         16
   101          6
   102          1
   103          1
   104          2
   105          4
   107          2
   109          4
   110         13
   111         22
   113        796
   114         38
   115          5
   116          0
   125          5
   126          3
   127         17
   128         49
   129          8
   140          0
   141         10
   143        653
   144         33
   145          2