##TITLE=Library Entry 9163
##JCAMP-DX=Revision 4.10 
##DATA TYPE=MASS SPECTRUM
##SAMPLE DESCRIPTION=Chemical Concepts
##NAMES=HP
##CAS NAME=1,3-Propanediol, 2-hydroxymethyl-2-methyl-, triacetate
##MOLFORM=C11H18O6
##CAS REGISTRY NO=13431-59-9
##MP= -300
##BP= -300
##MW= 246
##$RETENTION INDEX=0
##$CONDENSED SPECTRUM=NO
##NPOINTS= 68
##XYDATA=(XY..XY) 1 
    26          0
    27         13
    28          2
    29         15
    30          0
    31          5
    39         18
    40          1
    41         21
    42         15
    43        999
    44         20
    45          2
    53          4
    54         16
    55         26
    56         19
    57         13
    58          1
    61         33
    65          0
    67          4
    68          0
    69         21
    70          4
    71         62
    72        411
    73         24
    74          0
    81          0
    82          0
    83         47
    84         48
    85         20
    86          1
    87          0
    89          0
    96          8
    97          0
    98         20
    99          0
   100          0
   101          1
   103         86
   104          2
   109          0
   111          0
   112          0
   113         14
   114        135
   115          9
   116          0
   121          3
   125          9
   126         81
   127          8
   128          0
   129          0
   130          0
   131          4
   143         30
   144          2
   145          0
   161          0
   163          2
   173          3
   186          0
   187          2