##TITLE=Library Entry 7508
##JCAMP-DX=Revision 4.10 
##DATA TYPE=MASS SPECTRUM
##SAMPLE DESCRIPTION=T.A.BLAZER DU PONT, GIBBSTOWN, N.J., USA
##NAMES=HP
##CAS NAME=1,3-Propanediol, 2,2-dimethyl-, diacetate
##MOLFORM=C9H16O4
##CAS REGISTRY NO=13431-57-7
##MP= -300
##BP= -300
##MW= 188
##$RETENTION INDEX=0
##$CONDENSED SPECTRUM=NO
##NPOINTS= 100
##XYDATA=(XY..XY) 1 
    13          2
    14          8
    15        106
    16          9
    19          0
    26          3
    27         35
    28         34
    29         42
    30          2
    31         10
    37          0
    38          2
    39         31
    40          3
    41         65
    42         20
    43        999
    44         26
    45         10
    50          1
    51          1
    52          1
    53          8
    54          3
    55         54
    56        198
    57         23
    58          4
    59          1
    60          1
    61         20
    62          0
    66          0
    67          5
    68         73
    69         21
    70          3
    71         30
    72         10
    73         28
    74          3
    75          0
    77          1
    79          1
    80          0
    81          3
    82          1
    83          8
    84          3
    85         18
    86         53
    87          4
    89          0
    91          2
    92          0
    93          2
    94          1
    95          4
    96          1
    97          2
    98         35
    99          4
   100          2
   101          1
   103         75
   104          3
   105          1
   106          0
   107          1
   108          1
   109          2
   110          1
   111          1
   112          0
   113          4
   114          1
   115         92
   116          7
   117          1
   119          0
   121          1
   122          0
   123          1
   124          0
   125          1
   127          1
   128          4
   129          1
   131          1
   133          1
   135          1
   136          0
   137          0
   138          0
   139          0
   141          0
   145          5
   146          0
   147          0