##TITLE=Library Entry 40825
##JCAMP-DX=Revision 4.10 
##DATA TYPE=MASS SPECTRUM
##SAMPLE DESCRIPTION=CONTINENTAL OIL CO., PONCA CITY, OKLA, USA
##NAMES=HP
##CAS NAME=3-Hexanol, 2,4-dimethyl-
##MOLFORM=C8H18O
##CAS REGISTRY NO=13432-25-2
##MP= -300
##BP= -300
##MW= 130
##$RETENTION INDEX=0
##$CONDENSED SPECTRUM=NO
##NPOINTS= 81
##XYDATA=(XY..XY) 1 
    13          2
    14          9
    15         36
    16          1
    17          4
    18         15
    19          2
    24          1
    25          1
    26         27
    27        370
    28         97
    29        382
    30         24
    31        150
    32          3
    33          1
    37          5
    38         13
    39        190
    40         31
    41        430
    42         46
    43        439
    44         28
    45        841
    46         19
    47          3
    50          6
    51         11
    52          4
    53         33
    54         10
    55        365
    56         78
    57        262
    58         51
    59         39
    60          1
    62          1
    63          2
    64          0
    65          4
    66          2
    67         11
    68          8
    69        277
    70         28
    71         63
    72         94
    73        999
    74         45
    75          4
    77          2
    78          1
    79          2
    81          3
    82          1
    83         14
    84          3
    85         16
    86         55
    87        445
    88         25
    89          2
    95          1
    97          7
    98          1
    99          2
   100          1
   101          2
   104          1
   105          4
   106          1
   111          1
   112          1
   113          1
   115          2
   128          3
   129          2
   130          1