##TITLE=Library Entry 100915
##JCAMP-DX=Revision 4.10 
##DATA TYPE=MASS SPECTRUM
##SAMPLE DESCRIPTION=Drug Lab
##NAMES=HP
##CAS NAME=Tolcapone
##MOLFORM=C14H11NO5
##CAS REGISTRY NO=134308-13-7
##MP= -300
##BP= -300
##MW= 273
##$RETENTION INDEX=0
##$CONDENSED SPECTRUM=NO
##NPOINTS= 66
##XYDATA=(XY..XY) 1 
    50         17
    51         28
    52         11
    53         19
    62         13
    63         26
    64         11
    65         95
    66          8
    69          6
    75          5
    76          7
    77         13
    78          9
    79         17
    80          5
    84          6
    89         31
    90         23
    91        314
    92         30
   107         14
   108         29
   115         28
   116          6
   119        999
   120         91
   121          6
   122          7
   127          8
   128          9
   129         34
   135         16
   136         62
   137         11
   139         10
   140          5
   141         23
   142          6
   152         10
   153          6
   154          8
   155         10
   165          6
   169         26
   170          7
   171          5
   182        227
   183         29
   184          9
   197         54
   198         14
   199          5
   210          6
   211          7
   212          7
   225          7
   226         20
   227         11
   228          7
   243          8
   256          5
   258         21
   273        723
   274        117
   275         16