##TITLE=Library Entry 42808
##JCAMP-DX=Revision 4.10 
##DATA TYPE=MASS SPECTRUM
##SAMPLE DESCRIPTION=NIST Mass Spectrometry Data Center, 2010
##NAMES=HP
##CAS NAME=1,2-Benzenediamine, 2TMS derivative
##MOLFORM=C12H24N2Si2
##CAS REGISTRY NO=13435-10-4
##MP= -300
##BP= -300
##MW= 252
##$RETENTION INDEX=1512
##$CONDENSED SPECTRUM=NO
##NPOINTS= 157
##XYDATA=(XY..XY) 1 
    27          1
    28          2
    29          5
    30          1
    31          3
    39          2
    41          1
    42          2
    43         27
    44         16
    45        142
    46         11
    47          5
    51          3
    52          3
    53          6
    54          4
    55          5
    56          3
    57          7
    58          9
    59         20
    60          4
    61          1
    63          1
    64          1
    65          3
    66          1
    67          3
    68          2
    69          2
    70          7
    71          3
    73        999
    74         98
    75         37
    76          2
    77          5
    78          4
    79          3
    80         13
    81          3
    82          3
    83          3
    84          8
    85          2
    86          3
    87          1
    88          1
    89          1
    90          1
    91          5
    92          3
    93          3
    94          3
    95          4
    96          3
    97          1
    98          1
    99          1
   100          7
   101          2
   102          2
   103          1
   104          1
   105          3
   106         11
   107          6
   108          3
   109          3
   110          2
   111          1
   113          1
   114          1
   115          1
   116          1
   117          1
   118          2
   119          8
   120          9
   121          3
   122          2
   123          1
   124          1
   130          5
   131          2
   132          5
   133          9
   134        125
   135         21
   136         10
   137          2
   138          1
   145          1
   146          6
   147         18
   148         24
   149        684
   150         92
   151         28
   152         14
   153          2
   154          1
   159          1
   160          2
   161          6
   162          8
   163         20
   164         38
   165         26
   166          5
   167          1
   173          2
   174          1
   175          3
   176          2
   177         17
   178          5
   179          5
   180          4
   181          1
   187          2
   188          1
   189          5
   190          3
   191          8
   192          2
   193          1
   201          1
   202          1
   203          2
   204          4
   205          7
   206          3
   207          2
   208          1
   217          2
   218          1
   219         17
   220          8
   221         49
   222         11
   223          4
   224          1
   234          1
   235          5
   236         15
   237        132
   238         30
   239         12
   240          2
   250          2
   252        585
   253        139
   254         53
   255          8
   256          1