##TITLE=Library Entry 77641
##JCAMP-DX=Revision 4.10 
##DATA TYPE=MASS SPECTRUM
##SAMPLE DESCRIPTION=Dennis Rohrbaugh, CBDCOM/ERDEC, Edgewood, MD
##NAMES=HP
##CAS NAME=Diisopropylamino ethyl sulfide
##MOLFORM=C8H19NS
##CAS REGISTRY NO=134441-13-7
##MP= -300
##BP= -300
##MW= 161
##$RETENTION INDEX=0
##$CONDENSED SPECTRUM=NO
##NPOINTS= 34
##XYDATA=(XY..XY) 1 
    45         38
    47         30
    48         45
    49         21
    56        112
    57         21
    58        198
    59         40
    60         34
    61        106
    70         68
    73         32
    74         34
    75         52
    76        268
    77         36
    84         38
    86         23
    88          9
    89          9
    90        166
    91         10
   103          5
   104        999
   105         59
   106         43
   118         55
   132         40
   146        386
   147         34
   148         15
   161        350
   162         42
   163         15