##TITLE=Library Entry 61134
##JCAMP-DX=Revision 4.10 
##DATA TYPE=MASS SPECTRUM
##SAMPLE DESCRIPTION=A.A.Kutin, Moscow, Russia
##NAMES=HP
##CAS NAME=1H-Pyrano[3,4-c]pyridine-5-carbonitrile, 3,4-dihydro-6-benzylamin
o-3,3,8-trimethyl-
##MOLFORM=C19H21N3O
##CAS REGISTRY NO=134480-22-1
##MP= -300
##BP= -300
##MW= 307
##$RETENTION INDEX=0
##$CONDENSED SPECTRUM=NO
##NPOINTS= 216
##XYDATA=(XY..XY) 1 
    33          2
    38          6
    39         37
    40         13
    41         27
    42         30
    43         89
    44          3
    45          0
    50          9
    51         27
    52         15
    53         16
    54          3
    55          5
    56          2
    57          3
    58          3
    59          3
    61          0
    62          6
    63         29
    64         26
    65        137
    66         18
    67          4
    68          2
    69          1
    70          2
    71          0
    73          0
    74          3
    75          9
    76         17
    77         54
    78         20
    79         37
    80          4
    81          2
    82          1
    83          1
    84          1
    85          2
    87          1
    89         78
    91        999
    92         55
    93          7
    94          2
    96          2
    97          1
    99          0
   100          2
   101          6
   102         13
   103         22
   104         45
   106        607
   107         34
   108          3
   110          3
   111          5
   112          1
   113          1
   115         16
   116         29
   117         19
   118         10
   119          7
   120          5
   121          5
   122          2
   123          3
   124          4
   125          3
   126          2
   127          4
   128          8
   129         13
   130         14
   131         15
   132         16
   133          3
   134          0
   135          0
   137          2
   138          0
   139          3
   140          3
   141          6
   142         13
   143         25
   144         40
   145         20
   146         16
   147          2
   148          0
   151          1
   152          2
   153          5
   154          4
   155          5
   156          6
   157          7
   158         16
   159         11
   160          4
   161          1
   162          0
   164          1
   165          1
   166          1
   167          2
   168          2
   169          3
   170         10
   171          9
   172         28
   173          6
   174          4
   175         10
   176          1
   178          3
   179          2
   180          3
   181          2
   182          1
   183          2
   184          1
   186          4
   187          2
   188          2
   190          2
   191          1
   192          2
   193          2
   194          2
   196          2
   197          0
   198          1
   199          0
   200          1
   201          2
   202         12
   203          3
   204          2
   205          4
   206          3
   207          3
   208          1
   209          2
   210          1
   211          0
   212          0
   214          1
   215          0
   216          1
   217          1
   218          2
   219          3
   220          4
   221          7
   222          3
   223          2
   228          0
   229          5
   230          9
   232         13
   233          7
   234          7
   235          4
   236          5
   237          4
   238          0
   239          3
   240          0
   244          2
   245          5
   246          8
   248         85
   249         53
   250         14
   251          3
   261          3
   262          2
   263          5
   264          9
   265          3
   266          0
   273          0
   274          0
   275          2
   276          2
   277          3
   278          7
   279          1
   285          0
   286          0
   287          3
   288          6
   289         11
   290         23
   292        130
   293         18
   294          2
   296          0
   298          0
   299          2
   301          3
   302          5
   303         23
   305         33
   306         78
   307        139
   308         23
   309          2