##TITLE=Library Entry 90740
##JCAMP-DX=Revision 4.10 
##DATA TYPE=MASS SPECTRUM
##SAMPLE DESCRIPTION=Japan AIST/NIMC Database- Spectrum MS-NW-5481
##NAMES=HP
##CAS NAME=3-Piperidinol, 1-ethyl-
##MOLFORM=C7H15NO
##CAS REGISTRY NO=13444-24-1
##MP= -300
##BP= -300
##MW= 129
##$RETENTION INDEX=0
##$CONDENSED SPECTRUM=NO
##NPOINTS= 80
##XYDATA=(XY..XY) 1 
    15         38
    17          4
    18         11
    26         11
    27         98
    28        103
    29         84
    30        111
    31         17
    32          3
    37          1
    38          4
    39         42
    40         10
    41        101
    42        428
    43        115
    44        183
    45          9
    46          1
    47          2
    48          1
    50          3
    51          6
    52          7
    53         14
    54         25
    55         47
    56         99
    57        376
    58        148
    59          7
    60          2
    65          3
    66          2
    67         15
    68         21
    69         13
    70         53
    71         67
    72        317
    73         17
    74          1
    77          1
    78          2
    79          7
    80         13
    81          8
    82         25
    83          7
    84         81
    85         31
    86         52
    87          4
    91          1
    93          2
    94          5
    95          3
    96         45
    97          6
    98         39
    99          5
   100         57
   101          6
   106          1
   107          1
   108         11
   109          5
   110         26
   111         15
   112         18
   113          3
   114        999
   115         74
   116          6
   127          4
   128        103
   129        228
   130         20
   131          2