##TITLE=Library Entry 40750
##JCAMP-DX=Revision 4.10 
##DATA TYPE=MASS SPECTRUM
##SAMPLE DESCRIPTION=J.Little, Eastman Chem. Comp.,Kingsport
##NAMES=HP
##CAS NAME=Pentane, 1-(1-ethoxyethoxy)-
##MOLFORM=C9H20O2
##CAS REGISTRY NO=13442-89-2
##MP= -300
##BP= -300
##MW= 160
##$RETENTION INDEX=972
##$CONDENSED SPECTRUM=NO
##NPOINTS= 29
##XYDATA=(XY..XY) 1 
    14          8
    15         15
    16         15
    26         10
    27        117
    29        207
    31         56
    41        139
    42         85
    43        463
    44         55
    45        747
    47         69
    55         72
    56          7
    59          8
    61         15
    69         14
    70         29
    71        291
    73        999
    74         37
    75        200
    89          5
    99          8
   103          4
   115        123
   116          5
   145        132