##TITLE=Library Entry 29179
##JCAMP-DX=Revision 4.10 
##DATA TYPE=MASS SPECTRUM
##SAMPLE DESCRIPTION=DB-16-3
##NAMES=HP
##CAS NAME=1H-2-Pyrindine, octahydro-2,4,7-trimethyl-
##MOLFORM=C11H21N
##CAS REGISTRY NO=13448-21-0
##MP= -300
##BP= -300
##MW= 167
##$RETENTION INDEX=0
##$CONDENSED SPECTRUM=NO
##NPOINTS= 69
##XYDATA=(XY..XY) 1 
    38         10
    39        170
    40         80
    41        360
    42        470
    43        340
    44        790
    45         40
    46         30
    50         10
    51         30
    52         10
    53        100
    54         30
    55        160
    56         40
    57        190
    58        999
    59         40
    65         30
    66         20
    67        160
    68        170
    69         90
    70         70
    71         30
    72         30
    77         50
    78         10
    79         50
    80         20
    81        140
    82         70
    83         20
    84        210
    85         90
    86         10
    91         30
    92         10
    93         30
    94         50
    95         70
    96         90
    97         10
    98         70
    99         10
   107         50
   108         40
   109         40
   110        160
   111         40
   112         30
   121         10
   122         70
   123         40
   124         40
   125         50
   126         10
   136         10
   138         40
   139         10
   150         10
   152        210
   153         20
   165         10
   166         10
   167        950
   168        450
   169         50