##TITLE=Library Entry 63605
##JCAMP-DX=Revision 4.10 
##DATA TYPE=MASS SPECTRUM
##SAMPLE DESCRIPTION=Chemical Concepts
##NAMES=HP
##CAS NAME=Hexanoic acid, 3-(benzylamino)-, ethyl ester
##MOLFORM=C15H23NO2
##CAS REGISTRY NO=134455-46-2
##MP= -300
##BP= -300
##MW= 249
##$RETENTION INDEX=0
##$CONDENSED SPECTRUM=NO
##NPOINTS= 137
##XYDATA=(XY..XY) 1 
    26          0
    27         17
    28         20
    29         41
    30          9
    31          2
    38          0
    39         13
    40          3
    41         21
    42          8
    43          7
    44          1
    45          2
    46          0
    47          0
    50          2
    51          6
    52          2
    53          2
    54          3
    55          9
    56          4
    57          1
    58          0
    59          1
    60          3
    61          1
    62          0
    63          5
    64          1
    65         56
    66          3
    67          1
    68          1
    69          7
    70          8
    71          1
    72          0
    73          3
    74          0
    75          0
    76          0
    77         14
    78          3
    79         14
    80          4
    81          2
    82          0
    83          0
    84          4
    86          0
    87          0
    88          0
    89         12
    90          8
    91        999
    92         76
    93          3
    96          0
    97          4
    98          0
    99          0
   101          0
   103          3
   104          9
   105          7
   106        349
   107         39
   108          2
   109          0
   112          3
   113          1
   114          0
   115          3
   116          6
   117          6
   118         17
   119          2
   120          1
   121          0
   126          0
   127          0
   128          0
   129          0
   130          3
   131          1
   132         21
   133         12
   134          1
   135          0
   141          0
   142          0
   143          1
   144          0
   145          0
   146          4
   147          0
   148          0
   155          0
   156          0
   158         17
   159          1
   160         24
   161          4
   162        265
   163         33
   164          2
   172          1
   173          0
   174          0
   176          1
   177          1
   178          3
   179          0
   182          0
   183          0
   184          0
   185          0
   186          0
   192          0
   194          0
   195          0
   203          0
   204          3
   205          1
   206        429
   207         49
   208          5
   209          0
   219          0
   220          1
   248          2
   249         15
   250          4
   251          0
   252          0