##TITLE=Library Entry 16002
##JCAMP-DX=Revision 4.10 
##DATA TYPE=MASS SPECTRUM
##SAMPLE DESCRIPTION=H. Luftmann, Org. Chem. Inst., Westfalisch-Wilhelms Uni
v., Munster, Germany
##NAMES=HP
##CAS NAME=Propanamide, N-(1-cyclohexylethyl)-
##MOLFORM=C11H21NO
##CAS REGISTRY NO=1344252-05-6
##MP= -300
##BP= -300
##MW= 183
##$RETENTION INDEX=0
##$CONDENSED SPECTRUM=NO
##NPOINTS= 31
##XYDATA=(XY..XY) 1 
    39        106
    40         36
    41        133
    42         86
    43        157
    44        999
    45         48
    53         26
    54         25
    55         84
    56         27
    57         77
    67         38
    68         11
    69         31
    70         19
    71         11
    72         10
    74        132
    79         13
    81         21
    82         12
    95         17
    97         10
    98         19
    99        166
   100         66
   101         43
   112         17
   154         17
   184         35