##TITLE=Library Entry 29440
##JCAMP-DX=Revision 4.10 
##DATA TYPE=MASS SPECTRUM
##SAMPLE DESCRIPTION=Exported from NIST MS Search
##NAMES=HP
##CAS NAME=11H-Dibenzo[b,e][1,4]diazepin-11-one, 5-[3-(dimethylamino)propyl]
-5,10-dihydro-
##MOLFORM=C18H21N3O
##CAS REGISTRY NO=13450-72-1
##MP= -300
##BP= -300
##MW= 295
##$RETENTION INDEX=0
##$CONDENSED SPECTRUM=NO
##NPOINTS= 133
##XYDATA=(XY..XY) 1 
    27         35
    28         22
    29         49
    30         44
    31          8
    35         22
    39         35
    41         98
    42         89
    43        125
    44         71
    45         53
    47         53
    48         26
    49         17
    50          8
    51         22
    53          8
    54          8
    55         80
    56         49
    57        133
    58        999
    59         84
    60         35
    63          8
    65         35
    67         31
    68         13
    69         58
    70         84
    71         84
    72        111
    73         44
    76         17
    77         75
    78         17
    79         13
    80          8
    81         35
    82         26
    83         49
    84         80
    85        254
    86         35
    87         13
    89         13
    90         13
    91         26
    92         26
    93         13
    95         26
    96          8
    97         35
    98         13
    99          8
   101          8
   102         13
   103          8
   104         22
   105         17
   106          8
   107          8
   109         13
   110          8
   111         17
   112         13
   113          8
   115         13
   117          8
   118        491
   119        120
   120         44
   123          8
   125         13
   126          8
   127         31
   128          8
   129         26
   130         31
   131         22
   132         58
   133         17
   137          8
   138          8
   139         17
   140         13
   141          8
   149         49
   151          8
   152         31
   153         13
   154         22
   155          8
   166         35
   167         49
   168          4
   179         31
   180         44
   181         71
   182         22
   183          8
   192          8
   193         44
   194         44
   195        102
   196         31
   205         22
   206         17
   207         17
   208          8
   209         35
   210         67
   211         13
   219          8
   220          8
   221        147
   222         49
   223        120
   224         89
   225          8
   233         13
   234          8
   235         58
   236         98
   237        107
   238         17
   249        401
   250        133
   251         17
   295        982
   296        169
   297         17