##TITLE=Library Entry 46696
##JCAMP-DX=Revision 4.10 
##DATA TYPE=MASS SPECTRUM
##SAMPLE DESCRIPTION=A.A.Kutin, Moscow, Russia
##NAMES=HP
##CAS NAME=6-(Phenylamino)trichloro-3-cyanopyridine
##MOLFORM=C12H6Cl3N3
##CAS REGISTRY NO=134626-36-1
##MP= -300
##BP= -300
##MW= 297
##$RETENTION INDEX=0
##$CONDENSED SPECTRUM=NO
##NPOINTS= 199
##XYDATA=(XY..XY) 1 
    33          7
    34         10
    35         44
    36        131
    37         62
    38        189
    39        410
    40        147
    41         37
    42          9
    43         20
    44         29
    45          2
    47         49
    48          6
    49         40
    50        307
    51        953
    52        132
    53         19
    54          3
    55         11
    56         10
    57         17
    59          1
    60          7
    61         31
    62        159
    63        146
    64        125
    65        215
    66         49
    67          3
    68          3
    69         12
    70         11
    71         19
    72          5
    73         34
    74        107
    75         87
    76        114
    77        999
    78        144
    79          8
    81          1
    82         15
    83         14
    84         11
    85         50
    86         44
    87         39
    88         75
    89         33
    90         21
    91         30
    92         15
    93          1
    94         18
    96         40
    97         68
    98         32
    99         42
   100         77
   101         22
   102         18
   103         15
   104         34
   105          9
   106          6
   107          2
   108         10
   109         45
   110         15
   111         26
   112         28
   113         81
   114         45
   115         14
   117         26
   118         25
   119          9
   120          8
   121          5
   122         13
   123         66
   124         16
   125         22
   126          5
   127          2
   128          2
   129         10
   131         71
   132        136
   133         13
   134         42
   135         49
   136         28
   137         22
   138         35
   139         31
   140          9
   141          4
   142          2
   144         34
   145          2
   146         21
   147          6
   148        106
   150         96
   151         39
   152          6
   153          3
   155          3
   156          0
   157          0
   158          3
   159          9
   160          1
   161          6
   162          2
   163         10
   164         27
   165         52
   166         27
   167          4
   170         16
   171         17
   172         13
   173         16
   174         14
   175          6
   176          4
   177          0
   179          2
   181          1
   183          1
   184          1
   185          6
   186          5
   187          4
   188          1
   189          4
   190         35
   191        101
   192         40
   193          8
   194         16
   195          4
   196         24
   197          4
   198         15
   199         42
   200         25
   201         19
   202          6
   203          0
   205          8
   206          2
   207          8
   208          7
   209          5
   210          3
   211          0
   224          3
   225         16
   226         76
   227        240
   228         53
   229         72
   230          8
   233          1
   234          6
   235         13
   236          5
   237          7
   238          0
   259          0
   260          9
   261         68
   262         85
   263         53
   264         50
   265         11
   266          6
   271          0
   272          0
   291          0
   292          4
   293         19
   294         27
   296        721
   297        528
   298        666
   299        473
   300        243
   301        151
   302         36
   303         13