##TITLE=Library Entry 71575
##JCAMP-DX=Revision 4.10 
##DATA TYPE=MASS SPECTRUM
##SAMPLE DESCRIPTION=Chuck Anderson, Aldrich Chemical Co.
##NAMES=HP
##CAS NAME=Hexachlorodisilane
##MOLFORM=Cl6Si2
##CAS REGISTRY NO=13465-77-5
##MP= -300
##BP= -300
##MW= 266
##$RETENTION INDEX=0
##$CONDENSED SPECTRUM=NO
##NPOINTS= 63
##XYDATA=(XY..XY) 1 
    28         43
    29          3
    30          2
    32          1
    35         26
    36         11
    37          9
    38          4
    47          6
    56          9
    63        707
    64         39
    65        267
    66         14
    67         10
    82          3
    85          9
    91          9
    93          3
    98        999
    99         50
   100        712
   101         37
   102        135
   103          6
   104          4
   107          1
   117         12
   119          8
   120          1
   121          1
   126          6
   128          5
   133        954
   134         44
   135        949
   136         45
   137        318
   138         15
   139         39
   140          1
   196          4
   198          6
   200          3
   231         36
   232          2
   233         62
   234          5
   235         42
   236          3
   237         14
   239          2
   247          0
   249          1
   251          0
   266         17
   267          1
   268         35
   269          3
   270         29
   271          2
   272         13
   274          3