##TITLE=Library Entry 48435
##JCAMP-DX=Revision 4.10 
##DATA TYPE=MASS SPECTRUM
##SAMPLE DESCRIPTION=Japan AIST/NIMC Database- Spectrum MS-NW-5477
##NAMES=HP
##CAS NAME=Pyrithione Zinc
##MOLFORM=C10H8N2O2S2Zn
##CAS REGISTRY NO=13463-41-7
##MP= -300
##BP= -300
##MW= 316
##$RETENTION INDEX=0
##$CONDENSED SPECTRUM=NO
##NPOINTS= 247
##XYDATA=(XY..XY) 1 
    16          1
    25          1
    26         16
    27         44
    30          4
    32          8
    33          1
    37         12
    38         30
    39        212
    40         16
    41          6
    42          4
    43          5
    44          7
    45         59
    46          2
    47          2
    48         12
    49          7
    50         53
    51        226
    52         79
    53          7
    54          9
    55         15
    56          3
    57         31
    58         17
    59          6
    60          6
    61          2
    62          6
    63         11
    64         25
    65          5
    66         33
    67         48
    68         10
    69         54
    70         49
    71         25
    72          9
    73          3
    74          2
    75          6
    76         11
    77          6
    78        999
    79         89
    80          7
    81         17
    82         44
    83         84
    84         29
    85         14
    86          3
    87          1
    89          4
    90          2
    91          3
    92          2
    93          9
    94          9
    95         37
    96         18
    97          7
    98         77
    99          8
   100          5
   101          2
   102          1
   103          3
   104          2
   105          2
   106          2
   107          1
   108          5
   109         21
   110        163
   111         81
   112         15
   113          6
   114          2
   115          2
   116          3
   117          9
   118          3
   119          2
   120          1
   121          2
   122          2
   123          2
   124          2
   125          5
   126        320
   127         49
   128         23
   129         15
   130         16
   131          4
   132          3
   133          1
   134          2
   135          3
   136         14
   137          2
   138          1
   140          3
   141          3
   142         21
   143         40
   144          8
   145         24
   146          7
   147         15
   148          3
   149          7
   150          4
   151          4
   152          2
   154          2
   155         43
   156         94
   157         12
   158         21
   159         24
   160         17
   161         28
   162         10
   163          9
   164          5
   165          1
   167          2
   168          2
   169          3
   171          5
   172          5
   173          6
   174        343
   175         42
   176        212
   177         55
   178        147
   179         15
   180         10
   181          1
   185          4
   186          8
   187        344
   188         73
   189         22
   190        524
   191         44
   192        322
   193         70
   194        218
   195         17
   196         15
   197          2
   198          2
   200          3
   201          1
   202          1
   203         10
   204          4
   205          2
   206          3
   207          7
   208          3
   209          3
   210          2
   211          3
   214          2
   216          3
   217          1
   218          3
   219          4
   220        163
   221         20
   222         14
   223          4
   224          4
   225          2
   226          3
   227          2
   228          2
   229          1
   230          2
   232          1
   234          1
   237          1
   240          6
   241          2
   242          4
   243          2
   244          3
   245          2
   246          1
   250          2
   251          6
   252          9
   253          4
   254          7
   255          4
   256          4
   257          1
   258          1
   267         19
   268         10
   269         14
   270          9
   271         10
   272          6
   273          1
   283          2
   284          5
   285          4
   286          3
   287          3
   288          3
   290          1
   294          2
   296          1
   298          1
   299          3
   300        121
   301         18
   302         78
   303         19
   304         50
   305          9
   306          7
   307          1
   310          1
   311          2
   312          2
   315          4
   316        929
   317        128
   318        584
   319        162
   320        405
   321         68
   322         50
   323          8
   324          2