##TITLE=Library Entry 25386
##JCAMP-DX=Revision 4.10 
##DATA TYPE=MASS SPECTRUM
##SAMPLE DESCRIPTION=Chemical Concepts
##NAMES=HP
##CAS NAME=Pentadecane, 8-hexyl-
##MOLFORM=C21H44
##CAS REGISTRY NO=13475-75-7
##MP= -300
##BP= -300
##MW= 296
##$RETENTION INDEX=0
##$CONDENSED SPECTRUM=NO
##NPOINTS= 126
##XYDATA=(XY..XY) 1 
    24          1
    25          3
    26          1
    27         52
    28         42
    29        180
    30          5
    31          1
    33          3
    34          1
    38          1
    39         32
    40          8
    41        323
    42         50
    43        659
    44         33
    45          0
    50          2
    52          0
    53         16
    54         19
    55        250
    56        116
    57        999
    58         52
    62          1
    63          1
    64          5
    65          4
    66          6
    67         38
    68         22
    69        154
    70         72
    71        798
    72         34
    73          2
    75          2
    78          2
    79          5
    81         18
    82         31
    83         99
    84         58
    85        530
    86         43
    89          1
    92          2
    94          1
    95          9
    96         28
    97        100
    98         39
    99        209
   100         21
   103          0
   109          4
   110         20
   111         77
   112         25
   113        128
   114         13
   117          1
   119          1
   123          2
   124         10
   125         51
   126         17
   127        102
   128          8
   133          2
   138          7
   139         19
   140         13
   141         60
   142          4
   143          1
   147          3
   148          1
   149          2
   152          4
   153          5
   154          8
   155         37
   156          3
   160          2
   165          3
   166          3
   168         14
   169         12
   170          1
   175          3
   177          2
   179          1
   182          9
   183          2
   187          2
   190          1
   191          2
   192          3
   195          1
   196        113
   197         69
   198         16
   207          2
   209          3
   210         51
   211         35
   212          4
   222          1
   224          3
   225          2
   237          1
   238          2
   239          1
   240          2
   243          2
   247          1
   252          1
   253          1
   265          3
   266          1
   267          0
   268          1
   283          0