##TITLE=Library Entry 24351
##JCAMP-DX=Revision 4.10 
##DATA TYPE=MASS SPECTRUM
##SAMPLE DESCRIPTION=Exported from NIST MS Search
##NAMES=HP
##CAS NAME=Docosane, 11-butyl-
##MOLFORM=C26H54
##CAS REGISTRY NO=13475-76-8
##MP= -300
##BP= -300
##MW= 366
##$RETENTION INDEX=0
##$CONDENSED SPECTRUM=NO
##NPOINTS= 198
##XYDATA=(XY..XY) 1 
    36          1
    37          1
    38          2
    39         40
    40          9
    41        384
    42         91
    43        887
    44         30
    45          1
    46          1
    48          1
    49          1
    50          1
    51          2
    52          1
    53         15
    54         29
    55        307
    56        140
    57        999
    58         45
    59          1
    60          1
    61          1
    62          1
    63          1
    64          1
    65          3
    66          3
    67         31
    68         23
    69        162
    70         84
    71        629
    72         35
    73          1
    74          1
    75          1
    76          1
    77          3
    78          1
    79          5
    80          2
    81         15
    82         23
    83        109
    84         44
    85        423
    86         28
    87          1
    89          1
    90          6
    91          2
    92          1
    93          4
    94          2
    95          6
    96         15
    97         80
    98         27
    99        138
   100         11
   101          1
   102          1
   103          1
   104          1
   105          1
   106          1
   107          1
   108          1
   109          2
   110          9
   111         43
   112         19
   113         91
   114          8
   115          1
   116          1
   117          1
   118          1
   119          1
   120          1
   121          1
   122          1
   123          1
   124          6
   125         24
   126         13
   127         67
   128          7
   129          1
   130          1
   131          1
   132          1
   133          1
   134          1
   135          1
   136          1
   137          1
   138          4
   139         12
   140         10
   141         51
   142          6
   143          1
   144          1
   145          1
   146          1
   147          1
   148          1
   149          1
   150          1
   151          1
   152          3
   153          8
   154          7
   155         37
   156          5
   157          1
   158          1
   159          1
   165          1
   166          2
   167          6
   168          5
   169         24
   170          3
   171          1
   172          1
   179          1
   180          1
   181          3
   182          6
   183         14
   184          2
   185          1
   186          1
   193          1
   194          1
   195          2
   196          5
   197          9
   198          1
   199          1
   200          1
   201          1
   202          1
   207          1
   208          1
   209          1
   210         38
   211         34
   212          5
   213          1
   222          1
   223          1
   224         32
   225         31
   226          5
   227          1
   236          1
   237          1
   238          2
   239          5
   240          1
   241          1
   250          1
   251          1
   252          1
   253          3
   254          1
   264          1
   265          1
   266          1
   267          2
   268          1
   279          1
   280          1
   281          1
   282          1
   294          1
   295          1
   296          1
   308         25
   309         48
   310         11
   311          1
   312          1
   322          1
   323          1
   324          1
   336          1
   337          1
   338          1
   365          1
   366          1
   367          1