##TITLE=Library Entry 24061
##JCAMP-DX=Revision 4.10 
##DATA TYPE=MASS SPECTRUM
##SAMPLE DESCRIPTION=SHELL OIL CO., HOUSTON, TEXAS, USA
##NAMES=HP
##CAS NAME=Hexane, 2,2,3,3-tetramethyl-
##MOLFORM=C10H22
##CAS REGISTRY NO=13475-81-5
##MP= -300
##BP= -300
##MW= 142
##$RETENTION INDEX=929
##$CONDENSED SPECTRUM=NO
##NPOINTS= 52
##XYDATA=(XY..XY) 1 
    39        209
    40         32
    41        534
    42         41
    43        886
    44         29
    45          0
    50          5
    51         14
    52          6
    53         42
    54          7
    55        132
    56        182
    57        999
    58         45
    59          0
    61          0
    62          0
    63          2
    64          0
    65          6
    66          2
    67         16
    68          3
    69        107
    70          7
    71        155
    72          8
    73          0
    79          3
    80          0
    81          4
    82          1
    83         58
    84        203
    85        467
    86         29
    87          0
    90          0
    91          1
    92          0
    95          1
    96          0
    97          2
    98          9
    99        116
   100          8
   101          0
   127          9
   128          0
   129          0