##TITLE=Library Entry 24868
##JCAMP-DX=Revision 4.10 
##DATA TYPE=MASS SPECTRUM
##SAMPLE DESCRIPTION=Exported from NIST MS Search
##NAMES=HP
##CAS NAME=Heptane, 2,2,4,6,6-pentamethyl-
##MOLFORM=C12H26
##CAS REGISTRY NO=13475-82-6
##MP= -300
##BP= -300
##MW= 170
##$RETENTION INDEX=991
##$CONDENSED SPECTRUM=NO
##NPOINTS= 22
##XYDATA=(XY..XY) 1 
    27         40
    28         20
    29        124
    39         44
    41        262
    43        122
    55         67
    56        498
    57        999
    58         40
    69         22
    71         67
    83         13
    85         49
    97          4
    98          4
    99         47
   100          9
   112         67
   113         27
   155         22
   170         13