##TITLE=Library Entry 99915
##JCAMP-DX=Revision 4.10 
##DATA TYPE=MASS SPECTRUM
##SAMPLE DESCRIPTION=NIST Mass Spectrometry Data Center
##NAMES=HP
##CAS NAME=trans-.alpha.-Bergamotene
##MOLFORM=C15H24
##CAS REGISTRY NO=13474-59-4
##MP= -300
##BP= -300
##MW= 204
##$RETENTION INDEX=1435
##$CONDENSED SPECTRUM=NO
##NPOINTS= 97
##XYDATA=(XY..XY) 1 
    26          1
    27         25
    28          2
    29         28
    30          1
    38          2
    39         91
    40         17
    41        348
    42         19
    43         70
    44          2
    50          6
    51         30
    52         14
    53         98
    54         11
    55        219
    56         89
    57         35
    62          1
    63         10
    64          3
    65         62
    66         17
    67         87
    68         21
    69        404
    70         52
    71          5
    74          1
    76          2
    77        240
    78         45
    79        254
    80         68
    81         85
    82         28
    83         17
    84         12
    85          1
    89          4
    90          2
    91        347
    92        141
    93        940
    94        119
    95         52
    96          6
    97         12
    98          1
   102          3
   103         21
   104          9
   105        241
   106         44
   107        310
   108         41
   109         76
   110          9
   111          7
   112          3
   115         18
   116          6
   117         23
   118         14
   119        999
   120        155
   121         98
   122         25
   123         19
   124          3
   127          2
   128          6
   129          5
   131          6
   132          3
   133         56
   134         31
   135         44
   136         21
   137          3
   141          1
   143          1
   147         27
   148         18
   149         14
   150          2
   159          1
   160          1
   163          5
   175          4
   176          2
   189         27
   190          4
   204         21
   205          3