##TITLE=Library Entry 32542
##JCAMP-DX=Revision 4.10 
##DATA TYPE=MASS SPECTRUM
##SAMPLE DESCRIPTION=R.D.Bowen ET AL, Org. Mass Spectrom., 26,421(1991)
##NAMES=HP
##CAS NAME=E-1-Methoxy-4-hexene
##MOLFORM=C7H14O
##CAS REGISTRY NO=134777-60-9
##MP= -300
##BP= -300
##MW= 114
##$RETENTION INDEX=0
##$CONDENSED SPECTRUM=NO
##NPOINTS= 25
##XYDATA=(XY..XY) 1 
    39        170
    40         50
    41        310
    42         70
    43        230
    45        640
    46         10
    53         80
    54        150
    55        220
    56         30
    57         30
    58        280
    59         10
    67        999
    68         70
    69         30
    71        190
    72         20
    81         90
    82        580
    83         40
    85         30
    86         10
   114         10