##TITLE=Library Entry 28905
##JCAMP-DX=Revision 4.10 
##DATA TYPE=MASS SPECTRUM
##SAMPLE DESCRIPTION=Tox21 Consortium/NIST Mass Spectrometry Data Center, 20
12
##NAMES=HP
##CAS NAME=Pargeverine
##MOLFORM=C21H23NO3
##CAS REGISTRY NO=13479-13-5
##MP= -300
##BP= -300
##MW= 337
##$RETENTION INDEX=0
##$CONDENSED SPECTRUM=NO
##NPOINTS= 116
##XYDATA=(XY..XY) 1 
    15          2
    18          3
    26          1
    27          3
    28          6
    29          7
    30         12
    37          1
    38          2
    39         21
    40          1
    41          3
    42         48
    43         16
    44         25
    45          2
    50          4
    51         23
    52          2
    53          2
    54          1
    55          2
    56         22
    57         17
    58        999
    59         35
    60          1
    62          1
    63          4
    64          1
    65          2
    68          1
    70         12
    71        212
    72         61
    73          3
    74          2
    75          2
    76          5
    77        145
    78         11
    79          1
    82          2
    83          1
    86          3
    87          2
    88          3
    89          8
    90          1
    91          6
    92          1
    94          1
    95          1
    96          1
    97          1
    99          1
   102          1
   103          1
   104          1
   105        285
   106         21
   107          2
   110          2
   113          2
   114          1
   115         27
   116          5
   125          1
   126          3
   127          2
   128          1
   137          1
   138          1
   139          6
   140          1
   141          1
   143         10
   144          1
   150          1
   151          3
   152         11
   153          3
   154          2
   155          1
   162          1
   163          7
   164          9
   165         49
   166         16
   167          9
   168          1
   177          1
   178          5
   179          1
   180          1
   181          2
   182          4
   183          1
   189          1
   190          1
   191          2
   192          1
   193          1
   194         10
   195          2
   202          1
   203          1
   220          1
   221         49
   222          8
   223          1
   239          1
   282          1
   283         44
   284          8
   285          1