##TITLE=Library Entry 7874
##JCAMP-DX=Revision 4.10 
##DATA TYPE=MASS SPECTRUM
##SAMPLE DESCRIPTION=Exported from NIST MS Search
##NAMES=HP
##CAS NAME=Eicosane, 9-octyl-
##MOLFORM=C28H58
##CAS REGISTRY NO=13475-77-9
##MP= -300
##BP= -300
##MW= 394
##$RETENTION INDEX=0
##$CONDENSED SPECTRUM=NO
##NPOINTS= 169
##XYDATA=(XY..XY) 1 
    36          1
    37          2
    38          2
    39         40
    40         10
    41        395
    42        101
    43        999
    44         33
    45          1
    49          1
    50          1
    51          2
    52          1
    53         15
    54         35
    55        348
    56        161
    57        988
    58         44
    59          1
    61          1
    62          1
    63          1
    64          1
    65          2
    66          2
    67         37
    68         32
    69        203
    70        100
    71        615
    72         34
    73          1
    74          1
    75          1
    76          1
    77          2
    78          1
    79          4
    80          2
    81         20
    82         26
    83        145
    84         51
    85        444
    86         29
    87          1
    91          1
    92          1
    93          1
    94          1
    95         10
    96         15
    97         96
    98         29
    99        116
   100          9
   101          1
   102          1
   103          1
   104          1
   105          1
   106          1
   107          1
   108          1
   109          4
   110          9
   111         47
   112         22
   113         77
   114          7
   115          1
   118          1
   119          1
   120          1
   121          1
   122          1
   123          2
   124          6
   125         25
   126         15
   127         56
   128          6
   129          1
   137          1
   138          5
   139         14
   140         12
   141         45
   142          5
   143          1
   151          1
   152          4
   153          8
   154         12
   155         37
   156          5
   157          1
   165          1
   166          3
   167          6
   168          7
   169         31
   170          4
   171          1
   179          1
   180          3
   181          6
   182          5
   183         25
   184          4
   185          1
   194          2
   195          4
   196          5
   197         19
   198          3
   199          1
   208          1
   209          2
   210          7
   211         13
   212          2
   213          1
   222          1
   223          1
   224          4
   225         10
   226          2
   227          1
   236          1
   237          1
   238         63
   239         63
   240         11
   241          1
   251          1
   252          8
   253          5
   254          1
   265          1
   266          4
   267          4
   268          1
   279          1
   280        114
   281        148
   282         30
   283          3
   284          1
   294          4
   295          5
   296          1
   308          1
   309          2
   310          1
   322          1
   323          1
   324          1
   336          1
   337          1
   338          1
   351          1
   352          1
   365          1
   392          1
   393          1
   394          1