##TITLE=Library Entry 82834
##JCAMP-DX=Revision 4.10 
##DATA TYPE=MASS SPECTRUM
##SAMPLE DESCRIPTION=NIST Mass Spectrometry Data Center
##NAMES=HP
##CAS NAME=2-(4-Aminophenyl)ethylamine
##MOLFORM=C8H12N2
##CAS REGISTRY NO=13472-00-9
##MP= -300
##BP= -300
##MW= 136
##$RETENTION INDEX=0
##$CONDENSED SPECTRUM=NO
##NPOINTS= 69
##XYDATA=(XY..XY) 1 
    15          1
    26          2
    27         14
    28          8
    29          7
    30        216
    31          3
    37          2
    38          7
    39         36
    40          6
    41         17
    42         14
    43          3
    44          1
    49          1
    50         16
    51         39
    52         42
    53         34
    54         18
    55          1
    56          1
    58          1
    61          2
    62          8
    63         22
    64          8
    65         28
    66         18
    67         13
    74          3
    75          4
    76          7
    77        145
    78         50
    79         61
    80         25
    81          2
    86          1
    87          1
    89         25
    90         38
    91         24
    92          6
    93         15
    94          1
    98          2
    99          1
   102          2
   103          1
   104         36
   105         12
   106        999
   107        729
   108         59
   109          2
   116          3
   117         11
   118         22
   119         13
   120          2
   131          2
   132          3
   133          4
   134          6
   135          1
   136        142
   137         14