##TITLE=Library Entry 38968
##JCAMP-DX=Revision 4.10 
##DATA TYPE=MASS SPECTRUM
##SAMPLE DESCRIPTION=AU9-83-3
##NAMES=HP
##CAS NAME=.alpha.-d-Glucopyranoside, methyl 3,4,6-tri-O-methyl-
##MOLFORM=C10H20O6
##CAS REGISTRY NO=13479-66-8
##MP= -300
##BP= -300
##MW= 236
##$RETENTION INDEX=0
##$CONDENSED SPECTRUM=NO
##NPOINTS= 34
##XYDATA=(XY..XY) 1 
    45        383
    53         32
    58         92
    59        193
    71        999
    72          8
    73        137
    75        701
    87        181
    88        588
    89        169
    99         72
   101        189
   102        116
   105        137
   111        116
   113         72
   115        342
   117        237
   118         72
   127         48
   129         28
   130         72
   131        100
   141        100
   144        145
   149        121
   159         48
   161        600
   173        270
   174         24
   187         12
   191         16
   195         56