##TITLE=Library Entry 3551
##JCAMP-DX=Revision 4.10 
##DATA TYPE=MASS SPECTRUM
##SAMPLE DESCRIPTION=CARL DJERASSI DEPT OF CHEM STANFORD UNIV STANFORD CALIF
 94305
##NAMES=HP
##CAS NAME=Cyclohexanone, 4-methoxy-
##MOLFORM=C7H12O2
##CAS REGISTRY NO=13482-23-0
##MP= -300
##BP= -300
##MW= 128
##$RETENTION INDEX=0
##$CONDENSED SPECTRUM=NO
##NPOINTS= 56
##XYDATA=(XY..XY) 1 
    40        118
    41        999
    42        288
    43        533
    44         33
    45        220
    46          8
    50         42
    51         59
    52         33
    53        169
    54        262
    55        483
    56        101
    57        330
    58        703
    59        194
    60          8
    61         16
    62          8
    63         16
    65         33
    66         25
    67        169
    68        661
    69        254
    70         59
    71        847
    72        271
    73        347
    74        805
    75         42
    76          8
    77          8
    79         16
    81         76
    82          8
    83         25
    84          8
    85         84
    86         16
    87        118
    88          8
    95         59
    96        101
    97         84
    98          8
    99         50
   100         50
   101          8
   113        127
   114          8
   127         25
   128        644
   129         67
   130          8