##TITLE=Library Entry 90639
##JCAMP-DX=Revision 4.10 
##DATA TYPE=MASS SPECTRUM
##SAMPLE DESCRIPTION=MUS354 A. Mujsce, AT&T Bell Labs., Murray Hill, N.J., U
SA
##NAMES=HP
##CAS NAME=Phosphonic acid, (6-chloro-2-pyridinyl)-, diethyl ester
##MOLFORM=C9H13ClNO3P
##CAS REGISTRY NO=134882-01-2
##MP= -300
##BP= -300
##MW= 249
##$RETENTION INDEX=0
##$CONDENSED SPECTRUM=NO
##NPOINTS= 94
##XYDATA=(XY..XY) 1 
    15          4
    26          6
    27         19
    28         13
    29         22
    38          4
    39          8
    43         12
    45         12
    47         28
    50         30
    51         31
    52         11
    60          7
    61         13
    62         17
    63         11
    64         16
    65         81
    66         14
    73          6
    75         17
    76        201
    77         33
    78         92
    79         16
    81        101
    82         12
    83          4
    85         38
    86         11
    87         13
    88          6
    89          5
    91         26
    93         34
    94         83
    95          9
    96          7
   104         17
   105          7
   106          9
   108         11
   109         26
   110          7
   111          7
   112        304
   113        999
   114        290
   115        331
   116         64
   117          7
   121          6
   129         20
   131         11
   132          5
   158          7
   159          6
   160         15
   161        187
   162         17
   163         72
   168          4
   169         14
   175         14
   176        589
   177         84
   178        195
   179         24
   180          6
   185         26
   186         10
   192          3
   194         61
   195          6
   196         19
   204          7
   205        318
   206         47
   207        117
   208         16
   209          4
   213          5
   214         25
   215          5
   220         97
   221         18
   222         32
   223          8
   224          6
   248          7
   249         18
   250          6
   251          6