##TITLE=Library Entry 77801
##JCAMP-DX=Revision 4.10 
##DATA TYPE=MASS SPECTRUM
##SAMPLE DESCRIPTION=A.S.Moskovkin,I.M.Karnaukh, Russian Center on Disaster
 Medicine
##NAMES=HP
##CAS NAME=3-Methyl-6-phenylpiperidin-4-one
##MOLFORM=C12H15NO
##CAS REGISTRY NO=134894-97-6
##MP= -300
##BP= -300
##MW= 189
##$RETENTION INDEX=0
##$CONDENSED SPECTRUM=NO
##NPOINTS= 112
##XYDATA=(XY..XY) 1 
    39         60
    40         11
    41         93
    42         41
    43         40
    44         18
    45          2
    49          1
    50         25
    51         79
    52         31
    53         12
    54         13
    55         42
    56        110
    57         24
    58         19
    59          7
    60          2
    61          2
    62          9
    63         27
    64         12
    65         36
    66         13
    67          5
    68         14
    69         10
    70         14
    71         14
    72          2
    73          3
    74         10
    75         11
    76         20
    77        150
    78        110
    79         27
    80         10
    81          3
    82          6
    83          6
    84         12
    85         10
    86          7
    87          2
    88          1
    89         27
    90         20
    91        230
    92         22
    93          2
    94          2
    95          2
    96          2
    97          1
    98          2
   101          3
   102         22
   103        140
   104        999
   105        240
   106         53
   107          6
   109          1
   110          5
   111         20
   112         50
   113         13
   114          4
   115         11
   116          7
   117         53
   118        320
   119        110
   120         10
   126          2
   127          6
   128         10
   129          7
   130         12
   131         24
   132        100
   133         16
   134          1
   141          6
   142          5
   143          5
   144         14
   145         30
   146        530
   147         99
   148          8
   155          1
   156          7
   157          2
   158          5
   159          6
   160         17
   161          3
   171          1
   172          6
   173          1
   174         11
   175          2
   185          1
   186          5
   187         15
   188         30
   189        680
   190         92
   191          6