##TITLE=Library Entry 19345
##JCAMP-DX=Revision 4.10 
##DATA TYPE=MASS SPECTRUM
##SAMPLE DESCRIPTION=CARL DJERASSI DEPT OF CHEM STANFORD UNIV STANFORD CALIF
 94305
##NAMES=HP
##CAS NAME=Cyclohexanone, 2-ethyl-4-methoxy-
##MOLFORM=C9H16O2
##CAS REGISTRY NO=13482-27-4
##MP= -300
##BP= -300
##MW= 156
##$RETENTION INDEX=0
##$CONDENSED SPECTRUM=NO
##NPOINTS= 76
##XYDATA=(XY..XY) 1 
    26         19
    27        425
    28        207
    29        485
    30          9
    31         59
    33          9
    38          9
    39        326
    40         59
    41        881
    42        188
    43        495
    44         29
    45        316
    50          9
    51         29
    52          9
    53        138
    54        198
    55        999
    56        118
    57        336
    58        485
    59        336
    61          9
    65         29
    66         19
    67        485
    68        247
    69        366
    70        188
    71        475
    72        277
    73        574
    74        782
    75         59
    77         39
    78          9
    79        138
    80         19
    81        207
    82        534
    83        277
    84         29
    85        158
    86         19
    87        346
    88         29
    91          9
    93         39
    95        128
    96        415
    97        435
    98         59
    99        138
   100         29
   101        118
   102         69
   108         49
   109         79
   111         19
   112          9
   113         59
   114        168
   115         19
   124        287
   125         29
   126         19
   127        148
   128         99
   129         89
   130          9
   141         49
   156        188
   157          9