##TITLE=Library Entry 53632
##JCAMP-DX=Revision 4.10 
##DATA TYPE=MASS SPECTRUM
##SAMPLE DESCRIPTION=A.S.Moskovkin,I.M.Karnaukh, Russian Center on Disaster
 Medicine
##NAMES=HP
##CAS NAME=1-Ethyl-2-phenylpiperidin-4-one
##MOLFORM=C13H17NO
##CAS REGISTRY NO=134894-95-4
##MP= -300
##BP= -300
##MW= 203
##$RETENTION INDEX=0
##$CONDENSED SPECTRUM=NO
##NPOINTS= 122
##XYDATA=(XY..XY) 1 
    38         19
    39        120
    40         37
    41        110
    42        880
    43        220
    44         40
    45          5
    49          6
    50         78
    51        220
    52         80
    53         32
    54         80
    55        130
    56        540
    57         53
    58        150
    59          8
    60          2
    61          7
    62         18
    63         64
    64         19
    65         78
    66         13
    67          7
    68         23
    69         27
    70         35
    71         82
    72         17
    73          9
    74         28
    75         31
    76         52
    77        350
    78        200
    79         43
    80         11
    81          3
    82         33
    83          6
    84        999
    85         56
    86         10
    87          9
    88          3
    89         45
    90         29
    91        290
    92         46
    93          6
    94          6
    95          2
    96         10
    97         16
    98         35
    99          5
   100          2
   101          8
   102         60
   103        360
   104        790
   105        170
   106         18
   107          5
   108          3
   110         12
   111          2
   112         16
   113          4
   114          2
   115         27
   116         16
   117        140
   118        260
   119         27
   120          4
   121          2
   124          2
   125         26
   126        720
   127         66
   128         16
   129         10
   130         40
   131        140
   132        490
   133         84
   134         18
   135          2
   136          1
   141          2
   143          4
   144         20
   145         47
   146        100
   147         15
   148          5
   149          4
   152          3
   153          2
   156          3
   157          4
   158         12
   159          9
   160        310
   161         38
   162          4
   172          4
   173          2
   186          9
   187          2
   188        250
   189         34
   190          3
   200          4
   202        220
   203        730
   204        105
   205          7