##TITLE=Library Entry 80503
##JCAMP-DX=Revision 4.10 
##DATA TYPE=MASS SPECTRUM
##SAMPLE DESCRIPTION=Institute of Organic Chemistry, USSR, 1990
##NAMES=HP
##CAS NAME=3-Cyano-3-octyl-1,4-cyclohexadiene
##MOLFORM=C15H23N
##CAS REGISTRY NO=134820-82-9
##MP= -300
##BP= -300
##MW= 217
##$RETENTION INDEX=0
##$CONDENSED SPECTRUM=NO
##NPOINTS= 19
##XYDATA=(XY..XY) 1 
    40          5
    41        147
    42         26
    43        233
    55         50
    56         11
    57        196
    65          8
    69         16
    71        117
    76          6
    77         77
    78         19
    91         55
    92         12
   103         37
   104        528
   105        999
   106         74