##TITLE=Library Entry 3583
##JCAMP-DX=Revision 4.10 
##DATA TYPE=MASS SPECTRUM
##SAMPLE DESCRIPTION=R.T.HOLMAN,UNIVERSITY OF MINNESOTA
##NAMES=HP
##CAS NAME=3-Nonenoic acid, methyl ester
##MOLFORM=C10H18O2
##CAS REGISTRY NO=13481-87-3
##MP= -300
##BP= -300
##MW= 170
##$RETENTION INDEX=0
##$CONDENSED SPECTRUM=NO
##NPOINTS= 77
##XYDATA=(XY..XY) 1 
    15        400
    17         20
    18         70
    26         20
    27        380
    28        110
    29        400
    30         10
    31         20
    38         10
    39        400
    40         60
    41        999
    42        200
    43        340
    44         30
    45         30
    50         20
    51         40
    52         30
    53        200
    54        540
    55        970
    56        130
    57        130
    58         20
    59        650
    60         20
    65         40
    66         30
    67        360
    68        200
    69        520
    70        100
    71        230
    72         90
    73         50
    74        980
    75         80
    76         10
    77         30
    79         60
    80         30
    81        360
    82        160
    83         80
    84        150
    85        250
    86         20
    87        170
    88         30
    91         10
    93         20
    94         70
    95        140
    96        810
    97        240
    98         20
    99         40
   100         20
   101         60
   108         10
   109         70
   110        120
   111        150
   112         20
   113        100
   114         80
   115         30
   120         20
   123         40
   127         50
   128         20
   138        390
   139         70
   141          1
   170         20