##TITLE=Library Entry 23833
##JCAMP-DX=Revision 4.10 
##DATA TYPE=MASS SPECTRUM
##SAMPLE DESCRIPTION=Chemical Concepts
##NAMES=HP
##CAS NAME=2-tert-Butyl-4,6-bis(3,5-di-tert-butyl-4-hydroxybenzyl)phenol
##MOLFORM=C40H58O3
##CAS REGISTRY NO=134868-71-6
##MP= -300
##BP= -300
##MW= 586
##$RETENTION INDEX=0
##$CONDENSED SPECTRUM=NO
##NPOINTS= 229
##XYDATA=(XY..XY) 1 
    34          1
    36          1
    37          4
    39         40
    41        303
    43         85
    44         11
    45          2
    50          2
    51          5
    52          1
    53         11
    55         84
    57        999
    60          1
    63          1
    65          4
    67         10
    69         17
    70          5
    71          5
    73          1
    74          1
    77          8
    79         10
    80          2
    81          6
    83          9
    84          2
    85          1
    91         36
    92          3
    93          7
    95          3
    97          1
   103          4
   105         28
   106          3
   107         13
   108          1
   109          1
   110          1
   111          1
   112          2
   115          9
   116          8
   117         16
   119         31
   120          4
   121         15
   122          2
   123          2
   124          1
   127          3
   128          9
   129         14
   130          7
   131         28
   132          9
   133         15
   134          4
   135          5
   136          1
   137          1
   141          8
   142          8
   143          8
   144          4
   145         17
   146          7
   147         39
   148          5
   149          3
   151          2
   152          2
   153          6
   154          2
   155          4
   156          4
   157          9
   158          4
   159         21
   160         21
   161         24
   163         22
   164          2
   165          3
   166          2
   167          1
   168          2
   169          7
   171         10
   172          3
   173          8
   175        153
   176         18
   177          8
   178          2
   179          2
   180          2
   181          4
   183          3
   185          2
   187          3
   188          1
   189          8
   190          4
   191         22
   192          4
   193          2
   194          2
   195          2
   196          1
   197          1
   198          1
   199          1
   201          2
   202          2
   203         10
   204          4
   205          5
   206          6
   207          5
   209          2
   210          1
   211          3
   212          1
   213          2
   215          2
   216          1
   217          4
   218          3
   219         14
   220          4
   221          2
   222          2
   223          2
   224          1
   225          2
   226          1
   227          1
   228          1
   229          1
   231          1
   232          1
   233          3
   234          3
   235          2
   236          2
   237          2
   238          1
   239          1
   241          1
   242          1
   243          1
   245          1
   246          1
   247          1
   248          2
   249          2
   250          4
   251          3
   252          1
   253          4
   254          1
   255          1
   256          2
   257          2
   262          1
   263          2
   264          9
   265          4
   266          2
   267         14
   268          4
   269          6
   270          4
   271          1
   275          3
   276          2
   278         59
   279          3
   281          3
   283          2
   286          9
   291          2
   292          1
   293          9
   294          3
   295          1
   297          1
   305          1
   307          6
   308          2
   309          8
   310          2
   311          2
   319          1
   320          1
   321          5
   323         70
   324         16
   325         11
   326          2
   363          1
   364          1
   365          5
   366          1
   367          2
   368          1
   378          1
   379          6
   380         14
   381          5
   382          1
   471          1
   473          1
   515          1
   527          1
   529          5
   530          4
   531          1
   571          5
   572          2
   584          2
   585          3
   586         54
   587         21
   588          5