##TITLE=Library Entry 19908
##JCAMP-DX=Revision 4.10 
##DATA TYPE=MASS SPECTRUM
##SAMPLE DESCRIPTION=CARL DJERASSI DEPT OF CHEM STANFORD UNIV STANFORD CALIF
 94305
##NAMES=HP
##CAS NAME=Cyclohexanone, 4-hydroxy-
##MOLFORM=C6H10O2
##CAS REGISTRY NO=13482-22-9
##MP= -300
##BP= -300
##MW= 114
##$RETENTION INDEX=0
##$CONDENSED SPECTRUM=NO
##NPOINTS= 60
##XYDATA=(XY..XY) 1 
    25          9
    26        168
    27        693
    28        514
    29        792
    30        118
    31        445
    32          9
    37         19
    38         49
    39        306
    40        118
    41        504
    42        386
    43        603
    44        445
    45         59
    50         29
    51         29
    52         19
    53        138
    54        277
    55        999
    56        504
    57        801
    58        237
    59        722
    60        772
    61         29
    62          9
    63          9
    65         19
    66          9
    67        138
    68        465
    69        188
    70        138
    71         69
    72         29
    73        277
    74          9
    77          9
    79          9
    81         79
    82          9
    83         19
    84          9
    85         49
    86         69
    94          9
    95         29
    96        128
    97         39
    98          9
    99         89
   112          9
   113          9
   114        702
   115         59
   116          9