##TITLE=Library Entry 73110
##JCAMP-DX=Revision 4.10 
##DATA TYPE=MASS SPECTRUM
##SAMPLE DESCRIPTION=P. VAINIOTALO, DEPT. CHEM., UNIV. JOENSUU, JOENSUU, FIN
LAND
##NAMES=HP
##CAS NAME=1,3-Oxazolidine-2-butanoic acid, 2,3-dimethyl-, methyl ester
##MOLFORM=C10H19NO3
##CAS REGISTRY NO=134896-33-6
##MP= -300
##BP= -300
##MW= 201
##$RETENTION INDEX=0
##$CONDENSED SPECTRUM=NO
##NPOINTS= 25
##XYDATA=(XY..XY) 1 
    15         42
    27         35
    29         25
    30         30
    39         21
    41         32
    42         55
    43         84
    44         58
    55        181
    56         52
    57         26
    58        303
    59         52
    70         23
    85         30
    96         26
    97         23
    98         43
   100        999
   101         75
   112        131
   124         26
   170        129
   186        138