##TITLE=Library Entry 81957
##JCAMP-DX=Revision 4.10 
##DATA TYPE=MASS SPECTRUM
##SAMPLE DESCRIPTION=Chemical Concepts
##NAMES=HP
##CAS NAME=4-Pentynoic acid, 2-benzylidene-4-phenyl-
##MOLFORM=C17H12O2
##CAS REGISTRY NO=134889-85-3
##MP= -300
##BP= -300
##MW= 248
##$RETENTION INDEX=0
##$CONDENSED SPECTRUM=NO
##NPOINTS= 219
##XYDATA=(XY..XY) 1 
    27         41
    28          5
    29          5
    30          0
    31          0
    34          0
    35          2
    36         18
    37          3
    38         10
    39         87
    40          6
    41         13
    42          4
    43         11
    44         10
    45         29
    46          0
    49          2
    50         60
    51        236
    52         37
    53          9
    54          1
    55          8
    56          5
    57          8
    58          0
    59          0
    60          3
    61          9
    62         35
    63         84
    64         12
    65         19
    66          2
    67          2
    68          1
    69          3
    70          2
    71          8
    72          0
    73          8
    74         67
    75         84
    76         92
    77        423
    78         41
    79         56
    80          4
    81          4
    82          8
    83          4
    84          2
    85          8
    86         32
    87         54
    88         83
    89         49
    90         10
    91         15
    92          5
    93          3
    94         14
    95          8
    96          5
    97          7
    98         36
    99         27
   100         55
   101        172
   102         92
   103         14
   104         10
   105        999
   106         80
   107         23
   108          2
   109         11
   110         23
   111         15
   112          4
   113         22
   114         95
   115        103
   116         29
   117          5
   118          6
   119          0
   120          1
   121          2
   122         11
   123          9
   124         16
   125         10
   126         74
   127         17
   128          6
   129          7
   130          1
   131          3
   132          1
   133         19
   134          5
   135          3
   136          2
   137          9
   138          7
   139         16
   140          2
   141          3
   142         42
   143         20
   144         61
   145          7
   146          3
   147          2
   148          2
   149         10
   150         49
   151         35
   152         31
   153          5
   154          1
   155          1
   156          0
   157          0
   158          0
   159          2
   160          2
   161          6
   162         12
   163         25
   164          8
   165         43
   166         13
   167          6
   168          3
   169         10
   170         22
   171         10
   172          2
   173          2
   174         21
   175         25
   176         58
   177         14
   178         10
   179          3
   180          2
   181          1
   182          0
   183          0
   184          2
   185          3
   186          3
   187         10
   188          9
   189         54
   190         30
   191        152
   192         55
   193          8
   194          4
   195          2
   196          3
   197          5
   198         11
   199         28
   200        168
   201        191
   202        650
   203        602
   204        115
   205         21
   206          4
   207          1
   208          0
   209          0
   210          0
   212          0
   213          1
   214          2
   215          6
   217          4
   218         19
   219        110
   220         30
   221          5
   222          1
   223          1
   224          1
   225          1
   226          1
   227          1
   228          2
   229          9
   230         41
   231        250
   232         50
   233          8
   234          2
   235          1
   236          1
   237          0
   238          1
   239          1
   240          1
   241          1
   242          1
   245          5
   246         16
   247        155
   248        698
   249        148
   250         27
   251          4
   253          0
   254          0