##TITLE=Library Entry 49987
##JCAMP-DX=Revision 4.10 
##DATA TYPE=MASS SPECTRUM
##SAMPLE DESCRIPTION=S.A. Rang et al., IR & MS of Unsatd. Hydrocarbons, 1977
##NAMES=HP
##CAS NAME=Cyclohexene, 4-propyl-
##MOLFORM=C9H16
##CAS REGISTRY NO=13487-64-4
##MP= -300
##BP= -300
##MW= 124
##$RETENTION INDEX=945
##$CONDENSED SPECTRUM=NO
##NPOINTS= 74
##XYDATA=(XY..XY) 1 
    15          1
    24          0
    25          1
    26          9
    27        160
    28         12
    29         85
    30          2
    31          0
    37          2
    38          5
    39        240
    40         34
    41        391
    42         95
    43         23
    45          0
    46          0
    49          1
    50         13
    51         47
    52         31
    53        168
    54        861
    55        328
    56         21
    57         10
    58          0
    61          0
    62          1
    63          8
    64          2
    65         47
    66         47
    67        471
    68        186
    69         60
    70         21
    71          1
    73          0
    74          2
    75          2
    76          3
    77        107
    78         60
    79        213
    80         79
    81        999
    82        750
    83         85
    84          3
    89          1
    90          0
    91         25
    92          3
    93         18
    94         31
    95        248
    96        101
    97          8
    98          0
   105          1
   106          0
   107          1
   108          1
   109         38
   110          3
   120          0
   121          0
   122          1
   123          4
   124        222
   125         21
   126          0