##TITLE=Library Entry 4955
##JCAMP-DX=Revision 4.10 
##DATA TYPE=MASS SPECTRUM
##SAMPLE DESCRIPTION=A.S.Moskovkin,I.M.Karnaukh, Russian Center on Disaster
 Medicine
##NAMES=HP
##CAS NAME=1-n-Propyl-2-phenylpiperidin-4-one
##MOLFORM=C14H19NO
##CAS REGISTRY NO=134894-96-5
##MP= -300
##BP= -300
##MW= 217
##$RETENTION INDEX=0
##$CONDENSED SPECTRUM=NO
##NPOINTS= 139
##XYDATA=(XY..XY) 1 
    39         80
    40         30
    41        170
    42        999
    43        280
    44         33
    45          5
    46          1
    49          3
    50         34
    51        100
    52         38
    53         17
    54         38
    55         76
    56        110
    57         18
    58         20
    59          4
    60          2
    61          4
    62          7
    63         28
    64          8
    65         36
    66          7
    67          6
    68         18
    69         12
    70         93
    71         18
    72         35
    73          7
    74         14
    75         13
    76         22
    77        160
    78         94
    79         22
    80          7
    81          3
    82         20
    83          7
    84        810
    85         47
    86          8
    87          4
    88          1
    89         22
    90         16
    91        160
    92         18
    93          4
    94         10
    95          3
    96          6
    97          4
    98        110
    99          9
   100          2
   101          4
   102         25
   103        160
   104        290
   105         74
   106         12
   107          5
   108          4
   110         10
   111          2
   112          7
   113          9
   114          4
   115         17
   116         10
   117        180
   118        110
   119         18
   120          4
   121          2
   122          3
   123          2
   124          2
   125          1
   126         25
   127          5
   128          7
   129          7
   130         18
   131         41
   132         73
   133         11
   134          5
   135          2
   136          2
   138          2
   139          2
   140        100
   141         10
   142          2
   143          2
   144          9
   145         15
   146        120
   147         15
   148          5
   149          2
   152          3
   153          2
   156          2
   157          3
   158          8
   159          8
   160         24
   161          4
   162          2
   163         10
   164          2
   166          1
   170          1
   172          3
   173          2
   174         47
   175         10
   176          1
   180          1
   186          9
   187          4
   188        600
   189         81
   190          7
   200          2
   202          8
   214          2
   215          6
   216         20
   217        130
   218         20
   219          2