##TITLE=Library Entry 67762
##JCAMP-DX=Revision 4.10 
##DATA TYPE=MASS SPECTRUM
##SAMPLE DESCRIPTION=Exported from NIST MS Search
##NAMES=HP
##CAS NAME=2(1H)-Naphthalenone, 4a,5,6,7,8,8a-hexahydro-4a,8a-dimethyl-, cis
-
##MOLFORM=C12H18O
##CAS REGISTRY NO=13485-66-0
##MP= -300
##BP= -300
##MW= 178
##$RETENTION INDEX=0
##$CONDENSED SPECTRUM=NO
##NPOINTS= 69
##XYDATA=(XY..XY) 1 
    41        998
    42         64
    43        162
    44        133
    50         31
    51        133
    52         89
    53        361
    54         64
    55        497
    56         33
    57         24
    62         16
    63         44
    64         16
    65        195
    66         95
    67        763
    68        175
    69        931
    70         44
    77        350
    78         86
    79        561
    80        169
    81        377
    82        286
    83         73
    84         22
    91        306
    92         60
    93        468
    94        388
    95        999
    96        215
    97         44
   103         16
   104         16
   105         91
   106         31
   107        486
   108        494
   109        532
   110        149
   111         22
   115         11
   117         13
   119         40
   120         22
   121        355
   122        264
   123        162
   124         29
   131         13
   133         11
   134         22
   135        477
   136        933
   137        100
   145         31
   147         22
   149         49
   150         91
   151          7
   163        153
   164          7
   178        472
   179         49
   180          9