##TITLE=Library Entry 23699
##JCAMP-DX=Revision 4.10 
##DATA TYPE=MASS SPECTRUM
##SAMPLE DESCRIPTION=Chemical Concepts
##NAMES=HP
##CAS NAME=1-Azonia-2-borata-3-thiacyclobutane, 4-tert.butylimino-1,1-dimeth
yl-2,2-bis(trifluoromethyl)-
##MOLFORM=C9H15BF6N2S
##CAS REGISTRY NO=134846-06-3
##MP= -300
##BP= -300
##MW= 308
##$RETENTION INDEX=0
##$CONDENSED SPECTRUM=NO
##NPOINTS= 145
##XYDATA=(XY..XY) 1 
    26          0
    27         27
    28         10
    29        136
    30          7
    31          4
    38          0
    39         47
    40          9
    41        247
    42         39
    43          7
    44         23
    45         16
    46          5
    47          3
    48          1
    49          7
    50          1
    51          1
    52          0
    53          5
    54          1
    55         36
    56        126
    57        999
    58         65
    59          7
    60          6
    61          1
    62          0
    65          0
    66          0
    68          1
    69          3
    70          4
    71         86
    72         19
    73         13
    74         33
    75          1
    76         13
    77          1
    78          1
    80          0
    81          0
    84          1
    85          6
    86          7
    87          4
    88        207
    89         12
    90         17
    91         21
    92         86
    93         20
    94          4
    97          0
    98          0
    99          4
   100         50
   101          4
   102          1
   103          1
   104          1
   105          8
   106          2
   107          0
   108          1
   111          0
   112          0
   113          3
   114          4
   115         33
   116          1
   117          1
   118         23
   119        102
   120         11
   121          1
   122          2
   123          9
   124         38
   125          0
   127          1
   128          0
   130          1
   131         12
   132         15
   133         43
   134          1
   135          1
   142          0
   143          0
   151          5
   152         24
   153         24
   154          1
   155          6
   159          1
   162          0
   163          5
   164          0
   165          1
   173          1
   174          4
   175         11
   176          0
   177          0
   182         29
   183        125
   184          8
   185          5
   188          1
   189         11
   190          0
   191          0
   192          5
   193         25
   194          1
   195          0
   202          1
   203          1
   206          0
   207          4
   223          0
   232          0
   233          1
   238          7
   239         31
   240          2
   241          0
   243          0
   251          8
   252         35
   253          1
   254          0
   292          1
   293         12
   294          0
   307         38
   308        167
   309         20
   310          7
   311          0