##TITLE=Library Entry 25606
##JCAMP-DX=Revision 4.10 
##DATA TYPE=MASS SPECTRUM
##SAMPLE DESCRIPTION=Chemical Concepts
##NAMES=HP
##CAS NAME=Boron, [N'-(1,1-dimethylethyl)-N,N-dimethylureato-N,N']bis(triflu
oromethyl)-, (t-4)-
##MOLFORM=C9H15BF6N2O
##CAS REGISTRY NO=134846-01-8
##MP= -300
##BP= -300
##MW= 292
##$RETENTION INDEX=0
##$CONDENSED SPECTRUM=NO
##NPOINTS= 107
##XYDATA=(XY..XY) 1 
    26          2
    27         30
    28         27
    29        124
    30          9
    31          7
    33          0
    37          0
    38          1
    39         38
    40         12
    41        196
    42         42
    43          6
    44         24
    45         26
    46          2
    48          1
    49         11
    50          3
    51          1
    52          0
    53          3
    54          4
    55         21
    56         98
    57        999
    58         39
    59          0
    60          0
    61          0
    66          0
    68          1
    69          3
    70          1
    71         33
    72        608
    73         31
    74         47
    75          1
    76          8
    77          1
    78          2
    79          0
    81          1
    83          1
    84        318
    85         16
    86          8
    87          0
    88          0
    89          2
    90          9
    91         35
    92        140
    93         39
    94          3
    96          0
    97          3
    98          3
    99          3
   100          3
   101          0
   105          0
   106          1
   110          0
   111          0
   114          1
   115         12
   116          4
   117          8
   118          0
   119          1
   120          0
   123          6
   124         26
   125          0
   128          0
   129          0
   131          0
   136          1
   137          5
   143          0
   147          1
   161          0
   165          0
   166          0
   167          3
   173          1
   174          5
   176         87
   177        378
   178         26
   179          0
   185          0
   186          0
   187          1
   191          0
   222          0
   223          1
   227          0
   276         51
   277        225
   278         20
   279          0
   291          0
   292          1