##TITLE=Library Entry 25713
##JCAMP-DX=Revision 4.10 
##DATA TYPE=MASS SPECTRUM
##SAMPLE DESCRIPTION=Japan AIST/NIMC Database- Spectrum MS-NW-8653
##NAMES=HP
##CAS NAME=Cyclohexanol, 2-(1,1-dimethylethyl)-
##MOLFORM=C10H20O
##CAS REGISTRY NO=13491-79-7
##MP= -300
##BP= -300
##MW= 156
##$RETENTION INDEX=0
##$CONDENSED SPECTRUM=NO
##NPOINTS= 81
##XYDATA=(XY..XY) 1 
    15          3
    18          2
    26          2
    27         50
    28         11
    29        110
    30          3
    31         15
    38          2
    39         63
    40         10
    41        276
    42         22
    43         99
    44         21
    45          9
    49          2
    50          2
    51          9
    52          4
    53         38
    54        114
    55        178
    56        147
    57        999
    58         47
    59         21
    60          1
    63          6
    65          9
    66          9
    67        568
    68         39
    69         86
    70         50
    71         24
    72          5
    73          7
    75         10
    77         13
    78          3
    79         32
    80        166
    81        320
    82        883
    83        216
    84         23
    85         16
    86          1
    91          7
    92          1
    93          5
    94          3
    95         69
    96         14
    97         29
    98         22
    99         74
   100         26
   101         14
   102          1
   105          1
   107          6
   108          1
   109          9
   110          9
   111          2
   112          1
   113          5
   115          1
   121          1
   123        131
   124         12
   125          1
   135          9
   136          1
   138         22
   139          4
   141         18
   142          2
   156          2