##TITLE=Library Entry 28048
##JCAMP-DX=Revision 4.10 
##DATA TYPE=MASS SPECTRUM
##SAMPLE DESCRIPTION=Exported from NIST MS Search
##NAMES=HP
##CAS NAME=3-Azabicyclo[3.3.1]nonan-9-ol, 3-methyl-, syn-
##MOLFORM=C9H17NO
##CAS REGISTRY NO=13493-40-8
##MP= -300
##BP= -300
##MW= 155
##$RETENTION INDEX=0
##$CONDENSED SPECTRUM=NO
##NPOINTS= 14
##XYDATA=(XY..XY) 1 
    39         84
    41        132
    42        204
    43         93
    44        566
    55         66
    57        144
    58        999
    70         66
    83         42
    95        114
   138         96
   154        123
   155        138