##TITLE=Library Entry 15595
##JCAMP-DX=Revision 4.10 
##DATA TYPE=MASS SPECTRUM
##SAMPLE DESCRIPTION=Exported from NIST MS Search
##NAMES=HP
##CAS NAME=3-Azabicyclo[3.2.1]octan-8.alpha.-ol, 3-methyl-, anti-
##MOLFORM=C8H15NO
##CAS REGISTRY NO=13493-38-4
##MP= -300
##BP= -300
##MW= 141
##$RETENTION INDEX=0
##$CONDENSED SPECTRUM=NO
##NPOINTS= 21
##XYDATA=(XY..XY) 1 
    39        192
    41        334
    42        475
    43        127
    44        999
    53         70
    55         79
    57        558
    58        339
    67         65
    70         62
    74        164
    79         56
    81        368
    82         85
    84        198
    87         65
    94         59
   124        475
   140        543
   141        368