##TITLE=Library Entry 49898
##JCAMP-DX=Revision 4.10 
##DATA TYPE=MASS SPECTRUM
##SAMPLE DESCRIPTION=MASS SPECTRA OF ORGANIC COMPOUNDS, CSIRO, B.H. KENNETT
 ET AL
##NAMES=HP
##CAS NAME=Furfuryl formate
##MOLFORM=C6H6O3
##CAS REGISTRY NO=13493-97-5
##MP= -300
##BP= -300
##MW= 126
##$RETENTION INDEX=902
##$CONDENSED SPECTRUM=NO
##NPOINTS= 34
##XYDATA=(XY..XY) 1 
    26         90
    27        420
    29        250
    30         10
    31         80
    37         60
    38        100
    39        260
    40         20
    41        140
    42         80
    43         20
    44        170
    45         10
    46         10
    49         10
    50        100
    51        140
    52        350
    53        550
    54         50
    56         30
    68         10
    69         40
    70         30
    79         20
    80        340
    81        999
    82        100
    95         20
    97         20
    98         70
   126        360
   127         50