##TITLE=Library Entry 81852
##JCAMP-DX=Revision 4.10 
##DATA TYPE=MASS SPECTRUM
##SAMPLE DESCRIPTION=Japan AIST/NIMC Database- Spectrum MS-NW-6046
##NAMES=HP
##CAS NAME=O,O'-Dibenzamidodiphenyl disulfide
##MOLFORM=C26H20N2O2S2
##CAS REGISTRY NO=135-57-9
##MP= -300
##BP= -300
##MW= 456
##$RETENTION INDEX=0
##$CONDENSED SPECTRUM=NO
##NPOINTS= 155
##XYDATA=(XY..XY) 1 
    26          1
    27          6
    28          2
    32          1
    36          1
    37          1
    38          3
    39         14
    40          1
    41          2
    43          1
    44          2
    45         10
    47          1
    50         15
    51         70
    52          9
    53          5
    54          1
    55          1
    57          2
    58          6
    61          1
    62          3
    63         11
    64          5
    65          8
    66          1
    69         21
    70          8
    71          3
    72          1
    73          1
    74          4
    75          6
    76         13
    77        484
    78         40
    79          3
    80          9
    81          2
    82          9
    83          1
    84          1
    85          1
    88          1
    89          2
    90          2
    91          3
    92          4
    93          3
    94          1
    95          5
    96         12
    97          5
    98          2
    99          1
   101          1
   102          1
   103          2
   104          4
   105        999
   106         81
   107          6
   108         28
   109         22
   110          4
   111          3
   113          1
   114          1
   115          2
   116          1
   119          1
   120          1
   121          2
   122          5
   123          3
   124         12
   125          7
   126          2
   127          2
   128          1
   135          2
   136          1
   139          6
   140          2
   141          2
   149          1
   150        187
   151         17
   152         10
   153          2
   154          4
   155          1
   156          2
   161          1
   163          1
   164          1
   165          1
   166          3
   167          6
   168          2
   171          1
   177          2
   178          1
   179          1
   181          1
   182          1
   183          2
   184          5
   185          2
   186          1
   195          6
   196        167
   197         27
   198          4
   199          4
   200          3
   201          1
   209          3
   210         16
   211        121
   212         29
   213          9
   214          2
   226          1
   227          9
   228        628
   229        143
   230         47
   231          9
   232          1
   245          1
   261          1
   262          2
   263          1
   270          1
   272          1
   274          1
   334          2
   335          1
   347          1
   349          2
   350          1
   351          2
   352          3
   353          1
   354          1
   424          1
   455          1
   456        189
   457         60
   458         27
   459          7
   460          2