##TITLE=Library Entry 51586
##JCAMP-DX=Revision 4.10 
##DATA TYPE=MASS SPECTRUM
##SAMPLE DESCRIPTION=NIST Mass Spectrometry Data Center
##NAMES=HP
##CAS NAME=8-Azabicyclo[3.2.1]octan-3-ol, 8-methyl-, exo-
##MOLFORM=C8H15NO
##CAS REGISTRY NO=135-97-7
##MP= -300
##BP= -300
##MW= 141
##$RETENTION INDEX=1234
##$CONDENSED SPECTRUM=NO
##NPOINTS= 49
##XYDATA=(XY..XY) 1 
    27         15
    28         16
    29          9
    30          9
    40          9
    42        214
    43         31
    44         54
    53         26
    54         42
    55        113
    56         62
    57        123
    58         29
    63          6
    65         20
    66         14
    67        166
    68        106
    70         88
    72          6
    77         10
    78          7
    80         28
    81         34
    82        999
    83        505
    84         66
    86         12
    91         15
    92          5
    93         12
    94         88
    95         23
    96        626
    98         23
   106          7
   108          8
   110         18
   112        130
   113        172
   114         13
   121          5
   122         19
   124        380
   125         21
   140         23
   141        302
   142         24