##TITLE=Library Entry 80862
##JCAMP-DX=Revision 4.10 
##DATA TYPE=MASS SPECTRUM
##SAMPLE DESCRIPTION=NIST Mass Spectrometry Data Center, 1990.
##NAMES=HP
##CAS NAME=Benzene, 1,2-diethyl-
##MOLFORM=C10H14
##CAS REGISTRY NO=135-01-3
##MP= -300
##BP= -300
##MW= 134
##$RETENTION INDEX=1045
##$CONDENSED SPECTRUM=NO
##NPOINTS= 72
##XYDATA=(XY..XY) 1 
    14          5
    15         31
    25          1
    26         10
    27         84
    28          6
    29         29
    30          1
    35          1
    37          4
    38         18
    39        125
    40         14
    41         75
    42          1
    43          1
    50         46
    51        121
    52         31
    53         33
    54          2
    55          5
    56          1
    57         37
    60          1
    61          6
    62         25
    63         70
    64         23
    65        106
    66          9
    67          2
    73          3
    74         21
    75         17
    76         28
    77        204
    78         88
    79        124
    80          7
    86          4
    87          7
    89         40
    91        395
    92         32
    93         36
    94          3
    98          2
    99          1
   101          5
   102         36
   103        126
   104          1
   105        999
   106         93
   107          5
   113          2
   115        131
   116         39
   117        188
   118          2
   119        805
   120         89
   121          4
   126          2
   127          6
   128         10
   129          5
   131          3
   134        433
   135         46
   136          2