##TITLE=Library Entry 47085
##JCAMP-DX=Revision 4.10 
##DATA TYPE=MASS SPECTRUM
##SAMPLE DESCRIPTION=A.A.Kutin, Moscow, Russia
##NAMES=HP
##CAS NAME=Propenone, 2-[1-(4-chlorophenyl)-5-tetrazolyl]-3-dimethylamino-1-
phenyl-
##MOLFORM=C18H16ClN5O
##CAS REGISTRY NO=135056-93-8
##MP= -300
##BP= -300
##MW= 353
##$RETENTION INDEX=0
##$CONDENSED SPECTRUM=NO
##NPOINTS= 280
##XYDATA=(XY..XY) 1 
    33          3
    34          0
    35          4
    36         14
    37         10
    38         27
    39         77
    40         36
    41         71
    42        449
    43         80
    44         87
    45          7
    46          1
    47          1
    48          2
    50         92
    51        228
    52         42
    53         57
    54         25
    55         18
    56         64
    57         58
    58          4
    60          2
    61          9
    62         25
    63         67
    64         23
    65         15
    66         25
    67         45
    68         41
    69         22
    70          3
    72         24
    73         17
    74         33
    75        115
    77        999
    78         70
    79         19
    80         33
    81         23
    82         84
    83        530
    84         33
    85         11
    86          5
    87          9
    88         14
    89         46
    90         66
    91         58
    92          9
    93          7
    94          7
    95         28
    96         27
    97         11
    98         10
    99         19
   100          8
   101         21
   102         72
   103         34
   105        917
   106         67
   107         11
   109        108
   110         18
   111        118
   112         15
   113         43
   114         27
   115         99
   116         37
   117         30
   118         17
   119          5
   120          8
   121          4
   123         52
   125         82
   126         16
   127         37
   128         18
   129         20
   130         40
   131         44
   132         22
   133          4
   134          3
   135          2
   137         77
   138         42
   139         31
   140         24
   141         11
   142         16
   143         23
   144         49
   145         25
   146         11
   147          4
   148          6
   149         11
   150          8
   151         56
   152         57
   153         29
   154         28
   155         15
   156         35
   157        199
   158         59
   159         21
   160          8
   161          3
   162          7
   163          7
   164          9
   165          9
   166         10
   167          8
   168          9
   169         28
   170         21
   171         61
   172         60
   173         15
   174         18
   175          4
   176          7
   177         29
   178         14
   179         24
   180         11
   181         10
   182          4
   183         21
   184         43
   185         80
   186         42
   187        143
   188         24
   189          5
   190          6
   191         11
   192         11
   193         22
   194          8
   195          7
   196          3
   197          9
   198         26
   199        131
   200         35
   201          8
   202          2
   203          7
   204         22
   205         20
   206         24
   207          8
   208          6
   209          1
   211          5
   212          9
   214        570
   215         87
   216        104
   217         20
   218         14
   219         14
   220         35
   221         10
   222         11
   223          2
   224          0
   225          1
   226          1
   227          6
   228         36
   229          8
   230          3
   231          4
   232          7
   233          9
   234          8
   235          3
   236          3
   238          7
   239          2
   240          3
   241          4
   242          2
   243          2
   244          1
   245          4
   246         11
   247         13
   248         59
   249         10
   250         17
   251          4
   252          5
   253         25
   254          9
   255         14
   256          5
   257          3
   258          2
   259          2
   260          6
   261          3
   262          8
   263          2
   264          3
   265          3
   266          4
   267          8
   268          6
   269          5
   270          3
   271          1
   272          3
   273          5
   274          8
   275          9
   276          2
   277          0
   279          4
   281         37
   282         17
   283         39
   284         13
   285          9
   286          2
   288          2
   289          2
   290          4
   291          1
   292          1
   293          3
   294          7
   295         20
   296         52
   297         27
   298         18
   299          6
   300          0
   306          2
   307          3
   308         29
   309         10
   310         31
   311         15
   312          8
   313          3
   314          0
   320          1
   321          3
   322          7
   324        302
   325         92
   326         94
   327         25
   328          3
   338          2
   339          0
   340          0
   350          1
   351          2
   353        126
   354         28
   355         37
   356          7
   357          0