##TITLE=Library Entry 98984
##JCAMP-DX=Revision 4.10 
##DATA TYPE=MASS SPECTRUM
##SAMPLE DESCRIPTION=CARL DJERASSI DEPT OF CHEM STANFORD UNIV STANFORD CALIF
 94305
##NAMES=HP
##CAS NAME=Carbamothioic acid, phenyl-, S-methyl ester
##MOLFORM=C8H9NOS
##CAS REGISTRY NO=13509-38-1
##MP= -300
##BP= -300
##MW= 167
##$RETENTION INDEX=0
##$CONDENSED SPECTRUM=NO
##NPOINTS= 55
##XYDATA=(XY..XY) 1 
    15         29
    17         24
    18        113
    26          9
    27         39
    28          5
    29          9
    32          7
    33          9
    34          9
    37         29
    38         49
    39         99
    40         19
    41         29
    44         59
    45         89
    46         29
    47        198
    48        148
    49         19
    50         39
    51         79
    52         29
    55          9
    57          9
    59          9
    61          9
    62         19
    63         59
    64        128
    65        118
    66         39
    69          9
    72         39
    74         19
    75         99
    76         29
    77        257
    78         29
    79         19
    90         19
    91        227
    92        158
    93         39
    95          9
   106         19
   119        999
   120        227
   121         29
   124         19
   139         19
   167        227
   168         39
   169         19