##TITLE=Library Entry 76486
##JCAMP-DX=Revision 4.10 
##DATA TYPE=MASS SPECTRUM
##SAMPLE DESCRIPTION=V.G. Zaikin, TIPS RAS, Moscow, Russia
##NAMES=HP
##CAS NAME=Silane, (chloromethyl)ethoxydimethyl-
##MOLFORM=C5H13ClOSi
##CAS REGISTRY NO=13508-53-7
##MP= -300
##BP= -300
##MW= 152
##$RETENTION INDEX=848
##$CONDENSED SPECTRUM=NO
##NPOINTS= 73
##XYDATA=(XY..XY) 1 
    25          5
    26         14
    27         52
    29         36
    30          5
    31         57
    36         25
    38          9
    39          9
    40          5
    41         13
    42         22
    43        102
    44         39
    45        165
    46         17
    47         48
    48          5
    49         27
    50          5
    51         15
    52          5
    53          9
    54          5
    55         15
    56          8
    57          9
    58         23
    59        227
    60         28
    61         37
    62          7
    63         52
    64          8
    65         35
    66          8
    67          5
    70          5
    72          8
    73         38
    74          9
    75        568
    76         46
    77         32
    78         27
    79        107
    80         19
    81        162
    82          9
    83         48
    87         12
    88          6
    89          5
    91          6
    93         66
    94          8
    95        107
    96          7
    97         32
    98          5
   101          7
   102          5
   103        999
   104         89
   105         46
   106          7
   107         53
   108          6
   109         48
   111         15
   137         45
   138          5
   139         13