##TITLE=Library Entry 85809
##JCAMP-DX=Revision 4.10 
##DATA TYPE=MASS SPECTRUM
##SAMPLE DESCRIPTION=CARL DJERASSI DEPT OF CHEM STANFORD UNIV STANFORD CALIF
 94305
##NAMES=HP
##CAS NAME=Carbonic acid, dithio-, S-methyl S-phenyl ester
##MOLFORM=C8H8OS2
##CAS REGISTRY NO=13509-29-0
##MP= -300
##BP= -300
##MW= 184
##$RETENTION INDEX=0
##$CONDENSED SPECTRUM=NO
##NPOINTS= 70
##XYDATA=(XY..XY) 1 
    15         40
    18         20
    20         10
    26         10
    27         20
    28        200
    32         30
    33         10
    34         20
    37         10
    38         30
    39        220
    40         10
    44        150
    45        160
    46         30
    47        160
    48         20
    49         10
    50         70
    51        160
    52         10
    57         20
    58         30
    59         20
    60         10
    61         10
    62         20
    63         50
    64         10
    65        360
    66         50
    69        150
    70         10
    71         20
    74         20
    75        980
    76         50
    77        120
    78         70
    79         10
    81         20
    82         40
    83         20
    84         10
    91         50
    92         10
    93         10
    94         10
    97         20
   108         70
   109        999
   110        210
   111         60
   112         20
   122         10
   123         30
   124         70
   125         20
   137         40
   141        250
   142         20
   143         20
   156        890
   157         80
   158         90
   159         10
   184        380
   185         50
   186         40