##TITLE=Library Entry 86692
##JCAMP-DX=Revision 4.10 
##DATA TYPE=MASS SPECTRUM
##SAMPLE DESCRIPTION=CARL DJERASSI DEPT OF CHEM STANFORD UNIV STANFORD CALIF
 94305
##NAMES=HP
##CAS NAME=Carbonodithioic acid, S,S-diphenyl ester
##MOLFORM=C13H10OS2
##CAS REGISTRY NO=13509-36-9
##MP= -300
##BP= -300
##MW= 246
##$RETENTION INDEX=0
##$CONDENSED SPECTRUM=NO
##NPOINTS= 65
##XYDATA=(XY..XY) 1 
    34         10
    37         10
    38         20
    39        140
    40         10
    41         10
    43         10
    44         60
    45         60
    50         50
    51        120
    52         10
    55         20
    57         10
    58         20
    59         10
    62         10
    63         30
    64        270
    65        260
    66         60
    67         10
    69        100
    70         10
    71         10
    74         20
    75         20
    76         20
    77        180
    78         40
    79         20
    81         20
    82         30
    83         10
    84         30
    91         20
   108         40
   109        999
   110        190
   111         70
   112         10
   115         20
   123         20
   137        160
   138         20
   139         10
   140         30
   141         20
   149         20
   152         10
   153         70
   154         60
   155         20
   174         20
   184         30
   185         60
   186         40
   187         20
   218        450
   219         80
   220         50
   221         20
   246         70
   247         20
   248         20