##TITLE=Library Entry 16207
##JCAMP-DX=Revision 4.10 
##DATA TYPE=MASS SPECTRUM
##SAMPLE DESCRIPTION=Finnigan MAT: Toxicological Library (LIBR-TX)
##NAMES=HP
##CAS NAME=4-Ethoxyamphetamine
##MOLFORM=C11H17NO
##CAS REGISTRY NO=135014-85-6
##MP= -300
##BP= -300
##MW= 179
##$RETENTION INDEX=0
##$CONDENSED SPECTRUM=NO
##NPOINTS= 28
##XYDATA=(XY..XY) 1 
    39         12
    42         23
    44        999
    45         22
    51         11
    52          7
    53          7
    65          5
    77         34
    78         11
    79          8
    89          5
    90          4
    91          9
   107         75
   108         49
   109          3
   119          1
   120          1
   134          2
   136        137
   137         10
   148          0
   163          0
   164          1
   177          0
   178          0
   179          1