##TITLE=Library Entry 5665
##JCAMP-DX=Revision 4.10 
##DATA TYPE=MASS SPECTRUM
##SAMPLE DESCRIPTION=James Little,Eastman Chem.Co.,Kingsport,TN
##NAMES=HP
##CAS NAME=2,6-Heptanedione
##MOLFORM=C7H12O2
##CAS REGISTRY NO=13505-34-5
##MP= -300
##BP= -300
##MW= 128
##$RETENTION INDEX=0
##$CONDENSED SPECTRUM=NO
##NPOINTS= 25
##XYDATA=(XY..XY) 1 
    29         22
    38         31
    39        174
    41         57
    42         95
    43        999
    44         27
    53         30
    54         65
    55         67
    58        143
    59          6
    65          6
    67         23
    69          4
    71         73
    72          9
    82        162
    83         11
    85         38
    86          4
    95         30
   110         54
   111          4
   128          8