##TITLE=Library Entry 58671
##JCAMP-DX=Revision 4.10 
##DATA TYPE=MASS SPECTRUM
##SAMPLE DESCRIPTION=Chemical Concepts
##NAMES=HP
##CAS NAME=2-Methyl-6-nitrobenzoic acid
##MOLFORM=C8H7NO4
##CAS REGISTRY NO=13506-76-8
##MP= -300
##BP= -300
##MW= 181
##$RETENTION INDEX=0
##$CONDENSED SPECTRUM=NO
##NPOINTS= 113
##XYDATA=(XY..XY) 1 
    25          0
    26         10
    27         91
    28          5
    29         15
    30         98
    31          5
    36          0
    37         17
    38         53
    39        359
    40         19
    41         28
    42          1
    43         40
    44         12
    45         39
    46         19
    47          0
    48          0
    49          6
    50         71
    51        175
    52         73
    53        141
    54          8
    55         26
    56          0
    57          1
    58          1
    60          1
    61         24
    62         92
    63        284
    64         90
    65        112
    66         17
    67         24
    68          2
    69          1
    70          0
    71          0
    73          4
    74         28
    75         33
    76         21
    77        622
    78        152
    79        155
    80         11
    81          7
    82          0
    83          0
    84          0
    85          6
    86         18
    87         19
    88         10
    89        999
    90        147
    91         73
    92         16
    93          5
    94          0
    95          4
    96          0
    97          0
    98          0
    99          0
   101          0
   102          0
   103          2
   104          8
   105         97
   106         55
   107         35
   108          3
   109          0
   115          0
   116          3
   117          3
   118         13
   119          3
   120          3
   121          6
   122          0
   123          2
   124          0
   125          0
   132          2
   133        702
   134        172
   135         55
   136          6
   137          3
   147          2
   148          0
   149          2
   150          1
   151          4
   152          0
   153          0
   162          1
   163        829
   164         91
   165         21
   166          2
   167          0
   179          0
   180          2
   181        132
   182         12
   183          2