##TITLE=Library Entry 45417
##JCAMP-DX=Revision 4.10 
##DATA TYPE=MASS SPECTRUM
##SAMPLE DESCRIPTION=Chemical Concepts
##NAMES=HP
##CAS NAME=4,4'-(Hydroxymethylene)diphthalic anhydride
##MOLFORM=C17H8O7
##CAS REGISTRY NO=13505-75-4
##MP= -300
##BP= -300
##MW= 324
##$RETENTION INDEX=0
##$CONDENSED SPECTRUM=NO
##NPOINTS= 109
##XYDATA=(XY..XY) 1 
    33        125
    34          3
    36         63
    37         74
    38         81
    39        114
    40         59
    41         23
    44        246
    50        577
    51        468
    53        189
    55        123
    57         17
    58          4
    62        215
    63        216
    65         33
    66         14
    67         11
    69         30
    71         11
    74        809
    75        999
    76        292
    77        392
    79         16
    82         65
    83          4
    86        116
    87         60
    88         20
    89         37
    91         13
    92          8
    93         12
    95          6
    96          4
    98         53
    99         22
   100         19
   101         26
   103        479
   105        401
   106         19
   108          3
   109          6
   110         36
   111         24
   113         43
   114          7
   115          3
   118        132
   120         11
   121         11
   122          9
   123          9
   124          5
   125         11
   126         23
   127          4
   129          7
   132         14
   133         20
   134          9
   135         18
   136          3
   137          9
   139         24
   140          6
   146          3
   148        151
   149        612
   150        125
   151         91
   152         85
   153         10
   161         23
   162         28
   163         61
   164         14
   165          5
   168          6
   175        244
   176        235
   177         62
   178         21
   179         22
   180         69
   181          9
   192         20
   193          4
   195          4
   196          3
   206         11
   207          5
   208         14
   223          5
   224          6
   251          7
   252         14
   264         26
   265          5
   278         28
   279         10
   280        106
   281         19
   282          3
   308          3