##TITLE=Library Entry 22834
##JCAMP-DX=Revision 4.10 
##DATA TYPE=MASS SPECTRUM
##SAMPLE DESCRIPTION=Chemical Concepts
##NAMES=HP
##CAS NAME=2,4(1H,3H)-Pyrimidinedione, 1,3,6-trimethyl-
##MOLFORM=C7H10N2O2
##CAS REGISTRY NO=13509-52-9
##MP= -300
##BP= -300
##MW= 154
##$RETENTION INDEX=0
##$CONDENSED SPECTRUM=NO
##NPOINTS= 66
##XYDATA=(XY..XY) 1 
    25          4
    26         39
    27        157
    28        228
    29         44
    30         34
    31         14
    32          1
    37         15
    38         45
    39        185
    40         53
    41         79
    42         92
    43         16
    44          4
    47          1
    48          1
    49          2
    50          2
    51          9
    52         36
    53         25
    54         90
    55        101
    56        999
    57         44
    58         30
    59          2
    61          3
    62          2
    63         18
    64          3
    65          1
    66         18
    67         32
    68         45
    69         83
    70         22
    71          3
    77          1
    78          1
    80          4
    81          4
    82        773
    83         37
    84          8
    95          7
    96         44
    97        253
    98         48
    99          4
   103          2
   109          1
   110          8
   111         19
   112          1
   124          2
   125         53
   126         52
   127          6
   139          3
   153          2
   154        805
   155         62
   156          6