##TITLE=Library Entry 38605
##JCAMP-DX=Revision 4.10 
##DATA TYPE=MASS SPECTRUM
##SAMPLE DESCRIPTION=ASES Database, Dalian Institute, P.R. China
##NAMES=HP
##CAS NAME=Undeca-4,8-dione
##MOLFORM=C11H20O2
##CAS REGISTRY NO=13505-35-6
##MP= -300
##BP= -300
##MW= 184
##$RETENTION INDEX=0
##$CONDENSED SPECTRUM=NO
##NPOINTS= 40
##XYDATA=(XY..XY) 1 
    39        139
    40         29
    41        319
    42        101
    43        880
    44         30
    55        330
    56         19
    57         40
    58        110
    67         19
    69         29
    70         60
    71        999
    72         49
    79          9
    81         20
    83         30
    84          9
    85          9
    86         89
    87         10
    95         10
    97          9
    98         60
    99        198
   100         10
   113        658
   114         59
   115         10
   123         70
   128          9
   141        280
   142         20
   156         79
   157          9
   166          9
   167          9
   184        190
   185         30