##TITLE=Library Entry 78908
##JCAMP-DX=Revision 4.10 
##DATA TYPE=MASS SPECTRUM
##SAMPLE DESCRIPTION=A.A.Kutin, Moscow, Russia
##NAMES=HP
##CAS NAME=Propenone, 2-[1-(4-bromophenyl)-5-tetrazolyl]-3-dimethylamino-1-p
henyl-
##MOLFORM=C18H16BrN5O
##CAS REGISTRY NO=135056-94-9
##MP= -300
##BP= -300
##MW= 397
##$RETENTION INDEX=0
##$CONDENSED SPECTRUM=NO
##NPOINTS= 296
##XYDATA=(XY..XY) 1 
    33         11
    34          2
    36          1
    37         10
    38         24
    39         86
    40         52
    41         66
    42        446
    43         89
    44        101
    45          7
    46          1
    48          0
    50        103
    51        191
    52         38
    53         58
    54         25
    55         23
    56         62
    57         63
    58          4
    60          0
    61          7
    62         26
    63         89
    64         33
    65         16
    66         25
    67         41
    68         42
    69         25
    70          4
    72         23
    73          6
    74         29
    75         91
    76        163
    77        864
    78         67
    79         20
    80         49
    81         30
    82         95
    83        546
    84         31
    85          4
    86          4
    87          8
    88         15
    89         42
    90         98
    91         67
    92         12
    93          8
    94          7
    95         34
    96         24
    97         10
    98          4
    99          3
   100          5
   101         16
   102        114
   103         43
   105        999
   106         72
   107         12
   108         10
   109        100
   110          9
   111          7
   112          2
   113         10
   114         26
   115         95
   116         47
   117         36
   118         20
   119          9
   120         11
   121          4
   123         47
   124          5
   125          0
   126          2
   127          9
   128         17
   129         23
   130         43
   131         52
   132         22
   133          5
   134          3
   135          1
   137          8
   138         13
   139          2
   140          4
   141          6
   142         17
   143         32
   144         55
   145         34
   146         12
   147          4
   148          2
   149          1
   150          0
   151          3
   152          3
   153          3
   155         79
   156         45
   157        249
   158         64
   159         23
   160          9
   161          0
   164          1
   165          2
   166          4
   167          7
   169         72
   170         37
   171        107
   172         72
   173         21
   174         18
   175          3
   177          3
   178          4
   179         15
   180         10
   181         29
   182         25
   183         51
   184         71
   185         87
   186         46
   187        145
   188         24
   189          4
   190          2
   191          2
   192          3
   193          5
   194          5
   195         29
   196         32
   197         40
   198         65
   199        153
   200         45
   201          5
   203          2
   204          3
   205          4
   206          6
   207          3
   208          5
   209          5
   210          7
   211          5
   212         10
   214        274
   215         34
   216          5
   217          6
   218         25
   219         15
   220          8
   221         16
   222          8
   223         16
   224          5
   225          6
   226          1
   228         46
   229          6
   230          1
   231          4
   232          7
   233          6
   234          4
   235          5
   236          7
   237         13
   238          8
   239          9
   240          3
   244          1
   245          9
   246         21
   247         23
   248         15
   249         10
   250         13
   251          8
   252          4
   253          0
   255          2
   258        215
   259         43
   260        195
   261         34
   262         10
   263          5
   264         19
   265          9
   266         17
   267          4
   271          4
   272          9
   273         17
   274         21
   275         18
   276          5
   277          5
   278          5
   279          4
   280          3
   282          3
   283          0
   284          3
   285          2
   286          2
   287          3
   288          8
   289          6
   290          9
   292         44
   293          7
   294         37
   295          5
   296          3
   297          9
   298          6
   299         13
   300          4
   301          4
   302          1
   306          4
   307          0
   308          5
   309          2
   310          2
   311          5
   312          4
   313          5
   314          4
   315          1
   316          0
   323          1
   324          4
   325         21
   326         14
   327         38
   328         14
   329         21
   330          5
   331          0
   337          1
   338          5
   339         10
   340         45
   341         25
   342         36
   343         14
   344          2
   350          1
   351          3
   352         21
   353         10
   354         36
   355         16
   356         18
   357          8
   358          0
   364          1
   365          3
   366          6
   368        230
   369         79
   370        200
   371         59
   372          8
   382          2
   384          2
   394          0
   397        114
   398         30
   399         95
   400         19
   401          2