##TITLE=Library Entry 20981
##JCAMP-DX=Revision 4.10 
##DATA TYPE=MASS SPECTRUM
##SAMPLE DESCRIPTION=Chemical Concepts
##NAMES=HP
##CAS NAME=Propanoic acid, 3-chloro-2,2-dimethyl-
##MOLFORM=C5H9ClO2
##CAS REGISTRY NO=13511-38-1
##MP= -300
##BP= -300
##MW= 136
##$RETENTION INDEX=0
##$CONDENSED SPECTRUM=NO
##NPOINTS= 97
##XYDATA=(XY..XY) 1 
    25          2
    26         29
    27        286
    28         37
    29        294
    30          6
    31         43
    33          0
    34          0
    35          1
    36          4
    37         14
    38         34
    39        329
    40         47
    41        417
    42         49
    43         75
    44         12
    45        115
    46          3
    47          3
    48          3
    49         56
    50         17
    51         23
    52          6
    53         61
    54         24
    55        999
    56        367
    57         45
    58         12
    59        158
    60          8
    61          5
    62          4
    63        123
    64          4
    65         38
    66          1
    67          4
    68          5
    69         22
    70         23
    71          5
    72         21
    73          9
    74          2
    75         18
    76          1
    77          7
    78          0
    79          1
    81          2
    82         18
    83         39
    84          2
    85         45
    86         18
    87         66
    88          5
    89          3
    90         62
    91        686
    92         49
    93        214
    94          9
    95          0
    97          0
    98          0
    99          2
   100        128
   101        415
   102         22
   103         10
   104          0
   105          3
   107          0
   109          0
   110          0
   111          0
   112          0
   114          0
   116          0
   117          0
   118          0
   119          3
   120          1
   121         18
   122          1
   123          7
   135          1
   136         50
   137          3
   138         16
   139          1