##TITLE=Library Entry 50282
##JCAMP-DX=Revision 4.10 
##DATA TYPE=MASS SPECTRUM
##SAMPLE DESCRIPTION=S.A. Rang et al., IR & MS of Unsatd. Hydrocarbons, 1977
##NAMES=HP
##CAS NAME=Cyclohexene,1-(2-propenyl)-
##MOLFORM=C9H14
##CAS REGISTRY NO=13511-13-2
##MP= -300
##BP= -300
##MW= 122
##$RETENTION INDEX=934
##$CONDENSED SPECTRUM=NO
##NPOINTS= 80
##XYDATA=(XY..XY) 1 
    15          3
    25          1
    26         12
    27        157
    28          9
    29         52
    37          2
    38         10
    39        234
    40         39
    41        238
    42         16
    43         11
    45          2
    46          0
    49          0
    50         18
    51         71
    52         44
    53        186
    54         52
    55         66
    56          5
    57          7
    58          5
    59          4
    60          2
    61          0
    62          4
    63         21
    64          6
    65         81
    66         57
    67        138
    68         57
    69          5
    70          1
    71          1
    73          1
    74          2
    75          8
    76          3
    77        186
    78         62
    79        620
    80        176
    81        999
    82         71
    83          4
    84          0
    85          0
    86          0
    87          0
    88          0
    89          4
    90          2
    91        129
    92         21
    93        167
    94         62
    95         13
    96          2
    97          1
    98          0
    99          1
   103          6
   104          2
   105         16
   106          2
   107        124
   108         11
   109          1
   117          2
   118          1
   119          1
   120          3
   121          2
   122        263
   123         24
   124          3