##TITLE=Library Entry 42418
##JCAMP-DX=Revision 4.10 
##DATA TYPE=MASS SPECTRUM
##SAMPLE DESCRIPTION=Chemical Concepts
##NAMES=HP
##CAS NAME=Silane, (1,2-diethyl-1,2-ethenediyl)bis[trimethyl-
##MOLFORM=C12H28Si2
##CAS REGISTRY NO=135192-97-1
##MP= -300
##BP= -300
##MW= 228
##$RETENTION INDEX=0
##$CONDENSED SPECTRUM=NO
##NPOINTS= 101
##XYDATA=(XY..XY) 1 
    27          1
    28          9
    29         10
    31          7
    39          4
    40          1
    41          2
    42          1
    43         37
    44         15
    45         99
    46          5
    47          1
    53          6
    54          1
    55         10
    57          7
    58         20
    59         76
    60          4
    61          2
    66          0
    67          7
    68          1
    69         12
    70          4
    71          3
    72         13
    73        999
    74         96
    75         49
    76          1
    77          1
    78          0
    79          1
    80          0
    81          9
    82          1
    83         31
    84          2
    85         10
    86         16
    87         33
    88          5
    89          1
    93          1
    95          4
    96          5
    97         37
    98         17
    99         32
   100          3
   101          8
   102          0
   109          7
   110          4
   111        181
   112         51
   113         14
   114          3
   115          1
   116          1
   117          0
   118          0
   123          5
   124          2
   125        155
   126         23
   127          7
   129          2
   131          3
   132          0
   137          0
   138          1
   139        112
   140        330
   141         35
   142         14
   143          1
   145          0
   153          0
   154         59
   155         69
   156         13
   157          3
   169          1
   171          0
   172          0
   183          1
   197          1
   199         12
   200          5
   201          2
   213         64
   214         14
   215          4
   226          0
   228        162
   229         31
   230         15
   231          3