##TITLE=Library Entry 46655
##JCAMP-DX=Revision 4.10 
##DATA TYPE=MASS SPECTRUM
##SAMPLE DESCRIPTION=V.A.Korolev, Moscow, Russia
##NAMES=HP
##CAS NAME=(1-Methoxycyclopropyl)(phenyl)diazene
##MOLFORM=C10H12N2O
##CAS REGISTRY NO=1352491-69-0
##MP= -300
##BP= -300
##MW= 176
##$RETENTION INDEX=0
##$CONDENSED SPECTRUM=NO
##NPOINTS= 93
##XYDATA=(XY..XY) 1 
    28         26
    29          1
    36          2
    37         23
    38         41
    39        137
    40         29
    41        254
    42         36
    43         36
    44          8
    45         20
    47          5
    48          7
    49         14
    50        150
    51        561
    52         73
    53         36
    54         25
    55        129
    56         92
    57         23
    58         14
    59         11
    61          3
    62         16
    63         77
    64        106
    65         99
    66         15
    67          6
    68          3
    69         19
    70          3
    71        134
    72          6
    73          4
    74         24
    75         21
    76         34
    77        999
    78        117
    79         21
    80          5
    81          5
    83         56
    84          2
    85         34
    87          7
    88          9
    89          5
    90         12
    91        183
    92         63
    93         29
    94          4
    95          1
   102          1
   103          7
   104         46
   105        183
   106         27
   107         20
   108          8
   109          1
   114          1
   115          8
   116         19
   117         15
   118         13
   119         31
   120         30
   121          8
   130          5
   131          5
   132          4
   133          8
   134          1
   135          4
   143          2
   144          3
   145          3
   146          1
   147          1
   160          1
   161        246
   162         39
   163          2
   175         20
   176        341
   177         40
   178          2