##TITLE=Library Entry 16909
##JCAMP-DX=Revision 4.10 
##DATA TYPE=MASS SPECTRUM
##SAMPLE DESCRIPTION=Chemical Concepts
##NAMES=HP
##CAS NAME=2-Chloro-3-hydroxy-butyric acid
##MOLFORM=C4H7ClO3
##CAS REGISTRY NO=135211-08-4
##MP= -300
##BP= -300
##MW= 138
##$RETENTION INDEX=0
##$CONDENSED SPECTRUM=NO
##NPOINTS= 91
##XYDATA=(XY..XY) 1 
    25         11
    26         76
    27        232
    28         86
    29        267
    30         40
    31         73
    35         57
    36        270
    37         39
    38         98
    39        151
    40         43
    41        131
    42        101
    43        476
    44        252
    45        999
    46         37
    47         18
    48         19
    49         45
    50         18
    51         14
    52          5
    53         11
    54          3
    55         29
    56         10
    57         92
    58        121
    59         10
    60          7
    61         15
    62          1
    63          7
    64          1
    65          8
    66          2
    67          5
    68         25
    69         47
    70         13
    71         16
    72          1
    73          8
    74          4
    75          8
    76        209
    77         38
    78         73
    79         22
    80          3
    81          4
    82          2
    83          4
    84         11
    85         33
    86         45
    87         15
    88          1
    89          2
    91          3
    92          2
    93          3
    94        330
    95         12
    96        108
    97          4
    98          2
    99          2
   100          1
   101          2
   102          7
   103          9
   104          2
   105         48
   106          2
   107         16
   108          2
   119          3
   120          9
   121          3
   122          3
   123         12
   124          1
   125          4
   137          1
   138          1
   139          1
   140          0