##TITLE=Library Entry 48819
##JCAMP-DX=Revision 4.10 
##DATA TYPE=MASS SPECTRUM
##SAMPLE DESCRIPTION=Chemical Concepts
##NAMES=HP
##CAS NAME=Bicyclo[3.3.1]nona-2,6-diene
##MOLFORM=C9H12
##CAS REGISTRY NO=13534-07-1
##MP= -300
##BP= -300
##MW= 120
##$RETENTION INDEX=0
##$CONDENSED SPECTRUM=NO
##NPOINTS= 57
##XYDATA=(XY..XY) 1 
    27         45
    28          3
    29          6
    38         10
    39        124
    40         15
    41         68
    42          4
    43          5
    50         20
    51         58
    52         25
    53         38
    54          7
    55         22
    57          8
    58         19
    59          4
    62          8
    63         24
    64          5
    65         70
    66        225
    67         23
    69          4
    70          3
    71          5
    74          5
    75          6
    76          5
    77        329
    78        565
    79        999
    80         70
    81          7
    83          3
    89         11
    90          3
    91        313
    92        105
    93         25
    94          3
    95          3
    97          3
   102          5
   103         51
   104         13
   105        196
   106         15
   107         16
   115         35
   116          5
   117         23
   118          3
   119         20
   120        361
   121         27