##TITLE=Library Entry 15908
##JCAMP-DX=Revision 4.10 
##DATA TYPE=MASS SPECTRUM
##SAMPLE DESCRIPTION=RADIAN CORP
##NAMES=HP
##CAS NAME=1,3-Propanediamine, N-(2-aminoethyl)-
##MOLFORM=C5H15N3
##CAS REGISTRY NO=13531-52-7
##MP= -300
##BP= -300
##MW= 117
##$RETENTION INDEX=0
##$CONDENSED SPECTRUM=NO
##NPOINTS= 45
##XYDATA=(XY..XY) 1 
    15          2
    17          1
    18         10
    26          4
    27         19
    28         73
    29         31
    30        251
    31          7
    38          1
    39         13
    40         12
    41         91
    42        153
    43         83
    44        999
    45         42
    51          1
    52          3
    53          3
    54         12
    55         10
    56         72
    57         38
    58         54
    59          7
    61          3
    67          1
    68         10
    69          7
    70         58
    71         25
    72          2
    73         18
    74          1
    80          2
    82          3
    83          5
    84          5
    85         16
    86          2
    87        444
    88         28
    99          9
   100          8