##TITLE=Library Entry 38609
##JCAMP-DX=Revision 4.10 
##DATA TYPE=MASS SPECTRUM
##SAMPLE DESCRIPTION=TNO Volatile Compounds in Food - Chemical Concepts
##NAMES=HP
##CAS NAME=Butane, 1,1'-[ethylidenebis(oxy)]bis[2-methyl-
##MOLFORM=C12H26O2
##CAS REGISTRY NO=13535-43-8
##MP= -300
##BP= -300
##MW= 202
##$RETENTION INDEX=0
##$CONDENSED SPECTRUM=NO
##NPOINTS= 34
##XYDATA=(XY..XY) 1 
    33          1
    38          3
    39         77
    40         13
    41        231
    42        102
    43        746
    44         33
    45        227
    46          3
    50          2
    51          2
    53         16
    54          4
    55        149
    56         65
    57         85
    58         42
    59          7
    61          5
    67          2
    69         11
    70        108
    71        999
    72         72
    73          2
    97         25
    99          4
   114         11
   115        601
   116         46
   117         11
   145          9
   187         30