##TITLE=Library Entry 59871
##JCAMP-DX=Revision 4.10 
##DATA TYPE=MASS SPECTRUM
##SAMPLE DESCRIPTION=Asinex Ltd, Moscow, Russia
##NAMES=HP
##CAS NAME=Benzoic acid, 2-benzylsulfonyl-
##MOLFORM=C14H12O4S
##CAS REGISTRY NO=13536-21-5
##MP= -300
##BP= -300
##MW= 276
##$RETENTION INDEX=0
##$CONDENSED SPECTRUM=NO
##NPOINTS= 160
##XYDATA=(XY..XY) 1 
    34          0
    36          0
    37          1
    39         72
    40         18
    41         14
    42          2
    43          4
    44          8
    45          7
    46          0
    48          3
    50         37
    51         38
    52          6
    53          6
    54          1
    55          2
    56          1
    57          1
    58          0
    60          1
    61          1
    62          8
    63         37
    65        212
    66         10
    67          1
    69          7
    70          2
    71          0
    73          1
    74         12
    75         12
    76         32
    77         18
    78          5
    79          4
    81          1
    82          2
    83          1
    84          1
    85          0
    86          1
    87          1
    89         38
    91        999
    92         69
    93         15
    95          2
    96          3
    97          3
    98          0
    99          0
   101          0
   102          1
   103          1
   104         18
   105         21
   106          3
   107          4
   108          5
   109          3
   110          0
   111          0
   113          1
   115          3
   116          0
   117          2
   118          1
   119          1
   120          2
   121         12
   122          2
   123          0
   125          0
   126          0
   127          1
   128          1
   129          0
   131          0
   132          2
   133          4
   134         27
   135          2
   136          0
   137          0
   138          0
   139          2
   140          1
   141          0
   142          0
   143          0
   144          1
   147          0
   148          0
   149          0
   150          0
   151          1
   152         16
   153          3
   154          1
   155          2
   156          1
   157          0
   158          1
   160          1
   161          0
   162          1
   163          2
   164          3
   165         72
   166         26
   167         11
   168          3
   169          2
   170          1
   171          1
   172          0
   177          0
   181          1
   183          0
   184          4
   185          5
   186          3
   187          0
   189          0
   190          3
   191          0
   193         12
   194        113
   195         19
   196          2
   197          3
   198          0
   200          0
   209          0
   210          2
   211          2
   212         24
   213          4
   214          0
   215          1
   226          0
   227          0
   228          0
   230          1
   232          0
   235          1
   236          0
   244          0
   257          0
   258          5
   259          0
   260          0
   269          0
   273          0
   276         31
   277          4
   278          1