##TITLE=Library Entry 58785
##JCAMP-DX=Revision 4.10 
##DATA TYPE=MASS SPECTRUM
##SAMPLE DESCRIPTION=Japan AIST/NIMC Database- Spectrum MS-IW-5591
##NAMES=HP
##CAS NAME=5-O-Methyl-d-glucofuranurono-gamma-lactone
##MOLFORM=C7H10O6
##CAS REGISTRY NO=135414-74-3
##MP= -300
##BP= -300
##MW= 190
##$RETENTION INDEX=0
##$CONDENSED SPECTRUM=NO
##NPOINTS= 135
##XYDATA=(XY..XY) 1 
    12          2
    13          2
    14         12
    15         82
    16          9
    17         29
    18        151
    19         38
    22          3
    24          1
    25          4
    26         32
    27         71
    28        170
    29        252
    30         39
    31        182
    32         57
    33         58
    34          2
    36          2
    37         12
    38         23
    39        116
    40         32
    41         77
    42         82
    43        165
    44        526
    45        211
    46          7
    47         13
    48          1
    49          4
    50         10
    51         11
    52         11
    53         19
    54         33
    55         78
    56         29
    57        122
    58         42
    59         96
    60        117
    61         32
    62          1
    63          1
    64          1
    65          1
    66          5
    67         22
    68         92
    69         51
    70         18
    71        148
    72        655
    73        361
    74        155
    75        160
    76          6
    77          2
    78          1
    79          2
    80         14
    81          5
    82          6
    83         50
    84         46
    85        121
    86         68
    87        187
    88          9
    89         69
    90        999
    91         36
    92          8
    93          1
    94          2
    95        133
    96        191
    97         58
    98         28
    99         46
   100         46
   101         72
   102         12
   103         26
   104          2
   105          9
   106          1
   108          2
   109          1
   110          9
   111          9
   112         19
   113         23
   114         56
   115         21
   116          5
   117          3
   118          2
   123          3
   124          3
   125          8
   126          5
   127         15
   128        109
   129         10
   130          4
   131          2
   132          2
   133         45
   134          3
   135          1
   139          3
   140          5
   141          8
   142          5
   143          7
   144          7
   145          5
   146          2
   154          7
   155          1
   157          1
   160         13
   161         34
   162          3
   163          1
   172          7
   173          6
   174          1
   190         24
   191          2