##TITLE=Library Entry 77565
##JCAMP-DX=Revision 4.10 
##DATA TYPE=MASS SPECTRUM
##SAMPLE DESCRIPTION=G. Lange, Inst. Org. Chem., Univ. Wurzburg, Germany
##NAMES=HP
##CAS NAME=Spiro[isobenzofuran-1(3H),2'-oxiran]-3-one, trans-3'-phenyl-
##MOLFORM=C15H10O3
##CAS REGISTRY NO=135455-97-9
##MP= -300
##BP= -300
##MW= 238
##$RETENTION INDEX=0
##$CONDENSED SPECTRUM=NO
##NPOINTS= 39
##XYDATA=(XY..XY) 1 
    38         10
    39         32
    40          9
    44          9
    50        107
    51         61
    52         12
    62         11
    63         38
    64         14
    65         15
    66         18
    74         20
    75         34
    76        346
    77        121
    78         14
    82         11
    89         62
    90         39
   104        999
   105        165
   106         15
   132        567
   133         57
   134          5
   139          6
   152         10
   153          5
   163          7
   164          8
   165         47
   166          9
   194         11
   209         14
   222         47
   223          7
   238         45
   239          7