##TITLE=Library Entry 21957
##JCAMP-DX=Revision 4.10 
##DATA TYPE=MASS SPECTRUM
##SAMPLE DESCRIPTION=Japan AIST/NIMC Database- Spectrum MS-NW-6346
##NAMES=HP
##CAS NAME=2,3-Dimethylsuccinic acid
##MOLFORM=C6H10O4
##CAS REGISTRY NO=13545-04-5
##MP= -300
##BP= -300
##MW= 146
##$RETENTION INDEX=0
##$CONDENSED SPECTRUM=NO
##NPOINTS= 71
##XYDATA=(XY..XY) 1 
    12          1
    13          1
    14          3
    15         18
    16          4
    17          3
    18         10
    24          1
    25          6
    26         64
    27        178
    28        148
    29        103
    30          5
    31          6
    32          2
    36          1
    37         12
    38         23
    39        146
    40         35
    41        480
    42         19
    43         14
    44         11
    45         36
    46          2
    47          2
    49          5
    50         19
    51         17
    52          7
    53         22
    54         19
    55        134
    56        999
    57         55
    58          2
    59          9
    60          1
    63          1
    65          1
    66          9
    67          1
    68          4
    69         28
    70          1
    71          1
    72          2
    73         27
    74         81
    75          3
    77          1
    79          3
    81          1
    82          9
    83         13
    84          4
    85         18
    86          1
    87         52
    88          3
    91          1
    98          1
    99          1
   100         64
   101          9
   102          8
   113          2
   128         16
   129          5