##TITLE=Library Entry 57243
##JCAMP-DX=Revision 4.10 
##DATA TYPE=MASS SPECTRUM
##SAMPLE DESCRIPTION=Chemical Concepts
##NAMES=HP
##CAS NAME=Cyclopropanecarboxylic acid, 2-pentyl-, methyl ester
##MOLFORM=C10H18O2
##CAS REGISTRY NO=135415-95-1
##MP= -300
##BP= -300
##MW= 170
##$RETENTION INDEX=0
##$CONDENSED SPECTRUM=NO
##NPOINTS= 134
##XYDATA=(XY..XY) 1 
    25          2
    26         26
    27        364
    28         29
    29        313
    30          9
    31         16
    33          5
    34          0
    35          2
    36          2
    37          6
    38         23
    39        387
    40         73
    41        547
    42        183
    43        255
    44          9
    45         49
    46          2
    47          2
    48          1
    49          2
    50         17
    51         47
    52         31
    53        212
    54        231
    55        733
    56        231
    57         57
    58         21
    59        254
    60         12
    61          5
    62          4
    63         11
    64          5
    65         35
    66         29
    67        206
    68        137
    69        290
    70         42
    71         92
    72         36
    73         33
    74        369
    75         52
    76          6
    77         28
    78          9
    79         41
    80         15
    81        258
    82        125
    83         86
    84        102
    85         84
    86         12
    87        999
    88         93
    89          9
    90          1
    91         10
    92          3
    93         10
    94         45
    95        101
    96        469
    97        204
    98         21
    99         36
   100         78
   101         86
   102         20
   103          2
   104          3
   105          6
   106          1
   107          4
   108          2
   109         64
   110         77
   111         22
   112          9
   113        399
   114        314
   115        117
   116         11
   117          2
   118          0
   119          2
   120         20
   121          6
   122          2
   123         28
   124          3
   125          3
   126          4
   127         83
   128         69
   129         13
   130          1
   131          0
   132          1
   133          1
   134          0
   135          4
   136          2
   137          5
   138        199
   139        229
   140         22
   141         51
   142         10
   143          1
   144          0
   145          0
   147          0
   148          0
   151          1
   152          4
   153          1
   154          1
   155         18
   156          3
   167          2
   168          0
   169          3
   170         33
   171          5
   172          0