##TITLE=Library Entry 90236
##JCAMP-DX=Revision 4.10 
##DATA TYPE=MASS SPECTRUM
##SAMPLE DESCRIPTION=R.LARGE BRIT. PETROLEUM CO. LTD., EPSOM, SURREY, UK
##NAMES=HP
##CAS NAME=Cyclohexene, 1-chloro-5-(1-chloroethenyl)-
##MOLFORM=C8H10Cl2
##CAS REGISTRY NO=13547-07-4
##MP= -300
##BP= -300
##MW= 176
##$RETENTION INDEX=0
##$CONDENSED SPECTRUM=NO
##NPOINTS= 62
##XYDATA=(XY..XY) 1 
    27        205
    39        230
    41         75
    49         27
    50         81
    51        292
    52        149
    53        373
    61         37
    62         29
    63         81
    64         13
    65        193
    66         50
    73         42
    74         22
    75         81
    76         13
    77        335
    78         75
    79        267
    80         35
    88        696
    89         50
    90        230
    91         75
    99         34
   100         81
   101        124
   102         56
   103         99
   104         22
   105        342
   106         42
   112        224
   113        999
   114        155
   115        329
   116         29
   125         31
   127         35
   129         11
   134         11
   135         12
   136          9
   137          9
   139         14
   140         14
   141        261
   142         26
   143         87
   147         11
   148          8
   149          7
   150          6
   161          6
   163          4
   176        124
   177         12
   178         75
   179          7
   180         12