##TITLE=Library Entry 47571
##JCAMP-DX=Revision 4.10 
##DATA TYPE=MASS SPECTRUM
##SAMPLE DESCRIPTION=ASES Database, Dalian Institute, P.R. China
##NAMES=HP
##CAS NAME=o-Nitrobenzaldoxime-O-methyl ether
##MOLFORM=C8H8N2O3
##CAS REGISTRY NO=135436-97-4
##MP= -300
##BP= -300
##MW= 180
##$RETENTION INDEX=0
##$CONDENSED SPECTRUM=NO
##NPOINTS= 38
##XYDATA=(XY..XY) 1 
    39        166
    41         49
    50        332
    51        385
    52        217
    53         30
    62         60
    63        202
    64        279
    65        400
    66         40
    74         71
    75        169
    76        500
    77        999
    78        218
    79        398
    80         29
    88         30
    89         39
    90        141
    91        418
    92        386
    93        148
   102        308
   103        199
   104        280
   105        121
   107         40
   118         30
   119        201
   120        118
   132         70
   133         29
   134        270
   135        181
   149        171
   180        939