##TITLE=Library Entry 57926
##JCAMP-DX=Revision 4.10 
##DATA TYPE=MASS SPECTRUM
##SAMPLE DESCRIPTION=R.LARGE BRIT. PETROLEUM CO. LTD., EPSOM, SURREY, UK
##NAMES=HP
##CAS NAME=Cyclohexene, 1-chloro-4-(1-chloroethenyl)-
##MOLFORM=C8H10Cl2
##CAS REGISTRY NO=13547-06-3
##MP= -300
##BP= -300
##MW= 176
##$RETENTION INDEX=1259
##$CONDENSED SPECTRUM=NO
##NPOINTS= 62
##XYDATA=(XY..XY) 1 
    27        142
    39        154
    41         42
    49         21
    50         62
    51        183
    52        121
    53        321
    61         23
    62         21
    63         46
    64          8
    65        100
    66         19
    73         25
    74         14
    75         50
    76          9
    77        162
    78         46
    79        142
    80         22
    88        999
    89         62
    90        333
    91         50
    99         12
   100         33
   101         50
   102         21
   103         50
   104         14
   105        221
   106         24
   112         46
   113        183
   114         50
   115         62
   116         11
   125         15
   127         25
   129          8
   134          3
   135         24
   136          4
   137         16
   139          8
   140         23
   141        279
   142         42
   143         92
   147          4
   148          9
   149          4
   150          5
   161          2
   163          1
   176        162
   177         16
   178        104
   179         10
   180         17