##TITLE=Library Entry 78385
##JCAMP-DX=Revision 4.10 
##DATA TYPE=MASS SPECTRUM
##SAMPLE DESCRIPTION=G. Lange, Inst. Org. Chem., Univ. Wurzburg, Germany
##NAMES=HP
##CAS NAME=Oxirane, (cis)-2-acetoxy-2,3-diphenyl-
##MOLFORM=C16H14O3
##CAS REGISTRY NO=135455-96-8
##MP= -300
##BP= -300
##MW= 254
##$RETENTION INDEX=0
##$CONDENSED SPECTRUM=NO
##NPOINTS= 49
##XYDATA=(XY..XY) 1 
    38          1
    39         11
    40          1
    42          2
    43        137
    44          5
    50         12
    51         69
    52          7
    62          2
    63         11
    64          4
    65          3
    74          1
    75          2
    76         10
    77        269
    78         25
    79         13
    82          2
    83          1
    89         26
    90         27
    91         18
   104          3
   105        999
   106         80
   107         28
   108          1
   115          2
   118          9
   128          1
   139          1
   149          4
   152          8
   153          1
   164          1
   165         16
   166          5
   167         14
   168          1
   194          4
   195          5
   196         24
   197          3
   211         57
   212         12
   213          1
   238          1