##TITLE=Library Entry 73041
##JCAMP-DX=Revision 4.10 
##DATA TYPE=MASS SPECTRUM
##SAMPLE DESCRIPTION=Humboldt-Universitat zu Berlin, Department of Chemistry
, Analytical Group
##NAMES=HP
##CAS NAME=1-(4-Bromophenyl)-3-morpholino-propan-1-one
##MOLFORM=C13H16BrNO2
##CAS REGISTRY NO=13552-48-2
##MP= -300
##BP= -300
##MW= 297
##$RETENTION INDEX=0
##$CONDENSED SPECTRUM=NO
##NPOINTS= 162
##XYDATA=(XY..XY) 1 
    12          2
    14          4
    15         37
    16          8
    17         46
    18        171
    19          2
    25          2
    26         12
    27         67
    28        197
    29         94
    30         43
    31         11
    32          3
    36          3
    37          2
    38          7
    39         13
    40          6
    41         59
    42        154
    43         59
    44         44
    45         14
    49          2
    50         65
    51         20
    52          5
    53          8
    54         31
    55         86
    56        336
    57         75
    58         11
    59          5
    60          6
    61          3
    62          3
    63          7
    64          2
    65          4
    66          1
    67          4
    68          9
    69         19
    70         56
    71         54
    72         19
    73         11
    74         26
    75         76
    76         88
    77         26
    78          6
    79          7
    80          7
    81          6
    82         13
    83          9
    84         36
    85         12
    86         30
    87         18
    88          2
    89         11
    90         19
    91          7
    92          2
    93          2
    94          2
    95          3
    96          3
    97          6
    98         74
    99        313
   100        999
   101         64
   102         12
   103         10
   104         25
   105          9
   107          2
   109          2
   110          2
   111          4
   112         12
   113          5
   114         61
   115          8
   116          3
   117          3
   118          2
   119          1
   125          2
   127          5
   128          2
   129          6
   130          3
   131         17
   132         14
   133         31
   134          6
   142          2
   143          2
   145          2
   149          2
   152          2
   155         80
   156          9
   157         79
   158          9
   169          9
   170          1
   171          9
   172          1
   181          2
   183         99
   184         11
   185         98
   186          7
   187          1
   198          2
   200          2
   210         12
   211          7
   212         12
   213          5
   214          1
   217          1
   219          1
   224          1
   226          1
   228          1
   229          1
   238          1
   239          1
   240          1
   241          1
   242          0
   250          2
   251          0
   252          2
   254         32
   255          4
   256         34
   257          3
   266          2
   267          0
   268          3
   269          0
   270          0
   280          0
   282          0
   283          0
   284          0
   295          0
   296          0
   297          7
   298          1
   299          6
   300          1