##TITLE=Library Entry 46215
##JCAMP-DX=Revision 4.10 
##DATA TYPE=MASS SPECTRUM
##SAMPLE DESCRIPTION=NIST Mass Spectrometry Data Center, 1994
##NAMES=HP
##CAS NAME=5-Chloro-1,3-dimethyl-4-nitropyrazole
##MOLFORM=C5H6ClN3O2
##CAS REGISTRY NO=13551-73-0
##MP= -300
##BP= -300
##MW= 175
##$RETENTION INDEX=0
##$CONDENSED SPECTRUM=NO
##NPOINTS= 99
##XYDATA=(XY..XY) 1 
    12          9
    13          9
    14         45
    15        647
    16          5
    17          4
    18         17
    24          4
    25         11
    26         59
    27         35
    28        188
    29          4
    30        294
    35          9
    36         16
    37         40
    38         65
    39        128
    40        107
    41         48
    42        171
    43        647
    44         23
    45          9
    46         47
    47         39
    48         17
    49        182
    50        163
    51        367
    52        116
    53         58
    54         17
    55          7
    56         21
    60         20
    61         34
    62         32
    63         33
    64         28
    65         65
    66         55
    67        327
    68         22
    69         10
    71          7
    72          4
    73         25
    74          4
    75         65
    76        999
    77         78
    78        313
    79         54
    80         25
    81         26
    82          4
    83        214
    84         41
    85         92
    86         99
    87         66
    88         51
    89         28
    90          7
    91          8
    92          7
    93         34
    94         16
    99          4
   100          9
   101          8
   102         48
   103         61
   104         20
   105         19
   110         14
   115         10
   116         11
   117         33
   118         13
   119         10
   123          5
   128         22
   129          4
   130         10
   144         10
   145         12
   146         11
   147          6
   158        572
   159         57
   160        195
   161         14
   175        409
   176         34
   177        131
   178          9