##TITLE=Library Entry 36993
##JCAMP-DX=Revision 4.10 
##DATA TYPE=MASS SPECTRUM
##SAMPLE DESCRIPTION=Chemical Concepts
##NAMES=HP
##CAS NAME=Pyrrolidine, 2-(methoxymethyl)-
##MOLFORM=C6H13NO
##CAS REGISTRY NO=135523-48-7
##MP= -300
##BP= -300
##MW= 115
##$RETENTION INDEX=0
##$CONDENSED SPECTRUM=NO
##NPOINTS= 64
##XYDATA=(XY..XY) 1 
    25          0
    26          6
    27         41
    28        206
    29         50
    30         47
    31          8
    33          1
    37          1
    38          4
    39         36
    40          9
    41        101
    42         39
    43        187
    44         13
    45         61
    46          1
    47          0
    49          0
    50          0
    51          2
    52          2
    53         13
    54         15
    55         68
    56         22
    57          3
    58          5
    59          0
    60          0
    63          0
    64          0
    65          2
    66          0
    67         10
    68         69
    69          7
    70        999
    71         77
    72          2
    73          0
    74          0
    79          0
    80          5
    81          1
    82         19
    83          9
    84         10
    85          0
    86          2
    87          0
    93          0
    94          0
    96          0
    97          1
    98          1
   100          0
   105          0
   106          0
   112          0
   114          2
   115         20
   116          1