##TITLE=Library Entry 913
##JCAMP-DX=Revision 4.10 
##DATA TYPE=MASS SPECTRUM
##SAMPLE DESCRIPTION=NIST Mass Spectrometry Data Center, 1994
##NAMES=HP
##CAS NAME=1-Amino-2-butanol
##MOLFORM=C4H11NO
##CAS REGISTRY NO=13552-21-1
##MP= -300
##BP= -300
##MW= 89
##$RETENTION INDEX=0
##$CONDENSED SPECTRUM=NO
##NPOINTS= 42
##XYDATA=(XY..XY) 1 
    14          5
    15         31
    16          3
    17          4
    18         21
    19          2
    26         20
    27         81
    28        126
    29        103
    30        999
    31        277
    32        119
    33          2
    36          0
    37          3
    38          7
    39         29
    40          9
    41         70
    42         85
    43         46
    44         11
    45          2
    46          2
    50          1
    51          2
    52          1
    53          5
    54          4
    55          7
    56         13
    57         14
    58         16
    59         48
    60        109
    61          3
    70          3
    71          6
    72          2
    88          1
    89          3