##TITLE=Library Entry 71515
##JCAMP-DX=Revision 4.10 
##DATA TYPE=MASS SPECTRUM
##SAMPLE DESCRIPTION=Chemical Concepts
##NAMES=HP
##CAS NAME=1-Propanone, 1-(4-methylphenyl)-3-(1-piperidyl)-
##MOLFORM=C15H21NO
##CAS REGISTRY NO=13552-46-0
##MP= -300
##BP= -300
##MW= 231
##$RETENTION INDEX=0
##$CONDENSED SPECTRUM=NO
##NPOINTS= 122
##XYDATA=(XY..XY) 1 
    26          8
    27         52
    28         54
    29         44
    30         43
    31          1
    39         63
    40          8
    41        107
    42        102
    43         43
    44         66
    45          6
    49          2
    50         13
    51         24
    52          7
    53         11
    54         17
    55        105
    56         91
    57         60
    58          4
    59          2
    60          3
    61          4
    62          9
    63         34
    64         10
    65        111
    66          7
    67          9
    68         14
    69         57
    70         42
    71          7
    72          0
    73          2
    74          4
    75          4
    76          5
    77         11
    78          4
    79          5
    80          4
    81          5
    82         13
    83         17
    84        165
    85         77
    86          5
    87          2
    88          2
    89         30
    90         19
    91        287
    92         26
    93          3
    94          2
    95          5
    96         70
    97        413
    98        999
    99         77
   100          2
   101          1
   102          2
   103          6
   104          6
   105         13
   106          1
   107          1
   108          1
   109          2
   110         17
   111          7
   112         79
   113          8
   114          0
   115         11
   116          4
   117         14
   118         15
   119        418
   120         39
   121          3
   122          1
   123          1
   124          2
   125          2
   126          0
   127          2
   128          1
   129          2
   130          0
   131         14
   132          2
   133          5
   134          3
   135          0
   136          1
   137          1
   138          2
   139          0
   140          1
   141          2
   142          0
   143          0
   144          1
   145          6
   146        138
   147         21
   148          2
   202          4
   203          0
   204          0
   214          4
   229          1
   230          9
   231         57
   232         10
   233          1