##TITLE=Library Entry 88209
##JCAMP-DX=Revision 4.10 
##DATA TYPE=MASS SPECTRUM
##SAMPLE DESCRIPTION=J.E. WILKINSON S-CUBED, SAN DIEGO, CA.
##NAMES=HP
##CAS NAME=Diazene, bis(2-chlorophenyl)-, 1-oxide
##MOLFORM=C12H8Cl2N2O
##CAS REGISTRY NO=13556-84-8
##MP= -300
##BP= -300
##MW= 266
##$RETENTION INDEX=0
##$CONDENSED SPECTRUM=NO
##NPOINTS= 83
##XYDATA=(XY..XY) 1 
    47          1
    49         21
    50        348
    51        193
    52         18
    53          0
    60          0
    61         41
    62         85
    63        316
    64        138
    65          8
    72          8
    73         80
    74        172
    75        804
    76        115
    77         10
    78        106
    79          1
    84         15
    85         85
    86          7
    87         27
    88         13
    89         62
    90        360
    91         15
    92         15
    97          2
    98         27
    99        156
   100         11
   101         38
   102          0
   106          1
   111        999
   112         65
   113        308
   114         13
   115          5
   124          0
   125        180
   126         14
   127         71
   128          2
   129          1
   138          0
   139        170
   140         44
   141         83
   142          1
   143          6
   146          0
   149         23
   150          2
   151          9
   152          7
   153         13
   154          1
   155          5
   164          1
   165          0
   166          1
   167          8
   168        129
   169          7
   175          4
   177          0
   195          9
   196         11
   202          1
   203         32
   204          1
   205          7
   231        750
   232         90
   233        238
   234         17
   250          4
   252          1
   266          1
   268          0