##TITLE=Library Entry 96182
##JCAMP-DX=Revision 4.10 
##DATA TYPE=MASS SPECTRUM
##SAMPLE DESCRIPTION=RC7-207-4A
##NAMES=HP
##CAS NAME=L-Aspartic acid, diethyl ester
##MOLFORM=C8H15NO4
##CAS REGISTRY NO=13552-87-9
##MP= -300
##BP= -300
##MW= 189
##$RETENTION INDEX=0
##$CONDENSED SPECTRUM=NO
##NPOINTS= 37
##XYDATA=(XY..XY) 1 
    29        503
    30         96
    31         24
    41         24
    42         15
    43         24
    44        174
    45         27
    46         78
    47          6
    55         21
    56          9
    57          6
    60         21
    61          9
    70        295
    71         21
    73          6
    74         15
    86          6
    88         48
   102         20
   103          2
   115         21
   116        999
   117         78
   118         15
   127          2
   128          0
   142          0
   143          4
   144          6
   145          0
   160          7
   161          0
   188          0
   189          1