##TITLE=Library Entry 24042
##JCAMP-DX=Revision 4.10 
##DATA TYPE=MASS SPECTRUM
##SAMPLE DESCRIPTION=Japan AIST/NIMC Database- Spectrum MS-IW-2233
##NAMES=HP
##CAS NAME=Heptyl 4-nitrophenyl ether
##MOLFORM=C13H19NO3
##CAS REGISTRY NO=13565-36-1
##MP= -300
##BP= -300
##MW= 237
##$RETENTION INDEX=0
##$CONDENSED SPECTRUM=NO
##NPOINTS= 100
##XYDATA=(XY..XY) 1 
    26          3
    27         53
    28         17
    29        141
    30         12
    37          1
    38          8
    39         59
    40          9
    41        305
    42         61
    43        384
    44         12
    45          1
    50         20
    51          9
    52          6
    53         18
    54         16
    55        235
    56        255
    57        999
    58         46
    62          5
    63         27
    64         26
    65         52
    66          6
    67          9
    68         15
    69        155
    70        148
    71         24
    72          1
    74          5
    75         30
    76         41
    77         10
    78         11
    79          6
    80          5
    81         13
    82          3
    83         28
    84          3
    85          2
    89          1
    91          8
    92         21
    93         45
    94         11
    95          6
    96          2
    97        141
    98        233
    99         22
   100          1
   103          1
   105          4
   106         13
   107         14
   108          7
   109        101
   110          8
   111          1
   112          2
   113          1
   115          3
   117          2
   118          1
   119          3
   120          2
   121          2
   122         27
   123        101
   124         61
   125          5
   128          1
   129          2
   131          2
   133          5
   134          2
   135          1
   136          1
   139        183
   140        110
   141         56
   142          4
   143          2
   149          3
   152         28
   153          3
   166          1
   167          3
   207          9
   208          1
   221          5
   237        224
   238         31
   239          4