##TITLE=Library Entry 9870
##JCAMP-DX=Revision 4.10 
##DATA TYPE=MASS SPECTRUM
##SAMPLE DESCRIPTION=Japan AIST/NIMC Database- Spectrum MS-NW-1097
##NAMES=HP
##CAS NAME=Butanoic acid, 3-oxo-, 1-methylpropyl ester
##MOLFORM=C8H14O3
##CAS REGISTRY NO=13562-76-0
##MP= -300
##BP= -300
##MW= 158
##$RETENTION INDEX=0
##$CONDENSED SPECTRUM=NO
##NPOINTS= 61
##XYDATA=(XY..XY) 1 
    13          1
    14          8
    15         57
    16          2
    18          1
    25          1
    26         14
    27         94
    28         24
    29        169
    30          4
    31         37
    32          4
    37          2
    38          5
    39         45
    40          8
    41        175
    42         79
    43        999
    44         34
    45        160
    46          4
    50          2
    51          3
    52          1
    53          5
    54          2
    55         27
    56        143
    57        212
    58         42
    59         34
    60         61
    61         15
    69         27
    70          4
    71          1
    72          4
    73         56
    74          3
    83          3
    84         53
    85        426
    86         20
    87         76
    88          3
    98          3
   101          9
   102         61
   103        180
   104          8
   105          1
   114          3
   115          1
   116          2
   125          2
   129          7
   130          3
   143          1
   158          7