##TITLE=Library Entry 6004
##JCAMP-DX=Revision 4.10 
##DATA TYPE=MASS SPECTRUM
##SAMPLE DESCRIPTION=Chemical Concepts
##NAMES=HP
##CAS NAME=1-Acetyl-2,2,4-trimethyl-4-phenyl-1,2,3,4-tetrahydroquinoline
##MOLFORM=C20H23NO
##CAS REGISTRY NO=13562-25-9
##MP= -300
##BP= -300
##MW= 293
##$RETENTION INDEX=0
##$CONDENSED SPECTRUM=NO
##NPOINTS= 167
##XYDATA=(XY..XY) 1 
    33         75
    34         15
    36         16
    37         10
    38         22
    39        261
    40        259
    41        638
    43        999
    44        106
    45         61
    50         36
    51         63
    53         99
    55        515
    56        156
    57        299
    60        157
    61         29
    62          9
    63         18
    64         16
    65         36
    66         36
    67        116
    68         63
    69        270
    70        132
    71        124
    73        133
    74         21
    75         14
    76         23
    77         89
    78         32
    79         51
    81        134
    82         56
    83        123
    84         76
    85         51
    87         34
    88          8
    89         21
    91         97
    92         16
    93         31
    94         27
    95         59
    96         38
    97         79
    98         63
    99         20
   100          9
   101         21
   102         14
   103         33
   104         16
   105         45
   106         20
   107         21
   108         20
   109         30
   110         23
   111         39
   112         43
   113         24
   114         14
   115         48
   116         24
   117         22
   118         23
   119         16
   120         10
   121         39
   122         13
   123         22
   124         13
   125         16
   126         12
   127         20
   128         22
   129         42
   130         21
   131         16
   132         13
   133          9
   134          9
   135         14
   136         11
   137         14
   138          9
   139         11
   140          9
   141         11
   142          9
   143         31
   144         34
   145         13
   146         13
   147          9
   148          9
   149         30
   150          9
   151         13
   152         23
   153         11
   154          7
   155          7
   156          8
   157         21
   158         47
   159         12
   160          9
   161          9
   163          9
   164          6
   165         17
   166          8
   167         13
   168          7
   169          6
   171         36
   172          9
   174          6
   175          8
   176         11
   177         13
   178         20
   179         10
   180          8
   181          5
   185          9
   187          5
   189          8
   191          8
   192          8
   193         12
   194         21
   195          6
   196          8
   199          7
   203          6
   204          7
   205          5
   206         11
   207          6
   208          7
   213         10
   217          8
   219          8
   220         26
   221         11
   232          5
   234         18
   236        368
   237         62
   238          9
   250         11
   251          7
   256         21
   278         38
   279          7
   283          5
   291          7
   293         84
   294         17