##TITLE=Library Entry 18686
##JCAMP-DX=Revision 4.10 
##DATA TYPE=MASS SPECTRUM
##SAMPLE DESCRIPTION=Chemical Concepts
##NAMES=HP
##CAS NAME=Nickel, [(1,2,6,7-.eta.)-1,6-heptadiene](2-isocyano-2-methylpropa
ne)-
##MOLFORM=C12H21NNi
##CAS REGISTRY NO=135619-83-9
##MP= -300
##BP= -300
##MW= 237
##$RETENTION INDEX=0
##$CONDENSED SPECTRUM=NO
##NPOINTS= 137
##XYDATA=(XY..XY) 1 
    25          2
    26         43
    27        324
    28         26
    29        332
    30          8
    31          8
    37         11
    38         38
    39        527
    40         62
    41        299
    42         53
    43         12
    44         27
    45          3
    46          0
    49          2
    50         29
    51         47
    52         23
    53        214
    54        999
    55        691
    56         46
    57         72
    58         17
    59          6
    60          6
    61          3
    62          6
    63         15
    64          3
    65         34
    66         44
    67        539
    68        314
    69         22
    70          1
    71          0
    73          0
    74          5
    75          0
    76          0
    77         30
    78          7
    79         55
    80         12
    81        658
    82         42
    83         15
    84         11
    85         56
    86          3
    87         21
    88          2
    89          2
    91         14
    92          2
    93         11
    94          4
    95         34
    96         68
    97          5
    98          3
    99         15
   100         10
   101          6
   102          3
   103          0
   104          0
   105          2
   106          0
   108          1
   109          0
   110          1
   111          6
   112        111
   113         10
   114         42
   115          5
   116          6
   117          0
   118          0
   119          3
   120          1
   121          2
   123          2
   124          4
   125          5
   126         11
   127          2
   128          4
   129          0
   133          4
   134          2
   136          2
   138          6
   139          3
   140          3
   141         10
   142          0
   143          3
   149          2
   150          2
   151          2
   152          5
   153          4
   154        160
   155         17
   156         65
   157          7
   158          9
   160          2
   162          2
   168          2
   176          2
   177          1
   178          4
   179          0
   180          2
   181         43
   182          5
   183         16
   184          2
   185          1
   205          1
   206          0
   220          0
   222          5
   223          0
   224          2
   237         60
   238          7
   239         25
   240          4
   241          3