##TITLE=Library Entry 93608
##JCAMP-DX=Revision 4.10 
##DATA TYPE=MASS SPECTRUM
##SAMPLE DESCRIPTION=NIST Mass Spectrometry Data Center, 1994
##NAMES=HP
##CAS NAME=6-Phenyl-5-hexyn-3-ol
##MOLFORM=C12H14O
##CAS REGISTRY NO=135663-98-8
##MP= -300
##BP= -300
##MW= 174
##$RETENTION INDEX=0
##$CONDENSED SPECTRUM=NO
##NPOINTS= 82
##XYDATA=(XY..XY) 1 
    12          1
    15         29
    17          3
    18         13
    26         22
    27        129
    29        186
    31        500
    33          1
    37          7
    38         24
    39        154
    40         12
    41        168
    42         10
    43         29
    44          2
    49          4
    50         58
    51         86
    52         17
    53          9
    55          9
    57         40
    59        395
    60         16
    61         15
    62         62
    63        169
    64         25
    65         88
    66          6
    67          3
    69          1
    73          0
    74         21
    75         42
    76         25
    77         40
    78          9
    79          2
    85          6
    86         23
    87         35
    88         36
    89        151
    90         16
    91         46
    92          3
    98          5
    99          3
   100          1
   101          3
   102         17
   103          5
   105         14
   106          1
   109          1
   110          3
   111          2
   113         29
   115        999
   116        927
   117        123
   118          8
   126          5
   127         24
   128         16
   129          6
   130          2
   131          6
   139          2
   141          5
   142          1
   144          4
   145          6
   152          1
   153          1
   155          1
   159          1
   174         46
   175          6