##TITLE=Library Entry 48590
##JCAMP-DX=Revision 4.10 
##DATA TYPE=MASS SPECTRUM
##SAMPLE DESCRIPTION=Chemical Concepts
##NAMES=HP
##CAS NAME=Nickel, [(1,2,6,7-.eta.)-1,6-heptadiene](pyridine)-
##MOLFORM=C12H17NNi
##CAS REGISTRY NO=135619-88-4
##MP= -300
##BP= -300
##MW= 233
##$RETENTION INDEX=0
##$CONDENSED SPECTRUM=NO
##NPOINTS= 137
##XYDATA=(XY..XY) 1 
    25         11
    26         98
    27        165
    29        169
    30          3
    36          5
    37         20
    38         38
    39        277
    40         35
    41        125
    42         25
    43         10
    44          1
    48          3
    49         32
    50        159
    51        248
    52        664
    53        138
    54        439
    55        257
    56         23
    57          4
    58        182
    60         64
    61          3
    62          9
    63          6
    64          3
    65         12
    66         12
    67        180
    68         77
    69          6
    70          0
    71          2
    72          1
    74          3
    75         18
    76         11
    77         13
    78        108
    79        999
    80         97
    81        159
    82         13
    83          1
    84         12
    85         13
    86          6
    87          4
    88          2
    91          8
    92          3
    93         12
    94          3
    95          8
    96         13
    97         10
    98          6
    99         25
   100         38
   101          9
   102         12
   103          2
   104          1
   105          3
   106          4
   108          2
   109          9
   110          6
   111          7
   112        368
   113         24
   114        131
   115         14
   116         17
   117          1
   118          4
   119          3
   120          1
   121          2
   123          4
   124          4
   125          2
   126          8
   127          2
   128          3
   133          5
   134          2
   135          3
   136         22
   137        276
   138         27
   139        107
   140         12
   141         14
   142          1
   143          3
   149          3
   150          5
   151          6
   152          6
   153          8
   154        443
   155         36
   156        167
   157         19
   158         27
   159          2
   160          6
   162          7
   163          1
   164          3
   165          1
   166          2
   176          4
   177          2
   178         13
   179          2
   180          6
   181          1
   191          1
   192          3
   202          2
   204          2
   220          2
   228          2
   230          1
   233        356
   234         51
   235        133
   236         25
   237         21
   238          3
   239          4