##TITLE=Library Entry 49214
##JCAMP-DX=Revision 4.10 
##DATA TYPE=MASS SPECTRUM
##SAMPLE DESCRIPTION=K. Kirk, LBC, NIDDK, NIH, Bethesda, MD 20892
##NAMES=HP
##CAS NAME=N-Cbz-glycylglycine p-nitrophenyl ester
##MOLFORM=C18H17N3O7
##CAS REGISTRY NO=13574-81-7
##MP= -300
##BP= -300
##MW= 387
##$RETENTION INDEX=0
##$CONDENSED SPECTRUM=NO
##NPOINTS= 43
##XYDATA=(XY..XY) 1 
    41         13
    43         53
    44         22
    45         77
    46         59
    49          8
    50        145
    51        253
    52         73
    53         86
    54          6
    55         21
    62         43
    63         83
    64          7
    65         95
    67          6
    69          7
    73          6
    74         40
    77        577
    78         45
    79        999
    80         92
    84          9
    87          8
    89         90
    90         71
    91        151
   105         24
   107        659
   108        800
   109         73
   124          7
   129          7
   138         15
   168          8
   192          6
   208          6
   266          6
   281          7
   387          8
   388          6