##TITLE=Library Entry 40200
##JCAMP-DX=Revision 4.10 
##DATA TYPE=MASS SPECTRUM
##SAMPLE DESCRIPTION=Drug Lab
##NAMES=HP
##CAS NAME=N-Methyl-1-(1,3-benzodioxol-5-yl)-2-butanamine
##MOLFORM=C12H17NO2
##CAS REGISTRY NO=135795-90-3
##MP= -300
##BP= -300
##MW= 207
##$RETENTION INDEX=1611
##$CONDENSED SPECTRUM=NO
##NPOINTS= 76
##XYDATA=(XY..XY) 1 
    40          2
    41         24
    42         50
    43          5
    44         32
    50          8
    51         44
    52          8
    53          7
    54          4
    55          4
    56         30
    57         68
    58          3
    60          1
    62          4
    63         13
    64          3
    65         10
    66          2
    67          3
    68          3
    70         23
    71          7
    72        999
    73         49
    74          3
    75          3
    76          7
    77         69
    78         17
    79         15
    80          2
    81          2
    88          1
    89         52
    90          2
    91         10
    92          2
    93          1
    94          1
   102          2
   103          7
   104          5
   105         15
   106          5
   107          5
   115          3
   116          1
   117          4
   118          6
   119          3
   120         12
   121          5
   122          1
   130          1
   131          3
   132          2
   133          2
   134          2
   135         88
   136         20
   137          2
   145          1
   146          1
   147          5
   148          9
   149          1
   160          1
   162          1
   163          3
   176          3
   177          4
   178         27
   179          3
   206          1