##TITLE=Library Entry 30021
##JCAMP-DX=Revision 4.10 
##DATA TYPE=MASS SPECTRUM
##SAMPLE DESCRIPTION=Div. of Experiment Therapeutics WRAIR, WRAMC, Washingto
n DC 20307
##NAMES=HP
##CAS NAME=6-Methyl-6-phenyl-[[1-[2-thiazolyl]ethylidene]amino]-2,5-dithiobi
urea
##MOLFORM=C14H16N6S3
##CAS REGISTRY NO=135765-65-0
##MP= -300
##BP= -300
##MW= 364
##$RETENTION INDEX=0
##$CONDENSED SPECTRUM=NO
##NPOINTS= 197
##XYDATA=(XY..XY) 1 
    41         83
    42        323
    43         53
    44         66
    45        312
    46         67
    47         36
    48          6
    49          6
    50         29
    51        154
    52         88
    53         33
    54         95
    55         35
    56         48
    57        379
    58        917
    59        999
    60        140
    61         51
    62          8
    63         12
    64        132
    65         64
    66         75
    67         69
    68         13
    69         39
    70         54
    71         42
    72         49
    73         23
    74         36
    75          3
    76        264
    77        515
    78         64
    79         26
    80          7
    81         72
    82         17
    83         52
    84         91
    85        639
    86         89
    87         33
    88         84
    89          5
    90         27
    91         63
    92         20
    93          9
    94          4
    95          0
    96          9
    97          5
    98         76
    99         59
   100         11
   101         11
   102         29
   103         16
   104         26
   105         15
   106         29
   107         13
   108          7
   109        109
   110        253
   111        401
   112        127
   113         30
   114         14
   115         19
   116         10
   117         54
   118         98
   119         19
   120          2
   121          5
   122          3
   123          5
   124          8
   125         56
   126         76
   127         14
   128         25
   129         24
   130          5
   131         17
   132         65
   133         39
   135         85
   136         16
   137         31
   138         12
   139         13
   140         26
   141         16
   142          3
   143         45
   144          9
   145          6
   146          5
   147         17
   148         66
   149          3
   150        324
   151         27
   152         67
   153          6
   154          9
   155          6
   156         17
   157         11
   158          5
   159          6
   160          5
   161          7
   162          1
   163          4
   164          5
   165          8
   166         30
   167          5
   169         38
   170        196
   171         22
   172         25
   173         78
   174         10
   175         18
   176          1
   177          4
   178          0
   180          1
   181         11
   182          3
   183          5
   184         25
   185          5
   186          2
   187          0
   188          2
   189          9
   190          3
   192          9
   194          0
   195          1
   196          1
   197          1
   198          2
   199          9
   200          7
   201          2
   203          0
   204          1
   205          3
   206          3
   210          0
   216          1
   219          0
   220          5
   221          1
   223          2
   224         28
   225          5
   226          4
   228          3
   229          1
   240          1
   242         39
   243          4
   244          6
   246         66
   247          8
   248          3
   253          1
   255          1
   256          1
   257        444
   258         59
   259         64
   260          7
   261          3
   297          1
   301          1
   315         37
   316          6
   317          3
   327          3
   329          1
   330        117
   331         24
   332         13
   333          2