##TITLE=Library Entry 59403
##JCAMP-DX=Revision 4.10 
##DATA TYPE=MASS SPECTRUM
##SAMPLE DESCRIPTION=Japan AIST/NIMC Database- Spectrum MS-NW-9130
##NAMES=HP
##CAS NAME=L-Glutamic acid, N-[(1,1-dimethylethoxy)carbonyl]-, 5-(phenylmeth
yl) ester
##MOLFORM=C17H23NO6
##CAS REGISTRY NO=13574-13-5
##MP= -300
##BP= -300
##MW= 337
##$RETENTION INDEX=0
##$CONDENSED SPECTRUM=NO
##NPOINTS= 147
##XYDATA=(XY..XY) 1 
    15          5
    16          2
    17          2
    18          7
    26          4
    27         25
    28         26
    29         65
    30         12
    31         37
    32          1
    36          4
    37          2
    38          5
    39         55
    40          9
    41        202
    42         16
    43         49
    44         68
    45          6
    46          2
    50          8
    51         22
    52          8
    53          9
    54          9
    55         46
    56        129
    57        637
    58         36
    59        137
    60          6
    61          1
    62          2
    63          9
    64          3
    65         59
    66          5
    67          4
    68          3
    69          6
    70          4
    71          2
    72          3
    73          5
    74         10
    75          7
    76          2
    77         44
    78         10
    79         77
    80          8
    81          6
    82         19
    83         13
    84        169
    85         35
    86          5
    87         10
    88          3
    89         20
    90         36
    91        999
    92        105
    93          6
    94          1
    95          2
    96          3
    97          2
    98          6
    99          1
   100         30
   101         20
   102         49
   103         53
   104          8
   105         12
   106          5
   107        131
   108        197
   109         15
   110          9
   111          2
   112          2
   113          1
   114          1
   117          2
   118          1
   119         27
   120          2
   124          2
   125          2
   128         44
   129         25
   130         94
   131          8
   132          3
   133          1
   136          1
   144          1
   145          2
   146        114
   147         25
   148          3
   149          2
   150          1
   152          5
   155          2
   156          2
   157          2
   158          1
   163          1
   172          1
   173          2
   174         33
   175          8
   176          1
   190         15
   191          3
   192        225
   193         28
   194          3
   202          1
   209          4
   219          1
   220          7
   221          1
   225          1
   235          3
   236         38
   237         55
   238         12
   239          1
   248          3
   253          8
   254          1
   263          9
   264          8
   265          1
   278          1
   280          1
   281        111
   282         18
   283          3
   292         15
   293          3