##TITLE=Library Entry 68279
##JCAMP-DX=Revision 4.10 
##DATA TYPE=MASS SPECTRUM
##SAMPLE DESCRIPTION=Chemical Concepts
##NAMES=HP
##CAS NAME=9-Azadispiro[3.1.3.0]nonane
##MOLFORM=C8H13N
##CAS REGISTRY NO=135763-48-3
##MP= -300
##BP= -300
##MW= 123
##$RETENTION INDEX=0
##$CONDENSED SPECTRUM=NO
##NPOINTS= 54
##XYDATA=(XY..XY) 1 
    26         32
    27        218
    28        120
    29         58
    30         39
    37          7
    38         23
    39        263
    40         98
    41        398
    42        162
    43         31
    45         12
    50         30
    51         60
    52         67
    53        237
    54        204
    55        274
    56         72
    57          6
    63          7
    64          6
    65         31
    66         55
    67        227
    68        151
    69         26
    70         26
    71          6
    77         44
    78         18
    79         39
    80        227
    81         50
    82         64
    83          9
    91         26
    92         11
    93         93
    94        659
    95        999
    96        124
    97          6
   105         14
   106         20
   107         33
   108        298
   109         25
   120         10
   121          5
   122        210
   123         71
   124          8