##TITLE=Library Entry 21559
##JCAMP-DX=Revision 4.10 
##DATA TYPE=MASS SPECTRUM
##SAMPLE DESCRIPTION=Institute of Organic Chemistry, Novosibirsk, USSR 1988
##NAMES=HP
##CAS NAME=5-Methyl-2-ethylamino-2-thiazoline
##MOLFORM=C6H12N2S
##CAS REGISTRY NO=13578-64-8
##MP= -300
##BP= -300
##MW= 144
##$RETENTION INDEX=0
##$CONDENSED SPECTRUM=NO
##NPOINTS= 82
##XYDATA=(XY..XY) 1 
    38         59
    39        369
    40        109
    41        759
    42        249
    43        269
    44        359
    45        229
    46         69
    47         49
    50          9
    51         29
    53         49
    54         99
    55        999
    56        399
    57        219
    58        129
    59        509
    60        449
    61         79
    62         29
    65         19
    66          9
    67         49
    68         59
    69        139
    70         89
    71        179
    72        319
    73        159
    74        609
    75         49
    76        129
    77         29
    78          9
    79          9
    81         39
    82         39
    83        559
    84        309
    85         39
    86         59
    87        439
    88        109
    89         29
    91         69
    92          9
    93          9
    94         29
    95         29
    96         14
    97          9
    98         19
    99        129
   100         49
   101         79
   102        479
   103         49
   104         29
   105         29
   106         14
   107          9
   109          9
   111         39
   113         14
   114         29
   115         49
   116        349
   117         29
   118         29
   119          9
   122          9
   127         29
   129        539
   130         39
   131         19
   132          9
   143        169
   144        999
   145         99
   146         39