##TITLE=Library Entry 27552
##JCAMP-DX=Revision 4.10 
##DATA TYPE=MASS SPECTRUM
##SAMPLE DESCRIPTION=H. Fales, LC, NHLBI, NIH, Bethesda, MD 20892
##NAMES=HP
##CAS NAME=Estr-5(10)-en-3,17-diol, (3.beta., 17.beta.)-, 17-propionate(este
r)
##MOLFORM=C21H32O3
##CAS REGISTRY NO=13587-79-6
##MP= -300
##BP= -300
##MW= 332
##$RETENTION INDEX=0
##$CONDENSED SPECTRUM=NO
##NPOINTS= 194
##XYDATA=(XY..XY) 1 
    41        131
    42         20
    43         93
    44         46
    45         13
    51          8
    52          6
    53         47
    54         11
    55        156
    56          4
    57        999
    58         32
    59          6
    60          1
    63          2
    65         33
    66         12
    67        101
    68         14
    69         35
    70          6
    71         18
    73          5
    74          2
    75          9
    77        101
    78         36
    79        157
    80         26
    81        103
    82         16
    83         22
    84          6
    85          9
    87          1
    89          1
    91        311
    92         75
    93        154
    94         66
    95        113
    96         15
    97         20
    98          5
    99          6
   102          2
   103         25
   104         56
   105        164
   106         56
   107         84
   108         27
   109         34
   110         18
   111         10
   112          3
   115         45
   116         24
   117        138
   118         52
   119        116
   120         44
   121         47
   122         14
   123         16
   124          6
   125          4
   127         12
   128         36
   129         92
   130         51
   131        163
   132         51
   133        103
   134         40
   135         42
   136         22
   137         19
   138          2
   141         29
   142         22
   143         85
   144         96
   145        173
   146        189
   147        124
   148         34
   149         45
   150         11
   151          7
   152          5
   153          8
   154          7
   155         27
   156         16
   157         67
   158         51
   159        150
   160         44
   161         25
   162          9
   163         26
   164         11
   165         11
   166          3
   167          8
   168          5
   169         30
   170         16
   171         50
   172         27
   173         31
   174         10
   175         10
   176          5
   177          7
   178          3
   179          3
   181          8
   182          5
   183         65
   184         28
   185         86
   186         44
   187         25
   188          7
   189          6
   191          5
   195          5
   196          2
   197         64
   198         48
   199        157
   200         37
   201         18
   202          7
   203          7
   204          1
   207          1
   209          2
   210          2
   211         44
   212         50
   213         35
   214         20
   215         19
   216          7
   217         18
   218          5
   223          6
   225        225
   226         40
   227          7
   228          4
   229         10
   230          7
   231          5
   233          1
   237          4
   238          4
   239         50
   240        225
   241         65
   242          9
   243         59
   244         12
   247          1
   255          3
   256          9
   257         41
   258        138
   259         34
   260          9
   261          1
   272          5
   273          5
   274          7
   275          5
   285          1
   290          2
   294          1
   299          5
   302          1
   314        336
   315         76
   316         11
   318          3
   328          5
   330         13
   331          5
   332        225
   333         52
   334          8