##TITLE=Library Entry 83230
##JCAMP-DX=Revision 4.10 
##DATA TYPE=MASS SPECTRUM
##SAMPLE DESCRIPTION=Japan AIST/NIMC Database- Spectrum MS-IW-4514
##NAMES=HP
##CAS NAME=3'-Methylbenzenesulfonanilide
##MOLFORM=C13H13NO2S
##CAS REGISTRY NO=13587-57-0
##MP= -300
##BP= -300
##MW= 247
##$RETENTION INDEX=0
##$CONDENSED SPECTRUM=NO
##NPOINTS= 87
##XYDATA=(XY..XY) 1 
    26          1
    27         15
    28          2
    30          1
    37          1
    38          6
    39         38
    40          5
    41          7
    42          1
    44          1
    45          2
    48          1
    50         26
    51        107
    52         29
    53         26
    54          4
    59          1
    62          3
    63         13
    64          9
    65         21
    66         10
    67          3
    69          2
    74          6
    75          6
    76          9
    77        396
    78         92
    79        267
    80         21
    81          2
    89          3
    90          3
    91         17
    92          3
    93          1
    94          1
    97          7
   102          2
   103          2
   104         27
   105         10
   106        999
   107        112
   108          6
   109          4
   110          6
   115          6
   116          1
   117          1
   122          1
   125         23
   126          4
   127          2
   128          4
   129          2
   139          1
   140          1
   141         47
   142          4
   143          4
   152          2
   153          3
   154          2
   155          6
   156         16
   157          3
   165          3
   166          4
   167         29
   168        105
   169         13
   170          1
   180          8
   181          7
   182        148
   183         69
   184          8
   245          1
   246          3
   247        583
   248         91
   249         33
   250          4