##TITLE=Library Entry 71726
##JCAMP-DX=Revision 4.10 
##DATA TYPE=MASS SPECTRUM
##SAMPLE DESCRIPTION=CARL DJERASSI DEPT OF CHEM STANFORD UNIV STANFORD CALIF
 94305
##NAMES=HP
##CAS NAME=Androstan-4-one, (5.alpha.)-
##MOLFORM=C19H30O
##CAS REGISTRY NO=13583-70-5
##MP= -300
##BP= -300
##MW= 274
##$RETENTION INDEX=0
##$CONDENSED SPECTRUM=NO
##NPOINTS= 112
##XYDATA=(XY..XY) 1 
    40         20
    41        570
    42        120
    43        240
    44         20
    51         10
    53        130
    54         30
    55        470
    56         50
    57         90
    65         40
    66         20
    67        360
    68        110
    69        130
    70         30
    71         40
    74         10
    77        170
    78         30
    79        390
    80        120
    81        530
    82        110
    83        120
    84         20
    85         50
    86         20
    88         30
    91        490
    92        110
    93        610
    94        170
    95        640
    96        200
    97        160
    98        999
    99        100
   104         10
   105        190
   106         80
   107        360
   108        220
   109        320
   110         80
   111        430
   112         60
   113         10
   115         30
   116         10
   117         30
   118         10
   119         60
   120         30
   121         80
   122         20
   123         30
   124         30
   125         40
   131         20
   132         10
   133        100
   134         50
   135        240
   136         40
   137         80
   138         20
   145         30
   146         10
   147        110
   148         50
   149        140
   150         90
   151         20
   157         10
   159         30
   160         20
   161         80
   162        170
   163         50
   164         10
   165         20
   173         10
   175         80
   176         20
   177         20
   185         10
   187         10
   188         10
   189         30
   190         10
   201         10
   203        140
   204         40
   213         30
   231        380
   232         80
   233         10
   241        130
   242         20
   243         10
   245         40
   246        120
   247         20
   256        120
   257         20
   259        340
   260         70
   274        820
   275        250
   276         30