##TITLE=Library Entry 30170
##JCAMP-DX=Revision 4.10 
##DATA TYPE=MASS SPECTRUM
##SAMPLE DESCRIPTION=Exported from NIST MS Search
##NAMES=HP
##CAS NAME=1-Propanol, 2-(2-methoxypropoxy)-
##MOLFORM=C7H16O3
##CAS REGISTRY NO=13588-28-8
##MP= -300
##BP= -300
##MW= 148
##$RETENTION INDEX=0
##$CONDENSED SPECTRUM=NO
##NPOINTS= 56
##XYDATA=(XY..XY) 1 
    15         29
    16          0
    17          2
    18         10
    19          2
    26          3
    27         30
    28         27
    29        100
    30          6
    31        184
    32          5
    33         13
    38          1
    39         25
    40          6
    41        155
    42         41
    43         88
    44          4
    45        146
    46          3
    47          0
    48          0
    49          0
    50          5
    51          1
    52          1
    53          0
    55          8
    56          1
    57         29
    58         51
    59        999
    60         34
    61          3
    67          0
    71          4
    72         32
    73        483
    74         22
    75         17
    76          0
    77          0
    85          0
    87          0
    89          8
    90          0
    91          0
   101          2
   115          1
   116          1
   117        234
   118         27
   119          2
   131          1