##TITLE=Library Entry 48618
##JCAMP-DX=Revision 4.10 
##DATA TYPE=MASS SPECTRUM
##SAMPLE DESCRIPTION=A.Pleshkova, Nesmeyanov Inst.Org.Elem.Cpds, Moscow
##NAMES=HP
##CAS NAME=Azetidine, 1-(methylsulfonyl)-
##MOLFORM=C4H9NO2S
##CAS REGISTRY NO=13595-45-4
##MP= -300
##BP= -300
##MW= 135
##$RETENTION INDEX=0
##$CONDENSED SPECTRUM=NO
##NPOINTS= 29
##XYDATA=(XY..XY) 1 
    27        117
    28        330
    29        120
    30        150
    31         10
    41         75
    42        273
    43         99
    44          8
    54         99
    55        102
    56        570
    57        117
    58          9
    63         45
    64         27
    65         90
    66          8
    79        999
    80         90
    81         63
    82          4
   107        477
   108         96
   109          8
   120         45
   121          3
   135        225
   136         15