##TITLE=Library Entry 63461
##JCAMP-DX=Revision 4.10 
##DATA TYPE=MASS SPECTRUM
##SAMPLE DESCRIPTION=Humboldt-Universitat zu Berlin, Department of Chemistry
, Analytical Group
##NAMES=HP
##CAS NAME=Benzene, 1,4-bis[2-[2-[(4-methylphenyl)sulfonyloxy]ethoxy]ethoxy]
-
##MOLFORM=C28H34O10S2
##CAS REGISTRY NO=135974-61-7
##MP= -300
##BP= -300
##MW= 594
##$RETENTION INDEX=0
##$CONDENSED SPECTRUM=NO
##NPOINTS= 205
##XYDATA=(XY..XY) 1 
    12          2
    14          3
    15         25
    16          3
    17          4
    18         13
    19          9
    26         12
    27         58
    28         55
    29         55
    30          9
    31         43
    32          3
    36          2
    37          2
    38          9
    39         69
    40          8
    41         61
    42         19
    43        188
    44         34
    45        226
    46          5
    48          5
    49          2
    50         20
    51         28
    52         21
    53         18
    54         16
    55         13
    56          1
    57         11
    58          5
    59         12
    61          2
    62          9
    63         43
    64         50
    65        203
    66         23
    67          8
    68          4
    69          7
    70          6
    71         38
    72          4
    73         35
    74          4
    75          6
    76         12
    77         41
    78         13
    79         36
    80         29
    81         24
    82         34
    83          3
    84          1
    85          1
    86          5
    87         13
    88          2
    89         43
    90         65
    91        999
    92        105
    93         20
    94         13
    95          8
    96          2
    97          1
   103          4
   104          9
   105         16
   106          5
   107         48
   108         39
   109         31
   110        215
   111         16
   112          2
   115          8
   116          1
   117          5
   118          2
   119         11
   120         17
   121         27
   122          8
   123         10
   124          2
   127          1
   128          1
   129          1
   131          1
   133          8
   134          2
   135         28
   136         47
   137         13
   138          3
   139         19
   140          3
   141          2
   145          1
   147          5
   148          1
   149         16
   150          3
   151          5
   152          4
   153          3
   155        371
   156         36
   157         20
   158          1
   161          5
   162          2
   163         13
   164          2
   165          5
   166          1
   167          1
   169          1
   171          3
   172         11
   173          3
   174          1
   175          8
   176          1
   178          0
   179          3
   180         35
   181          6
   182          1
   183          1
   185          1
   189          0
   193          5
   194          0
   196          1
   197          2
   199        719
   200         77
   201         41
   202          4
   205          0
   206          1
   207          1
   216          1
   219          3
   224          1
   225          1
   227          1
   229          1
   237          1
   243         20
   244          2
   245          1
   250          1
   251          1
   254          0
   261          0
   264          3
   268          1
   305          0
   352         64
   353         13
   354          5
   355          1
   378          2
   379          0
   394          1
   396         11
   397          2
   398          0
   414          0
   422        116
   423         26
   424         10
   425          1
   438          8
   440         19
   441          4
   442          1
   448          0
   458          4
   459          1
   460          1
   466         17
   467          5
   468          3
   469          0
   506          3
   507          1
   550          2
   594        493
   595        166
   596         81
   597         20
   598          5
   599          1