##TITLE=Library Entry 50038
##JCAMP-DX=Revision 4.10 
##DATA TYPE=MASS SPECTRUM
##SAMPLE DESCRIPTION=A.S.Moskovkin,I.M.Karnaukh, Russian Center on Disaster
 Medicine
##NAMES=HP
##CAS NAME=3,4,4a,5,6,7,8,8a-Octahydro-spiro[cyclohexane-1,4'-(2H-1,3-benzot
hiazine)]-2-thione-8a-ol
##MOLFORM=C13H21NOS2
##CAS REGISTRY NO=135923-21-6
##MP= -300
##BP= -300
##MW= 271
##$RETENTION INDEX=0
##$CONDENSED SPECTRUM=NO
##NPOINTS= 107
##XYDATA=(XY..XY) 1 
    39         33
    40          9
    41        180
    42         43
    43         71
    44        120
    45        140
    46         55
    47          3
    48          2
    50         20
    51         46
    52         48
    53        200
    54        280
    55        610
    56        150
    57        130
    58         28
    59         17
    60         13
    61          4
    62          9
    63         20
    64         57
    65         68
    66         44
    67        400
    68         90
    69        290
    70        150
    71         61
    72         37
    73         50
    74         22
    75         15
    76        140
    77         46
    78        110
    79        330
    80         90
    81        999
    82        150
    83        120
    84         52
    85         33
    86         11
    87         17
    88         11
    90         10
    91         98
    92         35
    93         87
    94         39
    95        110
    96         74
    97        120
    98        500
    99         92
   103         11
   104         22
   105         39
   106         24
   107         68
   108         44
   109         48
   110         26
   111         41
   112         11
   113         13
   114         13
   115         21
   117         22
   119         37
   120         17
   121         31
   122         26
   123         20
   124         28
   125         11
   126          9
   133         37
   134         20
   135         68
   136         35
   137          9
   138         15
   139         37
   140         50
   141         15
   142          9
   151         11
   152         94
   153         22
   161         63
   162         10
   163         10
   178        170
   179        180
   180         26
   195         20
   196         15
   214          2
   238          2
   271         22
   272          4
   273          2