##TITLE=Library Entry 95731
##JCAMP-DX=Revision 4.10 
##DATA TYPE=MASS SPECTRUM
##SAMPLE DESCRIPTION=CARL DJERASSI DEPT OF CHEM STANFORD UNIV STANFORD CALIF
 94305
##NAMES=HP
##CAS NAME=Carbonic acid, thio-, O-methyl O-2-naphthyl ester
##MOLFORM=C12H10O2S
##CAS REGISTRY NO=13599-68-3
##MP= -300
##BP= -300
##MW= 218
##$RETENTION INDEX=0
##$CONDENSED SPECTRUM=NO
##NPOINTS= 52
##XYDATA=(XY..XY) 1 
    15        130
    16         10
    17         20
    26         10
    27         10
    28        170
    29         10
    32         20
    38         10
    39         50
    41         10
    44         60
    47         80
    50         20
    51         40
    59         50
    60         40
    61         10
    62         20
    63        100
    64         10
    65         40
    74         20
    75        360
    76         20
    77         40
    79         10
    87         10
    88         20
    89         70
    90         10
   101         20
   113         30
   114         40
   115        999
   116        100
   126         40
   127        130
   128        130
   129         40
   141         60
   143        100
   144         80
   147         10
   158        210
   159        210
   160         20
   174        130
   175         10
   218        790
   219        110
   220         40