##TITLE=Library Entry 50901
##JCAMP-DX=Revision 4.10 
##DATA TYPE=MASS SPECTRUM
##SAMPLE DESCRIPTION=A.S.Moskovkin,I.M.Karnaukh, Russian Center on Disaster
 Medicine
##NAMES=HP
##CAS NAME=Dithiocarbamate, S-methyl-, N-[1-(2-oxocyclohexyl)-cyclohexyl]
##MOLFORM=C14H23NOS2
##CAS REGISTRY NO=135923-16-9
##MP= -300
##BP= -300
##MW= 285
##$RETENTION INDEX=0
##$CONDENSED SPECTRUM=NO
##NPOINTS= 104
##XYDATA=(XY..XY) 1 
    39         45
    40         11
    41        300
    42         36
    43        140
    44         76
    45        160
    46         20
    47         83
    48         80
    49         38
    50          4
    51         21
    52          7
    53         90
    54         36
    55        280
    56         33
    57        120
    59         29
    60         95
    61         27
    65         25
    66         23
    67        310
    68         49
    69        120
    70         54
    71         67
    72         16
    73         51
    74         18
    76          7
    77         49
    78         16
    79        250
    80        100
    81        999
    82        100
    83         35
    84         33
    91        290
    92         31
    93        130
    94         38
    95        120
    96         58
    97         96
    98        140
    99         56
   104          4
   105         31
   106         20
   107        120
   108        380
   109         65
   110         45
   111         27
   112         18
   115         16
   117         20
   119         32
   120         18
   121         67
   122         31
   123         22
   124         16
   129         34
   131         25
   132          2
   133         29
   134         33
   135        190
   136         54
   137         38
   140         65
   141         29
   142         18
   143          3
   145          4
   148          2
   149        310
   150         88
   151          7
   156         41
   157         97
   158          7
   159          2
   160          4
   161         45
   162          7
   172          7
   177         27
   178        880
   179        350
   180         42
   238         25
   239          4
   252         11
   285        190
   286         33
   287         20
   288          3
   289          1