##TITLE=Library Entry 83533
##JCAMP-DX=Revision 4.10 
##DATA TYPE=MASS SPECTRUM
##SAMPLE DESCRIPTION=V.A.KOPTYUG, ATLAS OF MASS SPECTRA OF ORGANIC COMPOUNDS
##NAMES=HP
##CAS NAME=Phenol, 2-pentyl-
##MOLFORM=C11H16O
##CAS REGISTRY NO=136-81-2
##MP= -300
##BP= -300
##MW= 164
##$RETENTION INDEX=0
##$CONDENSED SPECTRUM=NO
##NPOINTS= 45
##XYDATA=(XY..XY) 1 
    39        137
    40         96
    41        155
    42         55
    43         72
    45         26
    50         33
    51         66
    52         34
    53         47
    54         23
    55         59
    56         53
    57         34
    63         30
    65         41
    66         19
    67         23
    68         23
    76         18
    77        203
    78         67
    79        118
    80         27
    81         22
    90         18
    91         90
    92         24
    93         19
    94         46
   103         24
   105         25
   107        999
   108        179
   109         37
   115         25
   120         21
   121         64
   122         25
   131         62
   132         15
   133         22
   135         18
   164        199
   165         46