##TITLE=Library Entry 81010
##JCAMP-DX=Revision 4.10 
##DATA TYPE=MASS SPECTRUM
##SAMPLE DESCRIPTION=Chuck Anderson, Aldrich Chemical Co.
##NAMES=HP
##CAS NAME=Butyl benzoate
##MOLFORM=C11H14O2
##CAS REGISTRY NO=136-60-7
##MP= -300
##BP= -300
##MW= 178
##$RETENTION INDEX=1374
##$CONDENSED SPECTRUM=NO
##NPOINTS= 99
##XYDATA=(XY..XY) 1 
    14          0
    15          0
    16          0
    19          0
    25          0
    26          0
    27         53
    28          2
    29         78
    30          2
    31          3
    37          1
    38          5
    39         44
    40          5
    41         85
    42          4
    43         10
    44          2
    45          2
    48          0
    49          1
    50         51
    51        177
    52         12
    53          6
    54          2
    55         37
    56        237
    57         16
    58          0
    61          0
    62          1
    63          2
    64          0
    65          5
    66          1
    67          0
    68          0
    71          0
    72          0
    73          7
    74         11
    75         10
    76         24
    77        453
    78         36
    79         73
    80          4
    81          0
    86          0
    89          0
    90          0
    91          4
    92          1
    93          1
    94          3
    95          0
   101          0
   102          0
   103          1
   105        999
   106         78
   107          8
   108          0
   110          0
   115          0
   116          0
   117          0
   118          1
   119          0
   120          2
   121          2
   122        199
   123        646
   124         45
   125          4
   126          0
   131          1
   132          0
   133          1
   134          2
   135         14
   136          4
   137          0
   145          0
   147          0
   148          0
   149          3
   150          0
   159          0
   160          0
   161          6
   162          0
   163          0
   177          0
   178         15
   179          1
   180          0