##TITLE=Library Entry 5048
##JCAMP-DX=Revision 4.10 
##DATA TYPE=MASS SPECTRUM
##SAMPLE DESCRIPTION=Leung Pu, NIH, Bethesda, Maryland, U.S.
##NAMES=HP
##CAS NAME=Dimethylol ethylene urea
##MOLFORM=C5H10N2O3
##CAS REGISTRY NO=136-84-5
##MP= -300
##BP= -300
##MW= 146
##$RETENTION INDEX=0
##$CONDENSED SPECTRUM=NO
##NPOINTS= 94
##XYDATA=(XY..XY) 1 
    41        203
    42        999
    43        660
    44        138
    45         14
    46          1
    47          0
    48          1
    49          3
    50          3
    51          6
    52         12
    53         13
    54         44
    55         99
    56        328
    57         57
    58         61
    59          7
    60          1
    61          0
    63          1
    64          2
    65          2
    66          3
    67          5
    68          9
    69         29
    70         94
    71         23
    72         11
    73          3
    75          0
    76          0
    77          2
    78          2
    79          2
    80          2
    81          3
    82          3
    83          7
    84         41
    85        140
    86        471
    87        161
    88          7
    89          0
    91          1
    92          1
    93          2
    94          2
    95          2
    96          4
    97         20
    98        239
    99        670
   100        157
   101         54
   102          3
   104          0
   105          4
   106          2
   107          1
   108          1
   109          1
   110          8
   111          3
   112         82
   113         70
   114         15
   115          4
   116          1
   117          1
   118          0
   119          2
   120          1
   121          2
   122          1
   123          1
   124          4
   125          5
   126         10
   127         13
   128          4
   129          4
   130          1
   131          2
   132          0
   144          1
   145          3
   146         11
   147          5
   148          3
   149          2