##TITLE=Library Entry 107281
##JCAMP-DX=Revision 4.10 
##DATA TYPE=MASS SPECTRUM
##SAMPLE DESCRIPTION=Japan AIST/NIMC Database- Spectrum MS-NW-4535
##NAMES=HP
##CAS NAME=Hexylresorcinol
##MOLFORM=C12H18O2
##CAS REGISTRY NO=136-77-6
##MP= -300
##BP= -300
##MW= 194
##$RETENTION INDEX=1777
##$CONDENSED SPECTRUM=NO
##NPOINTS= 95
##XYDATA=(XY..XY) 1 
    14          2
    15          1
    16          1
    18          1
    26          2
    27         20
    28          2
    29         17
    38          2
    39         22
    40          5
    41         33
    42          3
    43         12
    44          2
    50          4
    51         10
    52          5
    53          9
    54          2
    55         18
    56          1
    57          2
    62          1
    63          4
    64          2
    65         13
    66          8
    67         20
    68          2
    69         17
    70          1
    71          1
    74          1
    75          1
    76          1
    77         19
    78          4
    79          6
    80          1
    81          7
    82          2
    83          1
    84          1
    89          2
    91          7
    92          1
    93          2
    94          8
    95         14
    96          1
   102          1
   103          2
   105          3
   106          1
   107          8
   108          2
   109          3
   110         14
   111          3
   112          2
   115          2
   118          1
   119          2
   120          2
   121          4
   122          2
   123        999
   124         79
   125          8
   126          1
   127          1
   128          1
   131          2
   133          1
   134          1
   135          2
   136          6
   137          6
   138          1
   141          3
   142          1
   147          5
   148          1
   149          7
   150          2
   151          1
   152          1
   165          1
   190          1
   192          2
   193          1
   194        125
   195         17
   196          2