##TITLE=Library Entry 78745
##JCAMP-DX=Revision 4.10 
##DATA TYPE=MASS SPECTRUM
##SAMPLE DESCRIPTION=NIST Mass Spectrometry Data Center, 1994
##NAMES=HP
##CAS NAME=1,3-Benzenediol, monobenzoate
##MOLFORM=C13H10O3
##CAS REGISTRY NO=136-36-7
##MP= -300
##BP= -300
##MW= 214
##$RETENTION INDEX=0
##$CONDENSED SPECTRUM=NO
##NPOINTS= 60
##XYDATA=(XY..XY) 1 
    15          1
    16          0
    17          0
    18          0
    26          7
    27         48
    28          3
    29          4
    31          1
    36          1
    37          7
    38         20
    39         42
    40          4
    42          5
    45          0
    50         66
    51        173
    52         25
    53         51
    54          4
    55          6
    61          2
    62          8
    63         16
    64          7
    65          6
    66          3
    68          9
    69         13
    73          2
    74         15
    75         13
    76          2
    77        469
    78         30
    79          3
    80          2
    81         42
    82          4
    89          1
    91          0
    92          1
    94          0
   101          0
   102          1
   105        999
   106         76
   107          8
   109          3
   110          3
   115          2
   127          2
   128          3
   129          1
   141          1
   157          1
   214        164
   215         23
   216          1