##TITLE=Library Entry 65577
##JCAMP-DX=Revision 4.10 
##DATA TYPE=MASS SPECTRUM
##SAMPLE DESCRIPTION=NIST Mass Spectrometry Data Center, 1998.
##NAMES=HP
##CAS NAME=1-Triazene, 1,3-diphenyl-
##MOLFORM=C12H11N3
##CAS REGISTRY NO=136-35-6
##MP= -300
##BP= -300
##MW= 197
##$RETENTION INDEX=0
##$CONDENSED SPECTRUM=NO
##NPOINTS= 84
##XYDATA=(XY..XY) 1 
    26          2
    27          9
    29          2
    37          6
    38         19
    39         94
    40          9
    41         24
    42         10
    46          2
    49          2
    50         37
    51        165
    52         69
    53         23
    54         14
    55          2
    61          4
    62         13
    63         50
    64         50
    65        398
    66         58
    67          4
    73          2
    74         10
    75         10
    76         10
    77        288
    78         29
    79         18
    80          7
    81          2
    88          1
    89          4
    90          9
    91         37
    92        999
    93         93
    94          4
    98          4
   102          3
   103          2
   104          1
   105         25
   106          6
   107          3
   108          8
   109          1
   113          1
   114          1
   115         21
   116          3
   117          2
   118          2
   120        320
   121         23
   122          1
   126          1
   127          3
   128          5
   129          1
   130          3
   137          1
   139          7
   140          4
   141         19
   142          3
   143          2
   150          1
   151          9
   152          8
   153          3
   154          2
   166          7
   167         34
   168         11
   169          5
   170          1
   195          1
   196          6
   197        417
   198         59
   199          3