##TITLE=Library Entry 77590
##JCAMP-DX=Revision 4.10 
##DATA TYPE=MASS SPECTRUM
##SAMPLE DESCRIPTION=Japan AIST/NIMC Database- Spectrum MS-NW-7487
##NAMES=HP
##CAS NAME=1H-Benzotriazole, 5-methyl-
##MOLFORM=C7H7N3
##CAS REGISTRY NO=136-85-6
##MP= -300
##BP= -300
##MW= 133
##$RETENTION INDEX=0
##$CONDENSED SPECTRUM=NO
##NPOINTS= 62
##XYDATA=(XY..XY) 1 
    14          1
    15          2
    25          1
    26         16
    27         46
    28         36
    29          8
    32          3
    36          2
    37         30
    38         47
    39         98
    40          9
    41         10
    42          1
    43          3
    44          2
    48          2
    49         12
    50         91
    51        202
    52        174
    53         23
    54          5
    55          1
    57          1
    60          2
    61         13
    62         25
    63         56
    64         22
    65         28
    66         21
    67          3
    73          5
    74         16
    75         22
    76         49
    77        303
    78        326
    79         29
    80          1
    83          1
    86          2
    87          2
    88          4
    89          3
    90          5
    91          1
    99          2
   100          1
   102         11
   103         16
   104        999
   105        236
   106         17
   107          1
   131          4
   132        101
   133        877
   134         80
   135          4