##TITLE=Library Entry 89596
##JCAMP-DX=Revision 4.10 
##DATA TYPE=MASS SPECTRUM
##SAMPLE DESCRIPTION=Tox21 Consortium/NIST Mass Spectrometry Data Center, 20
12
##NAMES=HP
##CAS NAME=Piperocaine
##MOLFORM=C16H23NO2
##CAS REGISTRY NO=136-82-3
##MP= -300
##BP= -300
##MW= 261
##$RETENTION INDEX=1982
##$CONDENSED SPECTRUM=NO
##NPOINTS= 105
##XYDATA=(XY..XY) 1 
    15          1
    18          1
    26          1
    27         13
    28         24
    29         23
    30         22
    31          2
    38          1
    39         22
    40          5
    41        108
    42         85
    43         18
    44         97
    45          3
    50         13
    51         53
    52          4
    53         10
    54         22
    55        134
    56         86
    57         18
    58          9
    59          1
    62          1
    63          1
    64          1
    65          3
    66          1
    67          7
    68         26
    69         26
    70         25
    71          6
    72          2
    74          3
    75          3
    76         10
    77        169
    78         14
    79          6
    80          5
    81          5
    82         19
    83         36
    84         25
    85          3
    86          1
    91          2
    92          1
    93          1
    94          5
    95          3
    96         69
    97         18
    98         34
    99          3
   100          3
   103          1
   104          4
   105        324
   106         25
   107          2
   108          2
   109          1
   110         25
   111         12
   112        999
   113         82
   114          4
   117          1
   119          1
   122          6
   123          4
   124         48
   125          4
   126          5
   127          1
   128          1
   130          1
   135          1
   136          1
   137          1
   138         13
   139          3
   140         11
   141          1
   154          1
   156         16
   157          2
   162          1
   163        113
   164         12
   165          1
   218          1
   244          1
   246        322
   247         59
   248          5
   259          1
   260          4
   261         19
   262          4