##TITLE=Library Entry 4499
##JCAMP-DX=Revision 4.10 
##DATA TYPE=MASS SPECTRUM
##SAMPLE DESCRIPTION=W.T.RAINEY OAK RIDGE NATIONAL LABORATORY,OAK RIDGE,TN.U
SA
##NAMES=HP
##CAS NAME=Piperidine, 3-methyl-1-nitroso-
##MOLFORM=C6H12N2O
##CAS REGISTRY NO=13603-07-1
##MP= -300
##BP= -300
##MW= 128
##$RETENTION INDEX=0
##$CONDENSED SPECTRUM=NO
##NPOINTS= 45
##XYDATA=(XY..XY) 1 
    30        399
    31         13
    32         39
    37         26
    38         39
    39        293
    40         79
    41        919
    42        999
    43        186
    44        226
    45         13
    50         26
    51         39
    52         26
    53         66
    54         93
    55        333
    56        199
    57         39
    65         26
    66         26
    67         39
    68         66
    69        466
    70        106
    71         26
    79         13
    80         26
    81         26
    82         93
    83         39
    84         26
    93         26
    94         26
    95         13
    96         39
    97         79
    98        133
    99         26
   111         26
   112         13
   113         26
   128        479
   129         53