##TITLE=Library Entry 69485
##JCAMP-DX=Revision 4.10 
##DATA TYPE=MASS SPECTRUM
##SAMPLE DESCRIPTION=V.A.Korolev, Moscow, Russia
##NAMES=HP
##CAS NAME=3H-Spiro[1-benzopyran-2,4'-piperidine]-4-one
##MOLFORM=C13H15NO2
##CAS REGISTRY NO=136081-84-0
##MP= -300
##BP= -300
##MW= 217
##$RETENTION INDEX=0
##$CONDENSED SPECTRUM=NO
##NPOINTS= 80
##XYDATA=(XY..XY) 1 
    36          4
    37         47
    38          5
    39        201
    40         95
    41        197
    42        429
    43        119
    44         87
    45         12
    46          6
    49          9
    50        129
    51        122
    52         45
    53        219
    54         50
    55         73
    56        342
    57        133
    58         21
    59          6
    61         40
    62        111
    63        381
    64        288
    65        229
    66         44
    67        111
    68         78
    69         70
    70         16
    73          4
    74         31
    75         16
    76         31
    77         64
    78         14
    79         16
    80         60
    81         47
    82        373
    83         32
    89          9
    90          5
    91         32
    92        445
    93         95
    94         64
    95         69
    96        999
    97        104
    98          6
   104          6
   105          8
   107         10
   115         14
   116          3
   118          9
   119         10
   120        231
   121        592
   122         42
   128          2
   131         21
   132          7
   144          9
   145         15
   146          5
   148          5
   149          4
   160         11
   161         25
   162         29
   173          9
   188          6
   200          2
   217        278
   218         42
   219          4