##TITLE=Library Entry 19795
##JCAMP-DX=Revision 4.10 
##DATA TYPE=MASS SPECTRUM
##SAMPLE DESCRIPTION=G. Lange, Inst. Org. Chem., Univ. Wurzburg, Wurzburg, G
ermany
##NAMES=HP
##CAS NAME=1,2-Dioxaspiro[4.5]decan-3-one, 4-methylene-
##MOLFORM=C9H12O3
##CAS REGISTRY NO=136066-34-7
##MP= -300
##BP= -300
##MW= 168
##$RETENTION INDEX=0
##$CONDENSED SPECTRUM=NO
##NPOINTS= 70
##XYDATA=(XY..XY) 1 
    37          9
    38         34
    39        621
    40        232
    41        909
    42        460
    43        237
    44        151
    45         29
    46          7
    48         21
    50         37
    51        106
    52        110
    53        359
    54        928
    55        999
    56         89
    57         44
    58          5
    62          5
    63         25
    64          9
    65         99
    66         79
    67        630
    68        344
    69        135
    70         89
    71         20
    72          9
    77        142
    78         84
    79        369
    80        212
    81        467
    82         75
    83         44
    84         13
    85          5
    91        131
    92         18
    93        402
    94         64
    95        154
    96         86
    97         35
    98         26
    99         20
   103          7
   104          8
   105         28
   106         16
   107         52
   108        391
   109        107
   110         17
   111         11
   112          6
   121         18
   122         17
   123         37
   124         19
   125          8
   136        145
   137         17
   139          6
   152          8
   168         37
   169          4