##TITLE=Library Entry 15860
##JCAMP-DX=Revision 4.10 
##DATA TYPE=MASS SPECTRUM
##SAMPLE DESCRIPTION=Chemical Concepts
##NAMES=HP
##CAS NAME=Piperidine, 3-isopropyl-
##MOLFORM=C8H17N
##CAS REGISTRY NO=13603-18-4
##MP= -300
##BP= -300
##MW= 127
##$RETENTION INDEX=0
##$CONDENSED SPECTRUM=NO
##NPOINTS= 76
##XYDATA=(XY..XY) 1 
    25          4
    26         16
    27         97
    28         95
    29        130
    30        325
    31         16
    37          9
    38         13
    39        117
    40         20
    41        207
    42        162
    43        280
    44        999
    45         89
    46          7
    48          4
    50          9
    51         27
    52         21
    53        117
    54        109
    55        240
    56        346
    57        303
    58         65
    59         15
    60          6
    63          6
    64          3
    65         21
    66         16
    67        102
    68        127
    69        104
    70        339
    71        154
    72         14
    77         15
    78          7
    79         21
    80         43
    81        126
    82        151
    83         82
    84        623
    85        191
    87          4
    91          5
    92          3
    93          9
    94         10
    95         32
    96        116
    97         18
    98        105
    99         23
   106         12
   107         11
   108          7
   109          8
   110         45
   111          7
   112        209
   113         21
   119          2
   120          3
   121          2
   122          4
   123          5
   124         15
   126        174
   127        367
   128         93
   129          4