##TITLE=Library Entry 21010
##JCAMP-DX=Revision 4.10 
##DATA TYPE=MASS SPECTRUM
##SAMPLE DESCRIPTION=Chemical Concepts
##NAMES=HP
##CAS NAME=Cyclopentanecarboxamide, 2-[1-(2-butenyl)-3-pentenylidene]-3-ethe
nyl-N-phenyl-, [1.alpha.,2[1(E),3E],3.alpha.]-
##MOLFORM=C23H29NO
##CAS REGISTRY NO=136091-24-2
##MP= -300
##BP= -300
##MW= 335
##$RETENTION INDEX=0
##$CONDENSED SPECTRUM=NO
##NPOINTS= 240
##XYDATA=(XY..XY) 1 
    26          7
    27        101
    28         19
    29        290
    30          7
    36          1
    37          2
    38          6
    39        157
    40          9
    41        381
    42         18
    43        113
    44         11
    45          0
    50         10
    51         67
    52         17
    53        135
    54         16
    55        999
    56         47
    57         47
    58          3
    59          3
    60          0
    61          0
    62          3
    63         19
    64         15
    65        166
    66         48
    67        291
    68         24
    69        129
    70         10
    71         19
    72          1
    73          1
    74          3
    75          4
    76         10
    77        543
    78         85
    79        390
    80         47
    81        297
    82         31
    83         42
    84          5
    85         11
    86          0
    89         12
    90          6
    91        631
    92        238
    93        898
    94        227
    95        247
    96         25
    97         18
    98          2
    99          4
   101          1
   102         10
   103         65
   104         49
   105        640
   106        118
   107        165
   108         29
   109         51
   110          7
   111          9
   112          1
   113          2
   115        126
   116         59
   117        309
   118         80
   119        400
   120        221
   121        158
   122         65
   123         27
   124          4
   125          6
   126          5
   127         22
   128         84
   129        144
   130         83
   131        344
   132        109
   133        266
   134         69
   135         80
   136         13
   137          5
   138          0
   139          6
   140          3
   141         33
   142         33
   143        124
   144         64
   145        277
   146        101
   147        139
   148        314
   149         89
   150          9
   151          2
   152          5
   153         11
   154          8
   155         20
   156         16
   157        107
   158         56
   159        369
   160        103
   161        210
   162         45
   163         22
   164          3
   165          4
   166          2
   167          7
   168          6
   169         21
   170         16
   171        112
   172         57
   173        174
   174         57
   175         65
   176         15
   177          3
   178          0
   179          1
   180          4
   181          6
   182          6
   183         15
   184         15
   185        184
   186         73
   187        171
   188         93
   189         39
   190          6
   191          0
   193          0
   194          3
   195          9
   196         16
   197         10
   198         17
   199        121
   200         64
   201         82
   202         21
   203          4
   204          0
   206          0
   207          0
   208          3
   209         10
   210         12
   211          6
   212         17
   213         88
   214        205
   215        597
   216        120
   217         11
   220          1
   221          0
   222          6
   223          4
   224         13
   225         14
   226         19
   227         36
   228          9
   229          2
   230          3
   231          0
   232          2
   234          0
   236          7
   237          4
   238         23
   239          9
   240          9
   241         12
   242         60
   243         63
   244         10
   245          0
   248          0
   250          8
   251          6
   252         38
   253         14
   254          6
   255          1
   262          3
   263          0
   264         10
   265          6
   266         27
   267         17
   268         12
   269          9
   270          0
   278         24
   279         17
   280        113
   281         38
   282          6
   292         79
   293         28
   294         18
   295          4
   296          0
   302          0
   306        143
   307         52
   308         13
   309          2
   320        217
   321         56
   322          7
   334         34
   335        607
   336        155
   337         21
   338          1