##TITLE=Library Entry 19011
##JCAMP-DX=Revision 4.10 
##DATA TYPE=MASS SPECTRUM
##SAMPLE DESCRIPTION=CARL DJERASSI DEPT OF CHEM STANFORD UNIV STANFORD CALIF
 94305
##NAMES=HP
##CAS NAME=Cycloheptanone, 4-methyl-, (R)-
##MOLFORM=C8H14O
##CAS REGISTRY NO=13609-59-1
##MP= -300
##BP= -300
##MW= 126
##$RETENTION INDEX=0
##$CONDENSED SPECTRUM=NO
##NPOINTS= 41
##XYDATA=(XY..XY) 1 
    39        430
    40         90
    41        700
    42        570
    43        350
    44         20
    48         10
    50         20
    51         40
    52         20
    53         90
    54         50
    55        999
    56        320
    57        100
    63         10
    65         20
    66         10
    67        110
    68         30
    69        320
    70        360
    71         60
    72         10
    77         10
    79         20
    81         20
    82        440
    83        310
    84         80
    85         10
    91         10
    93         40
    95         10
    97         90
    98        120
    99         10
   108         20
   111         30
   126        170
   127         20