##TITLE=Library Entry 96651
##JCAMP-DX=Revision 4.10 
##DATA TYPE=MASS SPECTRUM
##SAMPLE DESCRIPTION=TH. J. DE BOER
##NAMES=HP
##CAS NAME=2,4,6-Cycloheptatriene-1-carbonitrile
##MOLFORM=C8H7N
##CAS REGISTRY NO=13612-59-4
##MP= -300
##BP= -300
##MW= 117
##$RETENTION INDEX=0
##$CONDENSED SPECTRUM=NO
##NPOINTS= 33
##XYDATA=(XY..XY) 1 
    37         48
    38         83
    39        203
    40         18
    41         10
    43         10
    49         10
    50         83
    51        114
    52         43
    53         10
    61         40
    62         80
    63        168
    64         97
    65         68
    66         10
    74         12
    75         25
    76         27
    77         85
    78         43
    86         10
    87         16
    88         37
    89        369
    90        723
    91        148
    92         13
   115         10
   116        999
   117        985
   118         89