##TITLE=Library Entry 13709
##JCAMP-DX=Revision 4.10 
##DATA TYPE=MASS SPECTRUM
##SAMPLE DESCRIPTION=A.A.Kutin, Moscow, Russia
##NAMES=HP
##CAS NAME=6-Amino-5-cyano-3,3-dimethylisochroman-7,8-dicarboxylic anhydride
##MOLFORM=C14H12N2O4
##CAS REGISTRY NO=136178-60-4
##MP= -300
##BP= -300
##MW= 272
##$RETENTION INDEX=0
##$CONDENSED SPECTRUM=NO
##NPOINTS= 137
##XYDATA=(XY..XY) 1 
    36          5
    37         14
    38         36
    39        137
    40         32
    41         82
    42         69
    43        999
    44         48
    45         31
    46          4
    48          3
    49          3
    50         38
    51         70
    52         54
    53         28
    54         17
    55         12
    56         18
    57         18
    58         12
    59         13
    61         14
    62         28
    63         52
    64         36
    65         42
    66         34
    67         13
    68          5
    70          3
    71          6
    73          3
    74         14
    75         32
    76         71
    77         52
    78         68
    79         11
    84          2
    85          7
    86         13
    87         25
    88         38
    89         28
    90         21
    91         18
    92         18
    98          4
    99         14
   100         22
   101         25
   102         30
   103         18
   104          7
   105          4
   107          6
   111          2
   112          4
   113          8
   114         46
   115         74
   116         22
   117          6
   118          4
   121          4
   125          2
   126          5
   127         15
   128         21
   129         26
   130         23
   131          6
   139          2
   140         17
   141         18
   142        186
   143         38
   144          9
   145          3
   150          5
   151          1
   152          2
   153          3
   154          7
   155         20
   156         11
   157         11
   158         23
   159          3
   167          2
   168         12
   169         10
   170         18
   171          9
   172          5
   173          1
   176          1
   180          1
   181          9
   182         17
   183         12
   184          6
   185         13
   186         12
   187          2
   197          2
   199          5
   200         74
   201         15
   202          9
   209          2
   211          6
   214        411
   215         95
   216         14
   217          2
   225          2
   229         26
   230          3
   239          2
   243          5
   244         39
   245          6
   253          6
   254          8
   255          2
   257         63
   258         10
   259          1
   264          0
   270          0
   271          3
   272         98
   273         15
   274          2