##TITLE=Library Entry 1901
##JCAMP-DX=Revision 4.10 
##DATA TYPE=MASS SPECTRUM
##SAMPLE DESCRIPTION=NIST Mass Spectrometry Data Center, 1994
##NAMES=HP
##CAS NAME=Benzene, (2-propynyloxy)-
##MOLFORM=C9H8O
##CAS REGISTRY NO=13610-02-1
##MP= -300
##BP= -300
##MW= 132
##$RETENTION INDEX=0
##$CONDENSED SPECTRUM=NO
##NPOINTS= 60
##XYDATA=(XY..XY) 1 
    12          4
    13          5
    14          0
    18          3
    24          2
    25         12
    26         35
    27         40
    28          4
    29          7
    32          2
    36          8
    37        115
    38        258
    39        999
    40         41
    41          6
    42          2
    48          1
    49         10
    50         85
    51        156
    52         34
    53         29
    54          5
    55         14
    60          3
    61         24
    62         54
    63        149
    64         57
    65        525
    66         45
    67          2
    73          6
    74         20
    75         17
    76         21
    77        224
    78        274
    79         18
    80          1
    89          8
    90          1
    91          9
    92          8
    93         39
    94         16
    98          1
   102         46
   103        399
   104        201
   105         19
   106          2
   115          2
   129          1
   131        680
   132        249
   133         22
   134          1