##TITLE=Library Entry 33199
##JCAMP-DX=Revision 4.10 
##DATA TYPE=MASS SPECTRUM
##SAMPLE DESCRIPTION=A.FRIGERIO INST. OF PHARM. RES., MARIO NEGRI, MILAN, IT
ALY
##NAMES=HP
##CAS NAME=2-Pyrazolin-5-one, 4,4'-azobis[3-methyl-1-phenyl-
##MOLFORM=C20H18N6O2
##CAS REGISTRY NO=13615-29-7
##MP= -300
##BP= -300
##MW= 374
##$RETENTION INDEX=0
##$CONDENSED SPECTRUM=NO
##NPOINTS= 63
##XYDATA=(XY..XY) 1 
    51        270
    52         60
    53         20
    54         30
    55         20
    61         10
    62         20
    63         70
    64        130
    65         60
    66         30
    67        999
    68         50
    69         40
    73         10
    74         20
    75         20
    76         40
    77        860
    78        160
    79         20
    87         30
    88         10
    89         10
    90         20
    91        670
    92         70
    93         40
   100         30
   101         10
   102         10
   103         40
   104         30
   105        390
   106         40
   115         20
   116         20
   117         10
   118         20
   119         20
   129         10
   130         10
   131         10
   132        110
   133         20
   144         10
   145         40
   146         20
   173         20
   174        870
   175        110
   176         10
   187         20
   188         10
   199         20
   200        560
   201         80
   202         10
   214         20
   346         20
   347         10
   374         10
   375         10