##TITLE=Library Entry 45359
##JCAMP-DX=Revision 4.10 
##DATA TYPE=MASS SPECTRUM
##SAMPLE DESCRIPTION=Chemical Concepts
##NAMES=HP
##CAS NAME=1-Phenylpropanol, TBDMS derivative
##MOLFORM=C15H26OSi
##CAS REGISTRY NO=136116-42-2
##MP= -300
##BP= -300
##MW= 250
##$RETENTION INDEX=0
##$CONDENSED SPECTRUM=NO
##NPOINTS= 119
##XYDATA=(XY..XY) 1 
    26          0
    27         12
    28          1
    29         44
    30          1
    31          5
    37          0
    38          0
    39         19
    40          2
    41         57
    42          6
    43         22
    44          2
    45         44
    46          2
    47         40
    48          2
    49          1
    50          3
    51         11
    52          3
    53          3
    54          0
    55          4
    56          3
    57         28
    58         14
    59         26
    60          6
    61         12
    62          2
    63          4
    64          0
    65         14
    66          1
    67          1
    68          0
    69          0
    70          0
    71          0
    72          2
    73        161
    74         34
    75        999
    76         70
    77         52
    78         10
    79          4
    80          0
    81          0
    82         10
    84          0
    85          3
    86          0
    87          1
    88          0
    89          5
    90          2
    91        116
    92          9
    93          1
    95          0
    96          0
    97          1
    99          1
   100          0
   101          0
   102          2
   103          6
   104          5
   105          6
   106          0
   107          2
   108          0
   109          0
   115         16
   116          3
   117         15
   118          4
   119          9
   120          0
   121          1
   123          0
   131          0
   132          0
   133          1
   134          0
   135         13
   136          1
   137          1
   145          1
   147          1
   148          0
   149         14
   150          2
   151          1
   159          0
   161          1
   163         15
   164          3
   165          6
   166          0
   173          0
   175          0
   177          2
   178          0
   179          0
   191          0
   193        120
   194         20
   195          6
   196          0
   221         30
   222          6
   223          1
   224          0
   235          1
   236          0