##TITLE=Library Entry 81151
##JCAMP-DX=Revision 4.10 
##DATA TYPE=MASS SPECTRUM
##SAMPLE DESCRIPTION=NIST Mass Spectrometry Data Center
##NAMES=HP
##CAS NAME=2,4-Dimethylthiophenol
##MOLFORM=C8H10S
##CAS REGISTRY NO=13616-82-5
##MP= -300
##BP= -300
##MW= 138
##$RETENTION INDEX=1207
##$CONDENSED SPECTRUM=NO
##NPOINTS= 96
##XYDATA=(XY..XY) 1 
    15          3
    26          3
    27         22
    28          1
    29          1
    32          1
    33          3
    34          3
    37          4
    38         11
    39         60
    40          5
    41         11
    45         93
    46          3
    47          7
    49          2
    50         24
    51         61
    52         18
    53         29
    54          4
    55          2
    57          3
    58         10
    59         19
    60          4
    61          9
    62         18
    63         46
    64          8
    65         47
    66          9
    67         20
    68         15
    69         57
    70         12
    71         17
    72          2
    73          3
    74         13
    75         13
    76         12
    77        164
    78         85
    79        114
    80          8
    81          5
    82          9
    83          6
    84          6
    85          6
    86          5
    87          5
    88          1
    89         18
    90          7
    91        114
    92         15
    93         40
    94          9
    95         14
    96          4
    97         39
    98         13
    99          3
   100          1
   101          3
   102         23
   103        138
   104         51
   105        999
   106        102
   107          5
   108          6
   109         13
   110         10
   111         12
   112          4
   113          1
   117          1
   119          1
   121         53
   122         19
   123         89
   124          9
   125          4
   133          2
   134         22
   135         39
   136          9
   137        128
   138        921
   139        102
   140         49
   141          4