##TITLE=Library Entry 37150
##JCAMP-DX=Revision 4.10 
##DATA TYPE=MASS SPECTRUM
##SAMPLE DESCRIPTION=Div. of Experiment Therapeutics WRAIR, WRAMC, Washingto
n DC 20307
##NAMES=HP
##CAS NAME=2-Amino-5-[3,4-dichlorophenyl]-2-oxazolin-4-one
##MOLFORM=C9H6Cl2N2O2
##CAS REGISTRY NO=13627-10-6
##MP= -300
##BP= -300
##MW= 244
##$RETENTION INDEX=0
##$CONDENSED SPECTRUM=NO
##NPOINTS= 105
##XYDATA=(XY..XY) 1 
    42        528
    44        143
    47          4
    50         85
    51         25
    53          6
    55          7
    56          1
    57          3
    61         40
    62         83
    63         36
    70        999
    71         26
    73         82
    75        140
    77         16
    78          0
    79          3
    81          0
    82          1
    83          1
    84         15
    85         34
    87         87
    88          6
    89          1
    90          0
    93          0
    94          0
    96          5
    97         32
    99         15
   100          2
   102          5
   103          0
   105          2
   107          7
   109         48
   111         85
   113         29
   114          1
   115          0
   118          0
   119          1
   120          2
   123        294
   125        103
   131          2
   133          3
   134          0
   136          3
   138          4
   139          6
   141         10
   143          3
   145         52
   147         54
   149         28
   151          3
   152          0
   157          3
   158         44
   160         32
   161         10
   162          3
   163          0
   165          5
   166         12
   167          6
   168          2
   172          8
   173         65
   175        180
   177        107
   178         22
   181          4
   183          1
   184          2
   186          3
   188          5
   190          1
   192          0
   194          1
   199          0
   200          3
   201          2
   202          2
   203          3
   204          1
   209         25
   211          8
   212          1
   215         10
   217          7
   218          1
   219          0
   241          1
   242          2
   244        155
   245         71
   246        120
   247         22
   248         30
   249          3