##TITLE=Library Entry 47387
##JCAMP-DX=Revision 4.10 
##DATA TYPE=MASS SPECTRUM
##SAMPLE DESCRIPTION=A.A.Kutin, Moscow, Russia
##NAMES=HP
##CAS NAME=Propanedinitrile, [1-phenyl-2-(phenylsulfonyl)ethylidene]-
##MOLFORM=C17H12N2O2S
##CAS REGISTRY NO=136289-43-5
##MP= -300
##BP= -300
##MW= 308
##$RETENTION INDEX=0
##$CONDENSED SPECTRUM=NO
##NPOINTS= 86
##XYDATA=(XY..XY) 1 
    33         27
    34          1
    37          1
    38          6
    39         34
    40         33
    41          6
    42          0
    43          6
    44          4
    45          3
    50         57
    51        214
    52         12
    53          5
    55          2
    57          7
    61          0
    62          9
    63         21
    64          8
    65         11
    66          2
    69          4
    71          6
    74         10
    75         21
    77        999
    78         71
    79          2
    83          0
    85          1
    86          2
    87          3
    88          8
    89          6
    90          2
    91          3
    95          0
    97         13
    98          1
    99          3
   100          3
   101          3
   102          8
   103         21
   104          2
   105          3
   109          1
   111          0
   113         18
   114         15
   115          4
   116          2
   117         13
   118          0
   125         12
   126          5
   127         12
   128         10
   129          0
   138          3
   139         15
   140         98
   141        610
   142         48
   143         32
   144          1
   152          0
   153          3
   154          0
   165          3
   166          1
   167          7
   168         36
   169          4
   170          0
   179          0
   204          2
   214          0
   216          1
   217          0
   242          2
   308         76
   309         15
   310          4