##TITLE=Library Entry 32705
##JCAMP-DX=Revision 4.10 
##DATA TYPE=MASS SPECTRUM
##SAMPLE DESCRIPTION=Chemical Concepts
##NAMES=HP
##CAS NAME=10-Methyl-3,4,5,8,9,10-hexahydrooxecin-2-one
##MOLFORM=C10H16O2
##CAS REGISTRY NO=136230-43-8
##MP= -300
##BP= -300
##MW= 168
##$RETENTION INDEX=0
##$CONDENSED SPECTRUM=NO
##NPOINTS= 111
##XYDATA=(XY..XY) 1 
    26         31
    27        406
    28        159
    29        265
    30          6
    31         18
    34          4
    37          6
    38         33
    39        756
    40        131
    41        958
    42        204
    43        446
    44         21
    45         95
    46         10
    47          9
    48          7
    50         35
    51         98
    52         68
    53        367
    54        681
    55        778
    56        203
    57        164
    58         56
    59         15
    60         20
    61          4
    62          8
    63         28
    64         10
    65        106
    66        137
    67        999
    68        640
    69        128
    70        136
    71        970
    72         64
    73         25
    74          6
    75          9
    77        135
    78         68
    79        470
    80        268
    81        591
    82        316
    83        213
    84        147
    85        517
    86         51
    87         20
    88          3
    91         88
    92         18
    93        267
    94         85
    95        360
    96        318
    97        125
    98         77
    99         65
   100         10
   101         27
   102          3
   103          8
   104          7
   105         23
   106         33
   107         71
   108        534
   109        249
   110         36
   111        167
   112        108
   113        865
   114         80
   115         13
   116          3
   117         15
   119          5
   120          4
   121         44
   122         55
   123         28
   124         70
   125         96
   126        428
   127         58
   128          4
   132         19
   133          4
   134         10
   135         47
   136          9
   139        123
   140         53
   141          3
   149         16
   150        255
   151         34
   152          2
   153         44
   154          3
   168        444
   169         52
   170          4