##TITLE=Library Entry 18365
##JCAMP-DX=Revision 4.10 
##DATA TYPE=MASS SPECTRUM
##SAMPLE DESCRIPTION=Chemical Concepts
##NAMES=HP
##CAS NAME=Chromium, bis[(1,2,3,4-.eta.)-2,3-dimethyl-1,3-butadiene](dimethy
lphenylphosphine)-
##MOLFORM=C20H31CrP
##CAS REGISTRY NO=136275-38-2
##MP= -300
##BP= -300
##MW= 354
##$RETENTION INDEX=0
##$CONDENSED SPECTRUM=NO
##NPOINTS= 186
##XYDATA=(XY..XY) 1 
    25          0
    26         12
    27        114
    29         54
    30          1
    31         81
    33          0
    35          0
    36          0
    37         11
    38         25
    39        335
    40         52
    41        415
    42         71
    43         27
    44          6
    45         57
    46          4
    47          6
    48          0
    49          4
    50         46
    51        109
    52        999
    53        107
    54        125
    55         36
    56         16
    57         31
    58          5
    59         24
    60          3
    61          9
    62          9
    63         21
    64          3
    65         96
    66         16
    67        430
    68         23
    69         87
    70          5
    71          6
    72          1
    73          2
    74         14
    75          5
    76          5
    77        119
    78         51
    79        145
    80         10
    81         42
    82        245
    83         19
    84         27
    85          2
    86          0
    87          0
    89          4
    90          1
    91        275
    92         27
    93         16
    94          3
    95         29
    96          4
    97          4
    98          0
   101          0
   102          0
   103          2
   104          2
   105          8
   106          1
   107         44
   108         11
   109         35
   110          2
   111          2
   112          1
   113          1
   114          0
   115          1
   116          0
   117          2
   118          0
   119          1
   120          5
   121        313
   122         26
   123        374
   124         28
   125          0
   127          0
   128          0
   129         11
   130          5
   131          6
   132          8
   133         10
   134        146
   135         27
   136         34
   137          6
   138        434
   139        113
   140          7
   141          0
   142          0
   143         12
   144          6
   145          1
   146          0
   147          0
   149          0
   152          0
   153          0
   154         51
   155          5
   156          0
   157          0
   159          0
   160          1
   161          1
   162          0
   163          0
   165          0
   169          0
   171          1
   172          1
   173         13
   174         21
   175         20
   176          3
   177          1
   184          0
   185          0
   186          0
   187          1
   188         35
   189         15
   190        715
   191        138
   192         26
   193          2
   203          0
   204          0
   205          0
   207          3
   208          0
   209          0
   210          0
   214          4
   215          0
   216         57
   217         15
   218          3
   219          0
   220          0
   229          0
   235          0
   237          0
   243          0
   255          0
   257          0
   266          0
   267          0
   268          0
   269          1
   270          8
   271          5
   272        160
   273         42
   274          8
   275          0
   281          0
   322          0
   323          0
   352          1
   353          0
   354         35
   355         11
   356          2
   357          0