##TITLE=Library Entry 69431
##JCAMP-DX=Revision 4.10 
##DATA TYPE=MASS SPECTRUM
##SAMPLE DESCRIPTION=F. TURECEK,HEYROVSKY INST PHYS CHEM & ELECTROCHEM,PRAGU
E,CZECH
##NAMES=HP
##CAS NAME=2,9-Diazabicyclo[4.4.0]decane, trans-
##MOLFORM=C8H16N2
##CAS REGISTRY NO=13623-82-0
##MP= -300
##BP= -300
##MW= 140
##$RETENTION INDEX=0
##$CONDENSED SPECTRUM=NO
##NPOINTS= 55
##XYDATA=(XY..XY) 1 
    27         50
    29         40
    30        110
    39         50
    40         10
    41         80
    42         70
    43         50
    44        100
    50          4
    51         10
    52          5
    53         30
    54         40
    55         40
    56         80
    57         40
    58          5
    65          5
    66          5
    67         20
    68         90
    69         30
    70         15
    71          5
    77         10
    78          3
    79         20
    80         30
    81         30
    82        180
    83        100
    84         20
    85          5
    91          5
    93          5
    94         20
    95         20
    96        999
    97        480
    98         30
    99          2
   105          2
   106          2
   107          2
   108         10
   109          7
   110         40
   111          5
   112          1
   125          2
   139          2
   140         80
   141          9
   142          1