##TITLE=Library Entry 43816
##JCAMP-DX=Revision 4.10 
##DATA TYPE=MASS SPECTRUM
##SAMPLE DESCRIPTION=Chemical Concepts
##NAMES=HP
##CAS NAME=Silane, 2,5-stannolanediylidenetetrakis[trimethyl-
##MOLFORM=C16H42Si4Sn
##CAS REGISTRY NO=136213-12-2
##MP= -300
##BP= -300
##MW= 466
##$RETENTION INDEX=0
##$CONDENSED SPECTRUM=NO
##NPOINTS= 292
##XYDATA=(XY..XY) 1 
    26          0
    27          1
    29          1
    30          0
    31          6
    38          0
    39          0
    40         11
    41          1
    42          2
    43         11
    44          5
    45         91
    46          4
    47          2
    53          0
    55          4
    57          2
    58          3
    59         55
    60          6
    61          2
    67          2
    68          0
    69          4
    70          1
    71          2
    72          1
    73        999
    74         73
    75         30
    76          0
    81          0
    82          0
    83         39
    84          4
    85          9
    86          1
    87          1
    93          1
    94          0
    95          1
    96          1
    97         15
    98          2
    99          4
   100          0
   101          2
   103          0
   104          0
   105          0
   107          0
   109          2
   110          0
   111          1
   112          1
   113          6
   114          1
   115          5
   116         18
   117         11
   118         35
   119         16
   120         44
   121          5
   122          7
   123          0
   124          7
   125          2
   126          0
   127          6
   128          0
   129         10
   130          2
   131         17
   132          8
   133         32
   134         10
   135         33
   136          0
   137          6
   138          0
   139          6
   141         29
   142          4
   143          2
   144          0
   145          5
   146          0
   147          1
   148          0
   149          0
   150          0
   151          1
   152          0
   153          2
   154          0
   155         18
   156          4
   157        150
   158         22
   159         17
   160          1
   161          2
   162          2
   163          2
   164          1
   165          2
   166          0
   167          8
   168          0
   169          2
   170          0
   171          2
   172          2
   173          2
   174          5
   175          6
   176          8
   177          8
   178          7
   179          9
   180          1
   181          4
   182          2
   183          2
   184          0
   185          1
   186          0
   187          1
   188          2
   189         15
   190         10
   191         24
   192         11
   193         30
   194          2
   195          5
   196          1
   197          6
   198          1
   199          2
   200          4
   201          6
   202          3
   203          7
   204          5
   205          2
   206          1
   207          3
   208          0
   209          1
   210          2
   211          1
   212          2
   213          6
   214         43
   215         41
   216         74
   217         44
   218        104
   219         27
   220         18
   221          4
   222         15
   223          4
   224          0
   225          3
   226          1
   227          1
   228          0
   229          1
   230          0
   231          1
   232          0
   233          1
   235          0
   237          0
   239          5
   240          1
   241          2
   242          0
   243          1
   244          0
   245          0
   246          1
   247          1
   248          0
   249          1
   250          0
   251          0
   252          0
   253          0
   254          2
   255          0
   256          0
   257          0
   258          0
   259          1
   260          0
   261          3
   262          0
   263          3
   264          0
   265          0
   267          0
   268          0
   269          1
   271          2
   272          1
   273          8
   274          5
   275         12
   276          5
   277         13
   278          2
   279          4
   280          0
   281          2
   282          0
   283          3
   284         12
   285          4
   286          8
   287         11
   288        177
   289        125
   290        308
   291        162
   292        412
   293         75
   294         84
   295         13
   296         70
   297         14
   298          4
   299          3
   300          1
   301          0
   302          0
   303          0
   304          0
   313          1
   314          0
   315          0
   318          0
   342          1
   344          0
   345          0
   346          0
   355          0
   359          0
   372          0
   373          0
   374          0
   375          0
   376          0
   387          0
   388          0
   389          0
   390          0
   391          0
   392          0
   441          0
   443          0
   444          0
   445          4
   446          3
   447         12
   448          7
   449         16
   450          4
   451          5
   452          1
   453          2
   454          0
   455          1
   456          1
   457          1
   458          1
   459          1
   460         18
   461         18
   462         46
   463         25
   464         61
   465         22
   466         16
   467          4
   468          7
   469          3
   470          1