##TITLE=Library Entry 49366
##JCAMP-DX=Revision 4.10 
##DATA TYPE=MASS SPECTRUM
##SAMPLE DESCRIPTION=Chemical Concepts
##NAMES=HP
##CAS NAME=2-Bicyclo[3.3.0]octene-4-carbanilide
##MOLFORM=C15H17NO
##CAS REGISTRY NO=136309-85-8
##MP= -300
##BP= -300
##MW= 227
##$RETENTION INDEX=0
##$CONDENSED SPECTRUM=NO
##NPOINTS= 114
##XYDATA=(XY..XY) 1 
    26          3
    27         60
    29         81
    30          2
    37          1
    38         11
    39        130
    41        132
    42          7
    43          6
    50         12
    51         75
    52         30
    53         48
    54          8
    55         23
    56          3
    57          2
    62          2
    63         17
    64         21
    65        147
    66        105
    67        153
    68          8
    69          3
    70          0
    71          1
    74          2
    75          2
    76          8
    77        337
    78        115
    79        999
    80        356
    81         29
    82          3
    83          1
    84          1
    89          2
    90          3
    91        261
    92        152
    93        949
    94         82
    95          8
    96          2
   102          1
   103         17
   104         16
   105         79
   106        229
   107        838
   108        366
   109        101
   110          9
   115          3
   116          2
   117         16
   118          7
   119        413
   120        224
   121         21
   122          4
   123          2
   128          2
   129          2
   130          7
   131          1
   132          5
   133         22
   134        391
   135        187
   136         59
   137         11
   138          1
   141          1
   143          2
   144          2
   145          1
   146          3
   147          2
   148         50
   149          5
   154          2
   155          1
   156          7
   157          2
   158          5
   159         13
   160          2
   161          3
   165          3
   167          2
   168          1
   169          1
   170         10
   171          3
   172          4
   182          3
   183          5
   184          3
   185          1
   186          3
   197          1
   198         26
   199         17
   200          3
   201          1
   212         45
   213          6
   227        949
   228        155
   229          9