##TITLE=Library Entry 60977
##JCAMP-DX=Revision 4.10 
##DATA TYPE=MASS SPECTRUM
##SAMPLE DESCRIPTION=NIST Mass Spectrometry Data Center
##NAMES=HP
##CAS NAME=8-Ketocopaenal
##MOLFORM=C15H20O2
##CAS REGISTRY NO=136396-58-2
##MP= -300
##BP= -300
##MW= 232
##$RETENTION INDEX=1845
##$CONDENSED SPECTRUM=NO
##NPOINTS= 137
##XYDATA=(XY..XY) 1 
    26          2
    27         77
    28          9
    29         66
    30          1
    37          1
    38          8
    39        241
    40         35
    41        460
    42         45
    43        204
    44          6
    45          4
    50         25
    51        131
    52         54
    53        191
    54         27
    55        270
    56         39
    57         59
    58         12
    59         10
    60          2
    61          2
    62         13
    63         78
    64         33
    65        248
    66         59
    67        150
    68         45
    69        426
    70         59
    71         31
    72          6
    74         10
    75         17
    76         16
    77        519
    78        172
    79        431
    80        132
    81        159
    82         43
    83        122
    84         58
    85         39
    86          6
    87          9
    88          3
    89         42
    90         20
    91        999
    92        195
    93        227
    94         61
    95         96
    96         56
    97        107
    98         13
    99         18
   101          5
   102         30
   103        129
   104         77
   105        926
   106        254
   107        558
   108        637
   109        140
   110         32
   111         87
   112        131
   113         18
   114          5
   115        277
   116         90
   117        245
   118         73
   119        780
   120        189
   121        222
   122         65
   123         36
   124        507
   125        112
   126         44
   127         57
   128        165
   129        159
   130        104
   131        203
   132         58
   133        913
   134        261
   135        184
   136         44
   137         15
   138         18
   139          6
   143         94
   144         37
   145        103
   146         60
   147        385
   148        215
   149         97
   150        165
   151         23
   159         39
   161        497
   162        234
   163         45
   164         13
   171         61
   172         33
   175        204
   176         47
   177         21
   185          8
   186          8
   188          9
   189        230
   190        634
   191         85
   192          9
   199         24
   203         32
   204         79
   205         11
   217         63
   218          6
   231          2
   232         86
   233         16