##TITLE=Library Entry 4091
##JCAMP-DX=Revision 4.10 
##DATA TYPE=MASS SPECTRUM
##SAMPLE DESCRIPTION=R.E.Ardrey ET AL.Pharmaceutical Mass Spectra,L.,1985
##NAMES=HP
##CAS NAME=Trilostane
##MOLFORM=C20H27NO3
##CAS REGISTRY NO=13647-35-3
##MP= -300
##BP= -300
##MW= 329
##$RETENTION INDEX=0
##$CONDENSED SPECTRUM=NO
##NPOINTS= 214
##XYDATA=(XY..XY) 1 
    26         20
    27        150
    29        280
    30         20
    31         50
    39        210
    40         60
    41        999
    42         70
    43        340
    44         50
    45         40
    51         50
    52         60
    53        350
    54        170
    55        670
    56         60
    57        210
    58         40
    63         20
    65        170
    66         90
    67        590
    68        440
    69        200
    70         30
    71        100
    72         20
    73         30
    77        380
    78        110
    79        700
    80        150
    81        520
    82        100
    83        100
    84         60
    85         40
    86         20
    91        540
    92        140
    93        700
    94        180
    95        430
    96         90
    97        170
    98         40
    99         40
   100         10
   103         50
   104         60
   105        650
   106        160
   107        500
   108        230
   109        280
   110        120
   111        110
   112         70
   113         30
   115         70
   116         50
   117        130
   118         90
   119        380
   120        170
   121        460
   122        150
   123        220
   124         70
   125         50
   126         20
   127         20
   128         40
   129         70
   130         50
   131        200
   132         90
   133        290
   134        170
   135        160
   136         90
   137        100
   138         60
   139         30
   141         20
   142         30
   143         80
   144         70
   145        240
   146        140
   147        710
   148        200
   149        130
   150         90
   151        170
   152        110
   153         30
   154         20
   155         30
   156         30
   157         70
   158         70
   159        150
   160        110
   161        140
   162         70
   163         90
   164         70
   165        170
   166         50
   167         20
   168         20
   169         30
   170         40
   171         90
   172         70
   173        190
   174         90
   175        140
   176         60
   177         50
   178         30
   179         20
   181         20
   182         20
   183         40
   184         50
   185         70
   186         60
   187        100
   188         80
   189        110
   190         50
   191         60
   192         20
   194         30
   195         20
   196         20
   197         50
   198         60
   199         70
   200         60
   201        230
   202         70
   203         40
   204         20
   208         20
   209         20
   210         30
   211         40
   212         40
   213         80
   214         60
   215        150
   216         50
   217         70
   218         40
   219         70
   220         20
   224         50
   225         30
   226         60
   227         40
   228         50
   229         50
   230         50
   231        130
   232        340
   233        130
   234         20
   236         10
   238         20
   239         20
   240         30
   241         20
   242         90
   243         40
   244         40
   245         20
   252         30
   253         20
   254         50
   255         30
   256         70
   257         40
   258         60
   259         20
   268         50
   269         20
   270        110
   271         50
   272         80
   273         50
   276        130
   277         30
   282         40
   283         50
   284         30
   285         60
   286         80
   287         30
   296         70
   297         20
   298         10
   300        120
   301         60
   302         20
   311         70
   312         20
   314         50
   329        190
   330         50