##TITLE=Library Entry 62068
##JCAMP-DX=Revision 4.10 
##DATA TYPE=MASS SPECTRUM
##SAMPLE DESCRIPTION=NIST Mass Spectrometry Data Center
##NAMES=HP
##CAS NAME=8-Ketoylangenal
##MOLFORM=C15H20O2
##CAS REGISTRY NO=136458-94-1
##MP= -300
##BP= -300
##MW= 232
##$RETENTION INDEX=1826
##$CONDENSED SPECTRUM=NO
##NPOINTS= 139
##XYDATA=(XY..XY) 1 
    26          2
    27         76
    28         10
    29         67
    30          2
    37          2
    38          8
    39        234
    40         36
    41        447
    42         45
    43        186
    44          6
    50         25
    51        126
    52         52
    53        183
    54         23
    55        253
    56         32
    57         59
    58         11
    59          6
    60          2
    62         13
    63         78
    64         33
    65        243
    66         58
    67        143
    68         95
    69        447
    70         92
    71         21
    72          5
    74         10
    75         14
    76         17
    77        508
    78        179
    79        425
    80        124
    81        177
    82         35
    83        124
    84         67
    85         33
    86          6
    87          9
    88          4
    89         39
    90         18
    91        999
    92        214
    93        254
    94         62
    95         86
    96         63
    97        145
    98         13
    99          7
   101          6
   102         27
   103        126
   104         80
   105        913
   106        276
   107        632
   108        644
   109        115
   110         55
   111         80
   112        373
   113         46
   114          6
   115        269
   116         87
   117        229
   118         63
   119        855
   120        194
   121        244
   122         82
   123         83
   124        213
   125         39
   126         19
   127         51
   128        139
   129        141
   130        110
   131        174
   132         47
   133        996
   134        193
   135        149
   136         32
   137         14
   138         20
   141         23
   142         16
   143         87
   144         28
   145         79
   146         43
   147        400
   148        266
   149         86
   150        406
   151         45
   152          8
   158         19
   159         37
   161        267
   162        107
   163         29
   164         21
   171         48
   172         31
   173         18
   175         92
   176         45
   185          8
   186         13
   188         16
   189        211
   190        341
   191         47
   199         27
   200          5
   201          9
   202          4
   203         36
   204         46
   205         10
   217         57
   231          3
   232         71
   233         12