##TITLE=Library Entry 3301
##JCAMP-DX=Revision 4.10 
##DATA TYPE=MASS SPECTRUM
##SAMPLE DESCRIPTION=MPI,E131-G0408,6-FEB-65 (ID=4, PURITY=4)
##NAMES=HP
##CAS NAME=1,6-Heptadiene, 2-methyl-
##MOLFORM=C8H14
##CAS REGISTRY NO=13643-06-6
##MP= -300
##BP= -300
##MW= 110
##$RETENTION INDEX=0
##$CONDENSED SPECTRUM=NO
##NPOINTS= 41
##XYDATA=(XY..XY) 1 
    24          0
    25          4
    26          9
    27        140
    28         16
    29         60
    30          1
    33          0
    38         13
    39        151
    40         23
    41        999
    42         34
    43         28
    44          0
    50          7
    51         17
    52          6
    53         47
    54         14
    55         30
    56          7
    62          1
    63          3
    65         11
    66         71
    67        114
    68         36
    69        647
    70         32
    77          9
    78          2
    79          6
    80          1
    81         11
    82          3
    91          3
    93          1
    95         12
   110         42
   111          3