##TITLE=Library Entry 3370
##JCAMP-DX=Revision 4.10 
##DATA TYPE=MASS SPECTRUM
##SAMPLE DESCRIPTION=P.A. Leclercq, Lab. Instrum. Anal., Tech. Univ. Eindhov
en, Netherlands
##NAMES=HP
##CAS NAME=Curdione
##MOLFORM=C15H24O2
##CAS REGISTRY NO=13657-68-6
##MP= -300
##BP= -300
##MW= 236
##$RETENTION INDEX=1707
##$CONDENSED SPECTRUM=NO
##NPOINTS= 146
##XYDATA=(XY..XY) 1 
    36          3
    37          2
    39        413
    40        150
    41        999
    42        235
    43        357
    44         17
    45         10
    46          1
    48          0
    50         10
    51         52
    53        392
    54         76
    55        769
    56        112
    57         81
    58          4
    59         14
    60          1
    61          1
    62          1
    63         10
    65         77
    67        560
    68        560
    69        915
    70        129
    71         41
    72          3
    73          5
    74          1
    75          1
    77        101
    78         19
    79        176
    80         44
    81        280
    82        304
    83        163
    84         49
    85         14
    86          1
    87          9
    88          1
    89          3
    91         97
    92         27
    93        141
    94         57
    95        281
    96        144
    97        191
    98         27
    99          7
   100          1
   101          7
   102         30
   103         11
   105        111
   106         23
   107        166
   108         90
   109        751
   110        172
   111        138
   112         74
   113         10
   115         21
   116          7
   117         17
   119         59
   121        144
   122         41
   123        125
   124         63
   125         52
   126         57
   127         28
   128         11
   129          9
   130          5
   131         22
   132         11
   133         47
   134         36
   135         54
   136         38
   137        149
   138        119
   139        148
   140         18
   141         11
   142          4
   143          4
   144          3
   145         17
   146          6
   147         64
   148         13
   149         20
   151         45
   152         46
   153         26
   154         35
   155         13
   156          4
   157          6
   159         11
   160          5
   161         26
   162          8
   163          6
   165        225
   167        587
   168         64
   169          9
   173         12
   174          6
   175         25
   176         14
   177          7
   180        703
   181         79
   182          9
   187          2
   189          4
   190          4
   191          5
   193         36
   194         15
   201          5
   203         12
   204          2
   206          3
   207          3
   208         25
   209          4
   216          5
   218         11
   219          3
   221         15
   234          1
   236         24
   237          4