##TITLE=Library Entry 39610
##JCAMP-DX=Revision 4.10 
##DATA TYPE=MASS SPECTRUM
##SAMPLE DESCRIPTION=R RYHAGE MS-LAB KAROLINSKA INSTITUTET STOCKHOLM SWEDEN
##NAMES=HP
##CAS NAME=Alprenolol
##MOLFORM=C15H23NO2
##CAS REGISTRY NO=13655-52-2
##MP= -300
##BP= -300
##MW= 249
##$RETENTION INDEX=1833
##$CONDENSED SPECTRUM=NO
##NPOINTS= 100
##XYDATA=(XY..XY) 1 
    15          2
    26          6
    27         14
    29          4
    30        208
    31          9
    33          2
    35          7
    36          3
    39         20
    41         43
    42         27
    43         40
    44          5
    45          0
    47          3
    48          0
    49          1
    50          4
    51         15
    52          2
    53          2
    54          5
    55          4
    56         43
    57         15
    58         22
    59          5
    60         23
    63          8
    64          1
    65          8
    66          3
    67          3
    68          3
    69          2
    70         24
    71         14
    72        999
    73         49
    74          9
    75          5
    77         13
    78          7
    79         15
    80          3
    82          1
    89          4
    90          4
    91         29
    92          5
    93          0
    94          2
    96          4
    97          0
    98          2
    99          2
   100         31
   101          5
   102         35
   103          7
   104          3
   105          9
   106          2
   107         15
   108          8
   109          2
   112          0
   114         18
   115         35
   116         16
   117          9
   118         11
   119         13
   121          2
   128          2
   129          4
   131         12
   132         16
   133         16
   134         20
   135          6
   139          2
   144          1
   147          4
   155          3
   173          4
   176          7
   177          2
   181          1
   194          2
   205         18
   206          4
   207          4
   234         25
   235          5
   247          2
   248          5
   249         34
   250          4