##TITLE=Library Entry 57865
##JCAMP-DX=Revision 4.10 
##DATA TYPE=MASS SPECTRUM
##SAMPLE DESCRIPTION=V.G.Zaikin, TIPS, Russian Acad. Sci.
##NAMES=HP
##CAS NAME=Phosphine, dibutylvinyl-
##MOLFORM=C10H21P
##CAS REGISTRY NO=13652-22-7
##MP= -300
##BP= -300
##MW= 172
##$RETENTION INDEX=0
##$CONDENSED SPECTRUM=NO
##NPOINTS= 59
##XYDATA=(XY..XY) 1 
    53         50
    54         20
    55        120
    56         40
    57        350
    58         90
    59        210
    60         90
    61         90
    62        660
    63         30
    65        100
    67         30
    69         50
    71        110
    72         40
    73        310
    74        760
    75         70
    76        120
    77         10
    78         20
    79         10
    80         20
    81         30
    82         10
    83         40
    85         50
    86         20
    87        200
    88        999
    89         60
    90         30
    91         10
    92         10
    93        110
   101        180
   102        570
   108         20
   109         10
   113         10
   114         20
   115        400
   116        460
   117         70
   121         30
   123         20
   127         10
   128         10
   129        130
   130        310
   131         30
   143        320
   144         80
   157        260
   158         30
   171         70
   172        210
   173         40