##TITLE=Library Entry 29201
##JCAMP-DX=Revision 4.10 
##DATA TYPE=MASS SPECTRUM
##SAMPLE DESCRIPTION=ORMSBG,9(11)1073(1974); ECKHARDT
##NAMES=HP
##CAS NAME=1,3-Propanediamine, N,N-dimethyl-N'-phenyl-
##MOLFORM=C11H18N2
##CAS REGISTRY NO=13658-95-2
##MP= -300
##BP= -300
##MW= 178
##$RETENTION INDEX=0
##$CONDENSED SPECTRUM=NO
##NPOINTS= 13
##XYDATA=(XY..XY) 1 
    58        999
    70        123
    71         82
    72        108
    77        144
    84         92
    85        400
   104         87
   106        221
   132        292
   133        246
   178        523
   179         77