##TITLE=Library Entry 62677
##JCAMP-DX=Revision 4.10 
##DATA TYPE=MASS SPECTRUM
##SAMPLE DESCRIPTION=Z.A.MALIK, DEP. CHEM., QUAID-I-AZAM UNIV., ISLAMABAD, P
AKIST
##NAMES=HP
##CAS NAME=2,2,2-Trifluoro-1-phenylethyl p-toluenesulfonate
##MOLFORM=C15H13F3O3S
##CAS REGISTRY NO=13652-13-6
##MP= -300
##BP= -300
##MW= 330
##$RETENTION INDEX=0
##$CONDENSED SPECTRUM=NO
##NPOINTS= 76
##XYDATA=(XY..XY) 1 
    27         10
    28         20
    29         60
    38         10
    39        110
    40         10
    41         30
    42         10
    44         10
    45         10
    50         30
    51         90
    52         20
    53         10
    57         10
    59         10
    62         10
    63         60
    64         20
    65        280
    66         10
    69         20
    72         30
    74         10
    75         10
    76         10
    77        150
    78         30
    79         20
    80         10
    83         20
    89         70
    90         50
    91        999
    92        670
    93         50
   103         10
   104         90
   105         10
   106         40
   107         40
   108        570
   109         50
   113         10
   119         10
   120         10
   127         10
   133         10
   137         10
   138         10
   139         50
   140         50
   141         10
   147         10
   152         10
   154         10
   155        830
   156        900
   157        120
   158         60
   159        670
   160         60
   163         10
   164         10
   165         20
   166         10
   167         10
   175        580
   176         50
   181         10
   213         20
   261         50
   262         10
   330        100
   331         20
   332         10