##TITLE=Library Entry 90672
##JCAMP-DX=Revision 4.10 
##DATA TYPE=MASS SPECTRUM
##SAMPLE DESCRIPTION=A.A.Kutin, Moscow, Russia
##NAMES=HP
##CAS NAME=Benzenesulfonamide, 2,4-difluoro-
##MOLFORM=C6H5F2NO2S
##CAS REGISTRY NO=13656-60-5
##MP= -300
##BP= -300
##MW= 193
##$RETENTION INDEX=0
##$CONDENSED SPECTRUM=NO
##NPOINTS= 48
##XYDATA=(XY..XY) 1 
    37         13
    38          9
    39         12
    45         12
    46         17
    48         21
    50         43
    51         28
    56         12
    57         46
    61         24
    62         83
    63        504
    64        202
    65         18
    66          8
    68         31
    69         57
    73          8
    74         35
    75         41
    80         41
    81         42
    82         47
    87         20
    88          8
    89         14
    92         16
    93         65
    94         26
   101        154
   102         13
   109         12
   111         10
   113        999
   114         78
   129        675
   130        532
   131         32
   133         18
   161         28
   173         11
   177        780
   178         57
   179         38
   193        884
   194         67
   195         43