##TITLE=Library Entry 98044
##JCAMP-DX=Revision 4.10 
##DATA TYPE=MASS SPECTRUM
##SAMPLE DESCRIPTION=A.A.Kutin, Moscow, Russia
##NAMES=HP
##CAS NAME=Benzyl alcohol, 2,3-dimethyl-
##MOLFORM=C9H12O
##CAS REGISTRY NO=13651-14-4
##MP= -300
##BP= -300
##MW= 136
##$RETENTION INDEX=0
##$CONDENSED SPECTRUM=NO
##NPOINTS= 58
##XYDATA=(XY..XY) 1 
    36          0
    37          4
    39        207
    40         38
    41         69
    43         28
    44          4
    45          6
    46          2
    50         56
    51        121
    52         38
    53         57
    54          5
    55         12
    56          2
    58          5
    59         16
    60         20
    61          6
    62         21
    63         66
    65        143
    66         22
    67         29
    69          1
    71          0
    74         15
    75         14
    77        342
    78         82
    79        112
    80          7
    81          1
    82          0
    86          4
    87          4
    89         32
    91        568
    93        461
    94         26
    95          1
    98          1
   103        143
   104         39
   105        157
   107        170
   108         13
   115         75
   117        504
   118        999
   119        151
   121        241
   122         18
   123          1
   136        484
   137         40
   138          2