##TITLE=Library Entry 88485
##JCAMP-DX=Revision 4.10 
##DATA TYPE=MASS SPECTRUM
##SAMPLE DESCRIPTION=ASES Database, Dalian Institute, P.R. China
##NAMES=HP
##CAS NAME=1-(4-Chlorophenyl)-2-(4-ethoxycarbonylphenyl)-3-(thiophen-2-ylcar
bonyl)-cyclopropane
##MOLFORM=C23H19ClO3S
##CAS REGISTRY NO=136673-29-5
##MP= -300
##BP= -300
##MW= 410
##$RETENTION INDEX=0
##$CONDENSED SPECTRUM=NO
##NPOINTS= 29
##XYDATA=(XY..XY) 1 
    63          9
    83         19
    89         10
   111        999
   115         99
   116          9
   125         30
   149         29
   165         20
   189         40
   190         19
   191         70
   192         29
   197         59
   198          9
   225          9
   226         19
   227         29
   229         10
   253          9
   254         20
   255         10
   271         10
   299         90
   300         19
   301         39
   365         29
   367          9
   410          9