##TITLE=Library Entry 87812
##JCAMP-DX=Revision 4.10 
##DATA TYPE=MASS SPECTRUM
##SAMPLE DESCRIPTION=A.A.Kutin, Moscow, Russia
##NAMES=HP
##CAS NAME=Butane-1,4-dione, 1,4-bis(2-thienyl)-
##MOLFORM=C12H10O2S2
##CAS REGISTRY NO=13669-05-1
##MP= -300
##BP= -300
##MW= 250
##$RETENTION INDEX=0
##$CONDENSED SPECTRUM=NO
##NPOINTS= 117
##XYDATA=(XY..XY) 1 
    33          0
    34          0
    36          0
    37          5
    38         22
    39        277
    40         10
    41          2
    42          1
    43          2
    44          5
    45         40
    46          1
    47          2
    48          0
    49          2
    50          8
    51          7
    52          2
    53         16
    55         53
    56          4
    57         37
    58         12
    59          3
    60          1
    62          2
    63          3
    64          1
    65          5
    66          2
    67          3
    69         11
    70          2
    71          3
    72          0
    73          0
    74          1
    75          0
    77          7
    78          2
    79          1
    80          1
    81         14
    82         25
    83         98
    84         12
    85          7
    86          1
    87          0
    89          0
    91          1
    93          1
    94          0
    95          1
    96          1
    97          7
    98          0
    99          0
   102          0
   105          1
   106          1
   108          3
   109         15
   111        999
   112         65
   113         48
   114          2
   115          0
   119          2
   120          0
   121          3
   122          2
   123          1
   124          4
   125          2
   126          0
   127          0
   128          0
   134          0
   135          0
   137          3
   139        175
   140         15
   141          8
   142          0
   147          0
   149          0
   153          0
   159          0
   160          0
   165          0
   166          1
   167          4
   168          0
   169          0
   171          0
   177          0
   179          0
   195          2
   196          0
   197          0
   203          0
   204          0
   208          0
   217          0
   219          0
   222          4
   223          0
   224          0
   232          0
   248          1
   250        105
   251         14
   252          9
   253          1
   254          0