##TITLE=Library Entry 32645
##JCAMP-DX=Revision 4.10 
##DATA TYPE=MASS SPECTRUM
##SAMPLE DESCRIPTION=NIST Mass Spectrometry Data Center, 1992
##NAMES=HP
##CAS NAME=2-(Cyclopenten-1-yl)acetic acid
##MOLFORM=C7H10O2
##CAS REGISTRY NO=13668-61-6
##MP= -300
##BP= -300
##MW= 126
##$RETENTION INDEX=0
##$CONDENSED SPECTRUM=NO
##NPOINTS= 65
##XYDATA=(XY..XY) 1 
    14          3
    15          9
    16          1
    17          2
    18          2
    26         25
    27        145
    28         50
    29         37
    30          2
    31         19
    32          2
    37         13
    38         43
    39        256
    40         50
    41        230
    42         41
    43         22
    44          6
    45         66
    47          2
    49          7
    50         44
    51         71
    52         40
    53         92
    54         19
    55         47
    56          5
    57          6
    60         68
    61          8
    62         12
    63         20
    64          2
    65        123
    66        502
    67        999
    68         59
    69         11
    70          7
    71          3
    73          2
    74          4
    75          2
    77         80
    78         28
    79        196
    80        122
    81         77
    82          9
    83         30
    84         13
    85          1
    95          1
    97         15
    98          1
   106          2
   108        261
   109         29
   110          2
   111          5
   126         71
   127          5