##TITLE=Library Entry 17700
##JCAMP-DX=Revision 4.10 
##DATA TYPE=MASS SPECTRUM
##SAMPLE DESCRIPTION=NIST Mass Spectrometry Data Center, 1994
##NAMES=HP
##CAS NAME=1-(p-Chlorophenylthio)-2-propanol
##MOLFORM=C9H11ClOS
##CAS REGISTRY NO=13663-04-2
##MP= -300
##BP= -300
##MW= 202
##$RETENTION INDEX=0
##$CONDENSED SPECTRUM=NO
##NPOINTS= 115
##XYDATA=(XY..XY) 1 
    14          9
    15         52
    18          2
    19         27
    26         12
    27         70
    28         14
    29         74
    30          2
    31        110
    35          2
    36          3
    37          8
    38         25
    39         77
    40         11
    41         56
    42         16
    43        125
    44          2
    45        999
    46         50
    47         42
    49          9
    50         88
    51         57
    52          4
    53          3
    57         21
    58         24
    59         32
    60          5
    61         17
    62         22
    63         73
    64          8
    65         25
    66          2
    69         65
    70          7
    71         13
    72          1
    73         42
    74         45
    75        146
    76         27
    77         69
    78         17
    79         10
    81         15
    82         30
    83          6
    84          9
    85         17
    86          3
    87          6
    89         14
    90          7
    91          3
    93          5
    95          3
    96          3
    97          6
    98          3
    99         46
   100         10
   101         12
   102          5
   103          3
   105          4
   106          5
   107         22
   108        159
   109         50
   110         12
   111         27
   112         89
   113         17
   114         26
   115          5
   116          2
   118          2
   120          3
   121         17
   122         15
   123         37
   124          2
   125        115
   126         11
   127         39
   128          3
   131          3
   134          4
   143        153
   144         75
   145         60
   146         25
   147          6
   148          3
   150          4
   155          5
   157         98
   158        500
   159         80
   160        184
   161         14
   162          7
   169         14
   171          8
   202        204
   203         22
   204         76
   205          7
   206          3
   207          0