##TITLE=Library Entry 32388
##JCAMP-DX=Revision 4.10 
##DATA TYPE=MASS SPECTRUM
##SAMPLE DESCRIPTION=J.VOTH UNIV. OF CALIFORNIA, DAVIS, CALIFORNIA, 95616, U
SA
##NAMES=HP
##CAS NAME=2-Cyclopentene-1-methanol
##MOLFORM=C6H10O
##CAS REGISTRY NO=13668-59-2
##MP= -300
##BP= -300
##MW= 98
##$RETENTION INDEX=0
##$CONDENSED SPECTRUM=NO
##NPOINTS= 73
##XYDATA=(XY..XY) 1 
    12          2
    13          3
    14          7
    15         24
    16          1
    17          3
    18          7
    19          1
    25          3
    26         26
    27        104
    28         19
    29         70
    30          5
    31         91
    32          2
    36          1
    37         19
    38         42
    39        232
    40         45
    41        284
    42         21
    43         18
    44          4
    45          4
    46          1
    47          1
    48          1
    49          4
    50         21
    51         30
    52         15
    53         29
    54          8
    55         16
    56          2
    57         22
    58          1
    59          1
    60          1
    61          5
    62          8
    63         17
    64          5
    65         76
    66        145
    67        999
    68         81
    69          8
    70          6
    71          1
    73          1
    74          2
    75          2
    76          1
    77         17
    78         14
    79         45
    80        188
    81         16
    82          2
    83          5
    84          1
    91          1
    92          2
    93          4
    94          0
    95          3
    96          7
    97          4
    98         13
    99          1