##TITLE=Library Entry 79778
##JCAMP-DX=Revision 4.10 
##DATA TYPE=MASS SPECTRUM
##SAMPLE DESCRIPTION=G. Lange, Inst. Org. Chem., Univ. Wurzburg, Germany
##NAMES=HP
##CAS NAME=2-Propanehydroperoxide, 1-bromo-3-chloro-2-phenyl-
##MOLFORM=C9H10BrClO2
##CAS REGISTRY NO=136749-71-8
##MP= -300
##BP= -300
##MW= 264
##$RETENTION INDEX=0
##$CONDENSED SPECTRUM=NO
##NPOINTS= 104
##XYDATA=(XY..XY) 1 
    36          1
    37          2
    38         11
    39         67
    40          6
    41          9
    42         12
    43         12
    45          3
    49         43
    50         78
    51        236
    52         27
    53          6
    55          3
    57         15
    58         19
    61          4
    62         18
    63         50
    64         10
    65         73
    66          7
    73          6
    74         27
    75         33
    76         41
    77        535
    78         82
    79         26
    80          5
    82          3
    86          4
    87          6
    89         35
    90         19
    91        372
    92         32
    93         25
    94         10
    95         23
    99          4
   101          9
   102         42
   103        197
   104         65
   105        999
   106         75
   107          8
   115        166
   116         79
   117         70
   118         13
   119         22
   120         12
   121         75
   122          6
   123         70
   124          1
   125         99
   126          8
   127         32
   131          6
   132          6
   133         23
   137          4
   138          5
   151         78
   152         37
   153         27
   154         26
   155        121
   156         15
   157         37
   158          3
   167         11
   168         12
   169         74
   170         10
   171        147
   172         12
   173         25
   195          8
   197         11
   198         28
   199        122
   200         38
   201        125
   202         11
   215        135
   216         11
   217        125
   218         11
   231        380
   232         40
   233        505
   234         49
   235        121
   236         12
   264         12
   265          1
   266         16
   267          1
   268          3