##TITLE=Library Entry 49843
##JCAMP-DX=Revision 4.10 
##DATA TYPE=MASS SPECTRUM
##SAMPLE DESCRIPTION=Exported from NIST MS Search
##NAMES=HP
##CAS NAME=Ethanethioic acid, S-(2-furanylmethyl) ester
##MOLFORM=C7H8O2S
##CAS REGISTRY NO=13678-68-7
##MP= -300
##BP= -300
##MW= 156
##$RETENTION INDEX=1163
##$CONDENSED SPECTRUM=NO
##NPOINTS= 16
##XYDATA=(XY..XY) 1 
    27         67
    39         28
    43        270
    45         83
    51         28
    52         20
    53        175
    69          8
    81        999
    82         52
    85         12
   113         36
   114         36
   156        163
   157         14
   158          8