##TITLE=Library Entry 67829
##JCAMP-DX=Revision 4.10 
##DATA TYPE=MASS SPECTRUM
##SAMPLE DESCRIPTION=T. Yu and C. Ho, J. Agric. Food Chem. 1995, 43, 1641-16
46
##NAMES=HP
##CAS NAME=2-methyl-5-[(methylthio)methyl]furan
##MOLFORM=C7H10OS
##CAS REGISTRY NO=13679-60-2
##MP= -300
##BP= -300
##MW= 142
##$RETENTION INDEX=1080
##$CONDENSED SPECTRUM=NO
##NPOINTS= 11
##XYDATA=(XY..XY) 1 
    39         70
    40        100
    41        100
    43        260
    51         80
    53         80
    65         70
    67         80
    95        999
    96         60
   142        230