##TITLE=Library Entry 109759
##JCAMP-DX=Revision 4.10 
##DATA TYPE=MASS SPECTRUM
##SAMPLE DESCRIPTION=NIST Mass Spectrometry Data Center, 1994
##NAMES=HP
##CAS NAME=2-Acetyl-5-methylthiophene
##MOLFORM=C7H8OS
##CAS REGISTRY NO=13679-74-8
##MP= -300
##BP= -300
##MW= 140
##$RETENTION INDEX=1157
##$CONDENSED SPECTRUM=NO
##NPOINTS= 78
##XYDATA=(XY..XY) 1 
    12          1
    13          7
    14         37
    15        140
    16          3
    25          5
    26         28
    27         88
    28          2
    29         13
    32          8
    33          5
    34          3
    37         30
    38         53
    39         99
    40          8
    41         15
    42         50
    43        244
    44          2
    45        203
    46         10
    47         18
    49         16
    50         61
    51         75
    52          8
    53        359
    54         16
    55          3
    56          3
    57         53
    58         42
    59         49
    60          7
    61         23
    62         29
    63         32
    64          4
    65          7
    66          4
    67          6
    68          3
    69        123
    70         48
    71         43
    72          5
    73          4
    74          4
    75          1
    77         10
    78          5
    79          1
    81         13
    82         22
    83          3
    84          4
    85          3
    86          1
    91          1
    92          5
    93         19
    94          4
    95         29
    96          1
    97        166
    98         13
    99          7
   111         11
   125        999
   126         70
   127         44
   128          3
   140        367
   141         33
   142         17
   143          1