##TITLE=Library Entry 45536
##JCAMP-DX=Revision 4.10 
##DATA TYPE=MASS SPECTRUM
##SAMPLE DESCRIPTION=Japan AIST/NIMC Database- Spectrum MS-NW-1628
##NAMES=HP
##CAS NAME=Tris(1,3-dichloroisopropyl)phosphate
##MOLFORM=C9H15Cl6O4P
##CAS REGISTRY NO=13674-87-8
##MP= -300
##BP= -300
##MW= 428
##$RETENTION INDEX=2251
##$CONDENSED SPECTRUM=NO
##NPOINTS= 170
##XYDATA=(XY..XY) 1 
    14          2
    15         28
    18          1
    26          8
    27         75
    28         11
    29         25
    30          1
    31         38
    35          4
    36         32
    37          4
    38         12
    39        251
    40         31
    41        210
    42         16
    43         66
    44         14
    45          4
    47         21
    48          6
    49        283
    50         10
    51         88
    52          3
    53          3
    55          9
    56          4
    57        124
    58          5
    60          1
    61         19
    62         18
    63         13
    64          6
    65         16
    67          1
    69          4
    71          1
    72          1
    73         12
    74          9
    75        999
    76         58
    77        319
    78         22
    79         45
    80          3
    81         66
    82          5
    83         29
    85         15
    87          2
    89          4
    91         14
    92          4
    93         18
    94          1
    95          6
    97          3
    99        769
   100          2
   101          9
   103          1
   105          4
   107          5
   109         12
   110         28
   111        123
   112         21
   113         76
   114          5
   115         12
   117         41
   119         16
   121          7
   122          1
   123         19
   124          3
   125         11
   127          2
   129          8
   131          3
   135         13
   136          2
   137         57
   138          4
   139          5
   141          9
   142          1
   143          5
   149          2
   153          1
   155        200
   156          9
   157         65
   158          2
   159        104
   160          2
   161         33
   163          2
   171          4
   172          2
   173         47
   174          2
   175         17
   177          1
   185          2
   191        546
   192         19
   193        352
   194         12
   195         59
   196          2
   197          1
   199          1
   207          2
   209        369
   210         13
   211        245
   212          9
   213         40
   214          1
   233         12
   235          8
   237          2
   247          6
   249          4
   269         33
   270          2
   271         33
   272          1
   273         10
   275          1
   283          5
   285          4
   287          2
   301         64
   302          4
   303         80
   304          5
   305         35
   306          3
   307          9
   319        122
   320          8
   321        160
   322         11
   323         82
   324          6
   325         17
   326          1
   327          1
   357          2
   359          3
   361          1
   379         92
   380          8
   381        156
   382         13
   383        102
   384          9
   385         27
   386          3
   387          5
   393          4
   395          6
   397          4
   399          1