##TITLE=Library Entry 67832
##JCAMP-DX=Revision 4.10 
##DATA TYPE=MASS SPECTRUM
##SAMPLE DESCRIPTION=Chemical Concepts
##NAMES=HP
##CAS NAME=2-Butanone, 4-(5-methyl-2-furanyl)-
##MOLFORM=C9H12O2
##CAS REGISTRY NO=13679-56-6
##MP= -300
##BP= -300
##MW= 152
##$RETENTION INDEX=1160
##$CONDENSED SPECTRUM=NO
##NPOINTS= 56
##XYDATA=(XY..XY) 1 
    27        143
    28         31
    29         18
    31          3
    37          5
    39        121
    40         22
    41        104
    43        828
    44         15
    45          4
    50         39
    51         68
    52         41
    53         63
    54         10
    55         59
    56          1
    57          2
    58          2
    62          4
    63         10
    64          3
    65         52
    66         30
    67         76
    68          4
    69          3
    71          1
    77         30
    78          3
    79         49
    80          7
    81         77
    82         86
    83          4
    91         16
    92          2
    93          3
    94         19
    95        999
    96         61
    97          3
   105          1
   107         26
   108         25
   109        182
   110         20
   111          1
   119          1
   135          2
   137         25
   138          1
   151          2
   152        288
   153         25