##TITLE=Library Entry 53498
##JCAMP-DX=Revision 4.10 
##DATA TYPE=MASS SPECTRUM
##SAMPLE DESCRIPTION=Chemical Concepts
##NAMES=HP
##CAS NAME=Cyclopentanebutanoic acid, 2-oxo-, methyl ester
##MOLFORM=C10H16O3
##CAS REGISTRY NO=13672-62-3
##MP= -300
##BP= -300
##MW= 184
##$RETENTION INDEX=0
##$CONDENSED SPECTRUM=NO
##NPOINTS= 105
##XYDATA=(XY..XY) 1 
    26         35
    27        291
    28         72
    29        184
    30         13
    31         34
    37          9
    38         16
    39        348
    40         67
    41        637
    42        144
    43        294
    44         72
    45         51
    46         10
    47         15
    50         13
    51         37
    52         25
    53        146
    54        138
    55        569
    56         94
    57         67
    58         16
    59        229
    60         28
    61         10
    62          8
    63         12
    64          9
    65         46
    66         33
    67        199
    68        191
    69        179
    70         29
    71         44
    72         12
    73         26
    74        507
    75         37
    76          8
    77         40
    78         15
    79        117
    80         69
    81        149
    82        113
    83        287
    84        999
    85        110
    86         13
    87        111
    88         22
    89          5
    91         24
    92         27
    93         39
    94          9
    95         89
    96        162
    97        389
    98         71
    99         31
   100         34
   101         51
   102         18
   105         19
   106         24
   107        190
   108         34
   109         35
   110        111
   111        112
   112         53
   113         41
   114         10
   115          9
   122          6
   123         38
   124        256
   125         54
   126         13
   127         18
   128         29
   129          7
   134         38
   135         82
   136          9
   137         82
   138         10
   149         10
   150          6
   151         16
   152        434
   153        230
   154         27
   155          5
   156         59
   157          8
   184        267
   185         31
   186          4