##TITLE=Library Entry 68730
##JCAMP-DX=Revision 4.10 
##DATA TYPE=MASS SPECTRUM
##SAMPLE DESCRIPTION=Exported from NIST MS Search
##NAMES=HP
##CAS NAME=2-Furancarbothioic acid, S-methyl ester
##MOLFORM=C6H6O2S
##CAS REGISTRY NO=13679-61-3
##MP= -300
##BP= -300
##MW= 142
##$RETENTION INDEX=1182
##$CONDENSED SPECTRUM=NO
##NPOINTS= 16
##XYDATA=(XY..XY) 1 
    29          7
    37         15
    38         41
    39        159
    45         41
    47         22
    52          7
    53          7
    54          7
    67         33
    81          7
    95        999
    96         48
   142        262
   143         20
   144         13