##TITLE=Library Entry 109343
##JCAMP-DX=Revision 4.10 
##DATA TYPE=MASS SPECTRUM
##SAMPLE DESCRIPTION=NIST Mass Spectrometry Data Center, 1998.
##NAMES=HP
##CAS NAME=2-Propanol, 1-chloro-, phosphate (3:1)
##MOLFORM=C9H18Cl3O4P
##CAS REGISTRY NO=13674-84-5
##MP= -300
##BP= -300
##MW= 326
##$RETENTION INDEX=1816
##$CONDENSED SPECTRUM=NO
##NPOINTS= 141
##XYDATA=(XY..XY) 1 
    15          3
    26          4
    27         28
    29         16
    31          6
    35          1
    37          3
    38          8
    39        129
    40         28
    41        610
    42         69
    43         73
    44         11
    45        149
    46          3
    47         11
    48          2
    49         84
    50          3
    51         28
    52          1
    53          4
    54          1
    55          5
    56          1
    57         31
    58          7
    59         11
    60          1
    61          8
    62          2
    63          6
    64          1
    65         18
    66          1
    67          4
    69          1
    71          5
    73          2
    74          1
    75         25
    76         49
    77        186
    78         23
    79         72
    80          3
    81        128
    82          9
    83          4
    85          1
    87          1
    89          3
    91          5
    92          1
    93         11
    94          1
    95          3
    96          1
    97          1
    99        884
   100          2
   101          9
   103          8
   105          2
   107         18
   108          1
   109          1
   111          2
   113          1
   117        346
   119        114
   120          1
   121         35
   122          3
   123          9
   124          1
   125        999
   126         25
   127          9
   129          1
   135          1
   137         14
   138         23
   139        159
   140          5
   141          3
   143          2
   145          1
   149          1
   151          5
   155          1
   157        414
   158         15
   159        163
   160          4
   161         10
   165          4
   173         27
   175        252
   176          7
   177         74
   178          2
   179          1
   201        341
   202         19
   203        113
   204          5
   205          1
   214          3
   215         47
   216          4
   217         16
   218          1
   233         47
   234          3
   235         36
   236          2
   237          9
   249          3
   251         27
   252          2
   253         17
   254          1
   255          2
   277        302
   278         29
   279        195
   280         18
   281         33
   282          2
   291         37
   292          3
   293         24
   294          2
   295          3
   311          2
   313          2
   315          1
   327          1
   329          1