##TITLE=Library Entry 109503
##JCAMP-DX=Revision 4.10 
##DATA TYPE=MASS SPECTRUM
##SAMPLE DESCRIPTION=NIST Mass Spectrometry Data Center
##NAMES=HP
##CAS NAME=5-Methyl-2-thiophenecarboxaldehyde
##MOLFORM=C6H6OS
##CAS REGISTRY NO=13679-70-4
##MP= -300
##BP= -300
##MW= 126
##$RETENTION INDEX=1118
##$CONDENSED SPECTRUM=NO
##NPOINTS= 69
##XYDATA=(XY..XY) 1 
    12          4
    13          3
    14          6
    15         12
    16          1
    18          3
    24          3
    25         13
    26         42
    27        128
    29        182
    30          2
    32         24
    33          8
    34          3
    36         12
    37         77
    38        103
    39        178
    40          8
    41          4
    42          1
    45        301
    46         17
    47         29
    48         10
    49         38
    50         93
    51         90
    53        416
    54         20
    57         80
    58         81
    59         62
    60         16
    61         40
    62         41
    63         48
    64          7
    65         13
    66          2
    69        162
    70         51
    71         58
    72          9
    73          5
    74          4
    75          2
    77          2
    81         21
    82         29
    83          6
    84          2
    85          2
    91          1
    92          8
    93         29
    95         37
    97        386
    98         29
    99         19
   100          1
   109          1
   111          4
   125        999
   126        789
   127        101
   128         37
   129          2