##TITLE=Library Entry 82062
##JCAMP-DX=Revision 4.10 
##DATA TYPE=MASS SPECTRUM
##SAMPLE DESCRIPTION=G. Lange, Inst. Org. Chem., Univ. Wurzburg, Germany
##NAMES=HP
##CAS NAME=2-Bromo-1-(bromomethyl)-1-phenylethyl hydroperoxide
##MOLFORM=C9H10Br2O2
##CAS REGISTRY NO=136749-72-9
##MP= -300
##BP= -300
##MW= 308
##$RETENTION INDEX=0
##$CONDENSED SPECTRUM=NO
##NPOINTS= 101
##XYDATA=(XY..XY) 1 
    37          6
    38         20
    39        101
    40          9
    41         17
    42         15
    43         23
    44          9
    49         18
    50        102
    51        293
    52         43
    53          8
    55         10
    56          5
    57         39
    58         65
    61          5
    62         24
    63         62
    64         11
    65        100
    66         14
    71          4
    74         37
    75         38
    76         53
    77        520
    78         91
    79         18
    80         13
    81          6
    82         13
    84         11
    86          8
    87          6
    88          4
    89         42
    90         26
    91        447
    92         37
    93         51
    94         13
    95         50
    98          6
   101          6
   102         57
   103        441
   104         89
   105        999
   106         76
   107          5
   109          4
   115        205
   116        206
   117        258
   118         31
   119         27
   120         20
   121        172
   122          9
   123        166
   124          3
   127          5
   131          7
   132         14
   133         65
   134          6
   169         98
   170          9
   171         99
   172          8
   195         33
   196         20
   197         34
   198         51
   199        352
   200         61
   201        343
   202         29
   212         18
   213          5
   214         19
   215        192
   216         17
   217        185
   218         17
   231         10
   233         15
   275        352
   276         36
   277        697
   278         70
   279        349
   280         35
   308          9
   309          0
   310         19
   311          2
   312          9
   313          0