##TITLE=Library Entry 43511
##JCAMP-DX=Revision 4.10 
##DATA TYPE=MASS SPECTRUM
##SAMPLE DESCRIPTION=O A MAMER, MCGILL UNIVERSITY, MONTRE
##NAMES=HP
##CAS NAME=3-Hydroxymyristic acid, 2TMS derivative
##MOLFORM=C20H44O3Si2
##CAS REGISTRY NO=136788-85-7
##MP= -300
##BP= -300
##MW= 388
##$RETENTION INDEX=0
##$CONDENSED SPECTRUM=NO
##NPOINTS= 92
##XYDATA=(XY..XY) 1 
    27         17
    28        120
    29         45
    32         25
    39         11
    41         82
    42         17
    43        118
    44         17
    45         44
    47         11
    54          7
    55         73
    56         13
    57         49
    58          6
    59         34
    61         13
    67         24
    68          7
    69         62
    70          8
    71         16
    72         27
    73        999
    74         87
    75        170
    76         11
    77          7
    81         28
    82          6
    83         61
    84          6
    85         14
    91          8
    95         24
    96          7
    97         52
    98          5
    99          7
   101         59
   102          5
   103         41
   109         12
   111         24
   115         13
   116         14
   117         61
   118          6
   119          6
   129         50
   130         63
   131         30
   132         10
   133         62
   134          8
   135          8
   143         52
   144          6
   145          8
   147        537
   148         84
   149         68
   150          7
   157          6
   175          7
   177          9
   189        106
   190         21
   191         48
   192          6
   204         52
   205         10
   207          0
   217         77
   218         14
   219          6
   233        561
   234        113
   235         51
   236          5
   257        268
   258         57
   259         15
   270         29
   271          6
   283         29
   298         15
   357         20
   373        263
   374         83
   375         30