##TITLE=Library Entry 68083
##JCAMP-DX=Revision 4.10 
##DATA TYPE=MASS SPECTRUM
##SAMPLE DESCRIPTION=Exported from NIST MS Search
##NAMES=HP
##CAS NAME=Cyclohexanemethanol, 4-(1-methylethyl)-, trans-
##MOLFORM=C10H20O
##CAS REGISTRY NO=13674-19-6
##MP= -300
##BP= -300
##MW= 156
##$RETENTION INDEX=1810
##$CONDENSED SPECTRUM=NO
##NPOINTS= 56
##XYDATA=(XY..XY) 1 
    26          5
    27         83
    28         24
    29         87
    30          5
    31         63
    39         75
    40         12
    41        275
    42         23
    43        131
    44          7
    45         20
    51          8
    53         51
    54         50
    55        236
    56         25
    57        112
    58          5
    59          8
    65         12
    66         14
    67        198
    68         37
    69        356
    70         37
    71          9
    74          5
    77         26
    79         74
    80         27
    81        157
    82         83
    83        125
    84         13
    91         16
    93         57
    94         84
    95        999
    96        112
    97         16
   108          6
   109         97
   110         60
   111         16
   112          6
   113         44
   121          9
   123         56
   124         10
   125         25
   136          8
   138         75
   139          9
   154          5