##TITLE=Library Entry 109758
##JCAMP-DX=Revision 4.10 
##DATA TYPE=MASS SPECTRUM
##SAMPLE DESCRIPTION=NIST Mass Spectrometry Data Center, 1994
##NAMES=HP
##CAS NAME=2-Acetyl-3-methylthiophene
##MOLFORM=C7H8OS
##CAS REGISTRY NO=13679-72-6
##MP= -300
##BP= -300
##MW= 140
##$RETENTION INDEX=1178
##$CONDENSED SPECTRUM=NO
##NPOINTS= 84
##XYDATA=(XY..XY) 1 
    12          2
    13          4
    14         22
    15        115
    16          0
    17          2
    18          3
    19          2
    25          2
    26         26
    27         83
    28          0
    29          2
    32          3
    33          1
    34          1
    36          2
    37         23
    38         36
    39         86
    40          7
    41          8
    42         25
    43        210
    44         14
    45        259
    46          9
    47         19
    49         14
    50         55
    51         69
    52         20
    53        260
    54         11
    55          5
    56          3
    57         25
    58         30
    59          4
    60          7
    61         13
    62         21
    63         25
    64          4
    65         11
    66          6
    67          9
    68          8
    69        125
    70         59
    71         37
    72          6
    73          3
    75          1
    77         13
    78          4
    79          2
    80          2
    81         14
    82         18
    83          6
    84          4
    85          4
    92          3
    93         11
    95         17
    96         21
    97        245
    98         17
    99         11
   108          1
   109          4
   110          1
   111          7
   121          4
   122          1
   125        999
   126         74
   127         48
   128          3
   140        430
   141         35
   142         20
   143          2