##TITLE=Library Entry 109767
##JCAMP-DX=Revision 4.10 
##DATA TYPE=MASS SPECTRUM
##SAMPLE DESCRIPTION=Japan AIST/NIMC Database- Spectrum MS-NW-7536
##NAMES=HP
##CAS NAME=Ethanone, 1-(4-methyl-2-thienyl)-
##MOLFORM=C7H8OS
##CAS REGISTRY NO=13679-73-7
##MP= -300
##BP= -300
##MW= 140
##$RETENTION INDEX=1240
##$CONDENSED SPECTRUM=NO
##NPOINTS= 82
##XYDATA=(XY..XY) 1 
    14          5
    15         38
    26          6
    27         42
    28          8
    29          3
    32          2
    33          1
    34          1
    37         11
    38         20
    39         65
    40          5
    41          7
    42          9
    43        135
    44          7
    45        161
    46          7
    47         13
    48          7
    49          7
    50         22
    51         34
    52         12
    53        178
    54          8
    55          3
    56          2
    57         28
    58         14
    59          7
    60          3
    61          7
    62         16
    63         15
    64          2
    65          8
    66          2
    67          3
    68          3
    69         59
    70         20
    71         27
    72          4
    73          3
    74          3
    75          1
    76          1
    77          6
    78          3
    79          1
    80          1
    81          9
    82         15
    83          3
    84          3
    85          2
    92          2
    93          8
    94          2
    95         16
    96         11
    97        181
    98         13
    99          9
   109          1
   110          1
   111          8
   112          1
   121          1
   123          1
   124          2
   125        999
   126         76
   127         49
   128          3
   139          5
   140        405
   141         38
   142         22
   143          2