##TITLE=Library Entry 42600
##JCAMP-DX=Revision 4.10 
##DATA TYPE=MASS SPECTRUM
##SAMPLE DESCRIPTION=O A MAMER, MCGILL UNIVERSITY, MONTRE
##NAMES=HP
##CAS NAME=Hexanoic acid, 3-trimethylsilyloxy, trimethylsilyl ester
##MOLFORM=C12H28O3Si2
##CAS REGISTRY NO=136788-82-4
##MP= -300
##BP= -300
##MW= 276
##$RETENTION INDEX=1317
##$CONDENSED SPECTRUM=NO
##NPOINTS= 101
##XYDATA=(XY..XY) 1 
    43         25
    44         13
    45        101
    48          2
    49          1
    55         27
    56          0
    58         12
    60          7
    61         27
    62          1
    67          4
    68          4
    69         27
    70          4
    71          9
    72         34
    73        999
    74         91
    75        178
    77          6
    81         30
    82          7
    85          5
    87         19
    88          9
    89          2
    91          2
    94          2
    96          0
    97         15
    98          1
    99          7
   100          1
   101         59
   102         20
   103         41
   104          3
   105          3
   113          3
   115         10
   116          3
   117         33
   118          4
   119          5
   123          6
   127          1
   129         13
   130         49
   131         26
   132          5
   133         54
   134          8
   135          5
   142          1
   143         17
   144          6
   145        413
   146         55
   147        510
   148         79
   149         55
   150          6
   151          2
   157          4
   158         24
   159          3
   161          1
   163          2
   171         15
   172          2
   175          5
   177          2
   184          1
   185          1
   186          4
   187          1
   189         62
   190         12
   191         28
   192          4
   200          1
   203          1
   204         23
   205          4
   206          2
   217          8
   218          2
   219        113
   220         22
   221         10
   233        138
   234         27
   235         12
   236          1
   245          4
   247          5
   261         89
   262         20
   263          8
   275          1