##TITLE=Library Entry 88630
##JCAMP-DX=Revision 4.10 
##DATA TYPE=MASS SPECTRUM
##SAMPLE DESCRIPTION=NIST Mass Spectrometry Data Center
##NAMES=HP
##CAS NAME=1-(2-Thienyl)-1-propanone
##MOLFORM=C7H8OS
##CAS REGISTRY NO=13679-75-9
##MP= -300
##BP= -300
##MW= 140
##$RETENTION INDEX=1185
##$CONDENSED SPECTRUM=NO
##NPOINTS= 61
##XYDATA=(XY..XY) 1 
    13          2
    14          1
    15          4
    25          3
    26         18
    27         68
    28         14
    29         40
    30          1
    32          3
    36          1
    37         15
    38         32
    39        208
    40          9
    42          2
    44          3
    45         44
    46          2
    47          3
    48          1
    49          7
    50         17
    51         10
    52          2
    53         18
    55         11
    57         62
    58         18
    60          2
    61          3
    62          3
    63          3
    65          2
    66          1
    67          1
    68          1
    69         13
    70          3
    71          2
    77          6
    78          1
    81         17
    82         25
    83         92
    84         13
    85          9
    86          1
    93          2
    95          2
    97          6
   108          1
   109          4
   111        999
   112         64
   113         45
   114          2
   138          1
   140        260
   141         22
   142         12