##TITLE=Library Entry 96524
##JCAMP-DX=Revision 4.10 
##DATA TYPE=MASS SPECTRUM
##SAMPLE DESCRIPTION=Japan AIST/NIMC Database- Spectrum MS-NW-9172
##NAMES=HP
##CAS NAME=Bis(diethyldithiocarbamato)copper
##MOLFORM=C10H20CuN2S4
##CAS REGISTRY NO=13681-87-3
##MP= -300
##BP= -300
##MW= 359
##$RETENTION INDEX=0
##$CONDENSED SPECTRUM=NO
##NPOINTS= 198
##XYDATA=(XY..XY) 1 
    15          2
    26          4
    27          2
    28          2
    29          5
    32          5
    33          1
    34          2
    35          1
    38          3
    39          1
    40          2
    41          5
    42         22
    43          3
    44         75
    45          7
    46          1
    47          1
    48          1
    52          1
    54          5
    55          3
    56         44
    57          4
    58         33
    59         27
    60        173
    61         11
    62          9
    63          9
    64         17
    65          5
    66          1
    67          1
    68          2
    69          1
    70         15
    71          8
    72        107
    73         14
    74          1
    76         74
    77         13
    78          7
    79          1
    80          2
    81          1
    82          3
    83          1
    84          3
    85          1
    86         40
    87         31
    88        445
    89         21
    90         22
    91          4
    92          4
    93          2
    95          2
    96          3
    97          2
    98          4
    99          1
   100          6
   101          2
   104          1
   105          1
   106          1
   107          6
   108          1
   109          3
   110          1
   111          3
   112          1
   113          3
   114         10
   115          2
   116        999
   117         81
   118         51
   119          5
   120          7
   121          1
   122         23
   123          9
   124         11
   125          5
   126          1
   127          4
   128          2
   129          2
   130          1
   132          1
   133          1
   134         22
   135          1
   136          9
   137          1
   139          9
   140          4
   141          6
   142          2
   143          1
   144          1
   145          1
   146          3
   147          8
   148         31
   149         33
   150         40
   151          6
   152         17
   153          1
   154          1
   155          1
   156          1
   160          1
   162          1
   163          1
   166          1
   167          1
   168          8
   169          1
   171          1
   173          1
   174          2
   175          1
   176          1
   177          6
   178         19
   179          3
   180         10
   181          1
   182          3
   183          1
   184          1
   185          1
   194          1
   196          1
   200          1
   203          3
   204          2
   205          6
   206          1
   207          5
   208          5
   209          2
   210         14
   211         48
   212        105
   213         32
   214         53
   215          6
   216          5
   217          1
   232          2
   237          3
   239          2
   243          7
   244          2
   245          5
   246          1
   254          2
   256          1
   264         15
   265          3
   266          4
   267          1
   268          1
   272          1
   281          1
   282          2
   283          5
   284          1
   285          2
   287          1
   288          2
   290          1
   291          5
   292          1
   323          1
   351          1
   352          9
   353          2
   354          9
   355         42
   356         17
   357          9
   358          4
   359        370
   360         60
   361        233
   362         37
   363         36
   364          6
   365          3