##TITLE=Library Entry 11978
##JCAMP-DX=Revision 4.10 
##DATA TYPE=MASS SPECTRUM
##SAMPLE DESCRIPTION=Div. of Experiment Therapeutics WRAIR, WRAMC, Wash. DC
 20307
##NAMES=HP
##CAS NAME=4,5-Dithiooctanoic acid, 2-acetamino-
##MOLFORM=C8H15NO3S2
##CAS REGISTRY NO=136865-95-7
##MP= -300
##BP= -300
##MW= 237
##$RETENTION INDEX=0
##$CONDENSED SPECTRUM=NO
##NPOINTS= 109
##XYDATA=(XY..XY) 1 
    41         29
    42        278
    43        999
    44        171
    45         73
    46         48
    47         62
    48          9
    49         37
    50          1
    51         12
    53          2
    54          2
    55         18
    56         32
    57         13
    58         18
    59         24
    60         87
    61          5
    62          0
    64         15
    65          3
    66          5
    67          1
    68          5
    69          4
    70         31
    71          9
    73        134
    74        189
    75         50
    76         25
    77          5
    78          1
    79         73
    80          2
    81         10
    82          2
    84         27
    85          0
    86         60
    88        123
    89          9
    90          2
    91          5
    92          4
    93          1
    95          0
    96          0
    97          0
    99          8
   100          1
   101          2
   102         40
   103         79
   104          3
   105         13
   106          4
   107         20
   108          8
   109          2
   110          2
   111          0
   112          6
   113          0
   114          0
   116         12
   118         61
   119         14
   120         53
   121         10
   122          5
   123          0
   124          0
   126          0
   128         17
   130        639
   131         31
   132          4
   134          3
   136         29
   138          4
   140          0
   144         14
   145          0
   146          0
   148          0
   149          2
   150          8
   152          4
   153         11
   155          2
   161          3
   162         22
   163         14
   164          4
   165          0
   167          2
   178         34
   179          0
   180          5
   192          2
   194          1
   196          0
   237         22
   238          6
   239          2
   240          0