##TITLE=Library Entry 324
##JCAMP-DX=Revision 4.10 
##DATA TYPE=MASS SPECTRUM
##SAMPLE DESCRIPTION=Humboldt-Universitat zu Berlin, Department of Chemistry
, Analytical Group
##NAMES=HP
##CAS NAME=.mu.<3>-Phenylmethylidyne-tricobalt nonacarbonyl
##MOLFORM=C16H5Co3O9
##CAS REGISTRY NO=13682-03-6
##MP= -300
##BP= -300
##MW= 518
##$RETENTION INDEX=0
##$CONDENSED SPECTRUM=NO
##NPOINTS= 212
##XYDATA=(XY..XY) 1 
    12         43
    14          4
    15          2
    16         22
    17         31
    18        118
    26          4
    28        999
    29         21
    30          8
    31          1
    32          2
    36          2
    37          3
    38          5
    39         19
    40          2
    41         10
    42          3
    43          9
    44          9
    45          3
    49          2
    50         14
    51         20
    52          9
    53          1
    55          8
    56          3
    57          9
    59         74
    60          2
    61          2
    62          5
    63         14
    64          2
    65          5
    67          2
    68          1
    69          4
    70          2
    71          4
    72          2
    73          4
    74          8
    75         13
    76         16
    77         16
    78         31
    79          3
    81          2
    82          2
    83          4
    84          5
    85          4
    86          4
    87         44
    88         12
    89         41
    90          4
    91         24
    92         10
    93          6
    94          2
    95          2
    96         17
    97         13
    98          6
    99          4
   100          3
   101          2
   102          4
   103          6
   104          2
   105          6
   106          6
   107          2
   108          5
   109          3
   110          2
   111          3
   112          2
   113          2
   115         20
   116          1
   118         38
   119          3
   120         14
   121         19
   122          6
   123          2
   124          1
   125          3
   126          5
   127          2
   128          2
   130          5
   131          3
   133         33
   136          1
   137          2
   138          1
   139          3
   142         17
   143         27
   144          3
   145          3
   147         32
   148         85
   149         10
   150          5
   151          9
   152         11
   154         14
   155         43
   156          4
   157          1
   159         13
   160          6
   161         26
   163          3
   164          1
   165         13
   166          8
   167         17
   168          5
   171          1
   173          1
   175         15
   176         17
   177         16
   178         76
   179         37
   180         25
   181         24
   182          3
   189         12
   190          3
   191          2
   192          2
   193          1
   201         24
   202          2
   203          4
   204          1
   205          4
   207        113
   208          9
   212          9
   213         19
   214         45
   215          6
   216          1
   217          2
   219          3
   225          1
   226          6
   231          1
   233          1
   235          5
   236          1
   238         13
   239          8
   240         45
   241          3
   247          1
   248         15
   249          3
   250         10
   251          2
   252          3
   253          1
   254          1
   263          4
   264         12
   266        269
   267         22
   268          2
   270          1
   278          1
   291          2
   294        147
   295         12
   296          1
   300          0
   319          2
   322        124
   323         13
   324          1
   347          1
   350        184
   351         20
   352          2
   356          0
   378        256
   379         31
   380          4
   406        108
   407         14
   408          2
   434         48
   435          6
   436          1
   462         87
   463         14
   464          2
   490        150
   491         25
   492          4
   493          0
   518          5
   519          1