##TITLE=Library Entry 90330
##JCAMP-DX=Revision 4.10 
##DATA TYPE=MASS SPECTRUM
##SAMPLE DESCRIPTION=RADIAN CORP
##NAMES=HP
##CAS NAME=Silane, dichloromethylpentyl-
##MOLFORM=C6H14Cl2Si
##CAS REGISTRY NO=13682-99-0
##MP= -300
##BP= -300
##MW= 184
##$RETENTION INDEX=0
##$CONDENSED SPECTRUM=NO
##NPOINTS= 70
##XYDATA=(XY..XY) 1 
    15         11
    26          9
    27        105
    28         11
    29         47
    39          9
    41         24
    42         11
    43         38
    45          1
    55         21
    57          3
    59          6
    66          1
    69          9
    70         68
    71          6
    75          2
    79         23
    81         13
    92          8
    93         29
    94          9
    95         32
    97          6
    99          7
   100          3
   101         22
   103         22
   105         18
   106         15
   107         25
   108          7
   109        225
   110         14
   111        108
   112         37
   113        999
   114        109
   115        778
   116         39
   117        125
   118         22
   119          9
   120         66
   121          7
   122         24
   123          3
   125          9
   127         20
   129         19
   133         20
   137          4
   139          2
   141        311
   142         45
   143        197
   144         18
   145         40
   148         24
   149         18
   150         12
   151          5
   155         15
   157          8
   165         14
   167          4
   169         21
   171         11
   173          1