##TITLE=Library Entry 99338
##JCAMP-DX=Revision 4.10 
##DATA TYPE=MASS SPECTRUM
##SAMPLE DESCRIPTION=J. SHAW, BORRISTON RESEARCH, ROCKVILLE, MD, USA
##NAMES=HP
##CAS NAME=Desmedipham
##MOLFORM=C16H16N2O4
##CAS REGISTRY NO=13684-56-5
##MP= -300
##BP= -300
##MW= 300
##$RETENTION INDEX=0
##$CONDENSED SPECTRUM=NO
##NPOINTS= 115
##XYDATA=(XY..XY) 1 
    12          2
    13          2
    14          8
    15         27
    16         11
    17         78
    18        281
    19          4
    25          4
    26         41
    27        170
    28         75
    29        354
    30         17
    31         17
    32          5
    36          4
    37         67
    38        122
    39        161
    40         40
    41         72
    42         20
    43         43
    44         21
    45         49
    48          1
    49         13
    50         73
    51        109
    52        109
    53         97
    54         18
    55         17
    56          4
    57         11
    58         10
    60         38
    61         26
    62         46
    63        169
    64        375
    65        133
    66         19
    67         18
    68         46
    69         13
    70          4
    71          4
    72          1
    73          7
    74         18
    75         15
    76         15
    77         40
    78         17
    79         35
    80        151
    81        184
    82         61
    83          6
    84          1
    85          2
    86          2
    87          6
    88          7
    89          5
    91        655
    92         54
    93         53
    94         48
    95         27
    96          5
    97          3
    98          1
    99          1
   103          1
   104          5
   105         13
   106         12
   107         16
   108         76
   109        602
   110         44
   111          4
   112          1
   119        999
   120         76
   122        383
   123         29
   124         18
   125          2
   128          1
   133          1
   135         93
   136         61
   137         10
   138          1
   145          1
   148          1
   149          6
   152         19
   153         52
   154          4
   161          1
   162          1
   163          1
   166          5
   175          2
   177          1
   181        465
   182         43
   183          4
   185          1
   300          2