##TITLE=Library Entry 97947
##JCAMP-DX=Revision 4.10 
##DATA TYPE=MASS SPECTRUM
##SAMPLE DESCRIPTION=A.A.Kutin, Moscow, Russia
##NAMES=HP
##CAS NAME=Naphthalene-2-carbonitrile, 1,2,3,4-tetrahydro-2-bromo-1-oxo-3-sp
iro-cyclopentane-
##MOLFORM=C15H14BrNO
##CAS REGISTRY NO=136819-65-3
##MP= -300
##BP= -300
##MW= 303
##$RETENTION INDEX=0
##$CONDENSED SPECTRUM=NO
##NPOINTS= 229
##XYDATA=(XY..XY) 1 
    33         41
    34         20
    35          4
    36         20
    37          7
    38         24
    39        108
    40        102
    41         87
    42         41
    43         48
    44         64
    45         15
    46          2
    47          0
    48          2
    49          2
    50         29
    51         54
    52         21
    53         19
    54          8
    55         33
    56          9
    57         12
    58          7
    59          3
    60          5
    61          5
    62         18
    63         63
    64         33
    65         32
    66         10
    67         17
    68          5
    69          8
    70         10
    71         13
    72          4
    73          5
    74         12
    75         19
    76         24
    77         46
    78         17
    79         30
    80         37
    81         21
    82         35
    83          7
    84         11
    85          6
    86          6
    87         11
    88         15
    89        107
    90        236
    91         55
    92          9
    93         12
    94          3
    95          4
    96          5
    97          5
    98          6
    99          7
   100          5
   101         11
   102         15
   103         10
   104          8
   105          8
   106          5
   107          5
   108          4
   109          2
   110          3
   111          3
   112          5
   113         14
   114         20
   115         49
   116         32
   117        130
   118        999
   119        100
   120         10
   121          2
   122          2
   123          4
   124          1
   125          4
   126         17
   127         41
   128         31
   129         13
   130          7
   131          6
   132          3
   133          1
   134          1
   135          6
   136          2
   137          3
   138          5
   139         16
   140         33
   141         22
   142          6
   143          7
   144          4
   145          5
   146          2
   147          1
   148          1
   149          2
   150          2
   151          7
   152         14
   153         25
   154         20
   155          9
   156          7
   157          6
   158          3
   159          2
   160          0
   161          0
   162          1
   163          1
   164          4
   165          8
   166         13
   167         12
   168         10
   169         11
   170          5
   171          2
   172          0
   173          0
   174          0
   175          1
   176          2
   177          4
   178          7
   179         11
   180          8
   181         29
   182         75
   183         35
   184          5
   185          3
   186         14
   187          4
   188         12
   189          2
   190          1
   191          1
   192          2
   193          2
   194          4
   195         12
   196          8
   197          3
   198          1
   199          0
   200          0
   201          0
   203          0
   204          1
   205          0
   206          2
   207          1
   208          1
   209          1
   210          0
   212          0
   214          0
   215          0
   216          0
   217          0
   218          0
   220          1
   221          2
   222          2
   223          6
   224         22
   225         63
   226          9
   227          1
   229          0
   230          0
   232          0
   233          0
   234          0
   235          0
   236          0
   237          0
   239          0
   240          0
   243          0
   247          0
   250          0
   253          0
   255          0
   256          0
   260          0
   262          0
   270          0
   271          0
   274          0
   275          0
   276          0
   282          0
   283          0
   285          0
   286          0
   288          0
   289          0
   299          0
   300          0
   301          1
   302          3
   303          9
   304          4
   305          9
   306          1
   307          0