##TITLE=Library Entry 336
##JCAMP-DX=Revision 4.10 
##DATA TYPE=MASS SPECTRUM
##SAMPLE DESCRIPTION=Chemical Concepts
##NAMES=HP
##CAS NAME=Cobalt, nonacarbonyl-.mu.3-ethylidynetri-, triangulo
##MOLFORM=C11H3Co3O9
##CAS REGISTRY NO=13682-04-7
##MP= -300
##BP= -300
##MW= 456
##$RETENTION INDEX=0
##$CONDENSED SPECTRUM=NO
##NPOINTS= 170
##XYDATA=(XY..XY) 1 
    24          1
    25          2
    26          6
    27          7
    28        999
    29         10
    30          1
    31          0
    36          0
    37          0
    38          0
    39          1
    41          0
    43          0
    45          0
    49          0
    50          0
    51          0
    52          0
    53          0
    54          1
    55          0
    56          1
    59        164
    60         11
    66          0
    68          0
    71          9
    72          1
    73          0
    74          0
    75          0
    76          0
    79          0
    80          0
    83          2
    84         12
    85          7
    86          3
    87        175
    88          5
    89          0
    91          0
    92          0
    95          1
    96          5
    97          4
    98          0
    99          0
   102          0
   107          0
   110          0
   112          0
   113          0
   114          0
   115         67
   116          3
   117          0
   118        109
   119         64
   123          0
   127          0
   130         24
   131          3
   134          1
   135          0
   142         47
   143        171
   144         18
   145         46
   146          3
   147          4
   154          4
   155          3
   156          1
   157          3
   158          2
   159          0
   170          0
   171          5
   172          3
   173         24
   174          1
   175          0
   177         57
   178         48
   189         27
   190          1
   193          0
   199          1
   200          2
   201         33
   202        173
   203         18
   204        179
   205          6
   206          1
   213          0
   214          2
   215          0
   216          1
   217          3
   218          0
   227          0
   228          0
   229         18
   230         11
   231          7
   232        114
   233          5
   234          0
   244          0
   245          1
   246          0
   250          0
   256          0
   257         11
   258         13
   259          4
   260        168
   261         10
   262          1
   272          0
   273          0
   274          0
   276          0
   285          5
   286          3
   287          2
   288        175
   289         12
   290          1
   300          0
   301          0
   302          0
   304          0
   306          0
   313          0
   314         11
   315          1
   316        434
   317         30
   318          4
   319          0
   330          0
   332          0
   334          0
   342          1
   344        175
   345         18
   346          3
   360          0
   372         46
   373          4
   374          1
   375          0
   388          0
   389          0
   400         56
   401          6
   402          1
   414          0
   416          0
   428        165
   429         16
   430          4
   431          0
   456         65
   457          8
   458          1