##TITLE=Library Entry 51951
##JCAMP-DX=Revision 4.10 
##DATA TYPE=MASS SPECTRUM
##SAMPLE DESCRIPTION=Chemical Concepts
##NAMES=HP
##CAS NAME=(3-Oxo-2-pent-2-enylcyclopentyl)acetic acid
##MOLFORM=C12H18O3
##CAS REGISTRY NO=136845-15-3
##MP= -300
##BP= -300
##MW= 210
##$RETENTION INDEX=0
##$CONDENSED SPECTRUM=NO
##NPOINTS= 152
##XYDATA=(XY..XY) 1 
    33          0
    35         32
    36        107
    37         12
    38         34
    39        221
    40         46
    41        594
    42         70
    43        144
    44         10
    45         55
    46          2
    47          4
    49          2
    50          6
    51         32
    52         25
    53        181
    54         80
    55        318
    56         37
    57         72
    58         12
    59         10
    60         33
    61         13
    62          1
    63         11
    64          4
    65         71
    66         47
    67        288
    68        108
    69        141
    70         46
    71         52
    72          6
    73         14
    74          2
    75          4
    76          3
    77        138
    78         36
    79        258
    80         58
    81        187
    82        203
    83        999
    84         77
    85         23
    86          3
    87          2
    89          5
    90          2
    91        141
    92         26
    93        186
    94         72
    95        295
    96         56
    97         37
    98          9
    99         13
   100          4
   101          2
   102          2
   103          9
   104          8
   105         50
   106         19
   107         89
   108         50
   109        224
   110         24
   111         16
   112         23
   113         12
   114          2
   115          7
   116          3
   117         48
   118          7
   119         14
   120          6
   121         79
   122         22
   123         32
   124         54
   125         15
   126          8
   127          4
   128          2
   129          5
   130          2
   131         15
   132         31
   133         97
   134         13
   135         68
   136         15
   137         16
   138          7
   139          7
   140         11
   141         55
   142        259
   143         21
   144          3
   145          4
   146          4
   147         16
   148          4
   149         21
   150         51
   151        428
   152         48
   153         31
   154         18
   155         19
   156          3
   157          1
   159          1
   161          1
   163         39
   164          9
   165          6
   166          1
   167          9
   168          5
   171          1
   173          0
   174          1
   176          1
   177          7
   178          2
   179          2
   181         44
   182          5
   188          1
   191          1
   192         33
   193          9
   194          1
   195          2
   196          1
   208          2
   209          2
   210        281
   211         36
   212          4
   213          1