##TITLE=Library Entry 2774
##JCAMP-DX=Revision 4.10 
##DATA TYPE=MASS SPECTRUM
##SAMPLE DESCRIPTION=NIST Mass Spectrometry Data Center, 1990.
##NAMES=HP
##CAS NAME=1,10-Undecadiene
##MOLFORM=C11H20
##CAS REGISTRY NO=13688-67-0
##MP= -300
##BP= -300
##MW= 152
##$RETENTION INDEX=1081
##$CONDENSED SPECTRUM=NO
##NPOINTS= 34
##XYDATA=(XY..XY) 1 
    27        209
    28        111
    29        237
    39        458
    40         81
    41        999
    42        108
    43         99
    51         33
    52         20
    53        157
    54        531
    55        779
    56         86
    57         45
    65         36
    66         71
    67        744
    68        357
    69        452
    70         40
    77         22
    79         48
    81        505
    82        442
    83         82
    93         10
    95        242
    96        186
    97         32
   109         83
   110         54
   123         25
   124         40