##TITLE=Library Entry 34586
##JCAMP-DX=Revision 4.10 
##DATA TYPE=MASS SPECTRUM
##SAMPLE DESCRIPTION=NIST Mass Spectrometry Data Center, 1994
##NAMES=HP
##CAS NAME=3'-Trifluoromethylcyclopentanecarboxanilide
##MOLFORM=C13H14F3NO
##CAS REGISTRY NO=13691-84-4
##MP= -300
##BP= -300
##MW= 257
##$RETENTION INDEX=0
##$CONDENSED SPECTRUM=NO
##NPOINTS= 141
##XYDATA=(XY..XY) 1 
    12          0
    14          1
    15         12
    16          1
    17          2
    18          3
    19          0
    20          3
    26         11
    27        126
    28         39
    29         20
    30          1
    33          1
    37          4
    38         20
    39        198
    40         53
    41        591
    42         46
    43          8
    44          3
    46          1
    50         13
    51         15
    52         10
    53         28
    54          1
    55        121
    56          6
    57         11
    61          1
    62          8
    63         36
    64         18
    65         32
    66         12
    67         73
    68          1
    69        999
    70         53
    71          1
    72          1
    74          1
    75         21
    76          6
    77          3
    78          1
    79          0
    80          0
    81          5
    82          2
    83         19
    84          3
    87          2
    88         10
    89          3
    90          7
    91         13
    92          3
    93          5
    94          3
    95         29
    96        194
    97        172
    98         11
    99          3
   100          3
   101          1
   102          1
   103          0
   104          0
   105          0
   106          1
   107          2
   108          1
   109          4
   110          1
   111         14
   112          0
   113         30
   114         39
   115          5
   116          0
   117          1
   118          1
   119          3
   120         10
   121          1
   122          1
   125         12
   126          3
   127          3
   130          2
   131          2
   132          6
   133         15
   134          4
   137          1
   138          1
   139          5
   140         25
   141          8
   142         22
   143          3
   144          1
   145         48
   146          5
   151          1
   152          1
   158          1
   160         48
   161        335
   162         34
   163          1
   166          1
   168          3
   170          0
   171          0
   172          3
   174          3
   180          1
   185          0
   186          2
   187          6
   188         11
   189          1
   196          1
   198          2
   199          0
   200          2
   201          0
   214          1
   216         16
   217          1
   228          0
   229          1
   238         36
   239          5
   257         46
   258          8