##TITLE=Library Entry 44627
##JCAMP-DX=Revision 4.10 
##DATA TYPE=MASS SPECTRUM
##SAMPLE DESCRIPTION=Chemical Concepts
##NAMES=HP
##CAS NAME=1,2,3,4-Pentadecanetetrol, [2R-(2R*,3S*,4S*)]-
##MOLFORM=C15H32O4
##CAS REGISTRY NO=136953-05-4
##MP= -300
##BP= -300
##MW= 276
##$RETENTION INDEX=0
##$CONDENSED SPECTRUM=NO
##NPOINTS= 164
##XYDATA=(XY..XY) 1 
    25          0
    26          1
    27         42
    28         42
    29         97
    30          3
    31         31
    33          0
    38          0
    39         18
    40         13
    41        175
    42         25
    43        177
    44         61
    45         35
    46          8
    47          4
    49          0
    50          0
    51          1
    52          0
    53         10
    54         14
    55        200
    56        297
    57        119
    58         12
    59          3
    60         37
    61         73
    62          6
    63          0
    65          2
    66          6
    67         56
    68         27
    69        142
    70         18
    71         33
    72          4
    73        125
    74        999
    75         77
    76          7
    77          3
    78          0
    79         10
    80          3
    81         51
    82         40
    83         96
    84         10
    85         21
    86          2
    87          4
    88          4
    89          2
    90          1
    91          8
    92          7
    93          5
    94          2
    95         54
    96         27
    97         86
    98         10
    99          4
   100          1
   101          2
   102          0
   103         20
   104          1
   105          1
   106          0
   107          2
   108          1
   109         32
   110         11
   111         35
   112          5
   113          2
   114          0
   115          1
   116          8
   117          1
   118          0
   119          1
   120          0
   121          3
   122          1
   123         17
   124          9
   125          8
   126          1
   127          1
   128          0
   129          0
   130          0
   131          0
   133          0
   135          2
   136          1
   137          5
   138          5
   139          1
   140          1
   141          1
   143          0
   144          0
   147          0
   149          1
   151          1
   152          2
   153          0
   154          0
   155          0
   157          0
   165          1
   166          5
   167          2
   168          0
   169          0
   177          0
   178          0
   179          3
   180          6
   181          1
   182          0
   183         17
   184          5
   185         21
   186          2
   187          0
   191          1
   192          0
   194          0
   195          0
   196          0
   197          4
   198          3
   199          1
   201          0
   209          1
   210          0
   212          0
   213          1
   214          6
   215         29
   216          4
   217          0
   222          0
   223          0
   227          6
   228          3
   229          0
   240          0
   241          0
   245          0
   246          0
   257          0
   258          0
   259          0
   277          0