##TITLE=Library Entry 40833
##JCAMP-DX=Revision 4.10 
##DATA TYPE=MASS SPECTRUM
##SAMPLE DESCRIPTION=V.G.Zaikin, TIPS, Russian Acad. Sci.
##NAMES=HP
##CAS NAME=1,3-Bis(trimethylsilyl)pent-1-ene
##MOLFORM=C11H26Si2
##CAS REGISTRY NO=136935-43-8
##MP= -300
##BP= -300
##MW= 214
##$RETENTION INDEX=0
##$CONDENSED SPECTRUM=NO
##NPOINTS= 47
##XYDATA=(XY..XY) 1 
    40         50
    41         30
    42         10
    43         40
    44         50
    45        180
    46         30
    47         10
    55         24
    56         12
    57         24
    58         18
    59         79
    60         12
    61          4
    69         18
    70          9
    71         12
    72         42
    73        999
    74         88
    75         45
    83         18
    84          3
    85         30
    95         12
    96          3
    97         12
    98         97
    99         18
   100          6
   109         12
   111         76
   112         12
   113          3
   124          6
   125          6
   126         30
   127          9
   128          5
   140         39
   141          6
   142          3
   199          2
   214         13
   215          3
   216          1