##TITLE=Library Entry 30532
##JCAMP-DX=Revision 4.10 
##DATA TYPE=MASS SPECTRUM
##SAMPLE DESCRIPTION=V.G.Zaikin, TIPS, Russian Acad. Sci.
##NAMES=HP
##CAS NAME=1,3-Bis(dimethyl-n-pentylsilyl)but-1-ene
##MOLFORM=C18H40Si2
##CAS REGISTRY NO=136935-59-6
##MP= -300
##BP= -300
##MW= 312
##$RETENTION INDEX=0
##$CONDENSED SPECTRUM=NO
##NPOINTS= 37
##XYDATA=(XY..XY) 1 
    41         80
    42         34
    43         94
    44         34
    45         61
    55         41
    56         13
    57         27
    58         67
    59        999
    60         80
    61         40
    69         47
    70         25
    71         54
    72         40
    73        591
    74         33
    75         13
    83         54
    84         47
    85         80
    86         20
    97         94
    98         50
    99         52
   100         20
   101         27
   129        832
   130        107
   131         40
   241         11
   242          9
   243          3
   312         13
   313          4
   314          1