##TITLE=Library Entry 19624
##JCAMP-DX=Revision 4.10 
##DATA TYPE=MASS SPECTRUM
##SAMPLE DESCRIPTION=K.-H.Engel ET AL.J.Agric.Food.Chem.,39,2249(1991)
##NAMES=HP
##CAS NAME=3-(Methylthio)hexyl hexanoate
##MOLFORM=C13H26O2S
##CAS REGISTRY NO=136954-24-0
##MP= -300
##BP= -300
##MW= 246
##$RETENTION INDEX=2105
##$CONDENSED SPECTRUM=NO
##NPOINTS= 72
##XYDATA=(XY..XY) 1 
    35         26
    39        147
    40         32
    41        755
    42        158
    43        969
    44         36
    45         96
    46         24
    47         92
    48         33
    49         38
    50          6
    53         78
    54         71
    55        999
    56        102
    57         43
    58          9
    59         39
    60         37
    61        558
    62         19
    63         30
    66          9
    67        222
    68         24
    69         84
    70         35
    71        331
    72         25
    73         76
    74         22
    75         68
    77         10
    79          9
    81        107
    82        358
    83        496
    84         31
    85         10
    87        560
    88         48
    89         56
    97          9
    99        346
   100         43
   102        474
   103        172
   104         31
   105         18
   115        553
   116         45
   117        113
   118         10
   129         19
   130        390
   131         92
   132         26
   133          8
   141          9
   142         33
   147         75
   148         11
   149          5
   150          1
   154          1
   155          2
   199          4
   246         36
   247          5
   248          2