##TITLE=Library Entry 8849
##JCAMP-DX=Revision 4.10 
##DATA TYPE=MASS SPECTRUM
##SAMPLE DESCRIPTION=K.-H.Engel ET AL.J.Agric.Food.Chem.,39,2249(1991)
##NAMES=HP
##CAS NAME=3-Mercaptohexyl butanoate
##MOLFORM=C10H20O2S
##CAS REGISTRY NO=136954-21-7
##MP= -300
##BP= -300
##MW= 204
##$RETENTION INDEX=1841
##$CONDENSED SPECTRUM=NO
##NPOINTS= 56
##XYDATA=(XY..XY) 1 
    34          8
    35         18
    38          6
    39        149
    40         23
    41        601
    42        115
    43        999
    44         37
    45        105
    46         14
    47        135
    49          8
    51          4
    53         45
    54         72
    55        605
    56         39
    57         28
    59         64
    60         92
    61         72
    63          8
    65          5
    67        152
    68         17
    69         61
    70         31
    71        795
    72         50
    73        243
    74         70
    75         31
    79          6
    81         43
    82        104
    83        381
    84         24
    85          8
    87        224
    88        438
    89        111
    90         25
    99          5
   101        100
   103          7
   105          5
   115         22
   116        258
   117         28
   118         13
   127          1
   128          1
   132          1
   133         10
   134          1