##TITLE=Library Entry 42067
##JCAMP-DX=Revision 4.10 
##DATA TYPE=MASS SPECTRUM
##SAMPLE DESCRIPTION=V.G.Zaikin, TIPS, Russian Acad. Sci.
##NAMES=HP
##CAS NAME=1,3,5-Tris(trimethylsilyl)pent-1-ene
##MOLFORM=C14H34Si3
##CAS REGISTRY NO=136935-44-9
##MP= -300
##BP= -300
##MW= 286
##$RETENTION INDEX=0
##$CONDENSED SPECTRUM=NO
##NPOINTS= 54
##XYDATA=(XY..XY) 1 
    40         39
    41         12
    42         12
    43         42
    44         45
    45        115
    46          9
    47          6
    55         18
    56          9
    57         12
    58         12
    59         73
    60         18
    61          6
    69          9
    70          6
    71          9
    72         18
    73        999
    74        115
    75         48
    83         12
    84          3
    85          9
    95         12
    96          3
    97          9
    98          6
    99          6
   108          3
   109         55
   110        200
   111         33
   112         12
   113          6
   124         62
   125         12
   126          3
   169          1
   170          2
   171          2
   173          1
   183         20
   184          4
   185          2
   197          3
   198          4
   212         18
   213          4
   271          1
   286         10
   287          2
   288          0