##TITLE=Library Entry 44631
##JCAMP-DX=Revision 4.10 
##DATA TYPE=MASS SPECTRUM
##SAMPLE DESCRIPTION=Chemical Concepts
##NAMES=HP
##CAS NAME=1,2,3,4-Dodecanetetrol, [2R-(2R*,3S*,4S*)]-
##MOLFORM=C12H26O4
##CAS REGISTRY NO=136953-02-1
##MP= -300
##BP= -300
##MW= 234
##$RETENTION INDEX=0
##$CONDENSED SPECTRUM=NO
##NPOINTS= 137
##XYDATA=(XY..XY) 1 
    26          1
    27         42
    28         62
    29         88
    30          2
    31         35
    33          0
    34          0
    36          0
    38          0
    39         18
    41        135
    42         17
    43        105
    44         59
    45         31
    46          8
    47          4
    49          0
    50          0
    51          1
    52          0
    53          8
    54          8
    55        162
    56        298
    57        103
    58          9
    59          2
    60         30
    61         69
    62          6
    63          0
    65          1
    66          5
    67         39
    68         21
    69        203
    70         18
    71         19
    72          3
    73        121
    74        999
    75         58
    76          5
    77          1
    78          0
    79          6
    80          2
    81         54
    82         34
    83         93
    84          8
    85          7
    86          2
    87          3
    88          3
    89          1
    90          0
    91          7
    92          5
    93          4
    94          1
    95         44
    96         20
    97         15
    98          4
    99          3
   100          0
   101          1
   102          0
   103         19
   104          1
   105          0
   107          2
   108          0
   109          7
   110          7
   111          2
   112          1
   113          1
   114          0
   115          0
   116          8
   117          1
   118          0
   119          0
   121          1
   122          0
   123          2
   124          4
   125          5
   126          0
   127          0
   128          0
   129          0
   130          0
   133          0
   135          0
   136          1
   137          6
   138          7
   139          0
   140          0
   141         11
   142          3
   143         23
   144          2
   145          0
   150          0
   151          0
   153          0
   154          0
   155          3
   156          6
   157          1
   158          0
   159          0
   161          0
   168          0
   171          0
   172          6
   173         38
   174          4
   175          0
   181          0
   185          5
   186          2
   187          0
   198          0
   199          0
   203          1
   204          0
   215          1
   216          0
   217          0
   235          0