##TITLE=Library Entry 41805
##JCAMP-DX=Revision 4.10 
##DATA TYPE=MASS SPECTRUM
##SAMPLE DESCRIPTION=V.G.Zaikin, TIPS, Russian Acad. Sci.
##NAMES=HP
##CAS NAME=1,3,5-Tris(trimethylsilyl)hex-1-ene
##MOLFORM=C15H36Si3
##CAS REGISTRY NO=136935-45-0
##MP= -300
##BP= -300
##MW= 300
##$RETENTION INDEX=0
##$CONDENSED SPECTRUM=NO
##NPOINTS= 32
##XYDATA=(XY..XY) 1 
    48          3
    56          6
    57          6
    58         15
    59         76
    60          6
    72         31
    73        999
    74         85
    75         36
    83          9
    85         30
    96         30
    97         36
    98        218
    99         73
   100         18
   112         12
   123         30
   124         12
   125          6
   138         18
   139         12
   169         12
   171         12
   186         73
   187         18
   188          6
   226         15
   227          6
   285          1
   300          1