##TITLE=Library Entry 63764
##JCAMP-DX=Revision 4.10 
##DATA TYPE=MASS SPECTRUM
##SAMPLE DESCRIPTION=Chemical Concepts
##NAMES=HP
##CAS NAME=2-(E)-Pentenoic acid, 4-(dibenzylamino)-, methyl ester
##MOLFORM=C20H23NO2
##CAS REGISTRY NO=136964-88-0
##MP= -300
##BP= -300
##MW= 309
##$RETENTION INDEX=0
##$CONDENSED SPECTRUM=NO
##NPOINTS= 193
##XYDATA=(XY..XY) 1 
    26          0
    27          6
    28          1
    29          4
    30          0
    31          0
    36          0
    38          0
    39         15
    40          2
    41         10
    42          4
    43          1
    44          0
    45          2
    50          1
    51          6
    52          2
    53         11
    54          5
    55          7
    56          5
    57          1
    59          8
    60          0
    61          0
    62          0
    63          5
    64          1
    65         57
    66          3
    67          1
    68          0
    69          0
    70          0
    71          2
    72          0
    73          0
    74          0
    75          0
    76          1
    77          7
    78          2
    79          3
    80          1
    81          8
    82          7
    83          1
    84          0
    85          5
    86          0
    87          0
    88          0
    89         12
    90          8
    91        999
    92         76
    93          3
    95          0
    96          4
    97          0
    98          2
    99          1
   100          0
   101          0
   102          0
   103          1
   104         14
   105          8
   106         12
   107          0
   108          1
   109          0
   110          5
   111          0
   112          1
   113          7
   114          3
   115          6
   116          4
   117          6
   118          4
   119          1
   120         10
   121          3
   123          0
   126          8
   127          1
   128          1
   129          8
   130          2
   131          2
   132          4
   133          1
   139          0
   140          0
   141          2
   142          1
   143          4
   144          6
   145          1
   146          0
   147          0
   149          0
   151          0
   152          1
   153          0
   155          0
   156          2
   157          0
   158         14
   159          1
   163          0
   164          0
   165          3
   166          2
   167          2
   168          0
   169          0
   170          0
   171          0
   172          2
   173          1
   174          3
   175          0
   178          1
   179          1
   180          0
   181         41
   182          4
   183          0
   184          0
   185          0
   186          7
   187          1
   188          0
   189          1
   190          0
   192          0
   193          0
   194          3
   195          1
   196          4
   197          0
   198          0
   199          0
   200          0
   201          0
   202          5
   203          1
   204          0
   205          0
   207          0
   210          0
   217          0
   218        334
   219         48
   220          4
   221          0
   225          1
   228          0
   230          0
   231          3
   232          9
   233          1
   234         23
   235          3
   239          0
   246          0
   247          0
   248          0
   249          0
   250          0
   257          0
   261          3
   262          5
   263          1
   264          0
   266          1
   271          0
   276          0
   278         10
   279          2
   281          0
   282          0
   289          0
   294        217
   295         46
   296          5
   297          0
   308          1
   309          3
   310          0