##TITLE=Library Entry 34059
##JCAMP-DX=Revision 4.10 
##DATA TYPE=MASS SPECTRUM
##SAMPLE DESCRIPTION=RADIAN CORP
##NAMES=HP
##CAS NAME=Methacrylic acid, 2,2,3,3,4,4,4-heptafluorobutyl ester
##MOLFORM=C8H7F7O2
##CAS REGISTRY NO=13695-31-3
##MP= -300
##BP= -300
##MW= 268
##$RETENTION INDEX=0
##$CONDENSED SPECTRUM=NO
##NPOINTS= 71
##XYDATA=(XY..XY) 1 
    15          2
    26          7
    27          8
    29         27
    30          7
    33          9
    37         17
    38         43
    39        346
    40         84
    41        553
    42         35
    43         12
    44          4
    45         15
    47          1
    50          7
    51         51
    52          1
    53         14
    54          3
    55         28
    56          6
    57          8
    59          2
    63          2
    64         36
    65          5
    66          1
    67          2
    68         31
    69        999
    70         56
    71          9
    72          7
    73          3
    75          6
    77          4
    81          4
    82          3
    83         10
    85          7
    93          3
    95         28
    99         19
   100         32
   101          8
   103          2
   104          2
   105          5
   113         38
   114          1
   119         65
   129          6
   131          7
   133          6
   135          3
   149          7
   150          2
   169          7
   177          3
   204          3
   206          2
   221          3
   223          5
   249          5
   253         12
   267         28
   268        185
   269         26
   270          1