##TITLE=Library Entry 30529
##JCAMP-DX=Revision 4.10 
##DATA TYPE=MASS SPECTRUM
##SAMPLE DESCRIPTION=V.G.Zaikin, TIPS, Russian Acad. Sci.
##NAMES=HP
##CAS NAME=1-Trimethylsilyl-2-(dimethyl-n-pentylsilyl)ethene
##MOLFORM=C12H28Si2
##CAS REGISTRY NO=136935-49-4
##MP= -300
##BP= -300
##MW= 228
##$RETENTION INDEX=0
##$CONDENSED SPECTRUM=NO
##NPOINTS= 62
##XYDATA=(XY..XY) 1 
    41         36
    42         24
    43        170
    44         30
    45         85
    46          6
    53         18
    54         12
    55         27
    57         18
    58         69
    59        999
    60         79
    61         42
    67         18
    68         12
    69         42
    70          6
    71         33
    72         33
    73        448
    74         30
    75         18
    83         79
    84         18
    85         97
    86         24
    87         67
    88          9
    97         42
    98         69
    99         85
   100         33
   101         36
   103         15
   111          9
   113         33
   114          9
   115         61
   116         73
   117         76
   118         15
   119          9
   127         30
   128         15
   129        494
   130         76
   131         49
   132         12
   141         30
   143        109
   144         18
   145          9
   155         24
   156          9
   157        169
   158        194
   160         24
   213          9
   228         11
   229          2
   230          1