##TITLE=Library Entry 25637
##JCAMP-DX=Revision 4.10 
##DATA TYPE=MASS SPECTRUM
##SAMPLE DESCRIPTION=G. Lange, Inst. Org. Chem., Univ. Wurzburg, Wurzburg, G
ermany
##NAMES=HP
##CAS NAME=Silane, tert-butyl[1-methoxy-3,3-dimethyl-1-(2,2,2-trifluoroethox
y)butoxy]dimethyl-
##MOLFORM=C15H31F3O3Si
##CAS REGISTRY NO=136911-61-0
##MP= -300
##BP= -300
##MW= 344
##$RETENTION INDEX=0
##$CONDENSED SPECTRUM=NO
##NPOINTS= 86
##XYDATA=(XY..XY) 1 
    39         31
    40          9
    41        137
    42         23
    43        165
    44         23
    45         53
    47         21
    49          9
    51          5
    53          6
    55         56
    56         41
    57        999
    58         83
    59        167
    60         14
    61         54
    63          7
    64          5
    69         24
    71         89
    72         19
    73        762
    74        105
    75        162
    76         15
    77        272
    78         20
    79         15
    81         12
    82          5
    83        123
    84          8
    85         13
    86         13
    88          9
    89        419
    90         36
    91         20
    93         11
    95          6
    99        594
   100         46
   101         16
   107         10
   109         16
   113          7
   114         23
   115        111
   116         22
   117         43
   121          5
   123         81
   131         44
   132         13
   133          5
   135          5
   139         69
   141         35
   147         21
   156         18
   157         87
   158          6
   173         50
   174          6
   179         25
   183          9
   189          9
   197         10
   213         92
   214          9
   229          6
   231          9
   245         49
   246          9
   273        285
   274         46
   275         14
   287        162
   288         27
   289          7
   313         67
   314         14
   329          8
   330          2