##TITLE=Library Entry 8850
##JCAMP-DX=Revision 4.10 
##DATA TYPE=MASS SPECTRUM
##SAMPLE DESCRIPTION=K.-H.Engel ET AL.J.Agric.Food.Chem.,39,2249(1991)
##NAMES=HP
##CAS NAME=3-(Methylthio)hexyl butanoate
##MOLFORM=C11H22O2S
##CAS REGISTRY NO=136954-23-9
##MP= -300
##BP= -300
##MW= 218
##$RETENTION INDEX=1905
##$CONDENSED SPECTRUM=NO
##NPOINTS= 70
##XYDATA=(XY..XY) 1 
    34          5
    35         24
    37          7
    39        146
    40         23
    41        694
    42        118
    43        999
    44         31
    45        102
    46         15
    47         95
    48         24
    49         35
    50          6
    52         56
    53         62
    55        778
    56         53
    57         24
    59         35
    60         22
    61        494
    62         14
    63         23
    65          9
    66          5
    67        207
    68         12
    69         43
    70         20
    71        786
    72         38
    73         63
    74         15
    75         49
    77          8
    79         11
    81         87
    82        261
    83        400
    84         27
    85          7
    87        548
    88         41
    89        125
    90          3
    99         13
   100          5
   101         29
   102        312
   103        130
   104         18
   105          5
   115        407
   116         32
   117         33
   120          4
   129          8
   130        241
   131         35
   132          9
   141          5
   147         38
   148          4
   149          2
   171          3
   218         54
   219          7
   220          2