##TITLE=Library Entry 7118
##JCAMP-DX=Revision 4.10 
##DATA TYPE=MASS SPECTRUM
##SAMPLE DESCRIPTION=K.-H.Engel ET AL.J.Agric.Food.Chem.,39,2249(1991)
##NAMES=HP
##CAS NAME=3-Mercaptohexyl hexanoate
##MOLFORM=C12H24O2S
##CAS REGISTRY NO=136954-22-8
##MP= -300
##BP= -300
##MW= 232
##$RETENTION INDEX=2036
##$CONDENSED SPECTRUM=NO
##NPOINTS= 63
##XYDATA=(XY..XY) 1 
    33          6
    35         15
    39        146
    40         28
    41        574
    42        150
    43        999
    44         33
    45        101
    46          8
    47        146
    49          5
    50          5
    51          5
    52          2
    53         53
    54         71
    55        789
    56         64
    57         42
    58          9
    59         64
    60        106
    61         91
    62          7
    65          4
    67        153
    68         25
    69        105
    70         49
    71        423
    72         30
    73        244
    74         82
    75         42
    80          4
    81         53
    82        155
    83        494
    84         32
    85          6
    87        289
    88        560
    89         74
    90         28
    91          6
    98          5
    99        451
   100         40
   101        136
   103          6
   115         23
   116        351
   117         95
   118         22
   127          1
   130          2
   132          3
   133         15
   134          3
   135          1
   143          3
   199          1