##TITLE=Library Entry 83977
##JCAMP-DX=Revision 4.10 
##DATA TYPE=MASS SPECTRUM
##SAMPLE DESCRIPTION=Japan AIST/NIMC Database- Spectrum MS-NW- 475
##NAMES=HP
##CAS NAME=1,3-di-o-Tolyl-2-thiourea
##MOLFORM=C15H16N2S
##CAS REGISTRY NO=137-97-3
##MP= -300
##BP= -300
##MW= 256
##$RETENTION INDEX=0
##$CONDENSED SPECTRUM=NO
##NPOINTS= 146
##XYDATA=(XY..XY) 1 
    15          2
    26          6
    27         31
    28         29
    29          4
    30         17
    32         12
    33          9
    34         26
    36          2
    37          9
    38         18
    39        129
    40         12
    41         34
    42          8
    43          4
    44          5
    45         40
    49          3
    50         35
    51         84
    52         44
    53         25
    54         10
    55          5
    57          4
    58          2
    59          3
    60          3
    61          7
    62         18
    63         73
    64         30
    65        211
    66         18
    67          6
    69          5
    70          7
    71          3
    72          2
    73          2
    74          9
    75         11
    76         14
    77        136
    78         77
    79         79
    80         26
    81          6
    82          2
    83          4
    84          2
    85          3
    86          3
    87          5
    88          4
    89         94
    90         73
    91        305
    92         32
    93         15
    94          5
    95          3
    96          4
    97          4
   102          6
   103         10
   104         77
   105         24
   106        538
   107        999
   108         81
   109          5
   110          6
   111          5
   115          4
   116         66
   117        180
   118         34
   119          6
   120          5
   121         47
   122         15
   123         31
   124         69
   125          7
   126          5
   127         10
   128         10
   129          9
   130         64
   131         41
   132         32
   133         59
   134          7
   135          2
   136          7
   137          2
   138          6
   146          2
   148         83
   149        278
   150        112
   151         23
   152          7
   163          8
   164          4
   165          9
   166          3
   167          3
   178          3
   179          4
   180          8
   181          3
   192          2
   193          4
   194          7
   195          2
   204         18
   205         16
   206         26
   207         38
   208          9
   209          2
   219          9
   220          8
   221        104
   222        258
   223        143
   224         23
   225          5
   226          2
   236          3
   239          3
   240          4
   241        193
   242         35
   243         12
   244          2
   254          3
   255         54
   256        420
   257         78
   258         24
   259          4