##TITLE=Library Entry 58254
##JCAMP-DX=Revision 4.10 
##DATA TYPE=MASS SPECTRUM
##SAMPLE DESCRIPTION=Japan AIST/NIMC Database- Spectrum MS-IW- 981
##NAMES=HP
##CAS NAME=Dimethyldithiocarbamic acid,copper salt
##MOLFORM=C6H12CuN2S4
##CAS REGISTRY NO=137-29-1
##MP= -300
##BP= -300
##MW= 303
##$RETENTION INDEX=0
##$CONDENSED SPECTRUM=NO
##NPOINTS= 155
##XYDATA=(XY..XY) 1 
    14          1
    15         14
    27          3
    32          8
    33          1
    34          3
    38          4
    39          2
    40          5
    41          8
    42         61
    43         22
    44        108
    45         32
    46          4
    47         13
    48          2
    54          1
    55          3
    56         16
    57          4
    58          3
    59          1
    60          4
    61          6
    63         11
    64         26
    65          6
    66          2
    67          1
    68          2
    69          3
    70          2
    71          5
    72         21
    73         50
    74          7
    75          2
    76        106
    77         11
    78          9
    79          1
    80          1
    81          1
    82          1
    83          2
    85          2
    87          3
    88        999
    89         81
    90         48
    91          4
    95          3
    96          1
    97          7
    98          1
    99          1
   100          2
   104          7
   105          1
   106         11
   107          8
   108          4
   109          5
   111          2
   112          7
   113          1
   115          1
   119          2
   120          8
   121         29
   122          3
   123          3
   125          1
   127          3
   129          1
   132          2
   133          1
   135          2
   136         28
   137          1
   138         13
   139          9
   140          4
   141          5
   142          4
   143          2
   144          1
   146          1
   147          1
   149          1
   150          8
   151          7
   152          5
   153          3
   154          1
   161          4
   168          2
   170          1
   176         22
   177          7
   178          3
   179          1
   180          1
   182          4
   183         71
   184         75
   185         41
   186         38
   187          6
   188          3
   208         23
   209          7
   210          3
   211          3
   214          1
   215          9
   216          2
   217          6
   218          1
   219          1
   220          2
   224          3
   226          3
   227          7
   228          1
   229          4
   230          1
   232          1
   239          1
   246          1
   247          2
   248          1
   259          1
   260          3
   261          1
   262          2
   266          3
   268          1
   278          1
   280          1
   292          2
   294          1
   296         11
   297          1
   298          6
   299          1
   300          2
   303        306
   304         32
   305        193
   306         20
   307         28
   308          2
   309          1