##TITLE=Library Entry 89641
##JCAMP-DX=Revision 4.10 
##DATA TYPE=MASS SPECTRUM
##SAMPLE DESCRIPTION=Japan AIST/NIMC Database- Spectrum MS-NW-4265
##NAMES=HP
##CAS NAME=5-Thiazoleethanol, 4-methyl-
##MOLFORM=C6H9NOS
##CAS REGISTRY NO=137-00-8
##MP= -300
##BP= -300
##MW= 143
##$RETENTION INDEX=1271
##$CONDENSED SPECTRUM=NO
##NPOINTS= 88
##XYDATA=(XY..XY) 1 
    14          1
    15          8
    18          2
    25          1
    26         14
    27         61
    28         27
    29         19
    30          2
    31         74
    32          5
    33          1
    34          1
    37          6
    38          8
    39         52
    40          8
    41         58
    42         23
    43         17
    44          6
    45        224
    46          9
    47         14
    49          3
    50         11
    51         30
    52         18
    53         53
    54         14
    55         26
    56          2
    57          6
    58         37
    59         74
    60          6
    61          5
    62          3
    63          2
    64          1
    65          7
    66          5
    67          2
    68         25
    69         29
    70         13
    71         68
    72         43
    73          8
    74          2
    75          1
    76          1
    78          2
    79          1
    80          8
    81          3
    82          2
    83          4
    84         11
    85        277
    86         47
    87         17
    88          7
    89          1
    92          1
    96          2
    97         11
    98         17
    99         10
   100          9
   101          1
   110          1
   111          9
   112        999
   113        379
   114         70
   115         18
   116          1
   124          5
   125         16
   126          4
   127          1
   141          1
   142          2
   143        323
   144         25
   145         16
   146          1