##TITLE=Library Entry 34097
##JCAMP-DX=Revision 4.10 
##DATA TYPE=MASS SPECTRUM
##SAMPLE DESCRIPTION=NIST Mass Spectrometry Data Center, 1992
##NAMES=HP
##CAS NAME=Cyclopentane, bromo-
##MOLFORM=C5H9Br
##CAS REGISTRY NO=137-43-9
##MP= -300
##BP= -300
##MW= 148
##$RETENTION INDEX=905
##$CONDENSED SPECTRUM=NO
##NPOINTS= 64
##XYDATA=(XY..XY) 1 
    13          1
    14          3
    15         15
    25          3
    26         30
    27        100
    28         24
    29          9
    31          4
    33          1
    34          0
    36          1
    37         16
    38         43
    39        256
    40         61
    41        546
    42         42
    43          5
    44          0
    49          2
    50         10
    51         17
    52          7
    53         53
    54          5
    55          1
    60          1
    61          5
    62          7
    63         10
    64          2
    65         23
    66         17
    67        165
    68        118
    69        999
    70         53
    71          1
    72          0
    73          0
    79          8
    80          7
    81         10
    82          6
    83          1
    92          0
    93          3
    94          0
    95          3
   104          0
   105          1
   106          6
   107          2
   108          5
   109          1
   117          1
   119          3
   120          3
   121          2
   122          4
   133          0
   148          8
   150          7