##TITLE=Library Entry 54103
##JCAMP-DX=Revision 4.10 
##DATA TYPE=MASS SPECTRUM
##SAMPLE DESCRIPTION=Japan AIST/NIMC Database- Spectrum MS-NW-5133
##NAMES=HP
##CAS NAME=2-n-Heptylcyclopentanone
##MOLFORM=C12H22O
##CAS REGISTRY NO=137-03-1
##MP= -300
##BP= -300
##MW= 182
##$RETENTION INDEX=1431
##$CONDENSED SPECTRUM=NO
##NPOINTS= 65
##XYDATA=(XY..XY) 1 
    15          1
    18          1
    26          2
    27         45
    28          9
    29         57
    30          1
    38          1
    39         35
    40          8
    41        137
    42         32
    43         73
    44          2
    50          1
    51          3
    52          1
    53         13
    54         24
    55        108
    56         48
    57         19
    58          2
    65          3
    66          3
    67         22
    68          9
    69         47
    70         20
    71          5
    77          3
    79          9
    80          3
    81         10
    82          7
    83        108
    84        999
    85         57
    86          4
    91          2
    92          1
    93          4
    94          1
    95          5
    96          6
    97        153
    98         22
    99          2
   107          2
   108          1
   109          2
   110          1
   111         11
   112          2
   121          2
   123          1
   125          6
   126          3
   135          1
   139          3
   140          2
   153          4
   163          1
   182         36
   183          5