##TITLE=Library Entry 58084
##JCAMP-DX=Revision 4.10 
##DATA TYPE=MASS SPECTRUM
##SAMPLE DESCRIPTION=Japan AIST/NIMC Database- Spectrum MS-NW-1904
##NAMES=HP
##CAS NAME=Tetramethylthiuram disulfide
##MOLFORM=C6H12N2S4
##CAS REGISTRY NO=137-26-8
##MP= -300
##BP= -300
##MW= 240
##$RETENTION INDEX=2229
##$CONDENSED SPECTRUM=NO
##NPOINTS= 72
##XYDATA=(XY..XY) 1 
    14          1
    15         34
    27          6
    28         24
    29          6
    30          4
    32          5
    33          1
    39          1
    40          5
    41          8
    42        100
    43         21
    44        125
    45         23
    46          6
    47         22
    54          2
    55          2
    56         23
    57          1
    58          2
    59          2
    60          1
    61          9
    63          2
    64         21
    65          1
    66          2
    70          2
    71          1
    72         34
    73         82
    74          9
    75          3
    76         28
    77         65
    78          4
    79          6
    87          1
    88        999
    89         45
    90         44
    91          2
   104          4
   105          3
   106          1
   107          1
   109          1
   120        138
   121         18
   122         12
   123          2
   136          3
   138          1
   139          1
   152          9
   154          1
   176          3
   177          1
   183          6
   184          5
   185          3
   186          2
   208         58
   209          5
   210          8
   240        126
   241         12
   242         22
   243          2
   244          1