##TITLE=Library Entry 61871
##JCAMP-DX=Revision 4.10 
##DATA TYPE=MASS SPECTRUM
##SAMPLE DESCRIPTION=Japan AIST/NIMC Database- Spectrum MS-NW-1565
##NAMES=HP
##CAS NAME=Benzenethiol, 2-methyl-
##MOLFORM=C7H8S
##CAS REGISTRY NO=137-06-4
##MP= -300
##BP= -300
##MW= 124
##$RETENTION INDEX=0
##$CONDENSED SPECTRUM=NO
##NPOINTS= 83
##XYDATA=(XY..XY) 1 
    15          1
    26          4
    27         19
    28          1
    29          1
    32          1
    33          1
    34          1
    37          9
    38         18
    39         96
    40          8
    41          9
    43          3
    44          5
    45        212
    46          5
    47         11
    48          1
    49          5
    50         27
    51         59
    52         14
    53         17
    54          1
    55          1
    57          6
    58         12
    59         10
    60         14
    61         24
    62         49
    63         66
    64         16
    65         82
    66          9
    67          2
    68          2
    69         48
    70         10
    71         14
    72          1
    73          3
    74          8
    75          6
    76          3
    77        103
    78         30
    79         58
    80         18
    81          7
    82         12
    83          5
    84         15
    85          5
    86          5
    87          4
    88          2
    89         98
    90        117
    91        999
    92         78
    93          9
    94          2
    95          8
    96          5
    97         22
    98          6
    99          2
   105          1
   106          1
   107          1
   108         12
   109         16
   110          2
   119          1
   121         52
   122         22
   123        140
   124        891
   125         80
   126         41
   127          3