##TITLE=Library Entry 56112
##JCAMP-DX=Revision 4.10 
##DATA TYPE=MASS SPECTRUM
##SAMPLE DESCRIPTION=Tox21 Consortium/NIST Mass Spectrometry Data Center, 20
12
##NAMES=HP
##CAS NAME=Lidocaine
##MOLFORM=C14H22N2O
##CAS REGISTRY NO=137-58-6
##MP= -300
##BP= -300
##MW= 234
##$RETENTION INDEX=1878
##$CONDENSED SPECTRUM=NO
##NPOINTS= 85
##XYDATA=(XY..XY) 1 
    27          5
    28          9
    29         15
    30         32
    39          5
    40          1
    41          5
    42         22
    43          8
    44          3
    50          1
    51          5
    52          3
    53          4
    54          4
    55          2
    56         28
    57         11
    58         72
    59          3
    62          1
    63          3
    64          1
    65          8
    66          2
    67          1
    68          1
    70          5
    71          3
    72         30
    73          2
    75          1
    76          1
    77         24
    78          7
    79          8
    80          2
    84          9
    86        999
    87         63
    88          2
    89          3
    90          2
    91         24
    92          6
    93          4
    94          1
   100          1
   102          3
   103          8
   104          5
   105         12
   106          6
   107          2
   109          1
   112          1
   115          1
   116          2
   117          5
   118         11
   119          7
   120         29
   121          8
   122          2
   130          2
   131          2
   132          6
   133          2
   134          8
   135          1
   144          1
   145          1
   146          2
   147          4
   148          6
   149          1
   159          1
   160          1
   162          1
   163          1
   217          1
   219          2
   233          1
   234         12
   235          2