##TITLE=Library Entry 58255
##JCAMP-DX=Revision 4.10 
##DATA TYPE=MASS SPECTRUM
##SAMPLE DESCRIPTION=S.M. Lee, CA Export Lab. Services, CA, USA
##NAMES=HP
##CAS NAME=Zinc, bis(dimethylcarbamodithioato-S,S')-, (T-4)-
##MOLFORM=C6H12N2S4Zn
##CAS REGISTRY NO=137-30-4
##MP= -300
##BP= -300
##MW= 304
##$RETENTION INDEX=2515
##$CONDENSED SPECTRUM=NO
##NPOINTS= 255
##XYDATA=(XY..XY) 1 
    51          1
    52          1
    53          1
    54          1
    55          1
    56         18
    57          2
    58          2
    59          2
    60          1
    61          8
    62          1
    63          1
    64         26
    65          1
    66         10
    67          2
    68          6
    69          1
    70          3
    71          1
    72         63
    73         92
    74          9
    75          5
    76         39
    77         34
    78          6
    79          5
    80          1
    81          1
    82          1
    83          1
    84          1
    85          1
    86          2
    87         44
    88        999
    89         51
    90         45
    91          3
    92          1
    93          1
    94          1
    96         19
    97         10
    98          9
    99          7
   100          7
   101          5
   102          1
   103          1
   104          1
   105         11
   106          2
   107          5
   108          7
   109          4
   110          6
   111          3
   112          3
   113          1
   114          2
   115          1
   116          1
   117          1
   118          1
   120        236
   121         36
   122         26
   123          7
   124          2
   125          2
   126          1
   127          2
   128          6
   129          1
   130          4
   131          1
   132          4
   133          3
   134          1
   135          2
   136          1
   137         12
   138          1
   139          8
   140         12
   141          6
   142          8
   143          4
   144          6
   145          2
   146          2
   147          1
   148          1
   149          2
   150          1
   151          2
   152         27
   153          4
   154          5
   155          1
   156          1
   157          1
   158          1
   159          1
   160          1
   161          1
   162          1
   163          1
   164          1
   165          1
   166          1
   167          1
   168          1
   169          2
   170         11
   171          1
   172         13
   173          4
   174         10
   175          4
   176          5
   177          3
   178          3
   179          2
   180          1
   181          1
   184        222
   185         35
   186        152
   187         41
   188         99
   189         16
   190         11
   191          4
   192          2
   193          2
   194          1
   195          1
   196          1
   197          1
   198          1
   199          1
   200          1
   201          3
   202          1
   203          3
   204          1
   205          2
   206          1
   207         29
   208          7
   209          4
   210          1
   211          1
   212          1
   213          2
   214          1
   216        131
   217         13
   218         92
   219         20
   220         60
   221          8
   222         10
   223          2
   224          1
   225          7
   226          1
   227         66
   228         15
   229         45
   230         15
   231         27
   232          8
   233          4
   234          2
   235          1
   236          1
   237          1
   238          1
   239          1
   240          1
   241          1
   242          1
   243          1
   244          1
   245          1
   246          1
   247          1
   248          1
   249          1
   250          1
   251          1
   252          1
   253          4
   254          1
   255          1
   256          1
   257         15
   258          2
   259         10
   260         11
   261          7
   262          7
   263          3
   264          5
   265          1
   266          2
   267          1
   268          1
   269          1
   270          1
   271          1
   272          1
   273          1
   274          1
   275          1
   276          1
   277          1
   278          1
   279          1
   281          4
   282          1
   283          1
   284          1
   285          1
   287          1
   289         25
   290          2
   291         19
   292          4
   293         13
   294          1
   295          2
   296          4
   297          1
   298          9
   299          1
   300          4
   301          1
   302          1
   304        748
   305         81
   306        563
   307        118
   308        370
   309         48
   310         64
   311          7
   312          5
   313          1
   314          1