##TITLE=Library Entry 24553
##JCAMP-DX=Revision 4.10 
##DATA TYPE=MASS SPECTRUM
##SAMPLE DESCRIPTION=Chemical Concepts
##NAMES=HP
##CAS NAME=Ascorbyl Palmitate
##MOLFORM=C22H38O7
##CAS REGISTRY NO=137-66-6
##MP= -300
##BP= -300
##MW= 414
##$RETENTION INDEX=0
##$CONDENSED SPECTRUM=NO
##NPOINTS= 234
##XYDATA=(XY..XY) 1 
    26         17
    27         95
    28         91
    29        279
    30         10
    31         36
    35          4
    36         30
    37          9
    38         12
    39         83
    40        136
    41        531
    42        110
    43        906
    44         82
    45         28
    46          1
    48          4
    50          1
    51          4
    52          3
    53         16
    54         36
    55        482
    56        111
    57        999
    58         30
    59         22
    60        160
    61         30
    62          2
    63          0
    64          7
    65          3
    66          4
    67        121
    68        267
    69        808
    70         81
    71        613
    72         23
    73        161
    74         23
    75          5
    76          4
    78          1
    79         22
    80         16
    81        206
    82         35
    83        346
    84        110
    85        381
    86         23
    87         53
    88         12
    89          6
    91          2
    92          1
    93         29
    94         13
    95        237
    96         49
    97        208
    98        130
    99         90
   100         11
   101         26
   102         22
   103         21
   104          1
   105          2
   106          1
   107         20
   108          9
   109        163
   110         28
   111         84
   112         42
   113         50
   114         26
   115         42
   116         79
   117          4
   118          1
   119          6
   120          2
   121         22
   122          9
   123        106
   124         18
   125         73
   126         15
   127         33
   128          7
   129         51
   130          5
   131          5
   132          1
   133          2
   134          5
   135         21
   136          5
   137         67
   138         23
   139         41
   140        176
   141        151
   142         52
   143         20
   144         26
   145         10
   146         12
   147          2
   148          2
   149         10
   150          3
   151         34
   152         11
   153         17
   154         10
   155         10
   156          3
   157         45
   158         89
   159         12
   160          4
   161          3
   163          7
   164          3
   165         21
   166          8
   167          7
   168          8
   169          3
   171         35
   172          0
   173          4
   174          3
   175          0
   176         26
   177         32
   178          2
   179          9
   180          5
   181          6
   182          6
   183          6
   184          4
   185         14
   186          7
   187          3
   191          2
   192         10
   193          4
   194         10
   195          8
   196          3
   197          8
   199         13
   200         20
   201          6
   205          3
   207          5
   209          3
   210          3
   211         16
   212          6
   213         56
   214          9
   215         13
   217          4
   218         27
   219         12
   220          4
   221         18
   222          3
   225          7
   227         19
   229          1
   231          8
   235          5
   236         35
   237         31
   238          8
   239        858
   240        157
   241         14
   242          1
   243          4
   252         13
   253          7
   254          7
   255         31
   256         35
   257        109
   258         19
   259          3
   265          3
   266          3
   267         14
   268          3
   269         49
   270          7
   271          7
   279          5
   281          4
   283         15
   297         22
   298          4
   299         33
   300          7
   311         17
   312          7
   322          5
   324          7
   325         17
   327          3
   339         10
   340         18
   341          6
   353         29
   354          9
   357          3
   367          9
   368          3
   381          3
   395          8
   396        324
   397         77
   398         16
   414         26
   415          9