##TITLE=Library Entry 109218
##JCAMP-DX=Revision 4.10 
##DATA TYPE=MASS SPECTRUM
##SAMPLE DESCRIPTION=Japan AIST/NIMC Database- Spectrum MS-NW-3196
##NAMES=HP
##CAS NAME=Benzenethiol, 2-amino-
##MOLFORM=C6H7NS
##CAS REGISTRY NO=137-07-5
##MP= -300
##BP= -300
##MW= 125
##$RETENTION INDEX=0
##$CONDENSED SPECTRUM=NO
##NPOINTS= 92
##XYDATA=(XY..XY) 1 
    15          1
    26          4
    27         10
    28          3
    29          2
    30          2
    32          2
    33          2
    34          2
    35          1
    36          7
    37         10
    38         23
    39         54
    40          8
    41         16
    42          6
    43          1
    44          8
    45         49
    46          3
    47          5
    48          2
    49          4
    50         13
    51         23
    52         36
    53         58
    54         16
    55          2
    56          1
    57          7
    58         11
    59          3
    60         15
    61         18
    62         33
    63         43
    64         25
    65         66
    66         33
    67         11
    68          3
    69         43
    70         18
    71         12
    72          5
    73          2
    74          4
    75          4
    76          4
    77          4
    78          9
    79          7
    80        268
    81        124
    82         12
    83          3
    84         18
    85          5
    86          2
    87          1
    88          1
    89          1
    90         10
    91         24
    92         33
    93        217
    94         16
    95         13
    96         22
    97        128
    98         66
    99         25
   100          4
   101          1
   104          1
   105          1
   106          4
   107          2
   108         30
   109          6
   110          8
   111          1
   121          1
   122          7
   123          7
   124        249
   125        999
   126         88
   127         47
   128          4