##TITLE=Library Entry 23566
##JCAMP-DX=Revision 4.10 
##DATA TYPE=MASS SPECTRUM
##SAMPLE DESCRIPTION=Japan AIST/NIMC Database- Spectrum MS-NW-1090
##NAMES=HP
##CAS NAME=1-Butanol, 2-methyl-
##MOLFORM=C5H12O
##CAS REGISTRY NO=137-32-6
##MP= -300
##BP= -300
##MW= 88
##$RETENTION INDEX=739
##$CONDENSED SPECTRUM=NO
##NPOINTS= 45
##XYDATA=(XY..XY) 1 
    14          3
    15         22
    16          1
    17          3
    18         11
    19          1
    25          1
    26         24
    27        222
    28         42
    29        700
    30         19
    31        369
    32          8
    33         13
    37          7
    38         14
    39        165
    40         25
    41        877
    42        180
    43        143
    44          8
    45         72
    46          5
    49          2
    50         11
    51         11
    52          4
    53         24
    54          9
    55        281
    56        877
    57        999
    58         47
    59         38
    60          6
    67          2
    69         15
    70        423
    71         34
    72          1
    73          1
    87          3
    88          3