##TITLE=Library Entry 72601
##JCAMP-DX=Revision 4.10 
##DATA TYPE=MASS SPECTRUM
##SAMPLE DESCRIPTION=RADIAN CORP
##NAMES=HP
##CAS NAME=Benzoic acid, 2-chloro-5-(chlorosulfonyl)-
##MOLFORM=C7H4Cl2O4S
##CAS REGISTRY NO=137-64-4
##MP= -300
##BP= -300
##MW= 254
##$RETENTION INDEX=0
##$CONDENSED SPECTRUM=NO
##NPOINTS= 114
##XYDATA=(XY..XY) 1 
    17          2
    18          3
    29          4
    35         17
    36         20
    37         31
    38         30
    39         25
    41         24
    43         25
    44          3
    45        129
    47          2
    48         63
    49         30
    50        124
    51         57
    53         46
    55         38
    56         13
    57         30
    60         31
    61         48
    62         61
    63        189
    64         67
    65         23
    66         12
    67         14
    68         11
    69         69
    70         15
    71         24
    72         23
    73        254
    74        488
    75        690
    76         60
    77         15
    79         26
    80         10
    81         32
    82         18
    83         36
    84        114
    85         58
    86         44
    87         42
    89         12
    90         10
    91        199
    92         73
    93         28
    94         10
    95         58
    96         16
    97         32
    98         30
    99        999
   100         65
   101        354
   102         29
   103         13
   106         15
   107         33
   108         38
   109         99
   110        270
   111         81
   112         87
   113         17
   115         23
   117         11
   119         34
   120         21
   121         13
   126         47
   127         13
   128         17
   129         24
   131          7
   133         16
   135         19
   137         57
   138         55
   139         35
   140         23
   141         11
   143          2
   145         27
   147         18
   154         16
   155        813
   156         71
   157        271
   158         30
   171         11
   173         38
   174         12
   175         24
   190         12
   203         16
   219        719
   220         66
   221        279
   222         25
   223         14
   237         14
   239          9
   254        141
   255         12
   256        103
   257          6
   258         20