##TITLE=Library Entry 96544
##JCAMP-DX=Revision 4.10 
##DATA TYPE=MASS SPECTRUM
##SAMPLE DESCRIPTION=NIST Mass Spectrometry Data Center, 1994
##NAMES=HP
##CAS NAME=Phenylsuccinonitrile
##MOLFORM=C10H8N2
##CAS REGISTRY NO=13706-68-8
##MP= -300
##BP= -300
##MW= 156
##$RETENTION INDEX=0
##$CONDENSED SPECTRUM=NO
##NPOINTS= 64
##XYDATA=(XY..XY) 1 
    12          2
    13          5
    14          2
    17          1
    18          0
    25          1
    26         15
    27         18
    28         17
    37         22
    38         40
    39        114
    40         60
    41          8
    49          9
    50         91
    51        128
    52         34
    53          4
    54          0
    58          1
    61         21
    62         47
    63        115
    64         35
    65         25
    66          4
    73          5
    74         23
    75         33
    76         34
    77         47
    78         14
    79          1
    85          3
    86          7
    87         15
    88         30
    89        209
    90         35
    91          3
    98          2
    99          6
   100          5
   101         14
   102         18
   103         15
   104          3
   110          0
   111          1
   112          1
   114         12
   116        999
   117         91
   118          3
   126          1
   127          7
   128         16
   129         13
   130          3
   154          2
   156        144
   157         15
   158          1