##TITLE=Library Entry 30342
##JCAMP-DX=Revision 4.10 
##DATA TYPE=MASS SPECTRUM
##SAMPLE DESCRIPTION=Chemical Concepts
##NAMES=HP
##CAS NAME=1,2-Ethanediol, 1-[2,2-dimethyl-5-(1-undecenyl)-1,3-dioxolan-4-yl
]-, [4R-[4.alpha.(R*),5.alpha.]]-
##MOLFORM=C18H34O4
##CAS REGISTRY NO=137036-69-2
##MP= -300
##BP= -300
##MW= 314
##$RETENTION INDEX=0
##$CONDENSED SPECTRUM=NO
##NPOINTS= 193
##XYDATA=(XY..XY) 1 
    27         78
    28          6
    29        164
    30          4
    31         66
    36          0
    37          0
    38          1
    39         63
    40          1
    41        291
    42         35
    43        512
    44         18
    45         15
    46          1
    47          1
    49          0
    51          4
    52          4
    53         77
    54         60
    55        355
    56         61
    57        146
    58         34
    59        999
    60         31
    61         58
    62          1
    65         17
    66         19
    67        244
    68         43
    69        207
    70        120
    71         77
    72          6
    73         35
    74        298
    75         13
    76          1
    77         20
    78          7
    79         85
    80         39
    81        214
    82        122
    83        248
    84         47
    85         41
    86         15
    87          8
    89          1
    91         21
    92          5
    93         58
    94         24
    95        187
    96        136
    97        828
    98        189
    99         41
   100         12
   101         67
   102          5
   103         19
   104          1
   105          8
   106          2
   107         38
   108         15
   109         93
   110         38
   111         53
   112         26
   113         26
   114         52
   115          6
   116          2
   117          6
   118          0
   119          9
   120          1
   121         55
   122         16
   123         45
   124         27
   125         21
   126         11
   127          9
   128          2
   129          8
   130          1
   131        120
   132          8
   133          7
   134          1
   135         32
   136          7
   137         19
   138         63
   139         15
   140          3
   141          5
   142          2
   143         10
   144          1
   145          2
   146          0
   147          4
   148          1
   149          6
   150          2
   151         11
   152          7
   153          5
   154          8
   155         10
   156          1
   157          1
   161          3
   162          0
   163         11
   164          9
   165         16
   166         33
   167          9
   168          1
   169          1
   173          1
   175          0
   177         22
   178          4
   179          8
   180          4
   181         16
   182         72
   183         96
   184         19
   185          2
   187          0
   189          0
   191         21
   192          4
   193          2
   194          1
   195        131
   196         23
   197         16
   198          2
   200          2
   201          1
   203          4
   204          1
   206          3
   207          4
   208          1
   209        237
   210         35
   211          4
   213          0
   220          0
   221         21
   222          4
   223          3
   224        199
   225         63
   226          8
   227          0
   237          1
   238          2
   239         28
   240          4
   241          8
   242          1
   253         21
   254         27
   255          5
   256         10
   257          3
   265          0
   266          0
   281          0
   283          3
   284          1
   296          0
   297          0
   299         27
   300          5
   301          0
   314          5
   315          0