##TITLE=Library Entry 14873
##JCAMP-DX=Revision 4.10 
##DATA TYPE=MASS SPECTRUM
##SAMPLE DESCRIPTION=A.A.Kutin, Moscow, Russia
##NAMES=HP
##CAS NAME=Cholest-5-ene, 3-(1-oxobuthoxy)-
##MOLFORM=C31H52O2
##CAS REGISTRY NO=137036-79-4
##MP= -300
##BP= -300
##MW= 456
##$RETENTION INDEX=3376
##$CONDENSED SPECTRUM=NO
##NPOINTS= 226
##XYDATA=(XY..XY) 1 
    33          2
    34          2
    36          1
    37          2
    39         46
    40         37
    41        334
    43        999
    44         35
    45          6
    50          2
    51          4
    53         30
    55        255
    56         38
    57        239
    58          9
    59          1
    60          7
    63          2
    64          1
    65         13
    67        135
    68         21
    69        120
    71        333
    73         16
    75          1
    77         41
    78         15
    79        108
    81        232
    82         22
    83         59
    84          8
    85         17
    86          1
    87          1
    89         20
    91        137
    92         37
    93        124
    94         38
    95        130
    96         14
    97         31
    98          4
    99          3
   100          1
   101          1
   103         10
   104         16
   105        148
   106         49
   107        123
   108         41
   109         64
   110          9
   111         17
   112          6
   113          5
   115         16
   116          8
   117         54
   118         28
   119         88
   120         79
   121         77
   122         19
   123         28
   124          3
   125          6
   126          1
   127          6
   128         15
   129         30
   130         17
   131         70
   132         22
   133         82
   134         24
   135         50
   136         11
   137         11
   138          2
   139          2
   140          1
   141          9
   142         13
   143         58
   144         31
   145        138
   146         53
   147        156
   148         37
   149         36
   150          5
   151          8
   152          3
   153          3
   154          2
   155          6
   156          6
   157         34
   158         29
   159         69
   160         41
   161         43
   162         13
   163         21
   164          4
   165          6
   166          1
   167          2
   168          1
   169          5
   170          4
   171         24
   172          9
   173         27
   174         11
   175         13
   176          4
   177          7
   178          1
   179          4
   180          1
   181          1
   182          1
   183          5
   184          3
   185         16
   186          7
   187         10
   188          3
   189          5
   190          2
   191          7
   192          3
   193          7
   194          1
   195          1
   196          1
   197          7
   198          3
   199         19
   200          9
   201         11
   202          3
   203          3
   205         17
   206         11
   207          4
   208          1
   211          5
   212          7
   213         46
   214         13
   215          9
   216          3
   217          2
   218          2
   219          4
   220          1
   225          2
   226          2
   227          7
   228         10
   229          8
   230          2
   231          2
   232          1
   233          1
   239          3
   240          2
   241          5
   242          2
   243          2
   245         13
   246         11
   247         61
   248         13
   249          2
   252          1
   253          3
   254          6
   255         47
   256         11
   257          3
   258          3
   259         11
   260         51
   261         16
   262          2
   267          1
   269          1
   271          1
   273          2
   274          5
   275          3
   282          1
   283          8
   284          2
   285          1
   287          1
   297          1
   298          1
   301          2
   311          1
   313          1
   314          1
   325          1
   326          8
   327          3
   339          1
   340          1
   350          1
   351          3
   353         70
   354         17
   355          2
   366         10
   368        436
   369        128
   370         19
   371          2