##TITLE=Library Entry 80308
##JCAMP-DX=Revision 4.10 
##DATA TYPE=MASS SPECTRUM
##SAMPLE DESCRIPTION=Exported from NIST MS Search
##NAMES=HP
##CAS NAME=Sulfur tetrafluoride oxide
##MOLFORM=F4OS
##CAS REGISTRY NO=13709-54-1
##MP= -300
##BP= -300
##MW= 124
##$RETENTION INDEX=0
##$CONDENSED SPECTRUM=NO
##NPOINTS= 22
##XYDATA=(XY..XY) 1 
    16         12
    19         18
    32         52
    34          3
    48         27
    51         25
    53          1
    54          2
    67         93
    68          2
    69          4
    70         17
    86        126
    87          2
    88          6
    89         37
    91          2
   105        999
   106          8
   107         47
   108          1
   124          4