##TITLE=Library Entry 44630
##JCAMP-DX=Revision 4.10 
##DATA TYPE=MASS SPECTRUM
##SAMPLE DESCRIPTION=Chemical Concepts
##NAMES=HP
##CAS NAME=1,2,3,4-Undecanetetrol, [2R-(2R*,3S*,4S*)]-
##MOLFORM=C11H24O4
##CAS REGISTRY NO=137036-71-6
##MP= -300
##BP= -300
##MW= 220
##$RETENTION INDEX=0
##$CONDENSED SPECTRUM=NO
##NPOINTS= 94
##XYDATA=(XY..XY) 1 
    28         56
    29        110
    30          3
    31         51
    39         22
    40         45
    41        151
    42         20
    43        136
    44         84
    45         39
    46          9
    47          5
    51          2
    53          9
    54          7
    55        182
    56        320
    57        114
    58         11
    59          7
    60         37
    61         89
    62          9
    65          2
    66          5
    67         56
    68         17
    69        255
    70         18
    71         22
    72          5
    73        141
    74        999
    75         58
    76          5
    77          3
    79          6
    80          1
    81         93
    82         29
    83         30
    84          7
    85         14
    86          2
    87          3
    88          3
    89          2
    90          1
    91         12
    92          6
    93          4
    94          1
    95         17
    96         10
    97         12
    98          4
    99          4
   100          1
   101          2
   103         41
   104          3
   107          3
   109          5
   110          5
   111         44
   112          3
   113          1
   115          1
   121          2
   122          2
   123         29
   124          9
   125          1
   127         15
   128          4
   129         39
   130          3
   135          3
   139          1
   140          2
   141          3
   142          9
   153          1
   158         12
   159        122
   160         12
   161          1
   171         15
   172          4
   181          3
   184          2
   189          2
   202          1