##TITLE=Library Entry 5663
##JCAMP-DX=Revision 4.10 
##DATA TYPE=MASS SPECTRUM
##SAMPLE DESCRIPTION=A.A.Kutin, Moscow, Russia
##NAMES=HP
##CAS NAME=Acetic acid, 2-(5,6-dihydro-2-amino-4-oxo-4H-1,3-thiazin-5-yl)-
##MOLFORM=C6H8N2O3S
##CAS REGISTRY NO=137017-77-7
##MP= -300
##BP= -300
##MW= 188
##$RETENTION INDEX=0
##$CONDENSED SPECTRUM=NO
##NPOINTS= 70
##XYDATA=(XY..XY) 1 
    33         72
    34         17
    37         90
    39        928
    40        482
    41        588
    42        545
    43        999
    45        619
    47         60
    48         49
    49          6
    50          7
    51          4
    53         44
    55        122
    57        165
    58        306
    59        170
    60        317
    62         11
    64          3
    65          2
    68        286
    69         65
    71         44
    72         29
    73         34
    76        865
    78         31
    79          0
    80          0
    84         83
    85        103
    86        253
    88          3
    89          1
    97          1
    99          6
   100         23
   101          8
   102         25
   103          7
   104          6
   105          2
   110          1
   112        111
   113         19
   114          2
   115          3
   117          2
   118          9
   126          1
   129         83
   130         10
   131          4
   137          1
   142         30
   143         10
   144          5
   146         16
   147          0
   148          0
   155         11
   170          8
   171          1
   187          2
   188         18
   189          1
   190          0