##TITLE=Library Entry 58067
##JCAMP-DX=Revision 4.10 
##DATA TYPE=MASS SPECTRUM
##SAMPLE DESCRIPTION=V.A.KOPTYUG, ATLAS OF MASS SPECTRA OF ORGANIC COMPOUNDS
##NAMES=HP
##CAS NAME=3,3,5-Trimethyl-1-oxa-3-silacyclohexanone-6
##MOLFORM=C7H14O2Si
##CAS REGISTRY NO=13716-54-6
##MP= -300
##BP= -300
##MW= 158
##$RETENTION INDEX=0
##$CONDENSED SPECTRUM=NO
##NPOINTS= 33
##XYDATA=(XY..XY) 1 
    41         20
    42         10
    43         60
    44         70
    45         40
    55         30
    58        480
    59        170
    60         30
    61         80
    72         90
    73         40
    75         60
    85        140
    86         20
    87         10
    88        999
    89        290
    90         60
    91         10
    99         20
   100         60
   101         40
   113         20
   114         20
   115        490
   116        120
   117         30
   128         20
   129         30
   143        100
   144         10
   157         10