##TITLE=Library Entry 23838
##JCAMP-DX=Revision 4.10 
##DATA TYPE=MASS SPECTRUM
##SAMPLE DESCRIPTION=Exported from NIST MS Search
##NAMES=HP
##CAS NAME=Phosphinous chloride, bis(1,1-dimethylethyl)-
##MOLFORM=C8H18ClP
##CAS REGISTRY NO=13716-10-4
##MP= -300
##BP= -300
##MW= 180
##$RETENTION INDEX=0
##$CONDENSED SPECTRUM=NO
##NPOINTS= 15
##XYDATA=(XY..XY) 1 
    39         30
    41        188
    55         51
    56         20
    57        999
    58         86
    60         35
    81         40
    83         15
   124         35
   126         10
   180        137
   181         12
   182         50
   183          4