##TITLE=Library Entry 87837
##JCAMP-DX=Revision 4.10 
##DATA TYPE=MASS SPECTRUM
##SAMPLE DESCRIPTION=A.A.Kutin, Moscow, Russia
##NAMES=HP
##CAS NAME=Thiophene-2-carboxamide, N-(3-cyanophenyl)-
##MOLFORM=C12H8N2OS
##CAS REGISTRY NO=137272-72-1
##MP= -300
##BP= -300
##MW= 228
##$RETENTION INDEX=0
##$CONDENSED SPECTRUM=NO
##NPOINTS= 110
##XYDATA=(XY..XY) 1 
    33          1
    34          0
    37          9
    38         25
    39        226
    40         18
    41          3
    42          1
    43          1
    44          5
    45         22
    46          0
    47          0
    48          0
    49          2
    50         11
    51         10
    52          8
    53         10
    54          1
    55          1
    57         25
    58          9
    59          1
    60          0
    61          2
    62          9
    63         21
    64         18
    65          4
    66          2
    67          0
    69          5
    70          2
    71          2
    72          1
    73          1
    74          2
    75         10
    76          7
    77          4
    78          0
    79          0
    81         10
    82         17
    83         81
    84          8
    85          4
    86          1
    87          1
    88          3
    89          5
    90         27
    91          4
    92          0
    93          0
    94          0
    95          0
    96          0
    97          0
    98          0
    99          1
   100          2
   101          2
   102         12
   103          1
   105          1
   106          0
   109          2
   111        999
   113        103
   114          6
   115          1
   116          3
   117          8
   118          3
   119          0
   120          0
   125          0
   127          0
   128          0
   129          0
   130          0
   134          0
   140          0
   141          0
   142          0
   144          0
   145          4
   146          0
   147          1
   149          0
   153          0
   155          1
   156          0
   165          0
   171          0
   172          0
   173          0
   189          0
   191          0
   198          1
   199          1
   200          0
   209          0
   228        138
   229         20
   230          8
   231          0
   232          0