##TITLE=Library Entry 89108
##JCAMP-DX=Revision 4.10 
##DATA TYPE=MASS SPECTRUM
##SAMPLE DESCRIPTION=A.A.Kutin, Moscow, Russia
##NAMES=HP
##CAS NAME=Thiophene-2-carboxamide, N-2-trifluoromethylphenyl-
##MOLFORM=C12H8F3NOS
##CAS REGISTRY NO=137272-70-9
##MP= -300
##BP= -300
##MW= 271
##$RETENTION INDEX=0
##$CONDENSED SPECTRUM=NO
##NPOINTS= 124
##XYDATA=(XY..XY) 1 
    33          1
    34          0
    37         14
    38         40
    39        206
    40         16
    41          4
    43          1
    44          4
    45         42
    46          2
    47          4
    48          0
    49          5
    50         24
    51         14
    52         15
    53         18
    54          2
    55          2
    56          5
    57         59
    58         18
    59          3
    60          1
    61          2
    62         10
    63         34
    64         17
    65          6
    66          2
    68          1
    69         35
    70          4
    71          2
    72          1
    74          6
    75         21
    76          7
    77          7
    78          6
    79          0
    80          3
    81         30
    82         39
    83        125
    84         12
    85          7
    86          0
    87          5
    88         12
    89          5
    90          6
    91         13
    92          2
    93          3
    94          2
    95         14
    96          1
    99          5
   100          5
   101          2
   102          4
   106          1
   107          3
   108          2
   109          7
   110         13
   111        999
   112         63
   113         82
   114         35
   115          2
   119          3
   120         21
   121          2
   122          1
   123          0
   125          6
   126          2
   127          1
   131          1
   132          9
   133         16
   134          1
   137          0
   138          1
   139          8
   140         32
   141         11
   142          0
   144          0
   145          5
   146          1
   148          1
   151          0
   152          0
   158          1
   159          1
   160         32
   161          3
   168         13
   169          0
   172          0
   173          3
   175          0
   187          0
   201          0
   202         13
   203          3
   204          1
   205          0
   221          0
   222          2
   232          8
   233          0
   250          1
   252          9
   253          0
   270          2
   271        260
   272         32
   273         14
   274          0