##TITLE=Library Entry 59618
##JCAMP-DX=Revision 4.10 
##DATA TYPE=MASS SPECTRUM
##SAMPLE DESCRIPTION=A.A.Kutin, Moscow, Russia
##NAMES=HP
##CAS NAME=Pyrido[2,3-d]pyrimidine-2,4,7(1H,3H,8H)-trione, 8-benzyl-5-hydrox
y-1,3-dimethyl-
##MOLFORM=C16H15N3O4
##CAS REGISTRY NO=137278-11-6
##MP= -300
##BP= -300
##MW= 313
##$RETENTION INDEX=0
##$CONDENSED SPECTRUM=NO
##NPOINTS= 210
##XYDATA=(XY..XY) 1 
    33          0
    34          0
    37          5
    38         17
    39         99
    40         22
    41         48
    42         63
    43         12
    44          8
    45          4
    46          0
    48          0
    49          2
    50         26
    51         82
    52         57
    53         44
    54         32
    55         30
    56         39
    57         13
    58         61
    59          2
    61          2
    62         12
    63         57
    64         29
    65        252
    66         39
    67         22
    68         46
    69        160
    70         17
    71          5
    72          1
    73          2
    74          5
    75          8
    76         16
    77         98
    78         34
    79         41
    80         34
    81         31
    82        107
    83         21
    84          3
    85          1
    86          2
    87          2
    89         64
    91        999
    92         68
    93          9
    94         12
    95          8
    96          6
    97          2
    98          1
    99          1
   100          1
   101          3
   102          5
   103         14
   104         59
   105         14
   106         16
   107         16
   108          3
   109          8
   110         12
   111          9
   112          1
   113          1
   114          2
   115          5
   116          4
   117          5
   118          8
   119          1
   120          1
   121          1
   122          5
   123          3
   124          3
   125          3
   126          1
   127          2
   128          6
   129          8
   130          4
   131          3
   132          5
   133          1
   134          0
   135          1
   136          5
   137         15
   138          5
   139          2
   140          2
   141          3
   142          2
   143          1
   144          1
   145          3
   146          1
   147          0
   148          0
   149          9
   150          9
   151          3
   152          4
   153          2
   154          1
   155          1
   156          4
   157          6
   158          1
   159          0
   160          0
   161          0
   162          0
   163          1
   165         86
   166          7
   167          2
   168          0
   169          1
   170          1
   171          1
   172          0
   173          0
   174          0
   176          0
   177          0
   178          1
   179          2
   180          3
   181          4
   182          1
   183          0
   184          0
   185          1
   186          0
   187          0
   188          0
   192          0
   193          0
   194          6
   195          2
   196          0
   197          0
   198          0
   199          0
   200          0
   201          0
   202          0
   203          0
   205          0
   206          5
   207         41
   208         17
   209         40
   210          6
   211          1
   212          0
   213          0
   214          0
   220          0
   222         17
   223          4
   224          0
   225          0
   226          0
   227          0
   228          0
   234          0
   236         24
   237          3
   238          0
   239          0
   240          0
   241          0
   242          0
   246          0
   247          0
   248          0
   254          0
   255          2
   256          0
   257          0
   268          0
   270          0
   271          0
   283          0
   284          1
   285          0
   294          0
   295          1
   296          1
   297          0
   298          0
   309          0
   310          1
   312          6
   313         39
   314          7
   315          1