##TITLE=Library Entry 3718
##JCAMP-DX=Revision 4.10 
##DATA TYPE=MASS SPECTRUM
##SAMPLE DESCRIPTION=Japan AIST/NIMC Database- Spectrum MS-IW-6674
##NAMES=HP
##CAS NAME=L-Glutamine, N(2)-[(1,1-dimethylethoxy)carbonyl]-
##MOLFORM=C10H18N2O5
##CAS REGISTRY NO=13726-85-7
##MP= -300
##BP= -300
##MW= 246
##$RETENTION INDEX=0
##$CONDENSED SPECTRUM=NO
##NPOINTS= 104
##XYDATA=(XY..XY) 1 
    12          6
    13          2
    14          5
    15         22
    16        126
    17        187
    18        287
    19          2
    25          5
    26         49
    27        200
    28        405
    29        143
    30         26
    31         78
    32          1
    33          1
    36          1
    37         12
    38         28
    39        226
    40         60
    41        999
    42         53
    43         43
    44        768
    45         27
    46          5
    49          7
    50         23
    51         26
    52         14
    53         46
    54         45
    55        175
    56        479
    57        412
    58         22
    59        429
    60         13
    62          1
    64          1
    66          8
    67         10
    68          4
    69          4
    70          3
    71         14
    72         31
    73         41
    74         10
    75          1
    78          1
    79          1
    80          2
    81          3
    82         18
    83        129
    84        889
    85         56
    86          5
    87          4
    88          7
    95          1
    98          2
    99          6
   100         33
   101        182
   102         13
   103          1
   110          5
   111          6
   112          2
   114          1
   115          1
   116          1
   117          1
   119          3
   126          7
   127         11
   128         15
   129         59
   130         21
   131          3
   132          1
   144          9
   145         88
   146         26
   147          7
   148          1
   149          1
   154          2
   155         30
   156          4
   157          2
   172         12
   173         68
   174          6
   175          2
   190         46
   191          7
   192          1
   201         39
   202          5