##TITLE=Library Entry 114655
##JCAMP-DX=Revision 4.10 
##DATA TYPE=MASS SPECTRUM
##SAMPLE DESCRIPTION=Japan AIST/NIMC Database- Spectrum MS-IW-6142
##NAMES=HP
##CAS NAME=trans-N-tert-Butoxycarbonyl-4-hydroxy-l-proline
##MOLFORM=C10H17NO5
##CAS REGISTRY NO=13726-69-7
##MP= -300
##BP= -300
##MW= 231
##$RETENTION INDEX=0
##$CONDENSED SPECTRUM=NO
##NPOINTS= 82
##XYDATA=(XY..XY) 1 
    15          9
    16          1
    17          2
    18          9
    26          3
    27         28
    28         49
    29        110
    30         28
    31         13
    32          1
    37          1
    38          3
    39         51
    40         12
    41        327
    42         40
    43         49
    44         80
    45         12
    50          3
    51          4
    52          1
    53          8
    54          7
    55         47
    56        123
    57        994
    58         80
    59         55
    60          2
    66          1
    67          5
    68        372
    69         48
    70          5
    72          2
    73         16
    74          8
    75          7
    82          1
    83          2
    84         13
    85          8
    86        948
    87        128
    88         19
    89          1
    94          1
    96          3
   100          2
   101          3
   102          5
   103         21
   104          1
   111          1
   112         17
   113         25
   114          6
   128          2
   129         26
   130        999
   131        233
   132         82
   133          5
   142         10
   143          1
   157          3
   158         84
   159          6
   160          1
   172         20
   173          1
   175          5
   176         43
   177          3
   186         91
   187         27
   188          3
   216          1
   231          2
   232          3