##TITLE=Library Entry 79893
##JCAMP-DX=Revision 4.10 
##DATA TYPE=MASS SPECTRUM
##SAMPLE DESCRIPTION=Exported from NIST MS Search
##NAMES=HP
##CAS NAME=2-Quinolinecarbonitrile, 1-benzoyl-1,2-dihydro-
##MOLFORM=C17H12N2O
##CAS REGISTRY NO=13721-17-0
##MP= -300
##BP= -300
##MW= 260
##$RETENTION INDEX=0
##$CONDENSED SPECTRUM=NO
##NPOINTS= 13
##XYDATA=(XY..XY) 1 
    50         40
    51        110
    76         30
    77        400
    78         30
   102         20
   105        999
   106         90
   128         40
   129         60
   155         40
   260        120
   261         30