##TITLE=Library Entry 26921
##JCAMP-DX=Revision 4.10 
##DATA TYPE=MASS SPECTRUM
##SAMPLE DESCRIPTION=Japan AIST/NIMC Database- Spectrum MS-NW-6315
##NAMES=HP
##CAS NAME=L-Phenylalanine, N-[(1,1-dimethylethoxy)carbonyl]-
##MOLFORM=C14H19NO4
##CAS REGISTRY NO=13734-34-4
##MP= -300
##BP= -300
##MW= 265
##$RETENTION INDEX=0
##$CONDENSED SPECTRUM=NO
##NPOINTS= 83
##XYDATA=(XY..XY) 1 
    15          9
    17          1
    18          3
    26          3
    27         26
    28         21
    29         93
    30          4
    31         29
    37          1
    38          5
    39         56
    40          8
    41        163
    42         10
    43         21
    44         12
    45          6
    46          3
    50          9
    51         25
    52          7
    53          5
    54          1
    55         16
    56         21
    57        999
    58         46
    59        197
    60          7
    61          1
    62          4
    63         14
    64          5
    65         61
    66          4
    73          6
    74         84
    75          4
    76          3
    77         31
    78          9
    79         11
    80          1
    87         18
    88          1
    89         12
    90          9
    91        466
    92        124
    93         10
   101          1
   102          4
   103         22
   104         23
   105          4
   107          6
   116          2
   117          6
   118         18
   119         12
   120        107
   121          9
   128          8
   130          6
   131          5
   146         16
   147         37
   148        500
   149         52
   150          5
   163         12
   164         82
   165         17
   166          5
   191          8
   192         17
   193          2
   209         97
   210         13
   211          2
   220          1
   265          2