##TITLE=Library Entry 29969
##JCAMP-DX=Revision 4.10 
##DATA TYPE=MASS SPECTRUM
##SAMPLE DESCRIPTION=Japan AIST/NIMC Database- Spectrum MS-IW-6993
##NAMES=HP
##CAS NAME=N-.alpha.-t-Boc-L-lysine
##MOLFORM=C11H22N2O4
##CAS REGISTRY NO=13734-28-6
##MP= -300
##BP= -300
##MW= 246
##$RETENTION INDEX=0
##$CONDENSED SPECTRUM=NO
##NPOINTS= 159
##XYDATA=(XY..XY) 1 
    14          7
    15         40
    16         22
    17         18
    18         99
    19          1
    24          1
    25          5
    26         54
    27        228
    28        384
    29        270
    30        848
    31        254
    32          4
    33          1
    34          1
    36          2
    37         16
    38         37
    39        299
    40         77
    41        893
    42        166
    43        460
    44        778
    45        105
    46         13
    47          1
    48          1
    49          9
    50         40
    51         44
    52         41
    53         74
    54        105
    55        282
    56        953
    57        966
    58         89
    59        999
    60         40
    61          3
    62          9
    63          4
    64          5
    65         11
    66         25
    67         57
    68         42
    69         50
    70        150
    71        137
    72        288
    73         33
    74         50
    75          8
    76          4
    77          5
    78         10
    79         26
    80         26
    81         46
    82        279
    83        561
    84        661
    85         53
    86         13
    87        126
    88         18
    89          7
    90          1
    91          3
    92          7
    93         17
    94          7
    95         12
    96          6
    97          9
    98         35
    99        117
   100        116
   101         18
   102          4
   103          3
   104          7
   105          2
   106          3
   107          6
   108          9
   109         21
   110         95
   111        145
   112         34
   113          8
   114          9
   115         42
   116        130
   117         18
   118          4
   119          8
   120          1
   121          1
   122          2
   123          3
   124          2
   125          4
   126         20
   127         40
   128        272
   129         72
   130         31
   131          3
   132          1
   133          2
   135          1
   136          2
   137          1
   138          1
   139          1
   140          3
   141          1
   142          1
   143        195
   144         16
   145         36
   146         89
   147         10
   148          1
   149          1
   150          1
   152          1
   153          1
   154         32
   155         53
   156          5
   157          8
   158          1
   159          2
   160          2
   161         25
   162          2
   164          1
   169          2
   170          1
   171          2
   172         29
   173        127
   174          9
   175          1
   187          1
   189          6
   190         85
   191         17
   192          2
   200          1
   201          2
   246          3
   247          4