##TITLE=Library Entry 65557
##JCAMP-DX=Revision 4.10 
##DATA TYPE=MASS SPECTRUM
##SAMPLE DESCRIPTION=Japan AIST/NIMC Database- Spectrum MS-IW-3171
##NAMES=HP
##CAS NAME=3-(Phenylhydrazono)-2-butanone
##MOLFORM=C10H12N2O
##CAS REGISTRY NO=13732-32-6
##MP= -300
##BP= -300
##MW= 176
##$RETENTION INDEX=0
##$CONDENSED SPECTRUM=NO
##NPOINTS= 66
##XYDATA=(XY..XY) 1 
    14          2
    15         27
    26          3
    27         10
    28         11
    29          1
    30          1
    37          5
    38         18
    39         89
    40         13
    41         18
    42         50
    43        703
    44         15
    45          2
    50         11
    51         37
    52         16
    53          5
    54          4
    55          3
    61          2
    62          8
    63         35
    64         51
    65        290
    66         34
    67          2
    69          1
    70          1
    71          9
    74          3
    75          2
    76          3
    77         63
    78         10
    79          3
    88          1
    90          4
    91         69
    92        999
    93        223
    94         14
    99          5
   103          1
   104          2
   105          6
   106         22
   107          5
   117          1
   118          3
   119          1
   120          1
   131          2
   132          4
   133         85
   134          9
   135          1
   147          1
   159          1
   161          3
   175          9
   176        975
   177        115
   178          8