##TITLE=Library Entry 41256
##JCAMP-DX=Revision 4.10 
##DATA TYPE=MASS SPECTRUM
##SAMPLE DESCRIPTION=NIST Mass Spectrometry Data Center
##NAMES=HP
##CAS NAME=1,2,3,5-Tetrathiane, 4,6-diethyl-, cis-
##MOLFORM=C6H12S4
##CAS REGISTRY NO=137363-91-8
##MP= -300
##BP= -300
##MW= 212
##$RETENTION INDEX=1606
##$CONDENSED SPECTRUM=NO
##NPOINTS= 88
##XYDATA=(XY..XY) 1 
    26          2
    27          9
    29          3
    32          2
    34          1
    35          1
    37          2
    38          4
    39         52
    40          2
    41        174
    42         10
    45        152
    46         25
    47         32
    48          2
    49          3
    51          1
    53          2
    55         10
    57          1
    58         22
    59         27
    60          8
    61          8
    64         64
    65          5
    66          8
    69          3
    70          1
    71         23
    72          7
    73        999
    74        415
    75         70
    76         23
    77         11
    78          6
    79          4
    81          8
    82          1
    83         15
    87          7
    91          3
    94          1
    95         16
    96         11
    98          1
    99          2
   101          1
   102          1
   103          3
   104          1
   105         13
   106         27
   107          9
   108          5
   109          7
   113          2
   115        207
   116         17
   117         12
   119          1
   121          2
   122          1
   123          1
   129          2
   131          7
   136          1
   138        229
   139         14
   140         31
   141          3
   142          4
   144          1
   147         88
   148          9
   149          6
   150          1
   156          2
   157          3
   183          1
   212        277
   213         26
   214         53
   215          6
   216          6
   217          1