##TITLE=Library Entry 45973
##JCAMP-DX=Revision 4.10 
##DATA TYPE=MASS SPECTRUM
##SAMPLE DESCRIPTION=NIST Mass Spectrometry Data Center
##NAMES=HP
##CAS NAME=1-Phenyl-1-(trimethylsilyloxy)ethylene
##MOLFORM=C11H16OSi
##CAS REGISTRY NO=13735-81-4
##MP= -300
##BP= -300
##MW= 192
##$RETENTION INDEX=0
##$CONDENSED SPECTRUM=NO
##NPOINTS= 115
##XYDATA=(XY..XY) 1 
    15         31
    18          3
    26          4
    27         24
    28         17
    29         36
    30          3
    31          9
    37          2
    38          7
    39         40
    40          4
    41          7
    42         21
    43        126
    44         62
    45        287
    46         22
    47        155
    48          8
    49          7
    50         52
    51        151
    52         21
    53         21
    54          2
    55         16
    56          3
    57         18
    58         17
    59         30
    60         19
    61         56
    62         14
    63         38
    64          8
    65         33
    66          6
    67          5
    68          2
    69          3
    70          8
    71          9
    72         63
    73        255
    75        999
    76        117
    77        289
    78         26
    79          6
    81         65
    83          2
    85          6
    86          2
    87          5
    89         32
    91         72
    92          6
    93          7
    95          3
    98          2
    99          1
   101          9
   102         54
   103         79
   104         11
   105         47
   106          5
   107          9
   109          2
   115         42
   116         10
   117         44
   118         46
   119         13
   120          9
   121         32
   122          4
   123          1
   128          2
   129          4
   130          1
   131          6
   132          2
   133         11
   135        251
   136         38
   137         11
   138          1
   143          1
   145         10
   146          2
   147         13
   148          4
   149         33
   150          4
   151          3
   159         14
   160          3
   161         26
   162          4
   163          2
   173          2
   174          1
   175         10
   177        526
   178         84
   179         24
   180          2
   189          2
   191        628
   192        302
   193         70
   194         13
   195          1