##TITLE=Library Entry 76817
##JCAMP-DX=Revision 4.10 
##DATA TYPE=MASS SPECTRUM
##SAMPLE DESCRIPTION=V.A.Korolev, Moscow, Russia
##NAMES=HP
##CAS NAME=3-(Butane-1-sulfinyl)propanoic acid
##MOLFORM=C7H14O3S
##CAS REGISTRY NO=137375-83-8
##MP= -300
##BP= -300
##MW= 178
##$RETENTION INDEX=0
##$CONDENSED SPECTRUM=NO
##NPOINTS= 74
##XYDATA=(XY..XY) 1 
    29        211
    30         11
    35         19
    36          6
    37          8
    38         21
    39        115
    41        210
    42         82
    43        423
    44        115
    45        375
    46         71
    47        108
    48         54
    49         29
    50         31
    51         17
    53         39
    55        502
    56        164
    57        771
    58         70
    59         76
    60         53
    61         75
    62          7
    63        129
    64         11
    65         17
    69          6
    70          3
    71         16
    72         21
    73         96
    74         26
    75         28
    76         17
    77         20
    79          1
    82          2
    85          7
    86          6
    87         24
    88         50
    89        136
    90         27
    91         11
    95          2
   101          1
   104        999
   105         59
   106        112
   107          9
   108          4
   118         10
   119         11
   120          5
   121         15
   122         82
   123          5
   124          3
   133          3
   143          2
   157          2
   160        122
   161        143
   162         29
   163         93
   164          8
   165          3
   178        141
   179         12
   180          7