##TITLE=Library Entry 33162
##JCAMP-DX=Revision 4.10 
##DATA TYPE=MASS SPECTRUM
##SAMPLE DESCRIPTION=CARL DJERASSI DEPT OF CHEM STANFORD UNIV STANFORD CALIF
 94305
##NAMES=HP
##CAS NAME=Cyclohexanone, 2-(1-methylethylidene)-
##MOLFORM=C9H14O
##CAS REGISTRY NO=13747-73-4
##MP= -300
##BP= -300
##MW= 138
##$RETENTION INDEX=1099
##$CONDENSED SPECTRUM=NO
##NPOINTS= 53
##XYDATA=(XY..XY) 1 
    32         10
    38         20
    39        350
    40         90
    41        480
    42         60
    43         80
    44         20
    50         30
    51         90
    52         50
    53        210
    54         80
    55        140
    56         30
    57         10
    62         10
    63         30
    64         10
    65         70
    66        160
    67        999
    68        230
    69        200
    70         20
    71         10
    77         80
    78         20
    79        130
    80         30
    81        240
    82        290
    83         40
    91         50
    92         10
    93         50
    94         20
    95        730
    96         70
    97         40
    98         10
   105         30
   107         10
   108         10
   109         70
   110         80
   111         10
   123        290
   124         30
   137         10
   138        900
   139        100
   140         10