##TITLE=Library Entry 72317
##JCAMP-DX=Revision 4.10 
##DATA TYPE=MASS SPECTRUM
##SAMPLE DESCRIPTION=Chemical Concepts
##NAMES=HP
##CAS NAME=1,4-Dioxaspiro[4.5]decane-6-carboxylic acid, ethyl ester
##MOLFORM=C11H18O4
##CAS REGISTRY NO=13747-72-3
##MP= -300
##BP= -300
##MW= 214
##$RETENTION INDEX=0
##$CONDENSED SPECTRUM=NO
##NPOINTS= 114
##XYDATA=(XY..XY) 1 
    26          9
    27         84
    28          4
    29        114
    30          9
    31         28
    35         22
    36         30
    37         10
    38         15
    39         57
    40         15
    41        140
    42         79
    43        121
    44         53
    45         62
    46          6
    47         39
    48         12
    49         24
    50         15
    51         20
    52         14
    53         28
    54         13
    55        208
    56         28
    57         36
    58         10
    59         10
    60         26
    61          6
    64          4
    65         10
    66          8
    67         32
    68         43
    69         98
    70         13
    71         19
    72          6
    73         36
    74         10
    76          7
    77         29
    78         40
    79         43
    80         10
    81         51
    82         17
    83         83
    84         94
    85         58
    86        301
    87         21
    88         11
    89         19
    91          9
    93          8
    94          7
    95         28
    96         15
    97         35
    98         16
    99        999
   100         74
   101         16
   102          3
   105          6
   106          4
   107          6
   108          6
   109         11
   110         19
   111         13
   112         32
   113        156
   114         29
   115          6
   117         40
   119         44
   121         13
   122          8
   123         29
   124         13
   125         61
   126         11
   127         32
   128          6
   130         12
   131         15
   137          6
   138          5
   139         10
   140          7
   141         40
   142         16
   143         33
   144          5
   149         11
   150          6
   151          5
   152          5
   168          5
   169        178
   170         29
   171        219
   172         33
   181          7
   185         26
   214        145
   215         17
   216          3