##TITLE=Library Entry 51384
##JCAMP-DX=Revision 4.10 
##DATA TYPE=MASS SPECTRUM
##SAMPLE DESCRIPTION=N.W. Davies, Centr. Sci. Lab., Univ. Tasmania, Hobart,
 Australia
##NAMES=HP
##CAS NAME=3,7-Octadiene-2,6-diol, 2,6-dimethyl-
##MOLFORM=C10H18O2
##CAS REGISTRY NO=13741-21-4
##MP= -300
##BP= -300
##MW= 170
##$RETENTION INDEX=1190
##$CONDENSED SPECTRUM=NO
##NPOINTS= 41
##XYDATA=(XY..XY) 1 
    26          7
    27        102
    29         35
    31         41
    39         60
    40         15
    41        144
    42         29
    43        572
    44         22
    45         16
    51          9
    53         42
    54         27
    55        113
    56         27
    57         10
    58          4
    59         39
    65          8
    66          6
    67        365
    68         27
    69         36
    70         18
    71        634
    72         30
    77          9
    79         12
    81         37
    82        999
    83         82
    84         10
    85         80
    91          5
    93          4
    95          5
   107          4
   109         12
   125          6
   137          5