##TITLE=Library Entry 29642
##JCAMP-DX=Revision 4.10 
##DATA TYPE=MASS SPECTRUM
##SAMPLE DESCRIPTION=Chemical Concepts
##NAMES=HP
##CAS NAME=1-Propene, 3-[2-(2-methoxyethoxy)ethoxy]-
##MOLFORM=C8H16O3
##CAS REGISTRY NO=13752-97-1
##MP= -300
##BP= -300
##MW= 160
##$RETENTION INDEX=0
##$CONDENSED SPECTRUM=NO
##NPOINTS= 87
##XYDATA=(XY..XY) 1 
    23          0
    25          1
    26         19
    27         51
    28         44
    29         92
    30          7
    31        119
    33          4
    37          2
    38          6
    39         98
    40         11
    41        494
    42         24
    43         99
    44         17
    45        269
    46          6
    47          3
    49          0
    50          1
    51          0
    52          0
    53          1
    54          3
    55         39
    56         22
    57         33
    58        185
    59        999
    60         34
    61          3
    62          0
    64          0
    65          0
    66          3
    67          5
    68          2
    69         11
    70          2
    71         83
    72          8
    73        205
    74          9
    75          6
    76         14
    77          1
    78          0
    79          0
    80          0
    81          0
    82          0
    83         13
    84         44
    85         57
    86          6
    87         14
    88          2
    89         75
    90          3
    91          0
    93          0
    97          1
    98          1
    99          4
   100          1
   101         24
   102          5
   103        123
   104          7
   105          1
   114          0
   115         18
   116          2
   117          0
   118          0
   119          0
   120          0
   121          0
   127          0
   128          0
   129          0
   131          1
   133          0
   134          0
   161          0