##TITLE=Library Entry 57386
##JCAMP-DX=Revision 4.10 
##DATA TYPE=MASS SPECTRUM
##SAMPLE DESCRIPTION=Institute of Organic Chemistry, Novosibirsk, USSR 1988
##NAMES=HP
##CAS NAME=Methyl 4,8-dimethylnonanoate
##MOLFORM=C12H24O2
##CAS REGISTRY NO=13758-80-0
##MP= -300
##BP= -300
##MW= 200
##$RETENTION INDEX=0
##$CONDENSED SPECTRUM=NO
##NPOINTS= 80
##XYDATA=(XY..XY) 1 
    31          4
    39         23
    41        145
    42         28
    43        258
    45          9
    53         11
    54          5
    55        208
    56         67
    57        316
    58          2
    59         55
    60          5
    61          3
    62          4
    67         11
    68          5
    69        177
    70         36
    71        387
    72         25
    73        101
    74        565
    75         55
    76          5
    79          2
    80          2
    81         34
    82          7
    83        136
    84          5
    85        169
    86          8
    87        999
    88        110
    89          8
    90          2
    93          5
    94          3
    95         73
    96          6
    97         32
    98         13
    99          3
   100          2
   107          6
   108          2
   109          9
   111         31
   112          7
   114          5
   115         76
   116          2
   117          6
   119          1
   124          4
   125          9
   126         35
   127        174
   128         10
   129          6
   130          1
   131          2
   134          1
   135         17
   143         81
   144          6
   149          5
   150          3
   151         12
   153         24
   154          2
   157         54
   158          4
   159          1
   160          3
   167          3
   169         40
   200          4