##TITLE=Library Entry 63045
##JCAMP-DX=Revision 4.10 
##DATA TYPE=MASS SPECTRUM
##SAMPLE DESCRIPTION=Chemical Concepts
##NAMES=HP
##CAS NAME=1,2-Ethanediamine, N'-(phenylmethyl)-N,N-bis[2-[(phenylmethyl)ami
no]ethyl]-
##MOLFORM=C27H36N4
##CAS REGISTRY NO=137516-01-9
##MP= -300
##BP= -300
##MW= 416
##$RETENTION INDEX=0
##$CONDENSED SPECTRUM=NO
##NPOINTS= 232
##XYDATA=(XY..XY) 1 
    26          1
    27          5
    28         19
    29          8
    30         26
    31          1
    35         36
    36        287
    37         11
    38         96
    39          9
    40         25
    41         10
    42         51
    43         16
    44         46
    45          2
    50          2
    51          5
    52          1
    53          1
    54          4
    55          6
    56         42
    57         30
    58        154
    59         18
    60          0
    62          0
    63          4
    64          1
    65         46
    66          3
    67          2
    68          4
    69          8
    70         35
    71         33
    72        134
    73         13
    74          0
    76          0
    77          9
    78          5
    79          9
    80          1
    81          2
    82          2
    83         19
    84         23
    85         60
    86         23
    87          6
    88          0
    89          6
    90          8
    91        999
    92         77
    93          3
    94          0
    95          2
    96          1
    97         22
    98         11
    99         22
   100          2
   101         32
   102          2
   103          4
   104         20
   105         30
   106         33
   107          6
   108          1
   109          1
   110          1
   111          5
   112          2
   113          2
   114         14
   115          2
   116          2
   117          6
   118         12
   119         12
   120         85
   121          9
   122         21
   123          3
   124          1
   125          2
   126          1
   127          2
   128          0
   129          2
   130          4
   131          4
   132         56
   133         36
   134        177
   135         21
   136          8
   137          1
   138          1
   139          2
   140          0
   141          0
   143          0
   144          2
   145          1
   146         27
   147         12
   148        220
   149         37
   150          3
   151         19
   152          2
   153          0
   154          0
   155          0
   156          0
   158          2
   159         19
   160          8
   161         45
   162          8
   163         66
   164          9
   165         14
   166          2
   167          1
   168          1
   169          0
   171          0
   172          0
   173          3
   174         24
   175        493
   176         76
   177        173
   178         34
   179          5
   180          1
   181          1
   185          0
   187          7
   188          3
   189         96
   190         51
   191         16
   192          2
   193          0
   194          0
   195          0
   196          5
   197          1
   198          2
   199          0
   200          3
   201         11
   202         29
   203         19
   204         14
   205        140
   206         23
   207          2
   208          1
   209          0
   210          2
   211          0
   212          0
   213          0
   214          1
   215          1
   216          3
   217         10
   218          8
   219          1
   220          3
   221          1
   222          1
   223          0
   224          5
   225          1
   226          0
   228          0
   232          1
   233          0
   234          0
   236          0
   239          4
   240          0
   242          0
   243          0
   244          0
   251          0
   252          0
   253          1
   254          0
   256          0
   265         12
   266          2
   267          2
   279          1
   281          0
   282          1
   284        110
   285         22
   286          2
   290          0
   291          0
   292          1
   293          0
   294          7
   295          2
   296        287
   297         55
   298          6
   299          0
   307          1
   308          1
   309          1
   310          1
   312          0
   324          1
   325          0
   334          0
   335          0
   339          0
   340          0
   416          0
   417          1