##TITLE=Library Entry 10630
##JCAMP-DX=Revision 4.10 
##DATA TYPE=MASS SPECTRUM
##SAMPLE DESCRIPTION=J.H.BOWIE UNIVERSITY OF ADELAIDE, AUSTRALIA
##NAMES=HP
##CAS NAME=6,7-Dodecanedione
##MOLFORM=C12H22O2
##CAS REGISTRY NO=13757-90-9
##MP= -300
##BP= -300
##MW= 198
##$RETENTION INDEX=0
##$CONDENSED SPECTRUM=NO
##NPOINTS= 17
##XYDATA=(XY..XY) 1 
    27        120
    29        200
    39         60
    41        200
    42         80
    43        999
    44         60
    55        120
    57         40
    71        630
    72         70
    99        860
   100         80
   141         30
   155         20
   169         20
   198         50