##TITLE=Library Entry 56770
##JCAMP-DX=Revision 4.10 
##DATA TYPE=MASS SPECTRUM
##SAMPLE DESCRIPTION=Z. Moldovan, Inst. Isotop. Mol. Technol., Cluj-Napoca,
 Romania
##NAMES=HP
##CAS NAME=Phosphine sulfide, methyl(4-morpholinyl)phenyl-
##MOLFORM=C11H16NOPS
##CAS REGISTRY NO=137552-59-1
##MP= -300
##BP= -300
##MW= 241
##$RETENTION INDEX=0
##$CONDENSED SPECTRUM=NO
##NPOINTS= 36
##XYDATA=(XY..XY) 1 
    39         28
    42         37
    43         47
    44         18
    45          9
    46         37
    51         94
    54         18
    55         18
    56        179
    57         28
    58         56
    63        188
    65         18
    77        113
    78         66
    79         18
    86        999
    87         37
    91         66
   107         47
   109         84
   121         37
   123         56
   140         18
   141         66
   154         28
   155        301
   156        142
   157         18
   184         28
   194         28
   208         19
   209          9
   241         94
   242         18