##TITLE=Library Entry 4488
##JCAMP-DX=Revision 4.10 
##DATA TYPE=MASS SPECTRUM
##SAMPLE DESCRIPTION=D.HENNEBERG, MAX-PLANCK INSTITUTE, MULHEIM, WEST GERMAN
Y
##NAMES=HP
##CAS NAME=1,1-Cyclopropanedicarbonitrile, 2,2,3-trimethyl-
##MOLFORM=C8H10N2
##CAS REGISTRY NO=13764-28-8
##MP= -300
##BP= -300
##MW= 134
##$RETENTION INDEX=0
##$CONDENSED SPECTRUM=NO
##NPOINTS= 85
##XYDATA=(XY..XY) 1 
    22          0
    23          1
    24          1
    25          5
    26         69
    27        429
    28        175
    29        242
    30          8
    34          1
    35          4
    36          5
    37         53
    38        104
    39        580
    40        143
    41        705
    42        999
    43        212
    44          3
    45          1
    46          8
    47          1
    48          2
    49          7
    50         37
    51         66
    52         76
    53         93
    54         38
    55        105
    56         85
    57          3
    59          0
    60          2
    61          6
    62         15
    63         45
    64         78
    65        251
    66        169
    67         56
    68         24
    69         85
    70         27
    72          2
    73          0
    74          2
    75         13
    76         27
    77         38
    78         42
    79        111
    80         69
    81         36
    82          2
    86          1
    87          1
    88          3
    89          3
    90         13
    91         63
    92        637
    93        381
    94         43
    95          2
   101          0
   102         16
   103          5
   104          5
   105         27
   106         99
   107         93
   108          9
   116          0
   117          8
   118         37
   119        480
   120         39
   121          0
   131          0
   132          3
   133         91
   134         46
   135          4