##TITLE=Library Entry 63011
##JCAMP-DX=Revision 4.10 
##DATA TYPE=MASS SPECTRUM
##SAMPLE DESCRIPTION=A. Brossi, LC, NIDDK, NIH, Bethesda, MD 20892
##NAMES=HP
##CAS NAME=Pyrrolid-2-one-5-ethanoic acid, N-benzyl-, ethyl ester
##MOLFORM=C14H17NO3
##CAS REGISTRY NO=137641-62-4
##MP= -300
##BP= -300
##MW= 247
##$RETENTION INDEX=0
##$CONDENSED SPECTRUM=NO
##NPOINTS= 163
##XYDATA=(XY..XY) 1 
    41         65
    42         47
    43         26
    44         10
    45         60
    46          0
    47          1
    48          0
    49          3
    50         22
    51         57
    52         18
    53          8
    54         26
    55         71
    56         40
    57         14
    58          3
    59          4
    60          1
    61          1
    62         10
    63         48
    64         16
    65        205
    66         13
    67          6
    68         20
    69         10
    70          3
    71          6
    72          2
    73          3
    74          5
    75          5
    76          7
    77         43
    78         20
    79         15
    80          2
    81          4
    82          8
    83          9
    84         26
    85          6
    86          7
    87         14
    88          2
    89         65
    90         45
    91        999
    92        120
    93          6
    94          1
    95          3
    96          3
    97          4
    98          2
    99          1
   100          2
   101          1
   102          3
   103          6
   104         59
   105         20
   106         26
   107          6
   108          1
   109          2
   110          2
   111          2
   112          2
   113          1
   114          5
   115          7
   116          7
   117         28
   118         34
   119         13
   120          1
   121          1
   122          0
   123          1
   124          1
   125          1
   126          0
   127          1
   128          7
   129          5
   130         10
   131          3
   132         10
   133          1
   135          1
   136          0
   137          1
   138          0
   139          0
   140          0
   141          1
   142          2
   143          2
   144         10
   145          5
   146        104
   147         15
   148          1
   149          1
   150          0
   151          0
   152          0
   153          0
   154          0
   155          1
   156          8
   157          2
   158          1
   160          0
   161          0
   162          0
   163          6
   164          1
   165          0
   167          0
   169          0
   170          0
   171          0
   172          3
   173          5
   174        500
   175         69
   176          5
   177          1
   178          0
   179          0
   180          0
   181          3
   182          0
   184          0
   189          0
   190          1
   191          3
   192          0
   193          0
   197         15
   198          2
   202          0
   204          0
   205          0
   212          0
   214          0
   218          3
   219        129
   220         24
   221          3
   222          0
   235          0
   239          0
   246          9
   247         60
   248         16
   249          2
   250          0