##TITLE=Library Entry 27640
##JCAMP-DX=Revision 4.10 
##DATA TYPE=MASS SPECTRUM
##SAMPLE DESCRIPTION=Chemical Concepts
##NAMES=HP
##CAS NAME=Molybdenum, bis[(1,2,3,4,5-.eta.)-1,3-bis(1,1-dimethylethyl)-2,4-
cyclopentadien-1-yl]di-.mu.-carbonyldicarbonyldi-, (mo-mo)
##MOLFORM=C30H42Mo2O4
##CAS REGISTRY NO=137680-72-9
##MP= -300
##BP= -300
##MW= 662
##$RETENTION INDEX=0
##$CONDENSED SPECTRUM=NO
##NPOINTS= 543
##XYDATA=(XY..XY) 1 
    26         51
    27        124
    29        354
    30          0
    37          3
    38          2
    39        113
    40         15
    41        497
    42         80
    43        203
    44         13
    50          6
    51         22
    52          7
    53         17
    54          9
    55         51
    56         25
    57        999
    58         36
    60          1
    61          1
    63         12
    65         15
    67          9
    68          0
    69         15
    71          6
    72          4
    74          0
    77         28
    78          2
    79         10
    81          4
    83          1
    84          2
    85          3
    91         45
    92         41
    93          3
    94         11
    95         31
    96         42
    97         20
    98         54
   100         15
   103          2
   105         28
   106          1
   107         13
   109          0
   112          1
   113          0
   115         13
   116          0
   117         15
   118          1
   119         23
   120         11
   121         21
   122          1
   125          1
   127          1
   128          1
   129          5
   130          0
   131          9
   132          8
   133          1
   134         10
   135         13
   136          2
   137          0
   141          2
   145          4
   146          1
   155          2
   157          0
   158          3
   160          1
   161          2
   162          2
   163          1
   165          1
   169          0
   172          4
   173          5
   174         15
   175          2
   179          1
   180          1
   182          0
   183          5
   184          8
   185         16
   186         21
   187         22
   188          5
   189         13
   190          4
   191          0
   192         12
   193         18
   194         20
   195          6
   196         32
   197         38
   198         37
   199         40
   200         45
   201         21
   202         12
   203         17
   204         30
   205         29
   206         36
   207         40
   208         47
   209         48
   210         71
   211         80
   212         76
   213         83
   214         47
   215         49
   216         28
   217         38
   218         30
   219         68
   220         51
   221         59
   222         92
   223        105
   224         95
   225        144
   226         75
   227         84
   228         42
   229         38
   230         44
   231         53
   232         74
   233         70
   234         81
   235        155
   236        101
   237        142
   238        153
   239        166
   240        148
   241        196
   242         90
   243        125
   244         64
   245         57
   246         38
   247         56
   248         57
   249         81
   250         66
   251         98
   252         82
   253         89
   254         65
   255         87
   256         59
   257         58
   258         42
   259         55
   260         52
   261         52
   262         63
   263         61
   264         52
   265         69
   266         46
   267         61
   268         73
   269         83
   270         95
   271         72
   272         59
   273         44
   274         37
   275         13
   276          5
   277          2
   280          1
   281          6
   282          1
   283          3
   284          6
   285          5
   286          2
   287          6
   288          1
   289          1
   290          1
   292          1
   293          4
   295          4
   296         12
   297         14
   298         17
   299         32
   300         10
   301         23
   302          2
   303          4
   304          3
   306          2
   307          5
   308          1
   310          5
   312          1
   313          5
   314          3
   315          3
   317          5
   318         14
   319          7
   320         15
   321         11
   322         14
   323          4
   324          0
   326          6
   327          7
   328         11
   329         24
   330         20
   331         24
   332         19
   333         19
   334         18
   335         10
   336         10
   337         12
   338          2
   339          9
   340         11
   341         12
   342         15
   343         30
   344         26
   345         31
   346         29
   347         24
   348         25
   349         18
   350         16
   351         13
   352         14
   353         25
   354         22
   355         30
   356         31
   357         45
   358         39
   359         44
   360         35
   361         30
   362         33
   363         22
   364         25
   365         13
   366         25
   367         36
   368         41
   369         42
   370         51
   371         54
   372         73
   373         50
   374         51
   375         43
   376         42
   377         23
   378         32
   379         35
   380         38
   381         36
   382         42
   383         46
   384         47
   385         42
   386         47
   387         39
   388         38
   389         16
   390         28
   391         19
   392         45
   393         46
   394         57
   395         60
   396         58
   397         72
   398         64
   399         60
   400         63
   401         52
   402         45
   403         46
   404         65
   405         63
   406         69
   407         85
   408        106
   409        118
   410        107
   411        118
   412        111
   413        102
   414         97
   415         79
   416         86
   417         71
   418         92
   419         94
   420        108
   421         89
   422        135
   423        103
   424        128
   425        101
   426        120
   427         95
   428        110
   429        102
   430         96
   431         90
   432         93
   433         87
   434         81
   435         58
   436         74
   437         50
   438         50
   439         47
   440         54
   441         37
   442         53
   443         44
   444         52
   445         54
   446         62
   447         67
   448         75
   449         68
   450         69
   451         52
   452         65
   453         54
   454         55
   455         56
   456         57
   457         58
   458         80
   459         78
   460        100
   461         88
   462         96
   463         89
   464        100
   465         99
   466        120
   467         94
   468        125
   469        112
   470        131
   471        126
   472        144
   473        158
   474        153
   475        122
   476        152
   477        140
   478        143
   479        138
   480        176
   481        152
   482        162
   483        150
   484        187
   485        143
   486        160
   487        130
   488        126
   489         80
   490         82
   491         53
   492         50
   493         33
   494         39
   495         40
   496         35
   497         40
   498         38
   499         38
   500         38
   501         40
   502         52
   503         46
   504         47
   505         35
   506         46
   507         54
   508         45
   509         60
   510         67
   511         71
   512         73
   513         78
   514         78
   515         79
   516        102
   517         92
   518        116
   519         98
   520        123
   521        132
   522        142
   523        155
   524        211
   525        176
   526        227
   527        210
   528        256
   529        209
   530        248
   531        219
   532        265
   533        218
   534        300
   535        287
   536        386
   537        352
   538        426
   539        402
   540        479
   541        434
   542        451
   543        373
   544        377
   545        241
   546        261
   547        158
   548        134
   549         72
   550         60
   551         27
   552         30
   553         19
   554          3
   555          5
   556         14
   557          7
   558         11
   559          4
   560         12
   561          1
   562         52
   563         38
   564         98
   565        102
   566        185
   567        186
   568        306
   569        278
   570        372
   571        316
   572        327
   573        250
   574        258
   575        167
   576        162
   577         60
   578         63
   579         15
   580          3
   582          1
   585          4
   587          5
   588          1
   589          2
   590         52
   591         10
   592        124
   593        140
   594        228
   595        339
   596        500
   597        489
   598        814
   599        707
   600        850
   601        783
   602        761
   603        515
   604        515
   605        215
   606        223
   607         71
   608         53
   609         13
   622         65
   623         22
   624         72
   625        150
   626        209
   627        210
   628        390
   629        298
   630        412
   631        387
   632        368
   633        302
   634        321
   635        135
   636        136
   637         51
   638         26
   639          1
   647          1
   650         30
   651          5
   652         50
   653         95
   654        117
   655        116
   656        244
   657        179
   658        250
   659        235
   660        238
   661        182
   662        190
   663         80
   664         81
   665         27
   666         22