##TITLE=Library Entry 55456
##JCAMP-DX=Revision 4.10 
##DATA TYPE=MASS SPECTRUM
##SAMPLE DESCRIPTION=Exported from NIST MS Search
##NAMES=HP
##CAS NAME=Phosphoryl chloride difluoride
##MOLFORM=ClF2OP
##CAS REGISTRY NO=13769-75-0
##MP= -300
##BP= -300
##MW= 120
##$RETENTION INDEX=0
##$CONDENSED SPECTRUM=NO
##NPOINTS= 17
##XYDATA=(XY..XY) 1 
    31         35
    32          2
    35         33
    37         10
    38          4
    42          3
    44          3
    47         54
    50         53
    52          5
    66         47
    69        156
    85        999
   101        186
   103         59
   120        807
   122        260