##TITLE=Library Entry 73468
##JCAMP-DX=Revision 4.10 
##DATA TYPE=MASS SPECTRUM
##SAMPLE DESCRIPTION=Darrick Lee, Cayman Chemical, Ann Arbor, MI
##NAMES=HP
##CAS NAME=(.+/-.)-WIN 55,212 (mesylate)
##MOLFORM=C27H26N2O3
##CAS REGISTRY NO=137795-17-6
##MP= -300
##BP= -300
##MW= 426
##$RETENTION INDEX=0
##$CONDENSED SPECTRUM=NO
##NPOINTS= 190
##XYDATA=(XY..XY) 1 
    41         13
    42         17
    43          5
    44          6
    45          2
    51          1
    52          1
    54          4
    56         65
    57          4
    58          1
    62          1
    63          3
    64          1
    65          1
    66          1
    67          2
    68          4
    69          3
    70         37
    71          4
    72         14
    73          1
    74          2
    75          4
    76          3
    77          9
    78          2
    80          1
    82          2
    85          1
    86          1
    87          1
    88          1
    89          6
    90          5
    91          1
    94          1
    95          1
    96          1
    97          1
    98         21
   100        999
   101         64
   102          8
   103          2
   104          1
   107          1
   112          1
   113          1
   114          2
   115         10
   116          7
   117          6
   118          1
   119          1
   120          1
   121          1
   122          1
   124          1
   125          1
   126         17
   127         92
   128         17
   129          4
   130          1
   133          1
   134          1
   135          1
   136          1
   139          2
   140          2
   141          4
   142          6
   143          4
   144          1
   145          1
   146          1
   147          1
   148          1
   149          1
   150          1
   151          1
   152          2
   153          1
   155         44
   156          6
   157          2
   158          1
   159          1
   163          1
   164          1
   165          1
   166          1
   169          1
   170          7
   171          3
   172          1
   173          1
   174          1
   175          1
   176          2
   177          1
   184          1
   185          1
   186          1
   187          1
   188          1
   189          2
   190          1
   191          1
   198          3
   199          1
   200          4
   201          2
   202          6
   203          1
   204          1
   210          1
   211          1
   212          1
   213          3
   214          2
   215          4
   216          1
   217          1
   224          1
   225          1
   226          4
   227          5
   228          4
   229          1
   230          1
   231          1
   237          1
   238          1
   239          2
   240          4
   241          4
   242          2
   243          1
   244          1
   251          2
   252          2
   253          4
   254          7
   255          6
   256          3
   257          1
   264          1
   265          1
   266          2
   267          3
   268          3
   269          2
   270          4
   271          1
   278          1
   280          3
   281          2
   282          4
   283          5
   284          2
   285          2
   294          2
   295          1
   296          4
   297          2
   298          5
   299          2
   300          1
   307          1
   308          2
   309          2
   310          3
   311          2
   312          1
   322          1
   324          3
   326         23
   327          6
   328          1
   338          1
   339          1
   340          1
   407          1
   424          2
   426         27
   427          7
   428          1