##TITLE=Library Entry 191
##JCAMP-DX=Revision 4.10 
##DATA TYPE=MASS SPECTRUM
##SAMPLE DESCRIPTION=Exported from NIST MS Search
##NAMES=HP
##CAS NAME=Nitrogen fluoride, (E)-
##MOLFORM=F2N2
##CAS REGISTRY NO=13776-62-0
##MP= -300
##BP= -300
##MW= 66
##$RETENTION INDEX=0
##$CONDENSED SPECTRUM=NO
##NPOINTS= 9
##XYDATA=(XY..XY) 1 
    14        245
    19         54
    28        999
    29          8
    33        114
    34          1
    47        970
    48          7
    66        256