##TITLE=Library Entry 29237
##JCAMP-DX=Revision 4.10 
##DATA TYPE=MASS SPECTRUM
##SAMPLE DESCRIPTION=Dennis Rohrbaugh, CBDCOM/ERDEC, Edgewood, MD
##NAMES=HP
##CAS NAME=O-Ethyl phosphonodiamide, N,N'-di(isopropyl)-
##MOLFORM=C8H21N2O2P
##CAS REGISTRY NO=137796-04-4
##MP= -300
##BP= -300
##MW= 208
##$RETENTION INDEX=0
##$CONDENSED SPECTRUM=NO
##NPOINTS= 34
##XYDATA=(XY..XY) 1 
    46         64
    56         43
    58        999
    59         43
    60         37
    64         54
    65         39
    79        115
    80        331
    81         31
    97         36
   104         17
   105         29
   106         31
   108         57
   109          4
   120         18
   121         31
   122        261
   123        133
   125         18
   136         21
   137         17
   147         23
   149         30
   150         25
   151         80
   152          8
   163         22
   165         54
   193        372
   194         31
   207          3
   208         21