##TITLE=Library Entry 58570
##JCAMP-DX=Revision 4.10 
##DATA TYPE=MASS SPECTRUM
##SAMPLE DESCRIPTION=A.F.CLIFFORD VA. POLYTECHNIC INST., BLACKSBURG, VA., US
A
##NAMES=HP
##CAS NAME=Sulfur, pentafluoro(imidosulfurous difluoridato-N)-, (OC-6-21)-
##MOLFORM=F7NS2
##CAS REGISTRY NO=13774-70-4
##MP= -300
##BP= -300
##MW= 211
##$RETENTION INDEX=0
##$CONDENSED SPECTRUM=NO
##NPOINTS= 41
##XYDATA=(XY..XY) 1 
    33          3
    34          3
    35          2
    36          4
    38          2
    39          2
    40          3
    41          4
    42          2
    43         13
    44          1
    46        308
    47          6
    48         19
    51        101
    53          6
    58          4
    63          3
    64          3
    65        254
    66          4
    67         19
    70        242
    71          3
    72         13
    79          3
    84         53
    86          7
    89        999
    90         10
    91         45
   103          9
   108         26
   127        845
   128          9
   129         40
   154          6
   192         24
   194          3
   211         27
   213          3