##TITLE=Library Entry 5618
##JCAMP-DX=Revision 4.10 
##DATA TYPE=MASS SPECTRUM
##SAMPLE DESCRIPTION=P.A. Leclercq, Lab. Instrum. Anal., Tech. Univ. Eindhov
en, Netherlands
##NAMES=HP
##CAS NAME=Acetamide, N-acetyl-N,N'-1,2-ethanediylbis-
##MOLFORM=C8H14N2O3
##CAS REGISTRY NO=137706-80-0
##MP= -300
##BP= -300
##MW= 186
##$RETENTION INDEX=0
##$CONDENSED SPECTRUM=NO
##NPOINTS= 32
##XYDATA=(XY..XY) 1 
    15        197
    26          7
    28         32
    30        603
    31         46
    40         13
    41         28
    43        999
    44         92
    45         57
    54         11
    55         36
    56         15
    57          9
    58         21
    59         35
    60         51
    70          8
    72        329
    73        522
    74         26
    83         23
    85        389
    86         37
    87         52
    99          9
   102        115
   103          9
   115         66
   126         19
   127         68
   143         23