##TITLE=Library Entry 85209
##JCAMP-DX=Revision 4.10 
##DATA TYPE=MASS SPECTRUM
##SAMPLE DESCRIPTION=Humboldt-Universitat zu Berlin, Department of Chemistry
, Analytical Group
##NAMES=HP
##CAS NAME=1H-Indene-3-carboxylic acid, 7-(phenoxysulfonyl)-, 4-methylphenyl
 ester
##MOLFORM=C23H18O5S
##CAS REGISTRY NO=137833-35-3
##MP= -300
##BP= -300
##MW= 406
##$RETENTION INDEX=0
##$CONDENSED SPECTRUM=NO
##NPOINTS= 189
##XYDATA=(XY..XY) 1 
    12          2
    14          3
    15          3
    16          5
    17          3
    18          3
    26         10
    27         33
    28          9
    29          9
    31          1
    32          3
    37          7
    38         30
    39        217
    40         14
    41          7
    42          3
    43          5
    44          6
    45          3
    48          6
    49          4
    50         31
    51         67
    52         29
    53         41
    54          5
    55         12
    56          1
    57          3
    60          2
    61          8
    62         44
    63        158
    64         42
    65        249
    66         35
    67          3
    68          2
    69          8
    70          2
    71          3
    73          2
    74         17
    75         18
    76         13
    77        160
    78         34
    79         70
    80         24
    81          5
    82          2
    83          1
    85          4
    86         25
    87         49
    88         87
    89         33
    90         20
    91         13
    92          3
    93         34
    94         24
    95          3
    98          2
    99          2
   101         12
   102         20
   103          5
   104          1
   105          3
   107        135
   108        999
   109         76
   110          8
   111          3
   113        350
   114        457
   115         64
   116          4
   117          1
   119          1
   121          1
   122          1
   126          1
   127          1
   128          1
   129         10
   130          9
   131          2
   132          1
   133          7
   134          4
   135          2
   139          3
   141        444
   142        185
   143         18
   144          1
   145          6
   146          2
   147          1
   150          2
   151          4
   152          8
   153          2
   157         64
   158         11
   159          3
   161          4
   162          1
   163          2
   164          1
   165          4
   166          1
   168          1
   171          1
   173          2
   174          1
   175          0
   176          7
   177          5
   178         24
   179         11
   180          1
   181          1
   185          0
   187          1
   189         15
   190          6
   191          3
   192          2
   193          3
   194          1
   195          0
   197          1
   199          0
   200          0
   201          0
   202          2
   203          4
   205        429
   206         65
   207         34
   208          4
   209          1
   218          1
   219          3
   220          1
   221          5
   222          1
   223          1
   224          0
   225          1
   226          0
   227          0
   231          0
   232          0
   234         34
   235          7
   236          1
   237          0
   247          1
   248          1
   249          8
   250          2
   251          0
   253          2
   254          0
   269          1
   271          2
   272          1
   273          0
   298        145
   299         57
   300         16
   301          4
   302          0
   313          0
   314          0
   315          1
   316          0
   325          1
   329          0
   406         42
   407         10
   408          3
   409          0