##TITLE=Library Entry 13891
##JCAMP-DX=Revision 4.10 
##DATA TYPE=MASS SPECTRUM
##SAMPLE DESCRIPTION=Shen K. Yang, Dept. of Pharmacology., USUHS, Bethesda,
 MD 20814
##NAMES=HP
##CAS NAME=4-Chloroacetamidobenzophenone
##MOLFORM=C15H12ClNO2
##CAS REGISTRY NO=13788-59-5
##MP= -300
##BP= -300
##MW= 273
##$RETENTION INDEX=2245
##$CONDENSED SPECTRUM=NO
##NPOINTS= 163
##XYDATA=(XY..XY) 1 
    42         98
    43        999
    44         25
    45          4
    47         65
    48         27
    49         31
    50         83
    51        377
    52         55
    53         25
    54          3
    55          5
    56          1
    57          6
    59          1
    60          1
    61         12
    62         48
    63        143
    64         28
    65         17
    66          0
    67          4
    68          1
    69          8
    70          8
    71          5
    72          6
    73         26
    74         30
    75         44
    76         39
    77        568
    78         44
    79          3
    80          0
    81          1
    82          0
    83         12
    84         14
    86         12
    87         15
    88         36
    89         28
    90         62
    91         27
    92          4
    93          1
    95          1
    97         12
    98         25
    99         62
   100         14
   101         17
   102          7
   103          2
   104          0
   105        233
   106         16
   107          1
   108          0
   109          1
   110          5
   111          7
   112          4
   113         13
   114          9
   115         14
   116          3
   117          2
   118          1
   119          1
   120          0
   121          0
   122          1
   123          3
   124         37
   125         22
   126        102
   127         15
   128         19
   129          2
   130          2
   132          1
   133          1
   134          0
   136          2
   137          4
   138          6
   139         47
   140         26
   141          7
   142          1
   147          0
   148          1
   149          8
   150         10
   151         15
   152         13
   153          1
   154        120
   155          9
   156         28
   157          2
   160          0
   161          0
   162          1
   163          2
   164          7
   165          0
   166         62
   167         64
   168         51
   169          4
   170         14
   171          1
   173          1
   174          4
   175          1
   176          1
   177          4
   178          5
   179          2
   180         12
   182          3
   185          0
   186          2
   188          1
   194          6
   195         56
   196         25
   197          2
   198          2
   200          1
   201         20
   202         16
   203         12
   204          7
   205          1
   213          1
   214         36
   215          5
   216         12
   217          1
   228          0
   229          8
   230        632
   231        395
   232        280
   233        148
   234         15
   235          1
   238          1
   244          1
   256          0
   258          2
   260          1
   273        117
   274         20
   275         40
   276          6
   277          0