##TITLE=Library Entry 73596
##JCAMP-DX=Revision 4.10 
##DATA TYPE=MASS SPECTRUM
##SAMPLE DESCRIPTION=A.Pleshkova, Nesmeyanov Inst.Org.Elem.Cpds, Moscow
##NAMES=HP
##CAS NAME=5-Methoxy-2-(morpholylethylthio)benzimidazole
##MOLFORM=C14H19N3O2S
##CAS REGISTRY NO=137810-90-3
##MP= -300
##BP= -300
##MW= 293
##$RETENTION INDEX=0
##$CONDENSED SPECTRUM=NO
##NPOINTS= 73
##XYDATA=(XY..XY) 1 
    46          5
    47          4
    48          5
    50         20
    51         41
    52         48
    53         37
    54        117
    55        293
    56        209
    57         69
    58         21
    69         74
    70         89
    71         24
    72          8
    83         79
    84         77
    85        321
    86         31
    87         19
    88          5
    98         79
    99          5
   100        999
   101         64
   102          9
   106         26
   107         44
   108         17
   109         33
   110         10
   111        106
   112         81
   113        454
   114        371
   115         33
   116          8
   133         41
   134         20
   135          9
   137         59
   138          6
   150         20
   151          6
   152         71
   153          6
   165        192
   166         28
   167         12
   168          4
   169         21
   175         53
   176         10
   179         58
   180        997
   181        138
   182         59
   183          6
   184         15
   191         28
   192         12
   193         19
   194          5
   205         42
   206         39
   207         20
   208          4
   232         24
   260         12
   261          4
   293         20
   294          5