##TITLE=Library Entry 72605
##JCAMP-DX=Revision 4.10 
##DATA TYPE=MASS SPECTRUM
##SAMPLE DESCRIPTION=Susan Richardson
##NAMES=HP
##CAS NAME=Bis(3-chloro-1-propyl)(1-chloro-2-propyl)phosphate
##MOLFORM=C9H18Cl3O4P
##CAS REGISTRY NO=137888-35-8
##MP= -300
##BP= -300
##MW= 326
##$RETENTION INDEX=0
##$CONDENSED SPECTRUM=NO
##NPOINTS= 110
##XYDATA=(XY..XY) 1 
    43         21
    44          7
    45         32
    47          6
    48          1
    49         26
    51          9
    53          2
    54          4
    55          6
    57         40
    58         15
    59         24
    61          4
    62          5
    63         29
    64          1
    65         23
    67          4
    71          6
    75         18
    76         49
    77         95
    78         21
    79         32
    80          1
    81         47
    82         25
    83          2
    91          2
    92          1
    93          3
    95          2
    96          1
    99        999
   101          7
   103          2
   105          1
   107          3
   111         28
   112         21
   113          8
   117        318
   119        112
   121         10
   122          1
   123          7
   125        297
   126          8
   127          2
   129          2
   135          4
   137         23
   138         51
   139        242
   140          8
   141          2
   143          2
   147          6
   151         12
   157        640
   158         19
   159        213
   160          6
   161          4
   165          7
   173         15
   175        453
   176         17
   177        150
   178          3
   179          5
   187        103
   188          5
   189         38
   201        154
   202          8
   203         53
   214          6
   215         87
   216          7
   217         29
   218          1
   233         41
   234          2
   235         25
   237          5
   249          2
   251         63
   252          3
   253         36
   254          1
   255          7
   263         27
   264          1
   265         16
   266          1
   267          1
   277        156
   278         15
   279        112
   280          9
   281         17
   282          1
   291         89
   292          8
   293         53
   294          6
   295          9
   311          1