##TITLE=Library Entry 70482
##JCAMP-DX=Revision 4.10 
##DATA TYPE=MASS SPECTRUM
##SAMPLE DESCRIPTION=J.E. WILKINSON S-CUBED, SAN DIEGO, CA.
##NAMES=HP
##CAS NAME=3-Thiopheneethanol
##MOLFORM=C6H8OS
##CAS REGISTRY NO=13781-67-4
##MP= -300
##BP= -300
##MW= 128
##$RETENTION INDEX=0
##$CONDENSED SPECTRUM=NO
##NPOINTS= 66
##XYDATA=(XY..XY) 1 
    40          4
    41          5
    42          3
    43          8
    45        194
    46          7
    47         15
    48          1
    49          7
    50         31
    51         36
    52          8
    53         95
    54          5
    55          5
    56          0
    57         18
    58         31
    59          7
    60          2
    61          6
    62         10
    63         18
    64          3
    65         25
    66          8
    67          3
    68          1
    69         55
    70         17
    71         31
    72          2
    73          1
    74          1
    75          0
    77          3
    78          0
    79          0
    80          0
    81         11
    82         12
    83          5
    84         22
    85         15
    86          1
    87          0
    92          0
    93          4
    94          0
    95          5
    97        999
    98        148
    99         59
   100         13
   101          0
   108          1
   109          9
   110         27
   111          8
   112          1
   113          0
   126          5
   128        335
   129         24
   130         16
   131          0