##TITLE=Library Entry 30559
##JCAMP-DX=Revision 4.10 
##DATA TYPE=MASS SPECTRUM
##SAMPLE DESCRIPTION=R RYHAGE MS-LAB KAROLINSKA INSTITUTET STOCKHOLM SWEDEN
##NAMES=HP
##CAS NAME=2,4,6,8,9,10-Hexathiaadamantane, 1,3-dimethyl-
##MOLFORM=C6H8S6
##CAS REGISTRY NO=13787-68-3
##MP= -300
##BP= -300
##MW= 272
##$RETENTION INDEX=0
##$CONDENSED SPECTRUM=NO
##NPOINTS= 159
##XYDATA=(XY..XY) 1 
    12          0
    14          0
    15          7
    16          0
    17          8
    18         41
    25          0
    26          2
    27          4
    28          8
    29          0
    31          0
    32          5
    33          3
    34          3
    35          0
    36          0
    37          0
    38          0
    39          2
    40          1
    41          1
    42          0
    43          0
    44         10
    45        103
    46          7
    47          6
    48          0
    49          0
    50          1
    51          1
    52          3
    53          1
    54          0
    55          1
    56          1
    57         11
    58         55
    59        999
    60         36
    61         44
    62          1
    63          0
    64          4
    65          0
    66          0
    69          1
    70          0
    71          2
    72          2
    73          2
    74          0
    75          0
    76         21
    77         12
    78          4
    79          6
    80          0
    81          0
    83          0
    84          0
    85          2
    86          0
    87          0
    88          1
    89          0
    90          1
    91          8
    92          2
    93          3
    95          0
    97          0
    98          0
    99          0
   102          0
   103         11
   104         33
   105          3
   106          3
   107          0
   109          2
   111          1
   116          1
   117         53
   118         25
   119          5
   120          2
   121          0
   122         16
   123          4
   124          2
   125          1
   129          0
   130          1
   131         84
   132          5
   133          7
   134          0
   135          5
   136        228
   137         22
   138         30
   139          2
   140          1
   144          1
   145          1
   146          0
   147          0
   148          1
   149         34
   150         59
   151          8
   152          7
   153          0
   154          0
   155          1
   161          0
   162          0
   163         13
   164          1
   165          2
   167          0
   169          1
   175          1
   177          0
   179          0
   180          1
   181         16
   182          1
   183          2
   193          4
   194          1
   195         11
   196          1
   197          1
   207         90
   208         28
   209         19
   210          4
   211          1
   212          0
   213          8
   214          0
   215          2
   221          1
   222          0
   223          0
   227          1
   229          0
   239          0
   244          0
   272        216
   273         22
   274         56
   275          5
   276          6
   277          0
   278          0