##TITLE=Library Entry 75975
##JCAMP-DX=Revision 4.10 
##DATA TYPE=MASS SPECTRUM
##SAMPLE DESCRIPTION=CHARLTON/CAVELL UNIVERSITY OF ALBERTA, CANADA.
##NAMES=HP
##CAS NAME=Phosphonothioic difluoride
##MOLFORM=F2HPS
##CAS REGISTRY NO=13780-63-7
##MP= -300
##BP= -300
##MW= 102
##$RETENTION INDEX=0
##$CONDENSED SPECTRUM=NO
##NPOINTS= 8
##XYDATA=(XY..XY) 1 
    50         60
    63         80
    69        530
    82         60
    83         30
   101        130
   102        999
   104         70