##TITLE=Library Entry 22959
##JCAMP-DX=Revision 4.10 
##DATA TYPE=MASS SPECTRUM
##SAMPLE DESCRIPTION=A.A.Kutin, Moscow, Russia
##NAMES=HP
##CAS NAME=3-Pyrazolin-5-one, 4-(diisopropylphosphonato)(hydroximino)methyla
mino-2,3-dimethyl-1-phenyl-
##MOLFORM=C18H27N4O5P
##CAS REGISTRY NO=137811-74-6
##MP= -300
##BP= -300
##MW= 410
##$RETENTION INDEX=0
##$CONDENSED SPECTRUM=NO
##NPOINTS= 146
##XYDATA=(XY..XY) 1 
    38         23
    39         76
    40         37
    41        207
    42        128
    43        378
    44         28
    45         32
    46          2
    50         18
    51         51
    52         30
    53         36
    54         57
    56        999
    57        148
    58          6
    59         16
    60          5
    63         41
    64         38
    65         45
    66          3
    67         18
    68          3
    69         27
    70          7
    71          5
    75          6
    76         21
    77        146
    78         12
    79          4
    81         46
    82         71
    83        233
    84         72
    91         97
    92         14
    93         35
    94          4
    98         22
    99        100
   103         11
   104         54
   105         17
   107          9
   108        202
   109         82
   110         21
   111          4
   115         16
   118         66
   119         83
   120         26
   121         15
   122          7
   123         76
   124        104
   125         78
   126         13
   127          3
   131         16
   132          4
   133          9
   134         65
   135          7
   136          5
   137         24
   138         17
   143         12
   144         16
   145         37
   146          7
   148         17
   149          2
   150         65
   151          6
   152          5
   153         25
   158         19
   159          9
   160         10
   165          3
   170         13
   171         50
   172         21
   173         13
   183          1
   184         22
   185         77
   186         20
   187          3
   188         17
   190          4
   192         17
   197          2
   199         77
   200         31
   201         41
   202        114
   203        317
   204         40
   205          4
   206         26
   207          6
   212         10
   213         71
   214        416
   215         48
   227        152
   228        612
   229        302
   230         74
   231          7
   245         31
   246          7
   248          2
   264         48
   265          7
   269         18
   273          2
   277          5
   278          5
   283          2
   287          6
   290          2
   291         11
   293          3
   295         13
   296         82
   303         29
   308         87
   309         40
   320         16
   336          6
   350         14
   351          5
   354          3
   378          4
   392         10
   394         25
   395          9
   410        332
   411         52
   412          3