##TITLE=Library Entry 49295
##JCAMP-DX=Revision 4.10 
##DATA TYPE=MASS SPECTRUM
##SAMPLE DESCRIPTION=James Little,Eastman Chem.Co.,Kingsport,TN
##NAMES=HP
##CAS NAME=Cyclooctene, 5,6-episulfide
##MOLFORM=C8H12S
##CAS REGISTRY NO=13785-73-4
##MP= -300
##BP= -300
##MW= 140
##$RETENTION INDEX=0
##$CONDENSED SPECTRUM=NO
##NPOINTS= 30
##XYDATA=(XY..XY) 1 
    27        368
    39        644
    41        437
    45        380
    51        179
    52         87
    53        297
    54        330
    65        257
    67        491
    73        392
    78        392
    79        999
    80        530
    85        699
    86        481
    91        515
    93        194
    97        345
    98        206
    99        248
   105        125
   106        244
   107        274
   111        127
   112         77
   125         65
   140        876
   141         91
   142         46