##TITLE=Library Entry 13661
##JCAMP-DX=Revision 4.10 
##DATA TYPE=MASS SPECTRUM
##SAMPLE DESCRIPTION=A.A.Kutin, Moscow, Russia
##NAMES=HP
##CAS NAME=Ethyl 2-acetamido-7-chloro-6-formyl-4,5-dihydrobenzo[b]thiophene-
3-carboxylate
##MOLFORM=C14H14ClNO4S
##CAS REGISTRY NO=137987-66-7
##MP= -300
##BP= -300
##MW= 327
##$RETENTION INDEX=0
##$CONDENSED SPECTRUM=NO
##NPOINTS= 197
##XYDATA=(XY..XY) 1 
    33          3
    34          3
    35          5
    36         19
    37          6
    38         25
    39         48
    40         37
    41         12
    43        999
    44         50
    45         89
    46          3
    47          4
    49          0
    50         12
    51         31
    52         15
    53         10
    54          4
    55          6
    56          2
    57          5
    58         10
    59          5
    60          9
    61          8
    62         10
    63         22
    64         13
    65         58
    66         18
    67          5
    68          8
    69         47
    70         16
    71         11
    72          4
    73         12
    74          9
    75         26
    76         19
    77         45
    78         14
    79         11
    80          2
    81         12
    82         25
    83         17
    84         19
    85          8
    86          7
    87         12
    88          9
    89         18
    90          6
    91          4
    92          5
    93         14
    94         13
    95          9
    96          5
    97          6
    98          2
    99          7
   100          5
   101          4
   102         18
   103         11
   104         17
   105         10
   106          3
   107          4
   108         12
   109         10
   110          5
   111         12
   112          7
   113          7
   114          9
   115          6
   116          9
   117         10
   118          8
   119         25
   120         29
   121         58
   122         17
   123         12
   124          4
   125          4
   126          1
   127          1
   130          1
   131          2
   132          3
   133          4
   134          4
   135          2
   136          3
   137          3
   138          5
   139          2
   140          3
   141          0
   142          2
   143          7
   144          6
   145          7
   146         33
   147         24
   148         43
   149         55
   150         17
   151          7
   152          5
   153          3
   154         10
   155         81
   156         17
   157         33
   158          5
   159          4
   160          1
   166          1
   167          1
   168          3
   169          2
   170          2
   171          2
   172          3
   173          1
   174          4
   175         15
   176         24
   177          6
   178          3
   179          7
   180         10
   181          8
   182         28
   183         37
   184         19
   185         15
   186          4
   193          1
   194          1
   195          1
   196          3
   197          1
   198          1
   202          1
   203          6
   204         30
   205          4
   206          5
   208          2
   209          6
   210         73
   211        113
   212         63
   213         50
   214         14
   215          3
   221          2
   222          4
   223          1
   224          1
   236          6
   237          7
   238         76
   239         84
   240         43
   241         30
   242          6
   250          2
   252          1
   253          2
   254          3
   255          2
   256         35
   257          6
   258         14
   259          2
   281          3
   282          3
   283          4
   284         13
   285         58
   286         12
   287         21
   288          3
   289          0
   327         37
   328          5
   329         11
   330          1