##TITLE=Library Entry 60543
##JCAMP-DX=Revision 4.10 
##DATA TYPE=MASS SPECTRUM
##SAMPLE DESCRIPTION=Japan AIST/NIMC Database- Spectrum MS-NW-7914
##NAMES=HP
##CAS NAME=Benzyl 4-nitrophenyl carbonate
##MOLFORM=C14H11NO5
##CAS REGISTRY NO=13795-24-9
##MP= -300
##BP= -300
##MW= 273
##$RETENTION INDEX=0
##$CONDENSED SPECTRUM=NO
##NPOINTS= 65
##XYDATA=(XY..XY) 1 
    16          1
    17          3
    18         12
    26          2
    27          4
    28         10
    29          1
    30         23
    37          2
    38         10
    39         31
    40          2
    41          9
    44         28
    45          1
    50         14
    51         22
    52          9
    53          3
    54          1
    55          1
    61          2
    62          6
    63         26
    64         18
    65         72
    66          5
    74          3
    75          7
    76          8
    77         19
    78          6
    79          5
    80          1
    81          2
    82          1
    89         13
    90         11
    91        999
    92         83
    93          6
   105          4
   106          2
   107          4
   108          3
   109          4
   115          1
   122          3
   123          1
   136          2
   139         13
   140          1
   152          2
   153          2
   154          1
   165          2
   167          1
   181          2
   182          1
   183          4
   184          5
   185          1
   229          6
   230          1
   274          1