##TITLE=Library Entry 72478
##JCAMP-DX=Revision 4.10 
##DATA TYPE=MASS SPECTRUM
##SAMPLE DESCRIPTION=Susan Richardson
##NAMES=HP
##CAS NAME=Bis(1-chloro-2-propyl)(3-chloro-1-propyl)phosphate
##MOLFORM=C9H18Cl3O4P
##CAS REGISTRY NO=137909-40-1
##MP= -300
##BP= -300
##MW= 326
##$RETENTION INDEX=0
##$CONDENSED SPECTRUM=NO
##NPOINTS= 138
##XYDATA=(XY..XY) 1 
    43        101
    44         23
    45        199
    46          3
    47         18
    48          2
    49         94
    50          3
    51         28
    52          1
    53          3
    54          3
    55         11
    56          3
    57         93
    58         21
    59         42
    60          1
    61         12
    62         10
    63         37
    64          4
    65         41
    66          2
    67         14
    68          1
    71          4
    73          2
    75         40
    76         94
    77        247
    78         37
    79         90
    80          3
    81        129
    82         35
    83          8
    85          1
    89          2
    91          8
    92          3
    93         10
    94          1
    95          5
    96          2
    99        999
   100          3
   101         15
   103          5
   105          2
   107         17
   108          2
   109          2
   111         34
   112         12
   113          7
   117        485
   119        191
   120          1
   121         29
   122          2
   123         12
   124          5
   125        749
   126         26
   127          9
   129          3
   131          1
   135          3
   137         24
   138         52
   139        310
   140         12
   141          6
   143          6
   145          1
   147          2
   151          4
   153          1
   157        650
   158         33
   159        302
   160         11
   161         10
   165         20
   173         33
   174          1
   175        456
   176         19
   177        177
   178          6
   179          5
   187          7
   189          2
   201        395
   202         24
   203        152
   204          8
   205          1
   214          8
   215        119
   216         11
   217         40
   218          2
   233        173
   234         11
   235        117
   236          8
   237         22
   238          1
   241          1
   249          5
   251         84
   252          5
   253         55
   254          4
   255          9
   263         15
   265         10
   267          1
   277        421
   278         44
   279        300
   280         27
   281         52
   282          4
   290          1
   291        121
   292         11
   293         77
   294          8
   295         12
   296          1
   311          2
   313          3
   315          1
   327          2
   329          2