##TITLE=Library Entry 67506
##JCAMP-DX=Revision 4.10 
##DATA TYPE=MASS SPECTRUM
##SAMPLE DESCRIPTION=NIST Mass Spectrometry Data Center, 1994
##NAMES=HP
##CAS NAME=2-Phenoxybutyric acid
##MOLFORM=C10H12O3
##CAS REGISTRY NO=13794-14-4
##MP= -300
##BP= -300
##MW= 180
##$RETENTION INDEX=1450
##$CONDENSED SPECTRUM=NO
##NPOINTS= 74
##XYDATA=(XY..XY) 1 
    15         25
    19          4
    26         26
    27        129
    29         70
    30          3
    31         21
    37         13
    38         51
    39        271
    40         37
    41        140
    42         16
    43         36
    44          3
    45        156
    46          5
    47          1
    50         53
    51        175
    52         15
    53         10
    54          1
    55         32
    56          1
    57          8
    58          2
    59          8
    60          1
    61          3
    62         14
    63         43
    64          1
    65        156
    66        147
    67         11
    68          9
    69         33
    70          2
    73          2
    74         12
    75          9
    76          1
    77        245
    78         30
    79         42
    80          2
    81          1
    87          5
    91         33
    92         10
    94        999
    95        107
    96          7
   103          2
   105         11
   107        167
   108         14
   109          1
   115          7
   116          1
   117          1
   119          5
   120          2
   121          1
   123          1
   133          5
   135        374
   136         40
   137          2
   152          0
   180        380
   181         40
   182          4