##TITLE=Library Entry 99202
##JCAMP-DX=Revision 4.10 
##DATA TYPE=MASS SPECTRUM
##SAMPLE DESCRIPTION=V.Zaikin,Inst.Petrochem.Synth.,RAS,Moscow
##NAMES=HP
##CAS NAME=m-Toluic acid, benzyl ester
##MOLFORM=C15H14O2
##CAS REGISTRY NO=137932-33-3
##MP= -300
##BP= -300
##MW= 226
##$RETENTION INDEX=0
##$CONDENSED SPECTRUM=NO
##NPOINTS= 106
##XYDATA=(XY..XY) 1 
    26          9
    27         27
    28          1
    29         10
    30          3
    39        106
    40         15
    41         50
    42         10
    43         33
    44          2
    50         41
    51         74
    52         21
    53         14
    54          3
    55         20
    56         28
    57         21
    59          3
    61          4
    62         18
    63         60
    64         22
    65        161
    66         10
    67          5
    68          2
    69         19
    70         69
    71         18
    74          5
    75          7
    76          6
    77         42
    78         15
    79         43
    80          2
    81          4
    82          2
    83         10
    84         13
    85          3
    86          4
    87          2
    88          3
    89         52
    90         70
    91        740
    92         71
    93          8
    95          4
    96          3
    97          4
    98          4
   101          3
   102          5
   103          4
   104          8
   105         21
   106          4
   107         36
   108          6
   109          3
   111          3
   112          5
   113          5
   117          3
   118         17
   119        999
   120        103
   121          7
   126         21
   127          4
   128          3
   130         11
   131          3
   133          4
   134          2
   135         13
   136         54
   137         30
   138          3
   145          6
   147          4
   149          3
   151          2
   152          2
   165          5
   166          4
   167         11
   168          2
   179          2
   180          3
   181         35
   182          3
   191          6
   193          4
   207          3
   208         34
   209          5
   211          5
   225          5
   226        110
   227         20
   228          2