##TITLE=Library Entry 82948
##JCAMP-DX=Revision 4.10 
##DATA TYPE=MASS SPECTRUM
##SAMPLE DESCRIPTION=Japan AIST/NIMC Database- Spectrum MS-NW-1793
##NAMES=HP
##CAS NAME=Salicin
##MOLFORM=C13H18O7
##CAS REGISTRY NO=138-52-3
##MP= -300
##BP= -300
##MW= 286
##$RETENTION INDEX=2576
##$CONDENSED SPECTRUM=NO
##NPOINTS= 135
##XYDATA=(XY..XY) 1 
    14          4
    15         32
    16          2
    17          9
    18         40
    19          4
    25          1
    26         12
    27         69
    28         31
    29        103
    30         15
    31        145
    32         10
    36          2
    37          7
    38         14
    39         97
    40         15
    41         91
    42         44
    43        168
    44         34
    45        138
    46          4
    47         16
    49          5
    50         30
    51         79
    52         48
    53         41
    54          8
    55         78
    56         40
    57        206
    58         11
    59         18
    60        169
    61        142
    62          9
    63         22
    64          8
    65         40
    66         11
    67         13
    68          9
    69        120
    70         26
    71         62
    72         17
    73        250
    74         33
    75         13
    76         17
    77        201
    78        412
    79         68
    80          7
    81         26
    82          5
    83         12
    84         11
    85        181
    86         15
    87        110
    88         10
    89         31
    90         13
    91         96
    92          9
    93         10
    94         10
    95         35
    96          6
    97         63
    98         18
    99         26
   100          3
   101         24
   102          7
   103         19
   104          9
   105         24
   106        999
   107        360
   108        123
   109         23
   110          4
   111          3
   112          2
   113         10
   114          6
   115         15
   116          4
   117          2
   118          3
   119         23
   120          5
   121         41
   122         40
   123         22
   124        875
   125         69
   126          9
   127         42
   128          4
   129          3
   130          1
   131          7
   132          2
   133          6
   134          2
   135         36
   136          5
   137          2
   138          1
   139          1
   143          2
   144          6
   145         34
   146          3
   147          3
   148          2
   149          3
   150          1
   151          1
   152          1
   160          1
   161          3
   162         22
   163          3
   166          1
   177          1
   179          1
   237          1