##TITLE=Library Entry 70003
##JCAMP-DX=Revision 4.10 
##DATA TYPE=MASS SPECTRUM
##SAMPLE DESCRIPTION=Japan AIST/NIMC Database- Spectrum MS-NW-2376
##NAMES=HP
##CAS NAME=Shikimic acid
##MOLFORM=C7H10O5
##CAS REGISTRY NO=138-59-0
##MP= -300
##BP= -300
##MW= 174
##$RETENTION INDEX=2037
##$CONDENSED SPECTRUM=NO
##NPOINTS= 129
##XYDATA=(XY..XY) 1 
    12          2
    14          7
    15         33
    16          8
    17         67
    18        322
    19         29
    25          4
    26         22
    27        189
    28         77
    29        171
    30         21
    31        108
    32          6
    33          1
    36          2
    37         24
    38         55
    39        337
    40        111
    41        412
    42         98
    43        120
    44         99
    45         60
    46          9
    47         49
    48          2
    49          9
    50         46
    51         94
    52         33
    53        253
    54         78
    55        123
    56         27
    57         34
    58         15
    59          6
    60        957
    61         37
    62         21
    63         44
    64         31
    65        134
    66        118
    67         55
    68        197
    69        467
    70         37
    71         63
    72          7
    73         47
    74         11
    75          6
    76          7
    77         62
    78         15
    79         10
    80          9
    81        176
    82        199
    83         87
    84         88
    85         14
    86          8
    87          5
    88          1
    89         23
    90          1
    91          4
    92         25
    93         59
    94        106
    95         28
    96        235
    97        999
    98         68
    99         33
   100         22
   101          5
   102         15
   103          1
   104          2
   105         74
   106          7
   107          2
   108          7
   109        115
   110        275
   111        125
   112         77
   113         43
   114        118
   115        344
   116         20
   117          3
   119          9
   120         10
   121        125
   122         80
   123          7
   124          1
   125         39
   126         71
   127         81
   128         44
   129          9
   130          3
   131          1
   135          1
   136          1
   137         15
   138        369
   139         41
   140          9
   141          3
   143          2
   145          1
   149          1
   153          1
   154         10
   155          5
   156        191
   157         18
   158          3
   170          1
   174          6