##TITLE=Library Entry 33687
##JCAMP-DX=Revision 4.10 
##DATA TYPE=MASS SPECTRUM
##SAMPLE DESCRIPTION=O A MAMER, MCGILL UNIVERSITY, MONTREAL, CANADA
##NAMES=HP
##CAS NAME=Limonene
##MOLFORM=C10H16
##CAS REGISTRY NO=138-86-3
##MP= -300
##BP= -300
##MW= 136
##$RETENTION INDEX=1030
##$CONDENSED SPECTRUM=NO
##NPOINTS= 52
##XYDATA=(XY..XY) 1 
    18         83
    27         49
    37          5
    38         19
    39        220
    40         87
    41        119
    42         42
    51          2
    53        175
    54         21
    55         77
    56          5
    58          6
    62          9
    63         30
    64          9
    65         75
    66         72
    67        444
    68        999
    74          4
    76          3
    77        110
    78         43
    79        164
    80        116
    81        119
    82         22
    89          9
    90          3
    91         72
    92        181
    93        500
    94        224
    95         78
    96          6
   103         12
   104          6
   105         50
   106         15
   107        180
   108         53
   109          6
   115          9
   117          6
   120          4
   121        125
   122         21
   135          4
   136        164
   137         27