##TITLE=Library Entry 1347
##JCAMP-DX=Revision 4.10 
##DATA TYPE=MASS SPECTRUM
##SAMPLE DESCRIPTION=Japan AIST/NIMC Database- Spectrum MS-NW-8325
##NAMES=HP
##CAS NAME=dl-Noradrenaline
##MOLFORM=C8H11NO3
##CAS REGISTRY NO=138-65-8
##MP= -300
##BP= -300
##MW= 169
##$RETENTION INDEX=0
##$CONDENSED SPECTRUM=NO
##NPOINTS= 68
##XYDATA=(XY..XY) 1 
    15         54
    27        110
    28        154
    29         82
    30        999
    31         82
    32         99
    39        221
    40         16
    41         50
    42         24
    43         93
    44         24
    45         45
    50         54
    51        137
    52         54
    53         82
    54         26
    55        137
    57         82
    62         26
    63         82
    64         54
    65        526
    66         82
    67         82
    68         26
    69         54
    71         54
    76         26
    77        165
    78        137
    79         54
    80         54
    81         82
    82         26
    83         26
    93        776
    94        137
    95         54
    97         26
   103         26
   104         82
   105         54
   106         54
   107         26
   108         26
   109         54
   110         54
   111        221
   122         82
   123        249
   124        137
   132         54
   134         54
   135         26
   136         54
   137        137
   138        137
   139        999
   140        221
   141         26
   149         54
   150         54
   151        471
   152         54
   169        137