##TITLE=Library Entry 39162
##JCAMP-DX=Revision 4.10 
##DATA TYPE=MASS SPECTRUM
##SAMPLE DESCRIPTION=G.BRAMMER,UNIVERSITY OF TEXAS
##NAMES=HP
##CAS NAME=Cyclohexanol, 1-methyl-4-(1-methylethenyl)-
##MOLFORM=C10H18O
##CAS REGISTRY NO=138-87-4
##MP= -300
##BP= -300
##MW= 154
##$RETENTION INDEX=1153
##$CONDENSED SPECTRUM=NO
##NPOINTS= 125
##XYDATA=(XY..XY) 1 
    25          1
    26         12
    27         58
    29         69
    30          6
    31         26
    33          1
    34          2
    35          1
    36          2
    37          4
    38          3
    39        147
    41        213
    42         41
    43        498
    45         22
    46          2
    47          1
    48          0
    49          7
    50         14
    51         21
    52         12
    53        136
    54         33
    55        232
    56         59
    57         39
    58        151
    59         21
    60          4
    61          3
    62         23
    63         13
    64          3
    65         30
    66         20
    67        190
    68        324
    69        448
    70         33
    71        999
    72         49
    73         14
    74          3
    75          4
    76          4
    77         41
    78         20
    79        172
    80        104
    81        218
    82         45
    83        177
    84        245
    85         30
    86         11
    87          5
    88          1
    89          6
    90          7
    91         58
    92        181
    93        526
    94        333
    95        158
    96         47
    97         56
    98          7
    99          4
   100          2
   101          1
   102          1
   103          4
   104          4
   105         25
   106         10
   107        370
   108        222
   109         24
   110          8
   111        140
   112         22
   113          6
   114          3
   115          1
   116          2
   117          6
   118          2
   119          8
   120          7
   121        379
   122         55
   123         20
   124          4
   125         10
   126         22
   127          5
   128          2
   129          1
   130          3
   131          3
   132          2
   133          2
   134          1
   135          6
   136        503
   137         64
   138          6
   139         75
   140          8
   141          0
   143          0
   144          0
   145          0
   146          1
   147          0
   148          0
   149          0
   150          0
   151          0
   152          0
   153          3
   154         19