##TITLE=Library Entry 82330
##JCAMP-DX=Revision 4.10 
##DATA TYPE=MASS SPECTRUM
##SAMPLE DESCRIPTION=Japan AIST/NIMC Database- Spectrum MS-NW-3178
##NAMES=HP
##CAS NAME=Mafenide
##MOLFORM=C7H10N2O2S
##CAS REGISTRY NO=138-39-6
##MP= -300
##BP= -300
##MW= 186
##$RETENTION INDEX=0
##$CONDENSED SPECTRUM=NO
##NPOINTS= 131
##XYDATA=(XY..XY) 1 
    15          1
    16         10
    17         11
    18          7
    26          5
    27         30
    28        121
    29         31
    30        366
    31          3
    32          8
    33          3
    34          8
    39         38
    40          5
    41         12
    42          4
    43          4
    44          5
    45          6
    46         38
    47          4
    48         13
    49          4
    50         64
    51         78
    52         34
    53         14
    54         14
    55          5
    56          2
    57          5
    58          1
    59          1
    60          1
    61          6
    62         13
    63         49
    64         28
    65         22
    66         12
    67         11
    68          3
    69          7
    70          2
    71          3
    73          4
    74         21
    75         26
    76         66
    77        289
    78         96
    79         94
    80         11
    81          3
    82          2
    83          3
    84          2
    85          2
    86          3
    87          3
    88          2
    89        165
    90         23
    91         20
    92          9
    93         29
    94         24
    95         33
    96          4
    97          3
    99          2
   102          6
   103         33
   104        192
   105        302
   106        999
   107        114
   108          9
   109         12
   110          6
   111          2
   116          1
   117          2
   118         17
   119          8
   120         13
   121         12
   122         34
   123          6
   124          4
   125          8
   126          2
   127          3
   128          2
   129          1
   134          5
   135         15
   136          7
   137          7
   138          4
   139          4
   140          5
   141        104
   142          8
   143          5
   149          1
   150          4
   151          1
   152          8
   153          7
   154          3
   155          1
   157          1
   158         56
   159          5
   160          3
   165          1
   166          2
   167          2
   168         14
   169          3
   170          8
   171          2
   182          1
   183          7
   184          7
   185        242
   186         35
   187         14
   188          1