##TITLE=Library Entry 29243
##JCAMP-DX=Revision 4.10 
##DATA TYPE=MASS SPECTRUM
##SAMPLE DESCRIPTION=Patti Price, Georgia Bureau of Investigation, Decatur,
 Georgia
##NAMES=HP
##CAS NAME=Benzamide, N-[[4-[2-(dimethylamino)ethoxy]phenyl]methyl]-3,4,5-tr
imethoxy-
##MOLFORM=C21H28N2O5
##CAS REGISTRY NO=138-56-7
##MP= -300
##BP= -300
##MW= 388
##$RETENTION INDEX=3287
##$CONDENSED SPECTRUM=NO
##NPOINTS= 162
##XYDATA=(XY..XY) 1 
    30         20
    35          1
    38          3
    39          6
    40          1
    41          7
    42         82
    43         28
    44         32
    45          3
    47          1
    50          6
    51          9
    52          5
    53         17
    54          5
    55          9
    56         45
    57         21
    58        999
    59         41
    60          1
    61          1
    62          2
    63         15
    64          6
    65         22
    66         38
    67         24
    68          5
    69          7
    70         24
    71         33
    72         59
    73          4
    74          2
    75          5
    76         14
    77         52
    78         27
    79         25
    80          7
    81         42
    82         11
    83          4
    84          1
    85          3
    86          1
    87          1
    89         73
    90         37
    91         51
    92         26
    93         30
    94         12
    95         22
    96         16
    97          4
    98          1
    99          1
   101          1
   102          1
   103          4
   104         11
   105         11
   106         14
   107         33
   108         15
   109         38
   110         18
   111          6
   112          1
   113          1
   115          2
   116          1
   117          1
   118          2
   119         14
   120         11
   121         29
   122         33
   123         18
   124         18
   125         17
   126          2
   127          2
   128          2
   129          1
   131          2
   132          4
   133         14
   134         10
   135          7
   136          6
   137         37
   138         13
   139         19
   140          6
   141          2
   143          1
   144          1
   145          3
   146          1
   147          1
   148          7
   149          7
   150         10
   151         13
   152         37
   153         51
   154         25
   155          5
   160          1
   161          1
   162          3
   163          3
   164          2
   165          4
   166          3
   167         26
   168         25
   169          7
   171          1
   175          1
   176         10
   177          2
   178          2
   179          7
   180          4
   181         38
   182          9
   183          3
   184          1
   193          2
   194          6
   195        175
   196         31
   197          4
   198          1
   199          1
   208          1
   210          1
   211          2
   212          2
   222          1
   225          1
   239          1
   262          1
   265          1
   301          1
   302          4
   315         10
   316         22
   317         11
   318          2
   330          7
   331          4
   357          1
   387          2
   388         67
   389         20
   390          3