##TITLE=Library Entry 33859
##JCAMP-DX=Revision 4.10 
##DATA TYPE=MASS SPECTRUM
##SAMPLE DESCRIPTION=Japan AIST/NIMC Database- Spectrum MS-IW-2515
##NAMES=HP
##CAS NAME=1-Cyclohexene-1-carboxaldehyde, 4-(1-methylethenyl)-, oxime
##MOLFORM=C10H15NO
##CAS REGISTRY NO=138-91-0
##MP= -300
##BP= -300
##MW= 165
##$RETENTION INDEX=0
##$CONDENSED SPECTRUM=NO
##NPOINTS= 126
##XYDATA=(XY..XY) 1 
    15          3
    16          1
    17          2
    18         10
    26          6
    27        111
    28         69
    29         53
    30         44
    31          7
    37          4
    38         13
    39        220
    40         79
    41        258
    42         61
    43         55
    44         16
    45          4
    46         12
    49          1
    50         26
    51         90
    52         67
    53        321
    54         49
    55        148
    56         76
    57         10
    58          9
    59          7
    60          3
    61          3
    62          8
    63         28
    64         15
    65        117
    66         65
    67        520
    68        999
    69        143
    70         28
    71          6
    72         22
    73          9
    74          8
    75         10
    76         11
    77        221
    78         95
    79        254
    80        244
    81        135
    82         46
    83         14
    84         18
    85         11
    86          6
    87          2
    88          1
    89         11
    90          8
    91        255
    92         95
    93        177
    94        126
    95         67
    96        370
    97         52
    98         39
    99          3
   100          1
   101          2
   102          9
   103         45
   104        127
   105        309
   106        234
   107        103
   108         47
   109        190
   110        159
   111         16
   112          5
   113          1
   114          1
   115         25
   116         38
   117         68
   118         76
   119         75
   120        140
   121         80
   122        158
   123         89
   124        103
   125          9
   127          2
   128          5
   129         13
   130         23
   131        171
   132        128
   133        116
   134         31
   135          8
   136         39
   137         26
   138         27
   139          2
   141          1
   142          1
   143          3
   144          7
   145          5
   146         54
   147         67
   148        780
   149         97
   150         55
   151          5
   163          1
   164         12
   165        198
   166         23
   167          2