##TITLE=Library Entry 39686
##JCAMP-DX=Revision 4.10 
##DATA TYPE=MASS SPECTRUM
##SAMPLE DESCRIPTION=A.S.Moskovkin,I.M.Karnaukh, Russian Center on Disaster
 Medicine
##NAMES=HP
##CAS NAME=9-Acetoxy-1-methyl-8-propyl-3,6-diazahomoadamantane
##MOLFORM=C15H26N2O2
##CAS REGISTRY NO=138023-38-8
##MP= -300
##BP= -300
##MW= 266
##$RETENTION INDEX=0
##$CONDENSED SPECTRUM=NO
##NPOINTS= 186
##XYDATA=(XY..XY) 1 
    39        172
    40         89
    41        374
    42        511
    43        672
    44        248
    45         87
    50          3
    51         22
    52         23
    53         79
    54         88
    55        301
    56        182
    57        136
    58        177
    59         38
    60         77
    61         12
    63          3
    64          5
    65         29
    66         23
    67        100
    68         79
    69        125
    70        179
    71        197
    72        999
    73        137
    74         12
    75          3
    76          2
    77         53
    78         22
    79         82
    80         56
    81         87
    82        134
    83         67
    84        101
    85         65
    86         38
    87         15
    88          3
    89         21
    90         11
    91         51
    92         23
    93         79
    94         98
    95         77
    96        114
    97         67
    98         64
    99         37
   100         38
   101         16
   102         11
   103         11
   104         10
   105         22
   106         69
   107         68
   108         91
   109         61
   110         89
   111         56
   112         77
   113         76
   114         24
   115         38
   116         22
   117          9
   118         15
   119         21
   120         59
   121         99
   122         88
   123         55
   124         76
   125         44
   126         44
   127         32
   128         16
   129         11
   130          6
   131          3
   132         15
   133         23
   134         85
   135        294
   136        281
   137        110
   138        113
   139         46
   140         36
   141         22
   142         12
   143          2
   144          2
   145          3
   146          2
   147         13
   148         43
   149         90
   150        276
   151        104
   152        182
   153         59
   154         33
   155         47
   156         23
   157         21
   158          2
   160          1
   161         15
   162         89
   163        180
   164        123
   165         57
   166         82
   167         38
   168         46
   169         43
   170         16
   171         11
   172          1
   175          2
   176         13
   177         33
   178        110
   179         89
   180         91
   181         56
   182         31
   183         16
   184          1
   185          2
   189          2
   190         10
   191         51
   192         46
   193         80
   194         90
   195         47
   196         56
   197         33
   198         16
   199          3
   203          4
   204         10
   205         43
   206         46
   207        167
   208         76
   209         33
   210         21
   211         29
   212         30
   213          7
   219          3
   220         11
   221         36
   222         37
   223         91
   224         32
   225         22
   226          2
   227          3
   235          9
   236         15
   237         31
   238         20
   239          2
   249          6
   250         11
   251         16
   252          6
   262          4
   263         13
   264         33
   265         72
   266        276
   267         47
   268          4