##TITLE=Library Entry 40427
##JCAMP-DX=Revision 4.10 
##DATA TYPE=MASS SPECTRUM
##SAMPLE DESCRIPTION=A.S.Moskovkin,I.M.Karnaukh, Russian Center on Disaster
 Medicine
##NAMES=HP
##CAS NAME=9-Acetoxy-1-propyl-3,6-diazahomoadamantane
##MOLFORM=C14H24N2O2
##CAS REGISTRY NO=138023-34-4
##MP= -300
##BP= -300
##MW= 252
##$RETENTION INDEX=0
##$CONDENSED SPECTRUM=NO
##NPOINTS= 132
##XYDATA=(XY..XY) 1 
    39        101
    40         23
    41        271
    42        482
    43        376
    44        123
    45         18
    50          4
    51         38
    52         54
    53        132
    54        165
    55        400
    56        259
    57        238
    58        370
    59         54
    60        124
    61          8
    62          3
    63         11
    64         14
    65         81
    66         57
    67        241
    68        192
    69        113
    70        303
    71        349
    72        999
    73        114
    74         27
    75         30
    76          8
    77         89
    78         51
    79        165
    80        132
    81        154
    82        403
    83        158
    84        216
    85        143
    86         18
    87          8
    88          2
    90         16
    91         81
    92         92
    93        103
    94        132
    95         87
    96        105
    97         70
    98         32
    99         11
   103         11
   104         14
   105         46
   106        108
   107        157
   108        135
   109         65
   110         57
   111         54
   112         51
   113          8
   115         11
   116         54
   117         32
   118         54
   119         62
   120        192
   121        532
   122        257
   123         97
   124        108
   125         35
   126         32
   127         16
   129         10
   130          3
   132         30
   133         24
   134         92
   135        219
   136        508
   137        141
   138        160
   139         35
   140          8
   146         19
   147         43
   148        227
   149        519
   150        281
   151        108
   152         97
   153        138
   154         19
   161         14
   162         32
   163         92
   164        108
   165         70
   166        108
   167         27
   168         11
   176         14
   177         81
   178         32
   179         51
   180         81
   181         32
   182          8
   190          8
   191         84
   192        141
   193        424
   194         62
   195         11
   207         27
   208         54
   209        189
   210         27
   223         30
   224         11
   250          8
   251        119
   252        600
   253         95
   254          7