##TITLE=Library Entry 29369
##JCAMP-DX=Revision 4.10 
##DATA TYPE=MASS SPECTRUM
##SAMPLE DESCRIPTION=A.S.Moskovkin,I.M.Karnaukh, Russian Center on Disaster
 Medicine
##NAMES=HP
##CAS NAME=1-Phenyl-3,6-diazahomoadamantan-9-ol
##MOLFORM=C15H20N2O
##CAS REGISTRY NO=138023-23-1
##MP= -300
##BP= -300
##MW= 244
##$RETENTION INDEX=0
##$CONDENSED SPECTRUM=NO
##NPOINTS= 178
##XYDATA=(XY..XY) 1 
    39         61
    40         15
    41        160
    42        380
    43        100
    44        150
    45        110
    46          4
    50         17
    51         43
    52         15
    53         21
    54         27
    55         85
    56         84
    57        150
    58        999
    59         41
    60         10
    61         35
    62          5
    63         19
    64          7
    65         40
    66          7
    67         16
    68         61
    69         35
    70         75
    71         41
    72        280
    73         29
    74         63
    75         11
    76         13
    77         94
    78         36
    79         24
    80         16
    81         21
    82         87
    83         21
    84         99
    85         20
    86          2
    87          2
    88          1
    89         19
    90          9
    91        230
    92         25
    93          6
    94         15
    95         12
    96         17
    97         26
    98         82
    99         28
   100          7
   101          5
   102         31
   103         89
   104         51
   105         48
   106          9
   107          6
   108          7
   109          9
   110         15
   111        110
   112         26
   113         21
   114          7
   115        120
   116         43
   117         99
   118         31
   119         10
   120          8
   121         11
   122         37
   123          7
   124         10
   125          9
   126          7
   127         22
   128         48
   129         49
   130         40
   131         36
   132         21
   133         16
   134          8
   135          7
   136          4
   137          6
   138          3
   139          5
   140          4
   141         75
   142         24
   143         39
   144         63
   145         31
   146         33
   147         15
   148          5
   149          5
   151          2
   152          4
   153         11
   154         13
   155         73
   156         74
   157         36
   158         76
   159         51
   160         76
   161         11
   162          9
   163          3
   164          2
   165          3
   166          4
   167          9
   168         10
   169         41
   170        190
   171         80
   172        120
   173         43
   174         14
   175          7
   176          4
   177          1
   179          2
   180          2
   181          2
   182         18
   183         30
   184         93
   185         33
   186        110
   187         39
   188         30
   189          6
   193          1
   194          1
   195          1
   196          6
   197          5
   198         13
   199         10
   200         76
   201         42
   202         17
   203          3
   211          6
   212         11
   213         11
   214          9
   215         49
   216         20
   217          3
   224          1
   225         12
   226         12
   227         56
   228         11
   229          8
   230          3
   241          2
   242          8
   243         59
   244        790
   245        135
   246         11
   247          1