##TITLE=Library Entry 26115
##JCAMP-DX=Revision 4.10 
##DATA TYPE=MASS SPECTRUM
##SAMPLE DESCRIPTION=M.A.BIEBER MICHIGAN STATE UNIV., EAST LANSING, MICH., U
SA
##NAMES=HP
##CAS NAME=2,6-Nonadienoic acid, 7-ethyl-9-(3-ethyl-3-methyloxiranyl)-3-meth
yl-, methyl ester, [2R-[2.alpha.(2E,6E),3.alpha.]]-
##MOLFORM=C18H30O3
##CAS REGISTRY NO=13804-51-8
##MP= -300
##BP= -300
##MW= 294
##$RETENTION INDEX=0
##$CONDENSED SPECTRUM=NO
##NPOINTS= 186
##XYDATA=(XY..XY) 1 
    26         21
    27        173
    28        128
    29        412
    30         25
    31         45
    32         12
    39        214
    40         41
    41        790
    42         70
    43        453
    44         49
    45         95
    49          4
    50          8
    51         29
    52         21
    53        272
    54        103
    55        782
    56         62
    57        999
    58         45
    59        169
    60          8
    61          8
    63         12
    64          8
    65         70
    66         37
    67        494
    68         78
    69        354
    70         74
    71        140
    72         25
    73        152
    74         21
    75         45
    76          8
    77        128
    78         33
    79        296
    80         62
    81        481
    82        416
    83        498
    84         53
    85        432
    86        185
    87         37
    88          8
    89          8
    90          8
    91        148
    92         29
    93        309
    94         66
    95        992
    96        156
    97        144
    98         62
    99        259
   100         25
   101         29
   102          8
   103         16
   104          8
   105        107
   106         29
   107        362
   108         91
   109        198
   110         45
   112         33
   113         33
   114        519
   115         53
   116         12
   117         25
   118         12
   119         91
   120         41
   121        218
   122         58
   123        128
   124         29
   125        115
   126         25
   127         58
   128         12
   129         12
   131         16
   132          8
   133        132
   134         66
   135        239
   136         45
   137        111
   138         41
   139        160
   140         29
   141          8
   145         25
   146          8
   147         91
   148         53
   149        305
   150         66
   151         37
   152         21
   153         53
   154         41
   155         74
   156         12
   157          8
   158          8
   159         37
   160         16
   161         49
   162         78
   163        226
   164         45
   165         37
   166         21
   167         25
   168          8
   169          8
   173         16
   174          8
   175         16
   176         25
   177        160
   178         45
   179         33
   180         33
   181         70
   182         12
   183          8
   187         29
   188          8
   189          8
   190          4
   191         12
   192          8
   193         16
   194         16
   195         16
   196         12
   205         28
   206         21
   207         33
   208         21
   209         82
   210         21
   211          8
   212          8
   215         21
   216          8
   217         25
   218          8
   219         16
   220         16
   221          8
   229          8
   230          8
   231          4
   232          4
   233         21
   234         37
   235          8
   244         12
   245         12
   246          8
   247         41
   248          8
   262         37
   263         29
   264          4
   265         12
   266          8
   276         21
   277          8
   294         12
   295          8