##TITLE=Library Entry 39714
##JCAMP-DX=Revision 4.10 
##DATA TYPE=MASS SPECTRUM
##SAMPLE DESCRIPTION=A.S.Moskovkin,I.M.Karnaukh, Russian Center on Disaster
 Medicine
##NAMES=HP
##CAS NAME=9-Acetoxy-1,8-dimethyl-3,6-diazahomoadamantane
##MOLFORM=C13H22N2O2
##CAS REGISTRY NO=138023-35-5
##MP= -300
##BP= -300
##MW= 238
##$RETENTION INDEX=0
##$CONDENSED SPECTRUM=NO
##NPOINTS= 138
##XYDATA=(XY..XY) 1 
    38          4
    39         72
    40         72
    41        190
    42        360
    43        480
    44        110
    45        130
    46          4
    50          6
    51         14
    52         11
    53         51
    54         39
    55        200
    56        110
    57         68
    58        180
    59          8
    60          9
    61          2
    62          2
    63          5
    64          3
    65         21
    66         14
    67         64
    68         56
    69         61
    70        130
    71        110
    72        999
    73         80
    74          5
    75          3
    77         49
    78         15
    79         62
    80         41
    81         47
    82        130
    83         41
    84        120
    85         47
    86         11
    87          2
    88          2
    89         16
    90          1
    91         37
    92         21
    93        100
    94         76
    95         63
    96        170
    97         53
    98         73
    99          9
   100          4
   101          1
   103          3
   104          3
   105         11
   106         39
   107        360
   108        170
   109         48
   110         45
   111         25
   112         16
   113          5
   114          2
   115          1
   116         13
   117          3
   118          4
   119          8
   120         41
   121         88
   122        370
   123         74
   124        130
   125         36
   126         10
   127          4
   129          1
   130          3
   131          3
   132          4
   133          5
   134         89
   135        280
   136        120
   137         29
   138         55
   139         12
   140          9
   141          2
   142          2
   143          3
   146          2
   147          3
   148         12
   149         15
   150         22
   151         22
   152         27
   153         11
   154          6
   155          2
   156          2
   161          3
   162          3
   163         70
   164         16
   165         27
   166         43
   167         18
   168          8
   177         51
   178         23
   179        210
   180         43
   181         17
   182          9
   192          2
   193          9
   194          9
   195         80
   196         26
   197          3
   209          2
   210         10
   223          6
   237         12
   238        460
   239         69
   240          5