##TITLE=Library Entry 4914
##JCAMP-DX=Revision 4.10 
##DATA TYPE=MASS SPECTRUM
##SAMPLE DESCRIPTION=A.A.Kutin, Moscow, Russia
##NAMES=HP
##CAS NAME=Prop-2-ynamine, 3-(3-chlorophenyl)-N,N-dimethyl-
##MOLFORM=C11H12ClN
##CAS REGISTRY NO=13807-38-0
##MP= -300
##BP= -300
##MW= 193
##$RETENTION INDEX=0
##$CONDENSED SPECTRUM=NO
##NPOINTS= 99
##XYDATA=(XY..XY) 1 
    33         13
    35         74
    36        266
    37         36
    38         91
    39         72
    40         56
    42        999
    43        108
    44        111
    45          3
    49          5
    50         43
    51         55
    53         12
    55         15
    57         83
    58        131
    60          3
    62         60
    63        168
    64         24
    65         20
    66         23
    67         22
    70          7
    71         12
    73         29
    74         52
    75         56
    76         16
    77         18
    78         17
    80         29
    81         58
    82        568
    83         23
    84          3
    85         17
    86         38
    87         68
    88         57
    89         28
    90          2
    91          5
    92          1
    96          1
    97          8
    98         12
    99         28
   101         36
   102         12
   107          2
   109          2
   110         13
   111          2
   113        119
   114        161
   115        189
   116         49
   117          4
   123         22
   124          2
   125         11
   126          3
   127          6
   128         14
   129          8
   130          3
   136          6
   137          2
   138          8
   141          1
   142         17
   143         10
   144          0
   146          3
   147          9
   149        363
   151        167
   152         24
   153          1
   155          2
   156         19
   157         67
   158         23
   159          5
   161          5
   163          2
   176          2
   177          7
   178          7
   180          3
   191         13
   192        365
   193        234
   194        104
   195         74
   196          5