##TITLE=Library Entry 85363
##JCAMP-DX=Revision 4.10 
##DATA TYPE=MASS SPECTRUM
##SAMPLE DESCRIPTION=Institute of Organic Chemistry, USSR, 1990
##NAMES=HP
##CAS NAME=1,4-Dimethyltricyclo[5.3.0.0(4.10)]decan-8-one
##MOLFORM=C12H18O
##CAS REGISTRY NO=138041-97-1
##MP= -300
##BP= -300
##MW= 178
##$RETENTION INDEX=0
##$CONDENSED SPECTRUM=NO
##NPOINTS= 41
##XYDATA=(XY..XY) 1 
    40         66
    41        166
    43         11
    53        119
    55        102
    65         47
    67        202
    68         54
    69         28
    77        125
    78          8
    79        205
    80         39
    81        150
    82         80
    91        157
    92         28
    93        311
    94        174
    95        402
    96         50
    97         83
   105         36
   106         28
   107        333
   108        999
   109        157
   118         16
   119         14
   120         16
   121        108
   122         22
   123         11
   135        250
   136        419
   137         22
   145         28
   150         57
   163         28
   178        511
   179         31