##TITLE=Library Entry 109127
##JCAMP-DX=Revision 4.10 
##DATA TYPE=MASS SPECTRUM
##SAMPLE DESCRIPTION=Japan AIST/NIMC Database- Spectrum MS-IW-7678
##NAMES=HP
##CAS NAME=2-Isopropenylthiazole
##MOLFORM=C6H7NS
##CAS REGISTRY NO=13816-04-1
##MP= -300
##BP= -300
##MW= 125
##$RETENTION INDEX=0
##$CONDENSED SPECTRUM=NO
##NPOINTS= 76
##XYDATA=(XY..XY) 1 
    14          2
    15         11
    25          1
    26          9
    27         16
    28          3
    32          4
    33          2
    34          1
    37          9
    38         17
    39         73
    40         16
    41         43
    42          9
    43        164
    44         10
    45         47
    46          5
    47          3
    49          5
    50          9
    51         15
    52         17
    53          9
    54          9
    55          1
    56          3
    57         86
    58        779
    59        117
    60         39
    61          7
    62          2
    63          2
    64          4
    65          3
    66          6
    67          5
    68          9
    69          9
    70          8
    71          7
    72          5
    73          2
    75          1
    76          3
    78          2
    79          1
    80         15
    81          1
    82          4
    83         11
    84         29
    85         75
    86        153
    87          9
    88          7
    92          1
    96          2
    97         11
    98          9
    99        175
   100          9
   101          8
   109          1
   110         74
   111          7
   112          4
   122          1
   123         17
   124        419
   125        999
   126        100
   127         50
   128          5