##TITLE=Library Entry 76892
##JCAMP-DX=Revision 4.10 
##DATA TYPE=MASS SPECTRUM
##SAMPLE DESCRIPTION=NIST Mass Spectrometry Data Center, 1994
##NAMES=HP
##CAS NAME=Butanedioic acid, 2,3-dihydroxy-, diethyl ester, [S-(R*,R*)]-
##MOLFORM=C8H14O6
##CAS REGISTRY NO=13811-71-7
##MP= -300
##BP= -300
##MW= 206
##$RETENTION INDEX=0
##$CONDENSED SPECTRUM=NO
##NPOINTS= 67
##XYDATA=(XY..XY) 1 
    14          4
    15         22
    16          2
    19         54
    26         28
    27        168
    28         46
    29        473
    30         50
    31        130
    32          5
    39          1
    41         19
    42         91
    43         83
    44         11
    45         64
    46          1
    47        201
    48          5
    49         44
    53          2
    54          2
    55          1
    58        120
    59        196
    60        179
    61        124
    62          3
    63          2
    69         13
    70         32
    71         53
    72          4
    73          4
    74          2
    75        164
    76        837
    77        379
    78         16
    79          2
    87        150
    88         55
    89         14
    90          1
    98          3
    99         10
   100          1
   101          4
   104        999
   105        215
   106         14
   107          2
   115         18
   116         10
   117          4
   126          3
   127          4
   131          4
   133        526
   134         27
   135          3
   145          3
   149          4
   160          1
   161          1
   206          2