##TITLE=Library Entry 49136
##JCAMP-DX=Revision 4.10 
##DATA TYPE=MASS SPECTRUM
##SAMPLE DESCRIPTION=P.A. Leclercq, Lab. Instrum. Anal., Eindhoven Univ. Tec
hnol., Netherlands
##NAMES=HP
##CAS NAME=10-Oxatricyclo[4.2.1.1(3,9)]dec-4-ene, 9-ethenyl-
##MOLFORM=C11H14O
##CAS REGISTRY NO=138146-11-9
##MP= -300
##BP= -300
##MW= 162
##$RETENTION INDEX=0
##$CONDENSED SPECTRUM=NO
##NPOINTS= 79
##XYDATA=(XY..XY) 1 
    13          8
    14         23
    15         34
    27        668
    28         48
    29        195
    30          6
    31          8
    37         15
    39        528
    40         84
    41        289
    42         19
    43         25
    44          8
    50         85
    51        225
    52         93
    53        203
    55        614
    56         36
    57         21
    58          6
    62         21
    63         87
    65        209
    66        105
    67        143
    68         66
    69         28
    70         16
    71          9
    74         12
    75         18
    77        576
    78        235
    79        999
    80        225
    81         73
    82         98
    83        111
    84         62
    89         18
    91        576
    92        314
    93        148
    94        234
    95        306
    96        140
    97         13
   102         12
   103         64
   104         55
   105        233
   107        955
   108        155
   115         56
   116         51
   117         85
   118        109
   119        122
   120        159
   121        119
   122         20
   127         23
   129        243
   130         33
   131         24
   133        246
   134        141
   135         33
   143         24
   144         66
   145         24
   147        101
   148         16
   161         29
   162        114
   163         18