##TITLE=Library Entry 114895
##JCAMP-DX=Revision 4.10 
##DATA TYPE=MASS SPECTRUM
##SAMPLE DESCRIPTION=NIST Mass Spectrometry Data Center
##NAMES=HP
##CAS NAME=Benzonitrile, 4-(1-methylethyl)-
##MOLFORM=C10H11N
##CAS REGISTRY NO=13816-33-6
##MP= -300
##BP= -300
##MW= 145
##$RETENTION INDEX=0
##$CONDENSED SPECTRUM=NO
##NPOINTS= 73
##XYDATA=(XY..XY) 1 
    13          1
    14          7
    15         80
    16          3
    17          1
    18          1
    26         21
    27        137
    28         26
    29          4
    37         13
    38         24
    39        124
    40         12
    41         46
    42          7
    43          6
    50         73
    51        103
    52         37
    53         10
    54          1
    57          3
    58          2
    61          9
    62         26
    63         53
    64         26
    65         16
    66          2
    71          6
    72          1
    73          4
    74         27
    75         70
    76         69
    77        121
    78         19
    79          3
    85          2
    86          4
    87         10
    88         10
    89         33
    90         10
    91          6
    98          3
    99          8
   100         11
   101         35
   102         66
   103        248
   104         92
   105          8
   111          1
   112          1
   113          3
   114          6
   115         14
   116         46
   117          7
   118          2
   127         11
   128         33
   130        999
   131        104
   132          4
   140          4
   142          2
   143          2
   145        226
   146         26
   147          1