##TITLE=Library Entry 5049
##JCAMP-DX=Revision 4.10 
##DATA TYPE=MASS SPECTRUM
##SAMPLE DESCRIPTION=A.A.Kutin, Moscow, Russia
##NAMES=HP
##CAS NAME=2H-1,3,4-Thiadiazin-5(4H)-one, 3,6-dihydro-4-(2-hydroxyethyl)-2-e
thyl-2-methyl-
##MOLFORM=C8H16N2O2S
##CAS REGISTRY NO=138197-52-1
##MP= -300
##BP= -300
##MW= 204
##$RETENTION INDEX=0
##$CONDENSED SPECTRUM=NO
##NPOINTS= 104
##XYDATA=(XY..XY) 1 
    33          5
    34          3
    35          1
    36          0
    37          1
    39         70
    42        999
    43        104
    44         81
    45        199
    46        157
    47        121
    48          9
    49          5
    50          3
    51          6
    53         39
    55        205
    56         99
    57         52
    59        189
    60        209
    61         19
    62          8
    63          1
    64          0
    65          1
    67         12
    68         17
    70        195
    71         92
    72        180
    74         47
    75         22
    76         16
    77          1
    79          0
    80          1
    83         44
    85         19
    86         15
    88        112
    89         25
    90         45
    91          7
    92          2
    94          1
    97         29
    99        329
   101         37
   102         14
   103          4
   104          3
   105          1
   106          1
   108          0
   109          0
   110          1
   111         10
   113        175
   116         76
   117          5
   118          5
   119          1
   120          1
   124          0
   125          0
   127          4
   129         29
   131         93
   133         10
   134         17
   136          1
   139          1
   141          0
   142          0
   143          6
   144          4
   145         11
   146          1
   147          0
   153          0
   155          1
   157         46
   160        148
   161         16
   162          5
   163          2
   171          7
   173         10
   175        137
   176          8
   177          5
   178          0
   186          0
   187          1
   189         16
   190          1
   191          0
   200          0
   201          0
   204         44
   205          3
   206          1