##TITLE=Library Entry 45110
##JCAMP-DX=Revision 4.10 
##DATA TYPE=MASS SPECTRUM
##SAMPLE DESCRIPTION=A.A.Kutin, Moscow, Russia
##NAMES=HP
##CAS NAME=Acetamide, 2-methoxythiocarbonylthio-
##MOLFORM=C4H7NO2S2
##CAS REGISTRY NO=138111-22-5
##MP= -300
##BP= -300
##MW= 165
##$RETENTION INDEX=0
##$CONDENSED SPECTRUM=NO
##NPOINTS= 90
##XYDATA=(XY..XY) 1 
    33         43
    34         17
    35         45
    36          5
    37          4
    38          7
    39         11
    40         50
    41         52
    42        237
    43        148
    44        631
    45        442
    46        292
    47        534
    48         43
    49         25
    50          3
    51          2
    52          1
    53          2
    54          3
    55          9
    56          6
    57         20
    58        152
    59        470
    60        113
    61        153
    62         49
    63         14
    64         68
    65          7
    66          8
    67          3
    68          2
    69          5
    70          6
    71          5
    72         13
    73         44
    75        999
    76        144
    77        117
    78         16
    79         17
    80          4
    81          4
    82          2
    83          3
    84          2
    85          1
    86          1
    88         91
    90        485
    91         30
    92         27
    93          4
    94          2
    95          3
    97          1
    98          1
   104         14
   105         35
   106         12
   107         48
   108          7
   109          7
   118          1
   120          3
   121          5
   122         17
   123          2
   124          2
   125          1
   131          1
   132          8
   133          3
   134          6
   135          1
   148         64
   149          9
   150          7
   153          0
   163          4
   165        245
   166         18
   167         21
   168          1
   169          0