##TITLE=Library Entry 68674
##JCAMP-DX=Revision 4.10 
##DATA TYPE=MASS SPECTRUM
##SAMPLE DESCRIPTION=G.VON BUNAU MAX-PLANCK-INST., MULHEIM-RHUR, GERMANY, FR
G
##NAMES=HP
##CAS NAME=Cyclohexene, 1-methyl-3-(1-methylethyl)-
##MOLFORM=C10H18
##CAS REGISTRY NO=13828-31-4
##MP= -300
##BP= -300
##MW= 138
##$RETENTION INDEX=0
##$CONDENSED SPECTRUM=NO
##NPOINTS= 27
##XYDATA=(XY..XY) 1 
    27         46
    29         34
    39         56
    41         85
    43         36
    51         19
    53         36
    55         97
    65         24
    67        117
    68         24
    69         24
    77         39
    79         56
    80         17
    81         48
    82         36
    91         34
    93         39
    94         78
    95        999
    96        104
    97         36
   119         26
   123         19
   138        119
   139         17