##TITLE=Library Entry 67872
##JCAMP-DX=Revision 4.10 
##DATA TYPE=MASS SPECTRUM
##SAMPLE DESCRIPTION=Exported from NIST MS Search
##NAMES=HP
##CAS NAME=Cyclohexanemethanol, 4-(1-methylethyl)-, cis-
##MOLFORM=C10H20O
##CAS REGISTRY NO=13828-37-0
##MP= -300
##BP= -300
##MW= 156
##$RETENTION INDEX=1830
##$CONDENSED SPECTRUM=NO
##NPOINTS= 54
##XYDATA=(XY..XY) 1 
    27         81
    28         22
    29         90
    31         59
    39         76
    40         12
    41        226
    42         22
    43        151
    44          8
    45         18
    51          8
    52          6
    53         56
    54         52
    55        386
    56         26
    57        131
    59          9
    65         12
    66         19
    67        214
    68         46
    69        345
    70         44
    71         12
    77         25
    78          6
    79         95
    80         37
    81        179
    82        124
    83        131
    84         12
    91         15
    93         57
    94        117
    95        999
    96        131
    97         17
   108          5
   109         63
   110         77
   111         16
   112          7
   113         17
   121          8
   123         76
   124         13
   125         25
   136          9
   138         75
   139         10
   154          6