##TITLE=Library Entry 73921
##JCAMP-DX=Revision 4.10 
##DATA TYPE=MASS SPECTRUM
##SAMPLE DESCRIPTION=Japan AIST/NIMC Database- Spectrum MS-NW-9556
##NAMES=HP
##CAS NAME=Pentane, 1,1,1-trimethoxy-
##MOLFORM=C8H18O3
##CAS REGISTRY NO=13820-09-2
##MP= -300
##BP= -300
##MW= 162
##$RETENTION INDEX=0
##$CONDENSED SPECTRUM=NO
##NPOINTS= 84
##XYDATA=(XY..XY) 1 
    14          4
    15        111
    16          1
    17          1
    18          3
    26         11
    27        122
    28         50
    29        182
    30         13
    31        172
    32        118
    33          6
    37          1
    38          5
    39         64
    40          9
    41        196
    42         33
    43        217
    44         13
    45         54
    46          3
    47          9
    50          5
    51          7
    52          3
    53         21
    54          8
    55        604
    56         54
    57        289
    58         23
    59        202
    60          7
    61         22
    62          1
    65          3
    66          1
    67         35
    68          5
    69         22
    70          2
    71         26
    72          6
    73         21
    74        521
    75         30
    76          3
    79          1
    81          4
    82          9
    83         36
    84          7
    85        212
    86         11
    87        161
    88         32
    89          5
    91          1
    94          2
    96          1
    97          9
    98          1
    99          9
   100          1
   101        999
   102         62
   103          6
   104          1
   105        299
   106         13
   107          2
   113          1
   114          1
   115         17
   116          3
   117          3
   128          1
   129         10
   130        127
   131        329
   132         26
   133          2