##TITLE=Library Entry 68046
##JCAMP-DX=Revision 4.10 
##DATA TYPE=MASS SPECTRUM
##SAMPLE DESCRIPTION=G.VON BUNAU MAX-PLANCK-INST., MULHEIM-RHUR, GERMANY, FR
G
##NAMES=HP
##CAS NAME=Cyclohexane, 1-methyl-3-(1-methylethylidene)-
##MOLFORM=C10H18
##CAS REGISTRY NO=13828-34-7
##MP= -300
##BP= -300
##MW= 138
##$RETENTION INDEX=0
##$CONDENSED SPECTRUM=NO
##NPOINTS= 45
##XYDATA=(XY..XY) 1 
    27         70
    29         65
    39        105
    40         22
    41        205
    42         22
    43         75
    51         25
    52         17
    53         75
    54         35
    55        185
    56         25
    57         25
    59         30
    65         40
    66         30
    67        257
    68        107
    69        107
    70         30
    77         60
    78         20
    79         80
    80         35
    81        255
    82        235
    83         57
    84         17
    91         47
    92         25
    93         82
    94         85
    95        999
    96        132
    97         35
   105         17
   107         17
   109         37
   110         15
   121         30
   123         97
   136         25
   138        257
   139         37