##TITLE=Library Entry 32398
##JCAMP-DX=Revision 4.10 
##DATA TYPE=MASS SPECTRUM
##SAMPLE DESCRIPTION=Chemical Concepts
##NAMES=HP
##CAS NAME=Palladium, [1,2-ethanediylbis[bis(1,1-dimethylethyl)phosphine]-P,
P'][(1,2-.eta.)-1,5-hexadiene]-
##MOLFORM=C24H50P2Pd
##CAS REGISTRY NO=138234-16-9
##MP= -300
##BP= -300
##MW= 506
##$RETENTION INDEX=0
##$CONDENSED SPECTRUM=NO
##NPOINTS= 214
##XYDATA=(XY..XY) 1 
    27        177
    28         36
    29         68
    30          1
    31          7
    33          0
    36          0
    37         12
    38         30
    39        507
    40         35
    41        942
    42         53
    43          7
    44          9
    45          1
    46          0
    47          0
    48          0
    49          3
    50         27
    51         40
    52         18
    53         83
    54        510
    55         44
    56          8
    57         56
    58          3
    59          2
    60          0
    61          4
    62          3
    63          5
    64          0
    65         38
    66         15
    67        999
    68         61
    69          4
    70          0
    71          0
    72          0
    73          6
    74          4
    75          2
    76          0
    77         20
    78          4
    79         33
    80          4
    81         69
    82         13
    83          1
    84          0
    85          0
    86          0
    87          1
    89          1
    91          0
    92          2
    93         16
    94          0
    95          0
    96          0
    97          0
    98          0
    99          0
   101          0
   103          0
   105          0
   106          0
   107          0
   109          0
   110          0
   111          0
   115          0
   116          0
   117          2
   119          0
   120          0
   121          0
   123          0
   124          0
   125          0
   131          0
   133          0
   134          0
   135          0
   145          0
   146          0
   147          1
   148          1
   149         19
   150          1
   151          0
   152          0
   153          0
   160          0
   161          0
   163          0
   164          0
   165          0
   166          0
   167          0
   168          1
   169          1
   170          1
   171          1
   172          0
   173          0
   177          0
   179          0
   181          0
   183          0
   185          0
   189          0
   191          0
   192          0
   193          0
   194          0
   195          0
   196          1
   197          2
   198          2
   199          2
   200          0
   201          2
   202          0
   203          1
   205         30
   206          3
   207          1
   213          2
   214          1
   215          2
   217          1
   218          0
   219          0
   221          0
   222          0
   223          0
   225          0
   226          0
   227          0
   228          0
   229          0
   230          0
   239          0
   240          0
   241          0
   247          0
   249          0
   250          0
   251          0
   252          0
   253          1
   254          1
   255          1
   256          0
   257          1
   258          0
   259          0
   261         26
   262          4
   263          0
   265          0
   267          1
   268          0
   269          0
   270          0
   271          0
   273          0
   307          0
   308          0
   309          1
   310          3
   311          4
   312          0
   313          3
   314          0
   315          0
   316          0
   323          0
   324          1
   325          1
   326          0
   327          0
   328          0
   329          0
   341          0
   351          0
   365          4
   366         11
   367         15
   368          4
   369         10
   370          3
   371          5
   372          1
   373          0
   420          0
   422          5
   423         13
   424         16
   425          3
   426         12
   427          3
   428          5
   429          1
   504          0
   505          0
   506          0
   508          0