##TITLE=Library Entry 41206
##JCAMP-DX=Revision 4.10 
##DATA TYPE=MASS SPECTRUM
##SAMPLE DESCRIPTION=C.R.ENZELL SWEDISH TOBACCO CO., STOCKHOLM, SWEDEN
##NAMES=HP
##CAS NAME=.psi.,.psi.-Carotene, 3,4-didehydro-1,2,7',8'-tetrahydro-1-methox
y-2-oxo-
##MOLFORM=C41H58O2
##CAS REGISTRY NO=13836-70-9
##MP= -300
##BP= -300
##MW= 582
##$RETENTION INDEX=0
##$CONDENSED SPECTRUM=NO
##NPOINTS= 499
##XYDATA=(XY..XY) 1 
    13          1
    14          2
    15          7
    16          1
    17          1
    18          4
    25          1
    26          6
    27         14
    28         14
    29         18
    30          2
    31         13
    32          9
    33          1
    37          3
    38          5
    39         32
    40          6
    41        106
    42          9
    43         52
    44          2
    45          6
    46          1
    48          1
    49          2
    50          9
    51         18
    52          8
    53         19
    54          3
    55         39
    56          3
    57          7
    58          2
    59          3
    60          1
    61          2
    62          5
    63         11
    64          4
    65          2
    66          4
    67         22
    68          7
    69        266
    70         17
    71         13
    72          3
    73        999
    74         45
    75          5
    76          3
    77         39
    78         14
    79         37
    80          7
    81         78
    82          7
    83          8
    84          1
    85          3
    86          1
    87          1
    88          1
    89          6
    90          3
    91        245
    92         41
    93         47
    94          6
    95         38
    96          4
    97          9
    98          2
    99          1
   100          1
   101          2
   102          3
   103         14
   104          8
   105        113
   106        100
   107         45
   108          6
   109         23
   110          3
   111          4
   112          1
   113          1
   114          1
   115         14
   116          8
   117         20
   118          6
   119         72
   120         12
   121         42
   122          6
   123         12
   124          2
   125          4
   126          1
   127          5
   128          2
   129         28
   130         12
   131         36
   132         11
   133         60
   134         10
   135         19
   136          4
   137         18
   138          2
   139          2
   140          1
   141         14
   142         17
   143         40
   144         17
   145         80
   146         14
   147         33
   148          5
   149          8
   150          2
   151          3
   152          5
   153          8
   154          5
   155         18
   156         18
   157         50
   158         17
   159         44
   160          8
   161         14
   162          4
   163          5
   164          1
   165         11
   166          6
   167         26
   168          9
   169         28
   170         11
   171         28
   172          8
   173         20
   174          5
   175         12
   176          3
   177          2
   178          5
   179         11
   180          7
   181         18
   182         10
   183         31
   184         10
   185         27
   186          8
   187         20
   188          6
   189         11
   190          3
   191          5
   192          5
   193         13
   194          8
   195         26
   196         11
   197         38
   198         12
   199         22
   200          6
   201         10
   202          4
   203          7
   204          3
   205          5
   206          5
   207         12
   208          9
   209         29
   210         10
   211         28
   212          7
   213         10
   214          3
   215          8
   216          3
   217          3
   218          2
   219          8
   220          5
   221         18
   222          8
   223         32
   224          8
   225         14
   226          5
   227          7
   228          2
   229          4
   230          2
   231          4
   232          3
   233          6
   234          4
   235         10
   236          5
   237         19
   238          6
   239          9
   240          3
   241          4
   242          2
   243          4
   244          2
   245          6
   246          3
   247          8
   248          3
   249          9
   250          3
   251         13
   252          5
   253          7
   254          2
   255          4
   256          2
   257          3
   258          2
   259          4
   260          2
   261          6
   262          3
   263          7
   264          4
   265          7
   266          5
   267          6
   268          2
   269          3
   270          2
   271          4
   272          2
   273          4
   274          3
   275          5
   276          2
   277          6
   278          3
   279         19
   280          5
   281          4
   282          2
   283          3
   284          2
   285          4
   286          2
   287          5
   288          2
   289          5
   290          2
   291          4
   292          3
   293          5
   294          2
   295          2
   296          1
   297          2
   298          5
   299          4
   300          2
   301          2
   302          1
   303          3
   304          2
   305          4
   306          2
   307         18
   308          5
   309          4
   310          2
   311          4
   312          2
   313          2
   314          1
   315          2
   316          1
   317          3
   318          1
   319          2
   320          1
   321          5
   322          2
   323          3
   324          2
   325          2
   326          1
   327          2
   328          1
   329          3
   330          2
   331          2
   332          2
   333          2
   334          2
   335          2
   336          2
   337          7
   338          3
   339         35
   340          9
   341          4
   342          2
   343          4
   344          2
   345          3
   346          1
   347          3
   348          2
   349          2
   350          1
   351          2
   352          1
   353          7
   354          3
   355          1
   356          1
   357          1
   358          1
   359          2
   360          1
   361          5
   362          2
   363          2
   364          1
   365          2
   366          1
   367          1
   368          1
   369          1
   370          1
   371          1
   372          1
   373          2
   374          2
   375          5
   376          2
   377          3
   378          1
   379          1
   380          1
   381          1
   382          1
   383          1
   384          3
   385          3
   386          1
   387          1
   388          2
   389          3
   390          2
   391          1
   392          1
   393          1
   394          1
   395          1
   396          1
   397          3
   398          2
   399          2
   400          1
   401          2
   402          2
   403         14
   404          5
   405          2
   406          1
   407          1
   408          1
   409          1
   410          1
   411          2
   412          2
   413          9
   414          4
   415          3
   416          3
   417          4
   418          2
   419          1
   424          2
   425          1
   426          1
   427          1
   428          1
   429          1
   430          1
   431          1
   432          1
   433          1
   434          1
   435          1
   436          1
   437          1
   438          1
   439          1
   440          1
   441          1
   442          2
   443          3
   444         19
   445         27
   446         11
   447          3
   448          1
   449          1
   450          1
   451          1
   453          1
   454          1
   455          1
   456          1
   457          1
   458          3
   459          1
   460          1
   461          1
   462          1
   463          1
   464          1
   465          1
   466          1
   467          1
   468          1
   469          1
   470          1
   471          1
   472          1
   473          1
   474          2
   475          2
   476        119
   477         45
   478         12
   479          3
   480          7
   481          7
   482          3
   483          1
   488          1
   489          1
   490         15
   491          6
   492          2
   493          1
   502          1
   503          2
   504          1
   505          1
   506          1
   507          1
   508          1
   509          4
   510          2
   511          1
   512          1
   513          1
   514          1
   515          1
   522          2
   523          1
   524          1
   532          1
   533          1
   534          1
   535          1
   536          1
   544          1
   548          4
   549          2
   550         23
   551         11
   552          7
   553          3
   554          2
   555          1
   567          1
   578          1
   579          1
   580         81
   581         42
   582         93