##TITLE=Library Entry 56126
##JCAMP-DX=Revision 4.10 
##DATA TYPE=MASS SPECTRUM
##SAMPLE DESCRIPTION=A.A.Kutin, Moscow, Russia
##NAMES=HP
##CAS NAME=Acetamide, 2-diethylamino-N-(3-methyl-1-phenylindol-2-yl)-
##MOLFORM=C21H25N3O
##CAS REGISTRY NO=138349-56-1
##MP= -300
##BP= -300
##MW= 335
##$RETENTION INDEX=0
##$CONDENSED SPECTRUM=NO
##NPOINTS= 187
##XYDATA=(XY..XY) 1 
    33          1
    39          9
    40         16
    41         11
    42         33
    43         22
    44         16
    45         11
    46          0
    50          3
    51         17
    52          3
    53          1
    54          2
    55          5
    56         27
    57         19
    58        121
    59          5
    60          0
    61          0
    62          0
    63          4
    64          2
    65          6
    66          2
    67          1
    68          1
    69          2
    70          5
    71          4
    72          3
    73          1
    74          1
    75          2
    76          4
    77         22
    78          3
    79          0
    80          0
    81          0
    82          1
    84         16
    86        999
    87         67
    88          2
    89          6
    90          4
    91          6
    92          1
    93          1
    94          0
    95          1
    96          1
    97          1
    98          0
    99          0
   100          0
   101          2
   102          2
   103          2
   104          1
   105          1
   106          0
   107          0
   108          0
   109          1
   110          0
   111          1
   112          1
   113          1
   114          1
   115          2
   116          5
   117          3
   118          1
   119          0
   120          1
   121          0
   122          0
   123          0
   124          0
   125          0
   126          0
   127          1
   128          4
   129          2
   130          1
   131          0
   132          0
   134          0
   135          0
   136          0
   137          0
   138          0
   139          1
   140          1
   141          1
   142          1
   143          2
   144          1
   145          1
   146          2
   147          0
   148          0
   149          1
   150          0
   151          1
   152          1
   153          1
   154          0
   155          0
   160          1
   163          0
   164          0
   165          3
   166          2
   167          5
   168          6
   169          0
   170          0
   171          0
   172          0
   173          0
   176          0
   177          1
   178          1
   179          1
   180          2
   181          0
   182          0
   183          0
   185          0
   189          0
   190          1
   191          2
   192          3
   193          4
   194          3
   195          0
   196          1
   197          0
   203          0
   204          2
   205          6
   206          4
   207          1
   208          0
   209          0
   210          0
   211          0
   212          0
   216          0
   217          0
   218          2
   219         12
   220          7
   221         16
   222          5
   223          5
   224          1
   231          0
   232          0
   233          0
   234          0
   235          1
   236          0
   239          0
   240          0
   243          0
   244          0
   245          0
   246          0
   247          4
   248          5
   249          2
   250          0
   261          0
   262          0
   263          0
   264          0
   265          0
   306          0
   333          0
   335         22
   336          5
   337          0