##TITLE=Library Entry 63391
##JCAMP-DX=Revision 4.10 
##DATA TYPE=MASS SPECTRUM
##SAMPLE DESCRIPTION=Chemical Concepts
##NAMES=HP
##CAS NAME=2-Propenoic acid, 3-[(phenylmethyl)thio]-, (E)-
##MOLFORM=C10H10O2S
##CAS REGISTRY NO=13831-01-1
##MP= -300
##BP= -300
##MW= 194
##$RETENTION INDEX=0
##$CONDENSED SPECTRUM=NO
##NPOINTS= 122
##XYDATA=(XY..XY) 1 
    25          2
    26          6
    27         16
    28          0
    30          1
    31          4
    33          0
    35          0
    37          1
    38          4
    39         46
    40          3
    41         18
    42          2
    43          8
    44         18
    45         45
    46          2
    47          7
    48          0
    50          7
    51         25
    52          5
    53          2
    54          0
    55          6
    56          2
    57         10
    58         16
    59          8
    60          4
    61          2
    62          6
    63         23
    64          6
    65        157
    66          7
    67          2
    68          1
    69          6
    70          2
    71          5
    73          4
    74          2
    75          5
    76          1
    77         17
    78          4
    79          5
    80          0
    81          3
    82          1
    83          3
    84          1
    85          3
    86          3
    87          3
    88          0
    89         24
    90          8
    91        999
    92         95
    93          5
    94          0
    95          2
    96          1
    97          3
    98          1
    99          1
   102          1
   103         29
   104          2
   105          2
   107          1
   108          0
   109          1
   110          1
   111          2
   112          0
   113          1
   115         11
   116          2
   117          4
   121         11
   122          3
   123          3
   124          1
   125          1
   127          0
   129          1
   131          0
   133         11
   134          5
   135          1
   136          0
   137          0
   139          0
   141          2
   142          1
   143          1
   144          1
   147          2
   148          6
   150          7
   151          7
   152          1
   153          0
   154          0
   155          1
   160          1
   161         78
   162          7
   163          1
   167          0
   175          2
   176         18
   177          3
   178          2
   194        164
   195         19
   196          8
   197          0