##TITLE=Library Entry 67231
##JCAMP-DX=Revision 4.10 
##DATA TYPE=MASS SPECTRUM
##SAMPLE DESCRIPTION=Japan AIST/NIMC Database- Spectrum MS-NW-7326
##NAMES=HP
##CAS NAME=3-Cyclohexene-1-ethanol, .beta.,4-dimethyl-, [S-(R*,S*)]-
##MOLFORM=C10H18O
##CAS REGISTRY NO=13835-75-1
##MP= -300
##BP= -300
##MW= 154
##$RETENTION INDEX=1288
##$CONDENSED SPECTRUM=NO
##NPOINTS= 114
##XYDATA=(XY..XY) 1 
    15          3
    18          1
    26          5
    27        122
    28         21
    29        142
    30          6
    31        129
    32          6
    36          1
    37          3
    38          9
    39        204
    40         64
    41        367
    42         51
    43        123
    44          9
    45         14
    46          1
    47          1
    49          1
    50         15
    51         56
    52         32
    53        241
    54         41
    55        447
    56         62
    57         45
    58         55
    59         22
    60          1
    61          2
    62          5
    63         17
    64          6
    65         80
    66         39
    67        627
    68        713
    69        167
    70         33
    71         40
    72          6
    73          2
    74          3
    75          3
    76          2
    77        204
    78         47
    79        615
    80        137
    81        464
    82         54
    83         26
    84         29
    85         17
    86          3
    87          2
    88          1
    89          5
    90          2
    91        209
    92        127
    93        875
    94        999
    95        692
    96         74
    97         53
    98          9
    99          3
   101          1
   102          2
   103         10
   104          4
   105         59
   106         18
   107        534
   108        135
   109         23
   110          8
   111         11
   112          5
   113          4
   115          5
   116          2
   117          4
   118          2
   119         12
   120          5
   121        594
   122         71
   123        286
   124         32
   125          6
   126          2
   127          1
   129          1
   131          1
   132          1
   133          1
   134          2
   135          9
   136        280
   137         36
   138          3
   139          7
   140          1
   152          1
   153          1
   154        253
   155         29
   156          3