##TITLE=Library Entry 9186
##JCAMP-DX=Revision 4.10 
##DATA TYPE=MASS SPECTRUM
##SAMPLE DESCRIPTION=J.Little, Eastman Chem. Comp.
##NAMES=HP
##CAS NAME=Acetic acid, (acetyloxy)-
##MOLFORM=C4H6O4
##CAS REGISTRY NO=13831-30-6
##MP= -300
##BP= -300
##MW= 118
##$RETENTION INDEX=1020
##$CONDENSED SPECTRUM=NO
##NPOINTS= 26
##XYDATA=(XY..XY) 1 
    16          1
    18          3
    28         35
    29         29
    30          7
    31         33
    32          8
    41          7
    42         55
    43        999
    44         26
    45         32
    46          2
    56          1
    58          2
    59         28
    60          1
    61          4
    73        149
    74         37
    75         13
    76          2
    86          1
    88         10
    90          2
   101          9