##TITLE=Library Entry 51565
##JCAMP-DX=Revision 4.10 
##DATA TYPE=MASS SPECTRUM
##SAMPLE DESCRIPTION=G.VON BUNAU MAX-PLANCK-INST., MULHEIM-RHUR, GERMANY, FR
G
##NAMES=HP
##CAS NAME=m-Menth-1(7)-ene, (R)-(-)-
##MOLFORM=C10H18
##CAS REGISTRY NO=13837-71-3
##MP= -300
##BP= -300
##MW= 138
##$RETENTION INDEX=0
##$CONDENSED SPECTRUM=NO
##NPOINTS= 37
##XYDATA=(XY..XY) 1 
    27         90
    29         58
    39         97
    40         29
    41        209
    42         29
    43         78
    51         31
    52         22
    53         70
    54         26
    55        229
    56         39
    57         31
    65         24
    66         26
    67        258
    68         87
    69        109
    70         26
    77         48
    78         17
    79         78
    80         26
    81        158
    82        999
    83        104
    84         17
    91         36
    93         46
    94         58
    95        563
    96         68
   109         29
   123         29
   138        168
   139         19