##TITLE=Library Entry 69910
##JCAMP-DX=Revision 4.10 
##DATA TYPE=MASS SPECTRUM
##SAMPLE DESCRIPTION=G.VON BUNAU MAX-PLANCK-INST., MULHEIM-RHUR, GERMANY, FR
G
##NAMES=HP
##CAS NAME=m-Menthane, (1S,3R)-(+)-
##MOLFORM=C10H20
##CAS REGISTRY NO=13837-66-6
##MP= -300
##BP= -300
##MW= 140
##$RETENTION INDEX=0
##$CONDENSED SPECTRUM=NO
##NPOINTS= 38
##XYDATA=(XY..XY) 1 
    27         89
    28         26
    29         89
    39         89
    40         29
    41        228
    42         41
    43        121
    51         21
    53         48
    54         38
    55        941
    56         89
    57         48
    65         19
    66         19
    67         80
    68         58
    69        184
    70         38
    77         29
    79         29
    81        191
    82         36
    83         77
    84         19
    91         24
    93         48
    95         80
    96        463
    97        999
    98         92
   121         36
   125         26
   136         24
   138         19
   140        262
   141         34