##TITLE=Library Entry 54391
##JCAMP-DX=Revision 4.10 
##DATA TYPE=MASS SPECTRUM
##SAMPLE DESCRIPTION=K. Kirk, LC, NIDDK, NIH, Bethesda, MD 20892
##NAMES=HP
##CAS NAME=3-Azapentane, N-methyl-5-[4-chlorophenyl]-1-[pyrrolidin-1-yl]-
##MOLFORM=C15H23ClN2
##CAS REGISTRY NO=138356-48-6
##MP= -300
##BP= -300
##MW= 266
##$RETENTION INDEX=0
##$CONDENSED SPECTRUM=NO
##NPOINTS= 94
##XYDATA=(XY..XY) 1 
    42        239
    43         67
    44         70
    45         96
    46         53
    47         20
    49         40
    50         14
    51         31
    52         15
    53         13
    54         16
    55         75
    56         47
    57         56
    58         11
    59          2
    60         20
    61         12
    62          3
    63         19
    64          3
    65         16
    67         13
    68         11
    69         34
    70         29
    71         14
    72         37
    73         15
    74          3
    75         10
    76          8
    77         65
    78        114
    79         13
    80          2
    81          8
    82         13
    83         12
    84        999
    85         57
    87          8
    89         15
    90          4
    91          9
    93          3
    94          6
    95         11
    96         16
    97         19
    98         24
    99          8
   101          7
   102          6
   103         75
   104         13
   105         14
   106         49
   107         13
   108          2
   111          6
   113          6
   115          6
   117          2
   121          7
   123          3
   124         47
   125         27
   127         13
   128          5
   129          3
   138          5
   139        142
   140         14
   141        212
   142         19
   147          4
   148          4
   149          8
   153          4
   157          3
   180          3
   182        338
   183         41
   184        104
   185         16
   196         11
   198          3
   265          6
   266         33
   267         11
   268         11
   269          3