##TITLE=Library Entry 72321
##JCAMP-DX=Revision 4.10 
##DATA TYPE=MASS SPECTRUM
##SAMPLE DESCRIPTION=Chemical Concepts
##NAMES=HP
##CAS NAME=1,4-Dioxaspiro[4.5]decane-6-carboxylic acid, 6-methyl-, ethyl est
er
##MOLFORM=C12H20O4
##CAS REGISTRY NO=13839-77-5
##MP= -300
##BP= -300
##MW= 228
##$RETENTION INDEX=0
##$CONDENSED SPECTRUM=NO
##NPOINTS= 128
##XYDATA=(XY..XY) 1 
    26          5
    27         38
    28          8
    29         62
    30          3
    31          3
    35          2
    36          2
    38          2
    39         24
    40          8
    41         94
    42         42
    43         54
    44         14
    45         25
    46          2
    47          2
    48          2
    49         12
    50          2
    51          6
    52          3
    53         18
    54          9
    55        119
    56         12
    57          9
    58          2
    59          5
    60          4
    61          2
    63          2
    65          6
    66          4
    67         23
    68         10
    69         43
    70          5
    71          6
    72          4
    73         26
    74          5
    77         10
    78          4
    79         14
    80          4
    81         24
    82         12
    83         35
    84         13
    85          6
    86        351
    87         35
    88          5
    89         12
    91          7
    92          3
    93         11
    94          4
    95         19
    96          5
    97          7
    98          6
    99        999
   100        153
   101         18
   102          6
   103          2
   105          3
   107          5
   108          4
   109         18
   110          8
   111         26
   112         21
   113        142
   114         32
   115          6
   117          5
   121          3
   122          3
   123          3
   124          6
   125         23
   126         22
   127         39
   128          9
   129          4
   131          3
   137         15
   138          4
   139         14
   140          3
   141          4
   142          3
   143         11
   144          6
   145          6
   149          3
   152          3
   153          6
   154          9
   155        223
   156         28
   157          5
   167          3
   168          3
   169          4
   170          3
   171          3
   172         10
   174          3
   181          2
   182          3
   183        118
   184         15
   185         26
   186         13
   187          2
   198          3
   199         15
   200          2
   213          3
   227          3
   228        315
   229         45
   230          5