##TITLE=Library Entry 21131
##JCAMP-DX=Revision 4.10 
##DATA TYPE=MASS SPECTRUM
##SAMPLE DESCRIPTION=Chemical Concepts
##NAMES=HP
##CAS NAME=m-Menthane, (1S,3S)-(+)-
##MOLFORM=C10H20
##CAS REGISTRY NO=13837-67-7
##MP= -300
##BP= -300
##MW= 140
##$RETENTION INDEX=990
##$CONDENSED SPECTRUM=NO
##NPOINTS= 83
##XYDATA=(XY..XY) 1 
    26          2
    27         78
    28          5
    29         79
    30          2
    31          0
    37          0
    38          1
    39         70
    40         10
    41        204
    42         27
    43         95
    44          3
    45          0
    46          0
    49          0
    50          2
    51          7
    52          4
    53         34
    54         28
    55        999
    56         62
    57         31
    58          1
    59          0
    62          0
    63          1
    64          0
    65          8
    66          5
    67         50
    68         26
    69        165
    70         17
    71          4
    77          8
    78          1
    79         14
    80          2
    81        188
    82         19
    83         44
    84          5
    85          0
    91          4
    92          0
    93          2
    94          2
    95         30
    96        298
    97        676
    98         57
    99          2
   103          0
   105          3
   106          0
   107          0
   109          1
   110          0
   111          1
   112          0
   113          0
   115          0
   117          0
   119          2
   120          1
   121          0
   123          2
   124          0
   125          4
   126          0
   127          0
   134          0
   135          0
   136          0
   137          0
   138          3
   139          1
   140         73
   141          7
   142          0