##TITLE=Library Entry 8367
##JCAMP-DX=Revision 4.10 
##DATA TYPE=MASS SPECTRUM
##SAMPLE DESCRIPTION=Mark Whitten, Florida Museum of Natural History, U. of
 Florida
##NAMES=HP
##CAS NAME=Limonene oxide, cis-
##MOLFORM=C10H16O
##CAS REGISTRY NO=13837-75-7
##MP= -300
##BP= -300
##MW= 152
##$RETENTION INDEX=1134
##$CONDENSED SPECTRUM=NO
##NPOINTS= 61
##XYDATA=(XY..XY) 1 
    41        411
    43        999
    44        134
    45         28
    50         19
    51         50
    52         24
    53        129
    54         48
    55        164
    56         28
    57         18
    58         16
    59          6
    62          5
    63         13
    65         38
    67        433
    68         70
    69         70
    71        153
    72          9
    75          2
    77         70
    79        200
    80         32
    81        130
    82        131
    83         52
    84         48
    85          5
    91         83
    92         24
    93        198
    94         70
    95         99
    96         22
    97         15
    98          2
   103          4
   105         25
   106         14
   107         35
   108        101
   109        199
   110         57
   111         12
   115          3
   117          4
   119         65
   120          8
   121         26
   123         73
   124         30
   125          3
   134         16
   135          3
   137        153
   138         17
   151          2
   152         13