##TITLE=Library Entry 28680
##JCAMP-DX=Revision 4.10 
##DATA TYPE=MASS SPECTRUM
##SAMPLE DESCRIPTION=A.A.Kutin, Moscow, Russia
##NAMES=HP
##CAS NAME=Acetic acid, diphenyl-hydroxy-, 1-dimethylaminoisopropyl ester
##MOLFORM=C19H23NO3
##CAS REGISTRY NO=13835-18-2
##MP= -300
##BP= -300
##MW= 313
##$RETENTION INDEX=0
##$CONDENSED SPECTRUM=NO
##NPOINTS= 112
##XYDATA=(XY..XY) 1 
    39          5
    40          3
    41         10
    42         45
    43         20
    44         21
    45         14
    46          1
    50          3
    51         18
    52          3
    53          1
    54          0
    55          2
    56         16
    57         11
    58        999
    59         36
    60          0
    61          0
    62          0
    63          1
    64          0
    65          1
    66          0
    67          0
    68          1
    69          1
    70         10
    71         33
    72          5
    73          0
    74          0
    75          1
    76          5
    77         93
    78         10
    79          0
    81          0
    82          1
    83          1
    84          9
    85        185
    86         49
    87          9
    88          3
    89          8
    90          0
    91          1
    92          0
    97          0
    98          0
   100          0
   101          1
   102          4
   103          0
   104          2
   105        109
   106          9
   107          0
   109          0
   111          0
   112          0
   113          0
   114          0
   115          1
   116          1
   117          0
   118          0
   120          0
   121          0
   126          1
   127          1
   128          1
   129          0
   130          1
   131          1
   133          0
   134          0
   137          0
   138          0
   139          1
   140          0
   141          0
   151          2
   152          7
   153          3
   154          0
   155          0
   162          0
   163          2
   164          2
   165          9
   166          2
   167          0
   168          0
   178          0
   181          8
   182          5
   183         49
   184          6
   185          0
   194          0
   195          0
   219          0
   227          0
   236          0
   242          0
   264          0
   312          0
   313          4
   314          0