##TITLE=Library Entry 82937
##JCAMP-DX=Revision 4.10 
##DATA TYPE=MASS SPECTRUM
##SAMPLE DESCRIPTION=Japan AIST/NIMC Database- Spectrum MS-NW-5824
##NAMES=HP
##CAS NAME=4-Pyridinecarboxylic acid, butyl ester
##MOLFORM=C10H13NO2
##CAS REGISTRY NO=13841-66-2
##MP= -300
##BP= -300
##MW= 179
##$RETENTION INDEX=1371
##$CONDENSED SPECTRUM=NO
##NPOINTS= 96
##XYDATA=(XY..XY) 1 
    14          2
    15          8
    16          1
    17          1
    18          3
    25          1
    26         17
    27        101
    28         44
    29        214
    30          5
    31         17
    32          5
    33          1
    37          4
    38          9
    39         58
    40         12
    41        269
    42         13
    43         40
    44          9
    45          4
    49          8
    50         89
    51        379
    52         45
    53         11
    54          5
    55         86
    56        642
    57         63
    58          2
    62          1
    63          1
    64          1
    65          1
    66          3
    67          3
    68          2
    69          1
    70          2
    71          2
    72          2
    73          9
    74          1
    75          5
    76          9
    77         15
    78        559
    79         84
    80         26
    81          2
    91          1
    92          1
    93          3
    94          4
    95          4
    96          7
    97          1
   101          4
   104          1
   105         16
   106        999
   107         76
   108          7
   109          1
   119          1
   120          1
   121          7
   122          3
   123        355
   124        807
   125         57
   126          6
   132          2
   133          1
   134          4
   135          3
   136          9
   137        119
   138         10
   139          1
   146          1
   148          1
   149          1
   150         46
   151         42
   152          4
   164        121
   165         14
   166          1
   177          1
   178         80
   179         48
   180          6