##TITLE=Library Entry 50343
##JCAMP-DX=Revision 4.10 
##DATA TYPE=MASS SPECTRUM
##SAMPLE DESCRIPTION=NIST Mass Spectrometry Data Center
##NAMES=HP
##CAS NAME=(3aR,3bS,6S,6aR,6bS)-6-Isopropyl-3b-methyloctahydrocyclobuta[1,2:
3,4]di[5]annulen-1(2H)-one
##MOLFORM=C14H22O
##CAS REGISTRY NO=13844-03-6
##MP= -300
##BP= -300
##MW= 206
##$RETENTION INDEX=1563
##$CONDENSED SPECTRUM=NO
##NPOINTS= 64
##XYDATA=(XY..XY) 1 
    27         23
    29         16
    38          3
    39         47
    40          7
    41         86
    42          8
    43         53
    51         15
    52          8
    53         56
    54         14
    55         55
    56          7
    58          3
    59         11
    65         30
    66         13
    67         35
    68          6
    77         64
    78         13
    79        114
    80        179
    81        999
    82         82
    83         68
    91         63
    92         11
    93         32
    94         14
    95         24
    96          9
    97          8
   103          6
   105         28
   106         14
   107         44
   108         15
   109         41
   110          8
   117         10
   119         20
   120          8
   121         36
   122         57
   123        155
   124        130
   125         14
   130          3
   131          8
   132          5
   135         22
   136          8
   148          7
   149         33
   150          5
   161          9
   162          4
   163         19
   164         47
   165          5
   191          8
   206          6