##TITLE=Library Entry 31907
##JCAMP-DX=Revision 4.10 
##DATA TYPE=MASS SPECTRUM
##SAMPLE DESCRIPTION=Chemical Concepts
##NAMES=HP
##CAS NAME=5-Spirohexanone, 4,4-dichloro-
##MOLFORM=C6H6Cl2O
##CAS REGISTRY NO=138469-23-5
##MP= -300
##BP= -300
##MW= 164
##$RETENTION INDEX=0
##$CONDENSED SPECTRUM=NO
##NPOINTS= 93
##XYDATA=(XY..XY) 1 
    25        115
    27        246
    28         40
    29         11
    31         15
    33          0
    35         36
    36        120
    37        135
    38        226
    39        598
    40        371
    41         60
    42         86
    43         10
    44          3
    47         72
    48         14
    49         81
    50        170
    51        255
    52         42
    53         65
    54         24
    55         19
    59          0
    60         20
    61         95
    62         54
    63         88
    64         46
    65        999
    66        121
    67         37
    68          9
    71          5
    72         47
    73        430
    74         52
    75        172
    76         18
    77         17
    78          3
    79          3
    81          4
    82         22
    83          8
    84         20
    85         33
    86         27
    87        193
    88         16
    89         66
    90          4
    91          3
    93          3
    94          6
    95          6
    96         96
    97          8
    98         60
    99         30
   100         58
   101        709
   102         58
   103        216
   104         13
   107         12
   108        114
   109         17
   110         77
   111          8
   112         17
   115          3
   121          9
   122         61
   123          8
   124         40
   125          3
   126          6
   128         15
   129         68
   130         15
   131         24
   132          3
   135          3
   136        107
   137          8
   138         65
   139          4
   140         11
   164          5
   166          3