##TITLE=Library Entry 1127
##JCAMP-DX=Revision 4.10 
##DATA TYPE=MASS SPECTRUM
##SAMPLE DESCRIPTION=W.B.FOX, ALLIED CHEM. CORP., MORRISTOWN, N.J., USA
##NAMES=HP
##CAS NAME=Trifluoroamine oxide
##MOLFORM=F3NO
##CAS REGISTRY NO=13847-65-9
##MP= -300
##BP= -300
##MW= 87
##$RETENTION INDEX=0
##$CONDENSED SPECTRUM=NO
##NPOINTS= 9
##XYDATA=(XY..XY) 1 
    14        125
    16         37
    19         98
    30        999
    33         41
    49         16
    52         13
    68        781
    87          2