##TITLE=Library Entry 43732
##JCAMP-DX=Revision 4.10 
##DATA TYPE=MASS SPECTRUM
##SAMPLE DESCRIPTION=E. TOMORI, INST. DRUG RES., BUDAPEST, HUNGAR
##NAMES=HP
##CAS NAME=13.beta.-Ethyl-17.alpha.-ethynyl-3-methoximinogon-4-en-17.beta.-o
l 17-trimethylsilyl eter
##MOLFORM=C25H39NO2Si
##CAS REGISTRY NO=138466-60-1
##MP= -300
##BP= -300
##MW= 413
##$RETENTION INDEX=0
##$CONDENSED SPECTRUM=NO
##NPOINTS= 21
##XYDATA=(XY..XY) 1 
    67        170
    73        999
    74        120
    75        320
    77        240
    78        130
    79        260
    83        200
    91        260
   105        160
   117        180
   119        110
   129        130
   137        220
   155        180
   223         90
   273        370
   323         70
   382        100
   398         90
   413        330