##TITLE=Library Entry 18058
##JCAMP-DX=Revision 4.10 
##DATA TYPE=MASS SPECTRUM
##SAMPLE DESCRIPTION=J.Polzer ET AL.J.Chromatogr.,653,283(1993)
##NAMES=HP
##CAS NAME=1,2-Dichloroethyl hydroperoxide
##MOLFORM=C2H4Cl2O2
##CAS REGISTRY NO=138434-10-3
##MP= -300
##BP= -300
##MW= 130
##$RETENTION INDEX=0
##$CONDENSED SPECTRUM=NO
##NPOINTS= 30
##XYDATA=(XY..XY) 1 
    26         20
    28        137
    29        418
    32         63
    35        193
    36        516
    37         30
    38        159
    41         26
    42        272
    44          8
    47         63
    48        118
    49        578
    50        999
    51        205
    52        310
    61         81
    63        131
    77        385
    78        440
    79        100
    80        151
    81        194
    83         28
    95        175
    96         17
    97        288
    98          4
    99        142