##TITLE=Library Entry 27612
##JCAMP-DX=Revision 4.10 
##DATA TYPE=MASS SPECTRUM
##SAMPLE DESCRIPTION=Chemical Concepts
##NAMES=HP
##CAS NAME=Nickel, (.eta.2-ethene)[1,3-propanediylbis[bis(1,1-dimethylethyl)
phosphine]-P,P']-
##MOLFORM=C21H46NiP2
##CAS REGISTRY NO=138442-54-3
##MP= -300
##BP= -300
##MW= 418
##$RETENTION INDEX=0
##$CONDENSED SPECTRUM=NO
##NPOINTS= 252
##XYDATA=(XY..XY) 1 
    24          2
    25         11
    26         61
    27         99
    28         76
    29        354
    30          6
    31         16
    37          6
    38         10
    39         97
    40         23
    41        395
    42         66
    43         44
    44          2
    45         18
    46          3
    47          6
    48          3
    49          3
    50          8
    51          7
    52          2
    53         10
    54         18
    55         41
    56         44
    57        999
    58         40
    59         17
    60          3
    61         28
    62          6
    63          5
    64          2
    65          5
    66          2
    67         10
    69          3
    71         11
    72          5
    73         63
    74         27
    75         19
    76          1
    77         15
    78          4
    79          8
    80          4
    81          3
    83          2
    84          1
    85          4
    86          2
    87         10
    88          4
    89         14
    90          6
    91          6
    92          9
    93          4
    94          3
    97          3
    98          7
    99         24
   100          6
   101          8
   102         10
   103         11
   104         15
   105         61
   106         67
   107        240
   108         11
   109          1
   110          1
   111          1
   112          3
   113         26
   114         16
   115         11
   116         11
   117          6
   118         15
   119          6
   120         65
   121         10
   122         43
   123          8
   124         16
   125          2
   126          3
   128          3
   129         11
   130         17
   131          9
   132         26
   133          7
   134         12
   135         16
   136          9
   137         15
   138         11
   139          8
   140          3
   141          3
   142          2
   143          4
   144          3
   145         12
   146         10
   147         11
   148         11
   149          4
   150          3
   151          4
   152          1
   153          2
   154          1
   155          2
   157          5
   158          1
   159         27
   160         11
   161         45
   162         32
   163        246
   164         66
   165         40
   166        124
   167         15
   168         45
   169          6
   170          6
   171          3
   172          2
   173          4
   174          2
   175         25
   176          4
   177         38
   178          6
   179         25
   180          7
   181          6
   182          4
   183          2
   185          2
   186          4
   187          4
   188          3
   189         10
   190          2
   191          6
   192          2
   193          8
   194         10
   195         24
   196          6
   201         10
   203         11
   204          4
   205         10
   206          6
   207          5
   208          2
   209          2
   215         97
   216          8
   217         75
   218         11
   219        379
   220         57
   221         49
   222        242
   223         27
   224        100
   225         12
   226         15
   227          2
   228          3
   229          1
   231          2
   233          7
   234          1
   235         11
   236          4
   237          3
   238          2
   243          1
   245          1
   247          2
   249          4
   250         10
   251         59
   252          9
   253          1
   259          6
   260          1
   261         12
   262          3
   263          5
   264          1
   273          7
   274          1
   275        394
   276         62
   277         43
   278        257
   279         37
   280        100
   281         17
   282         12
   283          1
   284          3
   306          6
   317         27
   318          6
   319         10
   320          3
   321          2
   329          2
   331         56
   332         11
   333         77
   334        152
   335         48
   336         62
   337         16
   338         10
   339          2
   340          2
   349          1
   362          2
   364          1
   373          2
   374          1
   375          1
   390        544
   391        103
   392        164
   393         45
   394         30
   395          6
   396          7
   397          2
   406          1
   418         17
   419          4
   420          6
   421          2