##TITLE=Library Entry 69502
##JCAMP-DX=Revision 4.10 
##DATA TYPE=MASS SPECTRUM
##SAMPLE DESCRIPTION=NIST Mass Spectrometry Data Center
##NAMES=HP
##CAS NAME=8-Decene-3,5-dione, 2,4,6,9-tetramethyl-
##MOLFORM=C14H24O2
##CAS REGISTRY NO=13851-07-5
##MP= -300
##BP= -300
##MW= 224
##$RETENTION INDEX=1493
##$CONDENSED SPECTRUM=NO
##NPOINTS= 110
##XYDATA=(XY..XY) 1 
    26          3
    27         70
    28         32
    29         48
    30          1
    31          3
    37          1
    38          2
    39         94
    40         18
    41        446
    42         31
    43        728
    44         20
    45         13
    50          3
    51          7
    52          5
    53         73
    54         17
    55        592
    56         66
    57         75
    58          5
    59         19
    60          1
    63          2
    64          1
    65         19
    66          8
    67        116
    68         23
    69        651
    70         41
    71        626
    72         29
    73          3
    77         16
    79         37
    80          4
    81        209
    82         28
    83         52
    84         14
    85         86
    86         43
    87          2
    89          7
    90          1
    95         43
    96        999
    97        599
    98         50
    99         16
   100        117
   101          3
   107         39
   108          3
   109        159
   110         17
   111         75
   112         21
   113         43
   114          3
   119         28
   120          3
   121         10
   122          3
   123         29
   124        211
   125        791
   126         65
   127         71
   128          7
   132         31
   135         49
   136          7
   137         24
   138          5
   139         13
   140         18
   141          5
   143          3
   144          1
   145          9
   151          2
   152          9
   153         52
   154         37
   155          7
   156         94
   157         11
   159          2
   163          5
   164          1
   165          1
   167          8
   168          3
   169         13
   170          2
   173          1
   181         82
   182          8
   183          1
   191          4
   206          5
   209          7
   224         64
   225         10
   226          1