##TITLE=Library Entry 13323
##JCAMP-DX=Revision 4.10 
##DATA TYPE=MASS SPECTRUM
##SAMPLE DESCRIPTION=A.A.Kutin, Moscow, Russia
##NAMES=HP
##CAS NAME=o-Acetotoluidide, 5'-chloro-4'-nitro-
##MOLFORM=C9H9ClN2O3
##CAS REGISTRY NO=13852-50-1
##MP= -300
##BP= -300
##MW= 228
##$RETENTION INDEX=0
##$CONDENSED SPECTRUM=NO
##NPOINTS= 110
##XYDATA=(XY..XY) 1 
    36          6
    37          4
    38          9
    39         23
    40         13
    41         10
    43        999
    44         30
    45          3
    46          2
    49          4
    50         32
    51         60
    52         27
    53         11
    54         11
    55          7
    57          4
    60          2
    61          6
    62         14
    63         20
    64          6
    65         15
    66          6
    67          2
    68          1
    72          5
    73         10
    74         13
    75         29
    76         30
    77        127
    78         27
    79          4
    84          2
    85          5
    86          6
    87          7
    88          5
    89         10
    90          3
    91          4
    92          7
    93         14
    94          1
    97          5
    98          1
    99          6
   100          3
   101          2
   102         14
   103          5
   104         58
   105         23
   106          4
   111          6
   112          6
   113         32
   114          5
   115         10
   116          1
   117          2
   118          2
   119          3
   121          4
   123          4
   124          2
   125          2
   127          5
   128         16
   129          2
   130          5
   138         14
   139         23
   140         86
   141         16
   142         23
   143          3
   146          2
   151          1
   152          2
   153          2
   154          4
   155          7
   156        178
   158         71
   159          5
   166          1
   169         10
   170         27
   171          7
   172          9
   181          2
   183          4
   184          3
   186        454
   187         42
   188        138
   189         11
   198          2
   206          3
   208          2
   212          2
   213          4
   226          1
   228        214
   229         25
   230         67
   231         11