##TITLE=Library Entry 8379
##JCAMP-DX=Revision 4.10 
##DATA TYPE=MASS SPECTRUM
##SAMPLE DESCRIPTION=NIST Mass Spectrometry Data Center, 1998.
##NAMES=HP
##CAS NAME=Z-7-Decen-1-yl acetate
##MOLFORM=C12H22O2
##CAS REGISTRY NO=13857-03-9
##MP= -300
##BP= -300
##MW= 198
##$RETENTION INDEX=1346
##$CONDENSED SPECTRUM=NO
##NPOINTS= 84
##XYDATA=(XY..XY) 1 
    14          2
    15         16
    26          5
    27         73
    28         22
    29         97
    30          4
    31         10
    37          1
    38          5
    39        171
    40         36
    41        686
    42        125
    43        999
    44         31
    45          9
    50          6
    51         19
    52         13
    53        125
    54        315
    55        570
    56         87
    57         35
    58          6
    59          3
    60          2
    61         85
    62          3
    63          4
    64          1
    65         33
    66         54
    67        987
    68        757
    69        301
    70         39
    71         24
    72          5
    73         24
    74          1
    77         25
    78          6
    79         78
    80         28
    81        541
    82        750
    83        123
    84         13
    85          6
    86          8
    87          5
    88          1
    91         12
    92          2
    93         24
    94         17
    95        422
    96        319
    97         49
    98          6
    99          2
   100          3
   101          2
   105          2
   107          7
   108          8
   109        293
   110        115
   111         13
   112          2
   113          1
   115          1
   121          2
   123         15
   124          2
   125          2
   136          1
   137          4
   138        201
   139         22
   140          1
   155          1