##TITLE=Library Entry 3220
##JCAMP-DX=Revision 4.10 
##DATA TYPE=MASS SPECTRUM
##SAMPLE DESCRIPTION=NIST Mass Spectrometry Data Center, 1990.
##NAMES=HP
##CAS NAME=4-Methyl-1,4-heptadiene
##MOLFORM=C8H14
##CAS REGISTRY NO=13857-55-1
##MP= -300
##BP= -300
##MW= 110
##$RETENTION INDEX=767
##$CONDENSED SPECTRUM=NO
##NPOINTS= 39
##XYDATA=(XY..XY) 1 
    15         31
    26         32
    27        186
    28         88
    29         79
    37         18
    38         67
    39        629
    40        127
    41        999
    42         73
    43         35
    44         13
    50         63
    51        140
    52         66
    53        390
    54         77
    55        318
    56         44
    62         29
    63         57
    65        160
    67        986
    68        273
    69        787
    70         50
    77        195
    78         50
    79        402
    80        111
    81        658
    82         79
    91         86
    93        108
    95        885
    96         69
   110        356
   111         30