##TITLE=Library Entry 49858
##JCAMP-DX=Revision 4.10 
##DATA TYPE=MASS SPECTRUM
##SAMPLE DESCRIPTION=NIST Mass Spectrometry Data Center, 1994
##NAMES=HP
##CAS NAME=Fenchyl acetate
##MOLFORM=C12H20O2
##CAS REGISTRY NO=13851-11-1
##MP= -300
##BP= -300
##MW= 196
##$RETENTION INDEX=1223
##$CONDENSED SPECTRUM=NO
##NPOINTS= 86
##XYDATA=(XY..XY) 1 
     4          2
    14          5
    15         55
    18          2
    27         74
    28         25
    29         73
    31          4
    32          3
    39        112
    40         27
    41        289
    42          3
    43        958
    44         23
    45         18
    50          5
    51         21
    52         12
    53         89
    54         16
    55        123
    56         24
    57         47
    58          3
    59         14
    61          5
    63          4
    65         33
    66         14
    67        128
    68         28
    69        143
    70         16
    71         62
    72        100
    73          7
    77         59
    78         13
    79        121
    80        451
    81        999
    82        111
    83         56
    84         58
    85         19
    86         16
    91         52
    92         65
    93        239
    94         41
    95         64
    96         15
    97         22
    98         18
    99         11
   105         17
   107        128
   108         31
   109         70
   110         14
   111         51
   112          7
   113         15
   114         21
   115         26
   116          4
   117          1
   119          5
   121        186
   122         17
   123         25
   124          4
   125          9
   126          3
   135         40
   136        247
   137         33
   138          5
   139         17
   140          2
   152          2
   153         13
   154         25
   155          3
   196          5