##TITLE=Library Entry 26132
##JCAMP-DX=Revision 4.10 
##DATA TYPE=MASS SPECTRUM
##SAMPLE DESCRIPTION=NIST Mass Spectrometry Data Center
##NAMES=HP
##CAS NAME=9-Undecene-4,6-dione, 3,5,7,10-tetramethyl-
##MOLFORM=C15H26O2
##CAS REGISTRY NO=13851-08-6
##MP= -300
##BP= -300
##MW= 238
##$RETENTION INDEX=1583
##$CONDENSED SPECTRUM=NO
##NPOINTS= 127
##XYDATA=(XY..XY) 1 
    26          2
    27         45
    28         30
    29        136
    30          3
    31          2
    37          1
    38          2
    39         84
    40         15
    41        454
    42         23
    43        137
    44          3
    45         11
    46          1
    50          1
    51          8
    52          5
    53         69
    54         14
    55        458
    56         60
    57        999
    58         43
    59         11
    62          1
    63          2
    64          1
    65         22
    66          8
    67         95
    69        464
    70         25
    71         10
    72          1
    73          2
    78          4
    79         35
    81        116
    82         16
    83         40
    84         12
    85        367
    86        118
    87          7
    89          1
    91         18
    95         36
    96        585
    97        394
    98         33
    99          7
   102          1
   103          8
   104          1
   109        103
   110         12
   111         51
   112         22
   113         45
   114         36
   115          9
   116          1
   117          4
   118          1
   119         11
   120          2
   124        115
   125        483
   126         44
   127         19
   128          7
   129          5
   130          1
   131          2
   132          2
   133         11
   134          4
   135         38
   137         21
   138          4
   139          8
   140          2
   141         50
   142         12
   143          9
   144          2
   145          1
   151          3
   152          8
   153         42
   154         47
   155          9
   156          3
   157         16
   158          2
   159          1
   163          3
   164          1
   165          1
   167          2
   168          1
   169          4
   170         48
   171          6
   172          1
   181         63
   182          9
   183          5
   184          1
   185          8
   186          1
   191          1
   195          3
   196          1
   200          9
   201          1
   202          2
   205          1
   220          3
   221          1
   223          4
   224          1
   238         34
   239          5
   240          1