##TITLE=Library Entry 49694
##JCAMP-DX=Revision 4.10 
##DATA TYPE=MASS SPECTRUM
##SAMPLE DESCRIPTION=CONTINENTAL OIL CO., PONCA CITY, OKLA, USA
##NAMES=HP
##CAS NAME=1,2-Hexadiene, 5-methyl-
##MOLFORM=C7H12
##CAS REGISTRY NO=13865-36-6
##MP= -300
##BP= -300
##MW= 96
##$RETENTION INDEX=743
##$CONDENSED SPECTRUM=NO
##NPOINTS= 68
##XYDATA=(XY..XY) 1 
    14         31
    15        134
    16          7
    24          1
    25          5
    26         75
    27        717
    28        118
    29        204
    30          5
    36          2
    37         33
    38         77
    39        618
    40         80
    41        703
    42         82
    43        579
    44          3
    45          2
    46          1
    48          2
    49         12
    50        102
    51        157
    52        102
    53        498
    54        570
    55        223
    56        179
    57        136
    58          9
    59          0
    60          1
    61          6
    62         12
    63         25
    64          5
    65         46
    66         32
    67        120
    68         70
    69         33
    70         22
    71          6
    72          1
    73          2
    74          9
    75          6
    77         68
    78         29
    79        151
    80         30
    81        999
    82         66
    83          8
    84          1
    85          3
    86          1
    87          0
    89          1
    91          9
    92          1
    93          4
    94          3
    95         30
    96         83
    97          6