##TITLE=Library Entry 114623
##JCAMP-DX=Revision 4.10 
##DATA TYPE=MASS SPECTRUM
##SAMPLE DESCRIPTION=Chemical Concepts
##NAMES=HP
##CAS NAME=Chromium, (.eta.6-benzene)dicarbonylbis(trichlorosilyl)-
##MOLFORM=C8H6Cl6CrO2Si2
##CAS REGISTRY NO=138605-73-9
##MP= -300
##BP= -300
##MW= 452
##$RETENTION INDEX=0
##$CONDENSED SPECTRUM=NO
##NPOINTS= 257
##XYDATA=(XY..XY) 1 
    28         10
    29          0
    35          2
    36         10
    37          1
    38          2
    39         16
    41          1
    42          0
    43          0
    44          0
    45          0
    47          0
    49          2
    50         30
    51         29
    52        638
    53         63
    54         15
    55          0
    56          0
    57          0
    58          0
    59          0
    61          0
    62          0
    63        162
    64          8
    65         54
    66          2
    67          1
    69          0
    71          0
    73          0
    74          2
    75          1
    76          4
    77         26
    78         66
    79          5
    80          6
    81          0
    82          0
    83          0
    84          2
    85         11
    86          1
    87        243
    88         26
    89         81
    90          8
    91          2
    92          0
    93          0
    97          0
    98          7
    99          1
   100          5
   101          2
   102          1
   103          3
   104          0
   105          6
   106          0
   107          0
   108          3
   109          0
   112          0
   113          0
   115          6
   116          1
   117          2
   118          0
   119          0
   120          3
   121          0
   122          1
   123          0
   124          0
   125          0
   126          0
   127          1
   128         48
   129          8
   130        999
   131        166
   132         33
   133          8
   134          0
   135          8
   136          0
   137          2
   138          0
   139          0
   140          0
   141          0
   142          0
   143          0
   144          2
   145          0
   147          0
   148          0
   150         14
   151          2
   152          9
   153          1
   154          2
   155          0
   156          0
   158          6
   159          1
   160          0
   163         13
   164          0
   165        271
   166         44
   167         89
   168         15
   169          3
   170          0
   172          0
   175          3
   176          0
   177          2
   178          0
   179          1
   181          0
   183          1
   185         21
   186          3
   187         21
   188          3
   189          7
   190          1
   191          1
   197          0
   199          0
   200          0
   207          0
   210          0
   212          0
   213          0
   214          0
   215          0
   220          0
   222          0
   223          0
   225          0
   226          0
   228          1
   229          0
   230          0
   231          0
   256          0
   261          1
   262          0
   263         30
   264          6
   265         30
   266          6
   267         12
   268          2
   269          2
   270          0
   271          0
   277          0
   283          0
   284          0
   285          0
   286          0
   287          0
   291          0
   293          0
   297          0
   299          0
   311          0
   313          0
   315          0
   316          0
   318         16
   319          3
   320         31
   321          6
   322         26
   323          5
   324         13
   325          2
   326          3
   327          0
   328          0
   339          0
   341          0
   346          2
   347          0
   348          4
   349          0
   350          3
   351          0
   352          1
   353          1
   354          0
   355          1
   356          0
   357          0
   359          0
   361         12
   362          3
   363         20
   364          5
   365         14
   366          3
   367          5
   368          1
   369          0
   389          0
   391          0
   393          0
   394          0
   396         12
   397          3
   398         23
   399          6
   400         19
   401          4
   402          9
   403          2
   404          2
   405          0
   406          0
   415          0
   417         17
   418          5
   419         28
   420          8
   421         21
   422          5
   423          7
   424          2
   425          1
   426          1
   427          0
   428          1
   429          0
   430          0
   431          0
   450          0
   452         13
   453          3
   454         25
   455          7
   456         22
   457          6
   458         10
   459          2
   460          3
   461          0
   462          0