##TITLE=Library Entry 33975
##JCAMP-DX=Revision 4.10 
##DATA TYPE=MASS SPECTRUM
##SAMPLE DESCRIPTION=NIST Mass Spectrometry Data Center
##NAMES=HP
##CAS NAME=2-Propenoic acid, 2-methyl-, 2-propynyl ester
##MOLFORM=C7H8O2
##CAS REGISTRY NO=13861-22-8
##MP= -300
##BP= -300
##MW= 124
##$RETENTION INDEX=0
##$CONDENSED SPECTRUM=NO
##NPOINTS= 56
##XYDATA=(XY..XY) 1 
    12          2
    14          4
    15         17
    18          2
    24          2
    25         14
    26         41
    27         46
    28          4
    29         41
    31          2
    36          7
    37         65
    38        143
    39        739
    40        106
    41        731
    42         37
    43         21
    44          4
    45         13
    49          2
    50          3
    51          7
    52         14
    53         39
    54          7
    55         39
    56          6
    57          5
    58          1
    65         12
    66         28
    67         69
    69        999
    70         44
    71          2
    74          1
    77         61
    78         19
    79         66
    80          3
    81         30
    82          2
    83          3
    84          1
    86          1
    94          5
    95         87
    96         26
    97          2
   105          2
   106          2
   107          1
   123          6
   124          2