##TITLE=Library Entry 80363
##JCAMP-DX=Revision 4.10 
##DATA TYPE=MASS SPECTRUM
##SAMPLE DESCRIPTION=Chemical Concepts
##NAMES=HP
##CAS NAME=2(3H)-Furanone, dihydro-5-(1-oxo-3-phenylpropyl)-, (S)-
##MOLFORM=C13H14O3
##CAS REGISTRY NO=138639-93-7
##MP= -300
##BP= -300
##MW= 218
##$RETENTION INDEX=0
##$CONDENSED SPECTRUM=NO
##NPOINTS= 82
##XYDATA=(XY..XY) 1 
    26          7
    27         65
    28         11
    29        238
    30          8
    31          7
    38          6
    39         56
    40          6
    41         43
    42          9
    43         20
    44         10
    45         10
    50         17
    51         68
    52         16
    53         10
    55         34
    56         18
    57        108
    58          6
    62          5
    63         23
    64          7
    65         82
    66          7
    67          7
    69         21
    70          9
    71         11
    73          5
    74          6
    75          9
    76         12
    77        123
    78         54
    79         82
    80          7
    81          9
    83         10
    85        651
    86         55
    87          9
    89         21
    90          8
    91        667
    92         72
    93          8
    94          6
    95          8
    97          8
   102         11
   103         76
   104        117
   105        999
   106         91
   107         12
   109          6
   111          6
   114         11
   115         15
   117         11
   118          7
   127          9
   128          6
   129          8
   130          9
   131         14
   133        430
   134         61
   135          7
   145          9
   146         14
   172        131
   173         21
   176        102
   177         15
   200        157
   201         27
   218         50
   219         10