##TITLE=Library Entry 81345
##JCAMP-DX=Revision 4.10 
##DATA TYPE=MASS SPECTRUM
##SAMPLE DESCRIPTION=Japan AIST/NIMC Database- Spectrum MS-IW-1682
##NAMES=HP
##CAS NAME=N-(2-Hydroxy-3-phenoxypropyl)benzamide
##MOLFORM=C16H17NO3
##CAS REGISTRY NO=13861-33-1
##MP= -300
##BP= -300
##MW= 271
##$RETENTION INDEX=0
##$CONDENSED SPECTRUM=NO
##NPOINTS= 96
##XYDATA=(XY..XY) 1 
    15          1
    27          5
    28          4
    29          4
    30         11
    31          2
    38          3
    39         17
    40          3
    41          2
    42          1
    43          6
    44          5
    50         12
    51         55
    52          5
    53          1
    54          1
    55          3
    56          4
    57          3
    58          1
    62          2
    63          5
    64          2
    65         19
    66         12
    67          1
    72          1
    74          3
    75          5
    76         13
    77        290
    78         28
    79         14
    80          1
    82          3
    89          3
    90          2
    91         20
    92          3
    93          6
    94         64
    95          7
   103          6
   104         23
   105        999
   106         78
   107         26
   108          9
   109          1
   115          2
   116          4
   117          7
   118         13
   119          9
   120          3
   121          4
   122         18
   123          2
   130          9
   131         14
   132         13
   133          7
   134        140
   135         30
   136          8
   137          1
   141          1
   145          1
   146         24
   147          3
   148         34
   149          6
   152          1
   153          1
   159          8
   160        324
   161         38
   162          4
   164        115
   165         12
   166          1
   176          1
   177          4
   178        299
   179         33
   180          3
   210          1
   222          1
   224          3
   225          1
   253         86
   254         17
   255          1
   272          2