##TITLE=Library Entry 69803
##JCAMP-DX=Revision 4.10 
##DATA TYPE=MASS SPECTRUM
##SAMPLE DESCRIPTION=ASES Database, Dalian Institute, P.R. China
##NAMES=HP
##CAS NAME=3-Dodecylcyclohexanone
##MOLFORM=C18H34O
##CAS REGISTRY NO=138695-42-8
##MP= -300
##BP= -300
##MW= 266
##$RETENTION INDEX=0
##$CONDENSED SPECTRUM=NO
##NPOINTS= 36
##XYDATA=(XY..XY) 1 
    29        172
    39         58
    41        549
    42        115
    43        419
    44         22
    54         58
    55        667
    56        130
    57        175
    58         11
    67        164
    68         92
    69        295
    70         81
    71         70
    81        152
    82         81
    83        175
    84         82
    95         81
    96        117
    97        999
    98        342
    99         34
   109         35
   110         22
   111         46
   112         11
   121         22
   123         23
   125         10
   223         94
   224         23
   266         70
   267         22