##TITLE=Library Entry 50066
##JCAMP-DX=Revision 4.10 
##DATA TYPE=MASS SPECTRUM
##SAMPLE DESCRIPTION=D.HENNEBERG, MAX-PLANCK INSTITUTE, MULHEIM, WEST GERMAN
Y
##NAMES=HP
##CAS NAME=Cyclohexanol, 2-(2-hydroxy-2-propyl)-5-methyl-
##MOLFORM=C10H20O2
##CAS REGISTRY NO=138663-70-4
##MP= -300
##BP= -300
##MW= 172
##$RETENTION INDEX=0
##$CONDENSED SPECTRUM=NO
##NPOINTS= 99
##XYDATA=(XY..XY) 1 
    26         39
    28         63
    29         68
    30          2
    31         57
    32          4
    33          0
    34          1
    36          0
    37          1
    38          2
    39         34
    40         11
    41        211
    42         33
    43        427
    44         17
    45         13
    46          0
    47          2
    48          1
    49          1
    50          3
    51          2
    52          2
    53         32
    54        301
    55        236
    56         72
    57         64
    58         20
    59        881
    60         28
    61         33
    62          1
    63          0
    64          0
    65          6
    66         15
    67        194
    68        205
    69        156
    70         45
    71         80
    72         15
    73          2
    77         64
    78          5
    79         38
    80         22
    81        999
    82         79
    83         33
    84         46
    85         16
    86          2
    87          3
    91          8
    92          4
    93         36
    94         15
    95        149
    96        586
    97         69
    98         29
    99          5
   100          6
   101          0
   103          0
   105          5
   106          1
   107         12
   108          4
   109         29
   110         47
   111         61
   112         33
   113          4
   117          0
   119          1
   120          1
   121         68
   122          7
   123         10
   124          1
   125          3
   126          0
   133          0
   135          1
   136         31
   137          6
   138          1
   139         81
   140          9
   153          2
   154         55
   155          7
   157         29
   158          2