##TITLE=Library Entry 65965
##JCAMP-DX=Revision 4.10 
##DATA TYPE=MASS SPECTRUM
##SAMPLE DESCRIPTION=Japan AIST/NIMC Database- Spectrum MS-IW- 986
##NAMES=HP
##CAS NAME=Bis(aniline)dichlorozinc(ii)
##MOLFORM=C12H14Cl2N2Zn
##CAS REGISTRY NO=13869-81-3
##MP= -300
##BP= -300
##MW= 320
##$RETENTION INDEX=0
##$CONDENSED SPECTRUM=NO
##NPOINTS= 60
##XYDATA=(XY..XY) 1 
    15          1
    26          2
    27          4
    35         11
    36         33
    37          9
    38         21
    39         54
    40         23
    41         21
    42          7
    43          3
    44          4
    45          9
    46         33
    47          2
    49          1
    50         13
    51         17
    52         18
    53          8
    54         19
    55          1
    60          1
    61          5
    62          9
    63         19
    64         14
    65        118
    66        307
    67         30
    68          9
    69          3
    70          1
    73          1
    74          4
    75          2
    76          7
    77          8
    78          9
    90          1
    91          6
    92         84
    93        999
    94         69
    95          2
    99         22
   101         20
   102          1
   103         12
   105          3
   106          1
   134        249
   136        299
   137         20
   138        210
   139         12
   140         77
   141          2
   142         10