##TITLE=Library Entry 62454
##JCAMP-DX=Revision 4.10 
##DATA TYPE=MASS SPECTRUM
##SAMPLE DESCRIPTION=A. Brossi, LC, NIDDK, NIH, Bethesda, MD 20892
##NAMES=HP
##CAS NAME=Benzeneethanamine, N-[[3,4-dibenzyloxyphenyl]acetyl]-4-hydroxy-3-
methoxy-
##MOLFORM=C31H31NO5
##CAS REGISTRY NO=138645-00-8
##MP= -300
##BP= -300
##MW= 497
##$RETENTION INDEX=0
##$CONDENSED SPECTRUM=NO
##NPOINTS= 204
##XYDATA=(XY..XY) 1 
    41         16
    42         10
    43         13
    44         66
    45        242
    46          5
    48          3
    49          4
    50          5
    51         15
    52          5
    53          4
    54          1
    55         11
    56          4
    57          7
    59          0
    60          3
    61          3
    62          5
    63         16
    64          7
    65         81
    66         10
    67          5
    68          1
    69          6
    70          2
    71          8
    72          0
    73          3
    74          1
    75          3
    76          1
    77         19
    78          8
    79          9
    80          2
    81          4
    82          3
    83          4
    84          7
    85          3
    86          3
    87          1
    89         17
    90         12
    91        999
    92        101
    93          8
    94         14
    95          7
    96          2
    97          3
    98          1
    99          1
   100          3
   101          1
   103          3
   104          3
   105         13
   106          9
   107         11
   108          4
   109          4
   110          2
   111          2
   114          1
   115          3
   117          1
   118          0
   119          7
   120          5
   121          8
   122         20
   123         47
   124          6
   125          1
   127          0
   128          1
   129          1
   131          0
   132          1
   133          1
   134          7
   135         23
   136          8
   137         91
   138         13
   139          2
   140          0
   141          2
   142          0
   147          1
   148          3
   149         38
   150        265
   151         61
   152          9
   153          2
   154          1
   155          1
   157          1
   160          0
   161          0
   162          3
   163          3
   164          2
   165          8
   166         16
   167         22
   168         11
   169          1
   170          0
   177          0
   178          3
   179         11
   180         21
   181         56
   182         10
   183          2
   184          0
   185          2
   186          0
   192          1
   193          2
   194          9
   195          9
   196          3
   197          4
   198          2
   199          4
   200          0
   206          1
   207          1
   208          0
   209          2
   210          2
   211         31
   212         12
   213         12
   214          2
   221          0
   222          0
   223          0
   224          7
   225         22
   226         37
   227         33
   228          8
   229          1
   237          0
   238          4
   239         36
   240        180
   241         39
   242          6
   243          0
   252          0
   254          1
   255          5
   256         40
   257         20
   258          6
   259          0
   268          1
   269          0
   270          3
   271          3
   272          0
   283          0
   284          3
   285          2
   286          0
   288          1
   289          3
   290          0
   301          0
   302          3
   303          3
   304          0
   313          0
   314          0
   315          2
   316          0
   328          8
   329          7
   330         21
   331          5
   332          0
   346          0
   347         51
   348         16
   349          2
   388          6
   389          1
   405          0
   406         12
   407         10
   408          2
   420          0
   497         76
   498         26
   499          5