##TITLE=Library Entry 33239
##JCAMP-DX=Revision 4.10 
##DATA TYPE=MASS SPECTRUM
##SAMPLE DESCRIPTION=Chemical Concepts
##NAMES=HP
##CAS NAME=Bicyclo[4.2.0]octan-7-one, 8,8-dichloro-
##MOLFORM=C8H10Cl2O
##CAS REGISTRY NO=13866-27-8
##MP= -300
##BP= -300
##MW= 192
##$RETENTION INDEX=0
##$CONDENSED SPECTRUM=NO
##NPOINTS= 155
##XYDATA=(XY..XY) 1 
    26         49
    27        528
    28         56
    29        133
    30          7
    31          2
    35         14
    36         72
    37         24
    38         61
    39        424
    40         66
    41        299
    42         36
    43         19
    44        211
    45         17
    46          2
    47         24
    48         19
    49         29
    50         68
    51        158
    52         54
    53        164
    54        113
    55        431
    56         24
    57         17
    58          7
    59          1
    60          9
    61         32
    62         25
    63         47
    64         15
    65        136
    66         75
    67        335
    68        999
    69         64
    70          9
    71          5
    72         12
    73         59
    74         11
    75         49
    76         21
    77        125
    78         31
    79        174
    80         41
    81        347
    82        100
    83         92
    84         10
    85         93
    86          7
    87         87
    88         33
    89         41
    90          8
    91        113
    92         13
    93        185
    94         31
    95         16
    96         10
    97          3
    98          4
    99         29
   100         15
   101         55
   102         19
   103         14
   104          5
   105          4
   106          4
   107          6
   108          4
   109         36
   110         15
   111         26
   112         10
   113        187
   114         36
   115         67
   116         47
   117         13
   118         16
   119          2
   120          2
   121         45
   122        224
   123         20
   124         95
   125         14
   126         21
   127          8
   128         13
   129         71
   130         12
   131         32
   132          3
   133          1
   134          1
   135         13
   136          7
   137          7
   138         32
   139          6
   140         23
   141         11
   142          5
   143          7
   145          2
   146          1
   147          1
   148        140
   149         10
   150        100
   151          9
   152         23
   153          1
   154          0
   155          1
   156          5
   157        113
   158         11
   159         22
   160          2
   161          2
   162          1
   163          6
   164         51
   165          5
   166         23
   167          3
   168          5
   169          1
   170          1
   176          2
   177          1
   178          2
   179          1
   180          1
   181          0
   182          4
   183          0
   184          1
   192         17
   193          2
   194         13
   195          1
   196          4