##TITLE=Library Entry 83338
##JCAMP-DX=Revision 4.10 
##DATA TYPE=MASS SPECTRUM
##SAMPLE DESCRIPTION=Asinex Ltd, Moscow, Russia
##NAMES=HP
##CAS NAME=Benzene-1,3-diamine, 5-[3,4,4,4-tetrafluoro-1,3-di(trifluoromethy
l)-2-heptafluoroisopropyl-1-butenyloxy-
##MOLFORM=C15H7F17N2O
##CAS REGISTRY NO=138781-42-7
##MP= -300
##BP= -300
##MW= 554
##$RETENTION INDEX=0
##$CONDENSED SPECTRUM=NO
##NPOINTS= 184
##XYDATA=(XY..XY) 1 
    33         20
    34         25
    35          0
    36         10
    37          4
    38         19
    40        488
    41         73
    42         65
    43         63
    44        105
    45          9
    46          1
    47          7
    48          6
    50         24
    51         34
    52         49
    53        100
    54         44
    55         28
    56         14
    57         26
    58          2
    59          1
    60          5
    61          3
    62         10
    63         35
    64         14
    65         28
    66         55
    67         60
    68         37
    69        245
    70         14
    71         15
    72          1
    73          2
    74          3
    75          3
    76          6
    77         11
    78         39
    79         38
    80        177
    81         25
    82         10
    83         11
    84          7
    85          6
    86          2
    87          2
    88          1
    89          5
    90         14
    91          9
    92          9
    93         18
    94         14
    95        113
    96         12
    97          8
    98          6
    99          3
   100         24
   101          2
   102          0
   105         29
   107        999
   108         70
   109         10
   110          3
   111          5
   112          8
   113          8
   114          4
   115          1
   116          0
   117          4
   118          0
   119         22
   120          5
   121         10
   122          4
   123          3
   124          7
   125          5
   126          2
   127          1
   129          4
   130          1
   131         53
   132          1
   133          3
   134          1
   135          2
   136          4
   137          1
   139          1
   140          0
   141          0
   142          2
   143          9
   144          1
   145          0
   148          1
   149         15
   150         12
   151          2
   152          2
   153          1
   155          7
   157         18
   158          2
   159          0
   162          2
   163          1
   167          3
   168          0
   169          8
   170          0
   171          7
   172          1
   174          2
   175          0
   176          0
   177          0
   178          0
   179          0
   181         21
   182          0
   183          0
   184          0
   186          0
   188          0
   191          0
   193          6
   199          1
   200          0
   202          0
   205          3
   207          1
   208          1
   209          1
   212          1
   216          3
   219          6
   220          0
   227          0
   229          0
   230          1
   231          8
   243          7
   247          1
   249          0
   255          0
   259          2
   269          1
   276          0
   277          8
   281          3
   283          0
   287          0
   288          0
   293          3
   297          3
   309          2
   315          0
   316          3
   319          1
   343          0
   347          5
   368          1
   369          1
   385          2
   388          1
   485          7
   526          9
   527          0
   535         10
   536          1
   554         88
   555         13