##TITLE=Library Entry 74174
##JCAMP-DX=Revision 4.10 
##DATA TYPE=MASS SPECTRUM
##SAMPLE DESCRIPTION=William W. Christie, Mylnefield Lipid Analysis, Invergo
wrie, Dundee, Scotland, UK
##NAMES=HP
##CAS NAME=1,3-Dioxolane, 2,2-dimethyl-4-[(tetradecyloxy)methyl]-
##MOLFORM=C20H40O3
##CAS REGISTRY NO=13879-87-3
##MP= -300
##BP= -300
##MW= 328
##$RETENTION INDEX=0
##$CONDENSED SPECTRUM=NO
##NPOINTS= 79
##XYDATA=(XY..XY) 1 
    53         20
    54         30
    55        249
    56         70
    57        379
    58         30
    59         70
    60         30
    61         30
    65         10
    67         40
    68         30
    69        129
    70         40
    71        169
    72         50
    73        129
    74         20
    75         10
    77         10
    79         10
    80         10
    81         30
    82         30
    83        100
    84         30
    85        109
    86         20
    87         60
    88         10
    91         10
    93         10
    95         20
    96         20
    97         50
    98         20
    99         40
   101        999
   102         60
   103         10
   109         10
   110         10
   111         20
   112         10
   113         20
   114         10
   115         10
   116         10
   117         10
   121         10
   123         10
   124         10
   125         10
   127         20
   129         10
   133         10
   135         10
   137         10
   138         10
   139         10
   141         10
   151         10
   152         10
   157         10
   166         10
   171         10
   185         10
   194         10
   195         10
   199         10
   213         10
   225         10
   227         10
   256         10
   264         10
   269         10
   313        279
   314         60
   315         10