##TITLE=Library Entry 12014
##JCAMP-DX=Revision 4.10 
##DATA TYPE=MASS SPECTRUM
##SAMPLE DESCRIPTION=Chemical Concepts
##NAMES=HP
##CAS NAME=6H-1,3-Oxazin-6-one, 4-(acetyloxy)-2-(2-phenylethenyl)-, (E)-
##MOLFORM=C14H11NO4
##CAS REGISTRY NO=138744-82-8
##MP= -300
##BP= -300
##MW= 257
##$RETENTION INDEX=0
##$CONDENSED SPECTRUM=NO
##NPOINTS= 136
##XYDATA=(XY..XY) 1 
    23          0
    25          0
    26          6
    27         28
    28          9
    29         12
    30          0
    31          0
    37          0
    38          6
    39         40
    40         10
    41         28
    42         33
    43        999
    44         24
    45          2
    47          0
    49          1
    50         48
    51        183
    52         33
    53          9
    54          0
    55         21
    56          1
    57          0
    58          0
    59          0
    60          0
    61          0
    62         10
    63         42
    64          7
    65          9
    66          1
    67          6
    68          5
    69        179
    70         28
    71          1
    72          0
    73          0
    74         18
    75         37
    76         66
    77        492
    78         50
    79          2
    80          0
    84          0
    85          0
    86          7
    87          3
    88          1
    89         21
    90         15
    91         24
    92          2
    93          0
    95          0
    96          0
    98          0
    99          0
   100          1
   101         24
   102        182
   103        707
   104         72
   105          6
   106          0
   112         12
   113          0
   114          1
   115         20
   116         67
   117         31
   118         31
   119          9
   120         10
   121          0
   124          0
   125          0
   126          0
   127          2
   128         44
   129         58
   130        265
   131        964
   132         99
   133          6
   138          6
   140          0
   141          4
   142          2
   143          1
   144        192
   145        527
   146        280
   147         58
   148          4
   155          0
   156          0
   157          0
   158          3
   159        200
   160         22
   161          1
   169          9
   170         10
   171          3
   172         34
   173         17
   174         16
   175          0
   185          3
   186         27
   187        286
   188         38
   189         26
   190          2
   196          0
   197          1
   198          0
   201          0
   214         32
   215        719
   216         98
   217          9
   218          0
   223          0
   229          1
   251          0
   257        185
   258         30
   259          2