##TITLE=Library Entry 81127
##JCAMP-DX=Revision 4.10 
##DATA TYPE=MASS SPECTRUM
##SAMPLE DESCRIPTION=A.A.Kutin, Moscow, Russia
##NAMES=HP
##CAS NAME=Cyclopropane, 1-bromo-2,2,3,3-tetramethyl-1-prop-1-ynyl-
##MOLFORM=C10H15Br
##CAS REGISTRY NO=138777-60-3
##MP= -300
##BP= -300
##MW= 214
##$RETENTION INDEX=0
##$CONDENSED SPECTRUM=NO
##NPOINTS= 84
##XYDATA=(XY..XY) 1 
    33          1
    36          3
    37         13
    39        631
    40        181
    41        541
    42         49
    43        261
    44         31
    45          3
    49          1
    50        100
    51        258
    52        127
    53        251
    54         45
    55        231
    56         30
    57         63
    58         42
    60          1
    61          7
    62         35
    63        107
    64         43
    65        202
    66         71
    67        112
    69         57
    70         10
    71         11
    74         28
    75         28
    77        613
    78        168
    79        442
    80         81
    81         67
    82         18
    83          6
    84          1
    85          2
    86          3
    87          6
    89         21
    91        768
    92        173
    93        362
    94        120
    95         41
    96          4
   103         93
   105        999
   106        205
   107        391
   108         58
   110         20
   111         12
   112         26
   113         12
   114         29
   115         29
   116         16
   117         68
   119        357
   120        486
   121        104
   122         11
   131          3
   133         39
   135        882
   136        199
   137         11
   149          1
   155          2
   170          0
   171          1
   199         33
   200          6
   201         32
   202          5
   214         13
   215          2
   216         14