##TITLE=Library Entry 71625
##JCAMP-DX=Revision 4.10 
##DATA TYPE=MASS SPECTRUM
##SAMPLE DESCRIPTION=A.A.Kutin, Moscow, Russia
##NAMES=HP
##CAS NAME=Propenone, 1-(5-bromo-2-thienyl)-3-dimethylamino-
##MOLFORM=C9H10BrNOS
##CAS REGISTRY NO=138716-17-3
##MP= -300
##BP= -300
##MW= 259
##$RETENTION INDEX=0
##$CONDENSED SPECTRUM=NO
##NPOINTS= 204
##XYDATA=(XY..XY) 1 
    33          3
    34          3
    35          1
    36          5
    37         35
    38         76
    39         71
    40         50
    41        113
    42        664
    43        130
    44        158
    45         70
    46         18
    47          4
    48          1
    49          9
    50         18
    51         20
    52         30
    53         90
    54         87
    55        386
    56         33
    57         50
    58         33
    59          7
    60          4
    61          8
    62         11
    63         28
    64          7
    65         33
    66         17
    67         17
    68         87
    69         83
    70        387
    71         62
    72         19
    73          7
    74          8
    76        110
    77         20
    78         10
    79         18
    80         27
    81         99
    82        383
    83         40
    84         28
    85          8
    86          3
    87          4
    88          2
    89          3
    90          4
    91          9
    92          9
    93         30
    94         35
    95         24
    96         37
    98        999
    99         56
   100          5
   101          0
   102          4
   103          2
   104         11
   105          6
   106         11
   107         18
   108         36
   109         45
   110         18
   111         22
   112          5
   113          2
   114          1
   115         87
   117        143
   118         40
   119        139
   120         17
   121         19
   122        191
   123         32
   124          7
   125          7
   126          3
   127          1
   128          2
   129          1
   130          5
   131          6
   132         30
   133          8
   134         25
   135         11
   136         39
   137         89
   138         22
   139         13
   140          2
   141          1
   142          0
   143          0
   145          5
   146         36
   147        864
   148         93
   149         13
   150         33
   151         13
   152         13
   153          2
   154          1
   155          1
   156          0
   157          0
   159          1
   161         32
   162         27
   163        266
   164         45
   165         22
   166          4
   167          1
   168          0
   171          1
   173          1
   175        118
   176         12
   177        120
   178         31
   179         36
   180        846
   181        100
   182         45
   183          6
   185          0
   186          3
   187         16
   189        279
   190         27
   191        248
   192         16
   193         12
   194          1
   199          2
   200          3
   201          3
   202          5
   203          2
   204          5
   205          1
   206          2
   207          1
   210          1
   211          0
   213          0
   214          1
   215          4
   216         10
   217         11
   218         10
   219          8
   220          2
   221          1
   223          1
   225          0
   226          1
   227          4
   228          6
   229          6
   230          6
   231          3
   232          1
   233          1
   235          0
   236          0
   239          1
   242        319
   243         43
   244        344
   245         37
   246         54
   247          6
   248          2
   249          0
   250          0
   256          0
   257          2
   258         13
   259        357
   260         65
   261        370
   262         42
   263         20
   264          2
   265          0
   266          0
   267          0