##TITLE=Library Entry 66202
##JCAMP-DX=Revision 4.10 
##DATA TYPE=MASS SPECTRUM
##SAMPLE DESCRIPTION=NIST Mass Spectrometry Data Center
##NAMES=HP
##CAS NAME=.beta.-Ocimene
##MOLFORM=C10H16
##CAS REGISTRY NO=13877-91-3
##MP= -300
##BP= -300
##MW= 136
##$RETENTION INDEX=1037
##$CONDENSED SPECTRUM=NO
##NPOINTS= 75
##XYDATA=(XY..XY) 1 
    15          2
    26          4
    27         98
    28         11
    29         77
    30          1
    37          2
    38         12
    39        232
    40         40
    41        317
    42         21
    43        137
    44          5
    45          1
    50         31
    51         91
    52         46
    53        211
    54         22
    55        148
    56         13
    57          7
    58          5
    59          1
    61          2
    62         10
    63         32
    64          7
    65        100
    66         29
    67        137
    68         36
    69         25
    70          3
    74          5
    75          4
    76          3
    77        365
    78         56
    79        452
    80        366
    81         89
    82          9
    83          2
    85          3
    86          1
    87          1
    89          6
    91        500
    92        249
    93        999
    94        114
    95         14
    96          1
   102          3
   103         33
   104          9
   105        184
   106         48
   107         76
   108         12
   109          4
   115         10
   116          2
   117          7
   118          1
   119         38
   120          8
   121        153
   122         15
   135          1
   136         53
   137          6
   139          4