##TITLE=Library Entry 74618
##JCAMP-DX=Revision 4.10 
##DATA TYPE=MASS SPECTRUM
##SAMPLE DESCRIPTION=R.T.HOLMAN,UNIVERSITY OF MINNESOTA
##NAMES=HP
##CAS NAME=2-Hexadecanol, 1-[(2,2-dimethyl-1,3-dioxolan-4-yl)methoxy]-
##MOLFORM=C22H44O4
##CAS REGISTRY NO=13879-81-7
##MP= -300
##BP= -300
##MW= 372
##$RETENTION INDEX=0
##$CONDENSED SPECTRUM=NO
##NPOINTS= 219
##XYDATA=(XY..XY) 1 
    26          6
    27         36
    28          1
    29        112
    30          7
    31         45
    32          1
    33          2
    39         25
    41        220
    42         60
    43        497
    44         44
    45         55
    46          3
    47          2
    53         13
    54         22
    55        205
    56         48
    57        297
    58        143
    59        323
    60         35
    61         34
    62          2
    63          2
    64          1
    65          3
    66          4
    67         55
    68         22
    69        148
    70         92
    71        102
    72         71
    73         92
    74         14
    75         30
    76          2
    77          3
    78          4
    79          7
    80          5
    81         50
    82         21
    83        117
    84         16
    85         42
    86         23
    87         49
    88        641
    89         41
    90          5
    91          4
    92          2
    93          6
    94          3
    95         42
    96         15
    97         82
    98         14
    99         28
   100         33
   101        999
   102         65
   103         16
   104          2
   105          3
   106          2
   107          3
   108          3
   109         19
   110          6
   111         32
   112          6
   113         12
   114         34
   115         97
   116         24
   117        112
   118          8
   119          6
   120          2
   121          3
   122          2
   123          8
   124          4
   125         12
   126          3
   127          4
   128         11
   129          4
   130          4
   131         92
   132          7
   133         36
   134          4
   135          7
   136          2
   137          4
   138          2
   139          5
   140          2
   141          5
   142          2
   143          3
   144          2
   145          5
   146         40
   147          7
   148          2
   149          5
   150          2
   151          2
   152          3
   153          3
   154          2
   155          3
   156          2
   157          3
   158          2
   159          6
   165          2
   166          2
   167          3
   168          2
   169          2
   170          2
   171          2
   172          2
   173          2
   175         25
   176          3
   177          2
   178          1
   179          1
   180          2
   181          2
   182          2
   183          2
   184          1
   185          2
   186          1
   187          1
   193          1
   194          2
   195          1
   196          1
   197          2
   198          1
   199          1
   200          1
   201          2
   207          1
   208          1
   209          1
   210          1
   211          1
   213          2
   214          1
   215          2
   220          2
   221          2
   222          4
   223          3
   224          2
   225          4
   226          2
   227          5
   228          2
   229          2
   237          1
   238          2
   239          4
   240          5
   241          9
   242          2
   243          2
   253          2
   254          1
   255          2
   256          2
   257          3
   265          1
   266          1
   267          1
   268          1
   269          3
   270          2
   271          3
   272          1
   283          3
   284          2
   285          2
   295          2
   296          4
   297          3
   298          1
   299          2
   311          1
   312          2
   313          4
   314          5
   315          3
   329          2
   339          4
   340          2
   341          2
   342          1
   352          1
   353          1
   354          3
   355          4
   356          2
   357        158
   358         39
   359          7
   360          2