##TITLE=Library Entry 60341
##JCAMP-DX=Revision 4.10 
##DATA TYPE=MASS SPECTRUM
##SAMPLE DESCRIPTION=A.Pleshkova, Nesmeyanov Inst.Org.Elem.Cpds, Moscow
##NAMES=HP
##CAS NAME=4-[n-Butyl-N-(2,6-dimethylocta-2,7-dienyl)]toluenesulfamide
##MOLFORM=C21H33NO2S
##CAS REGISTRY NO=138845-90-6
##MP= -300
##BP= -300
##MW= 363
##$RETENTION INDEX=0
##$CONDENSED SPECTRUM=NO
##NPOINTS= 123
##XYDATA=(XY..XY) 1 
    48         15
    50         16
    51         36
    52         17
    53        122
    54         36
    55        396
    56         67
    57        198
    58         11
    59          1
    62          7
    63         33
    64         28
    65        179
    66         26
    67        230
    68        152
    69        292
    70         47
    71         10
    72         35
    73          2
    77         55
    78         19
    79        118
    80        148
    81        766
    82        226
    83         37
    84        103
    85          5
    86         66
    87          1
    89         32
    90         30
    91        999
    92        172
    93        255
    94        130
    95        298
    96        108
    97         26
    98          6
   105         30
   106         17
   107        198
   108         91
   109         36
   110         41
   111         18
   112          5
   119         16
   120         12
   121        188
   122         32
   123         23
   124         54
   125          5
   126         24
   127          1
   132          7
   133          4
   134         10
   135         29
   136        228
   137        203
   138        125
   139         63
   140         20
   141          3
   150         62
   151         16
   152        175
   153         20
   154          4
   155        606
   156         54
   157         37
   158          3
   164         61
   165         14
   166          3
   172         16
   178          9
   179          4
   184        173
   185         15
   186          7
   192         29
   198         77
   199          7
   200          4
   206         12
   207         12
   208        238
   209         34
   210          4
   226         39
   227          5
   228         63
   229          6
   230          3
   238         22
   239          4
   240        256
   241         33
   242         13
   243          2
   280         16
   281          4
   282          2
   293          6
   294         20
   296          1
   306          4
   307          2
   308          1
   320         12
   321          3
   348          1
   363         11
   364          2