##TITLE=Library Entry 31731
##JCAMP-DX=Revision 4.10 
##DATA TYPE=MASS SPECTRUM
##SAMPLE DESCRIPTION=J. MADSEN,DEP. ORG. CHEM.,TECH. UNIV. DENMARK,LYNGBY,DE
NMARK
##NAMES=HP
##CAS NAME=S-Methyl methanethiosulfinate
##MOLFORM=C2H6OS2
##CAS REGISTRY NO=13882-12-7
##MP= -300
##BP= -300
##MW= 110
##$RETENTION INDEX=983
##$CONDENSED SPECTRUM=NO
##NPOINTS= 28
##XYDATA=(XY..XY) 1 
    28         45
    29         84
    31         35
    32        390
    33         14
    34         21
    40        168
    44         29
    45        461
    46        219
    47        735
    48         55
    49         38
    61         25
    62         40
    63        259
    64        999
    65         36
    66         49
    77         33
    79         42
    80         14
    94         21
    95        382
    97         35
   110        609
   111         25
   112         57