##TITLE=Library Entry 9188
##JCAMP-DX=Revision 4.10 
##DATA TYPE=MASS SPECTRUM
##SAMPLE DESCRIPTION=Exported from NIST MS Search
##NAMES=HP
##CAS NAME=2-Butanol, 2-nitroso-, acetate (ester)
##MOLFORM=C6H11NO3
##CAS REGISTRY NO=13880-90-5
##MP= -300
##BP= -300
##MW= 145
##$RETENTION INDEX=0
##$CONDENSED SPECTRUM=NO
##NPOINTS= 30
##XYDATA=(XY..XY) 1 
    26         22
    27         84
    29        106
    30         55
    31         22
    34         17
    38         13
    39         33
    40        126
    41         44
    42         80
    43        999
    44        184
    46         13
    50         13
    51         13
    53         22
    54         13
    55        122
    56         55
    57         55
    58         17
    70         15
    71         22
    72         84
    73        244
    74         22
    86         22
   115         82
   145         15