##TITLE=Library Entry 76301
##JCAMP-DX=Revision 4.10 
##DATA TYPE=MASS SPECTRUM
##SAMPLE DESCRIPTION=Chemical Concepts
##NAMES=HP
##CAS NAME=Acetic acid, 2,2'-[oxybis(2,1-ethanediyloxy)]bis-
##MOLFORM=C8H14O7
##CAS REGISTRY NO=13887-98-4
##MP= -300
##BP= -300
##MW= 222
##$RETENTION INDEX=0
##$CONDENSED SPECTRUM=NO
##NPOINTS= 108
##XYDATA=(XY..XY) 1 
    25          5
    26         52
    27        215
    28        133
    29        337
    30         62
    31        468
    33          8
    34          8
    35         28
    36        213
    37         16
    38         67
    39         36
    40         11
    41        106
    42        177
    43        386
    44        206
    45        473
    46        356
    47         22
    48          3
    49         16
    50         14
    51         49
    52          7
    53         15
    54         12
    55         67
    56         17
    57        206
    58        349
    59        222
    60        190
    61        186
    62         26
    63         11
    64         10
    65         21
    66         20
    67         29
    68         12
    69         36
    70         50
    71         26
    72         14
    73        119
    74         20
    75        216
    76         34
    77         39
    78          7
    79         14
    80         12
    81         21
    82         13
    83         18
    84         12
    85         14
    86         13
    87         47
    88         17
    89         89
    90         22
    91         15
    92          9
    93         42
    94         10
    95         15
    96         11
    97         16
    98         10
    99          6
   100          5
   101         20
   102        338
   103        999
   104         49
   105         25
   106          7
   107          9
   108          4
   109         11
   110          3
   111         10
   112          4
   113          2
   114          7
   115         10
   116         10
   117          9
   118          8
   119         19
   120          4
   121         17
   122          6
   123          3
   124          8
   125          4
   126          2
   127          3
   128          7
   129         19
   130          5
   131          3
   133         55
   134          4