##TITLE=Library Entry 6342
##JCAMP-DX=Revision 4.10 
##DATA TYPE=MASS SPECTRUM
##SAMPLE DESCRIPTION=NIST Mass Spectrometry Data Center, 1998.
##NAMES=HP
##CAS NAME=Carbonochloridothioic acid, S-propyl ester
##MOLFORM=C4H7ClOS
##CAS REGISTRY NO=13889-92-4
##MP= -300
##BP= -300
##MW= 138
##$RETENTION INDEX=0
##$CONDENSED SPECTRUM=NO
##NPOINTS= 78
##XYDATA=(XY..XY) 1 
    14          1
    15          6
    25          1
    26         17
    27        132
    28          4
    29         31
    30          1
    32         15
    33          5
    34          3
    35         13
    36          3
    37         15
    38         22
    39        139
    40         22
    41        401
    42         85
    43        999
    44         43
    45        128
    46         74
    47        111
    48          6
    49         11
    50          1
    51          2
    55          1
    56          1
    57         13
    58         34
    59         32
    60         37
    61         16
    62          2
    63         95
    64          1
    65         30
    67          9
    68          2
    69         13
    70          1
    71         10
    72          1
    73          7
    74          9
    75         25
    76          2
    77          2
    78         12
    79          7
    80          4
    81         33
    82          1
    83         11
    85          1
    87          1
    95          9
    96          9
    97          7
    98          3
    99          1
   103        211
   104         11
   105         15
   106          1
   107          2
   109         22
   110          1
   111          8
   123          1
   125          1
   138        122
   139          7
   140         45
   141          3
   142          2