##TITLE=Library Entry 1188
##JCAMP-DX=Revision 4.10 
##DATA TYPE=MASS SPECTRUM
##SAMPLE DESCRIPTION=Chemical Concepts
##NAMES=HP
##CAS NAME=2,4-Cyclopentadiene-1-ethanamine
##MOLFORM=C7H11N
##CAS REGISTRY NO=138816-65-6
##MP= -300
##BP= -300
##MW= 109
##$RETENTION INDEX=0
##$CONDENSED SPECTRUM=NO
##NPOINTS= 70
##XYDATA=(XY..XY) 1 
    26         12
    27         55
    28         75
    29         16
    30        999
    31         16
    36          0
    37          7
    38         21
    39         93
    40         15
    41         24
    42         19
    43         25
    44          2
    45          1
    46          0
    48          0
    49          4
    50         42
    51         67
    52         45
    53         37
    54          9
    55          2
    56          3
    57          0
    60          0
    61          4
    62         11
    63         22
    64          4
    65         34
    66         10
    67          9
    68          2
    69          0
    73          2
    74          6
    75          3
    76          5
    77        141
    78         54
    79        212
    80        247
    81         22
    82          2
    83          0
    84          0
    85          0
    86          0
    87          0
    88          0
    89          3
    90          0
    91         52
    92         17
    93          6
    94          5
    95          0
   102          0
   103          0
   104          2
   105          1
   106          5
   107          3
   108          5
   109         80
   110          6
   111          0