##TITLE=Library Entry 29875
##JCAMP-DX=Revision 4.10 
##DATA TYPE=MASS SPECTRUM
##SAMPLE DESCRIPTION=Exported from NIST MS Search
##NAMES=HP
##CAS NAME=3-Hexanol, 1,5-dimethoxy-2,4-dimethyl-
##MOLFORM=C10H22O3
##CAS REGISTRY NO=13897-22-8
##MP= -300
##BP= -300
##MW= 190
##$RETENTION INDEX=0
##$CONDENSED SPECTRUM=NO
##NPOINTS= 53
##XYDATA=(XY..XY) 1 
    41        175
    42         78
    43        165
    45        556
    55         97
    56        370
    57         97
    58         48
    59        999
    60         48
    67         24
    68        126
    69        141
    70         14
    71         73
    72         53
    73        165
    82        292
    83         43
    84         12
    85         97
    86         24
    87         19
    89         48
    99         97
   101         61
   103        365
   104         19
   111         12
   113         19
   114         80
   115         48
   116          2
   117        231
   118         14
   119         17
   121          7
   125         14
   126         17
   127         17
   130         16
   135         11
   143          7
   146         12
   147          7
   156          9
   157          7
   158         30
   159          4
   172         20
   173          2
   175          3
   188          5