##TITLE=Library Entry 18974
##JCAMP-DX=Revision 4.10 
##DATA TYPE=MASS SPECTRUM
##SAMPLE DESCRIPTION=J.VOTH UNIV. OF CALIFORNIA, DAVIS, CALIFORNIA, 95616, U
SA
##NAMES=HP
##CAS NAME=2-Hexenoic acid, methyl ester, (E)-
##MOLFORM=C7H12O2
##CAS REGISTRY NO=13894-63-8
##MP= -300
##BP= -300
##MW= 128
##$RETENTION INDEX=966
##$CONDENSED SPECTRUM=NO
##NPOINTS= 82
##XYDATA=(XY..XY) 1 
    12          7
    13         15
    14         50
    15        639
    16         10
    17          4
    18         12
    25          6
    26        106
    27        630
    28         98
    29        375
    30         24
    31         42
    32          6
    33          7
    36          2
    37         31
    38         93
    39        619
    40        168
    41        838
    42        324
    43        125
    44          7
    45         45
    46          2
    47          4
    49          5
    50         31
    51         50
    52         22
    53        160
    54         51
    55        999
    56         51
    57         24
    58         11
    59        237
    60          8
    61          7
    62          9
    63         13
    64          3
    65         22
    66         19
    67         84
    68        401
    69        259
    70         18
    71         88
    72         17
    73         67
    74        276
    75         10
    77          2
    79          5
    80          2
    81        142
    82         10
    83          8
    84          2
    85         69
    86          9
    87        524
    88         24
    89          3
    95         25
    96         52
    97        495
    98         35
    99         24
   100         19
   101          4
   111          5
   113        293
   114         20
   115          2
   127         10
   128        209
   129         20
   130          2