##TITLE=Library Entry 38168
##JCAMP-DX=Revision 4.10 
##DATA TYPE=MASS SPECTRUM
##SAMPLE DESCRIPTION=Asinex Ltd, Moscow, Russia
##NAMES=HP
##CAS NAME=Cyclohexane-1-carboxylic acid, 3-[3-(2-furyl)-1-oxopropyl]-6,6-di
methyl-2,4-dioxo-, methyl ester
##MOLFORM=C17H24O6
##CAS REGISTRY NO=138972-20-0
##MP= -300
##BP= -300
##MW= 324
##$RETENTION INDEX=0
##$CONDENSED SPECTRUM=NO
##NPOINTS= 218
##XYDATA=(XY..XY) 1 
    33         11
    34          0
    38          4
    39        257
    40         61
    41        587
    42        203
    43        582
    44         58
    45         18
    51         19
    52         10
    53         93
    54         29
    55        517
    56         59
    57         50
    58          4
    59        103
    60          3
    61          3
    63          2
    64          1
    65         31
    66         19
    67         75
    68         42
    69        392
    70         56
    71        999
    72         42
    73         33
    74          4
    77         20
    78          5
    79         57
    80         10
    81         95
    82         53
    83        295
    84        121
    85        416
    86         38
    90          0
    91         11
    92          4
    93         11
    94          8
    95         24
    96         11
    97        230
    98         66
    99         20
   100         17
   101         47
   102          2
   104          1
   105          4
   106          1
   107         22
   108         15
   109         76
   110         36
   111         67
   112         29
   113         17
   114         20
   115        113
   116          7
   118          9
   119          8
   121         24
   122         10
   123         50
   124         53
   125         73
   126        104
   127        107
   128         10
   129         10
   131          1
   132          4
   133          7
   134          2
   135         15
   136          5
   137         21
   138         25
   139         67
   140         47
   141         39
   142         13
   143         10
   144          0
   145          2
   146          1
   147          4
   148          0
   149          8
   150         13
   151         92
   152         59
   153         11
   154         11
   155          7
   156         54
   157         18
   158          0
   159          1
   160          0
   161          7
   162          4
   163         20
   164         13
   165        183
   166         40
   167         54
   168          7
   169          8
   170          3
   171          4
   172          1
   173          2
   174          2
   175          0
   176          0
   177         27
   178          7
   179         74
   180         34
   181         39
   182         25
   183         24
   184         27
   185          4
   187          1
   189          3
   190          5
   191          9
   192          6
   193        138
   194         28
   195         10
   197          9
   198          8
   199         14
   200          0
   201          1
   202          0
   203          0
   205          4
   206          2
   207          3
   208         53
   209          6
   211          2
   212          2
   213          0
   214          0
   217          0
   218          1
   220         14
   221        278
   222         43
   223         10
   224          2
   225        134
   226         14
   227          1
   229          0
   231          2
   232          0
   233          3
   234          9
   235          1
   236          0
   237          2
   238          5
   239          4
   240        141
   241         23
   242          3
   247          2
   248          0
   249          6
   250          2
   251          8
   252          6
   253        219
   254         30
   255          2
   259          0
   261          0
   262          1
   263          0
   264          0
   265          2
   269          0
   273          0
   275          0
   277          1
   278          0
   280          4
   281          9
   282          0
   283          0
   290          0
   291          4
   292          1
   293         60
   294         11
   298          2
   306          0
   323          3
   324         17
   325          6
   326          0
   327          0