##TITLE=Library Entry 36729
##JCAMP-DX=Revision 4.10 
##DATA TYPE=MASS SPECTRUM
##SAMPLE DESCRIPTION=NIST Mass Spectrometry Data Center
##NAMES=HP
##CAS NAME=Methyl 1,1'-dimethyl-2-oxo-1',4a',5',5a',7',8',10',10a'-octahydro
spiro[indoline-3,6'-pyrano[3,4-f]indolizine]-4'-carboxylate
##MOLFORM=C22H26N2O4
##CAS REGISTRY NO=13897-71-7
##MP= -300
##BP= -300
##MW= 382
##$RETENTION INDEX=2942
##$CONDENSED SPECTRUM=NO
##NPOINTS= 146
##XYDATA=(XY..XY) 1 
    39         55
    41        294
    42        350
    43         74
    51         30
    53         96
    54         76
    55        218
    56        225
    57        161
    59         33
    63         29
    64         14
    65         86
    66         54
    67         74
    68        386
    69        999
    70        484
    76         23
    77        203
    78         50
    79        108
    80        119
    82         60
    83         55
    89         60
    90         42
    91        134
    93         50
    94        134
    95         79
   102         61
   103        116
   104         36
   106         91
   107         51
   108        107
   109         44
   114         22
   115        179
   116         78
   117        136
   118         92
   119         59
   120         96
   121        148
   122        108
   127         39
   128         85
   129         56
   130        322
   131        152
   132         51
   134         69
   136        136
   138         31
   139         72
   140         49
   142         34
   143        105
   144        330
   145         58
   146        104
   147         44
   148         52
   152         40
   153         85
   156         33
   157         33
   158        252
   159        278
   160        321
   161         47
   162         59
   163         63
   164        194
   165         55
   166        115
   167         65
   168         30
   170         23
   171         36
   172        115
   173        155
   174         88
   175         37
   176         22
   178         32
   179         39
   180        378
   181         68
   182         26
   183         21
   184         20
   190         51
   191         73
   192         38
   194         57
   198         13
   199         27
   200         14
   205         24
   208        474
   209         60
   211         25
   212         11
   214          8
   215         47
   222        140
   223        857
   224        117
   225         23
   226          8
   227         45
   229         24
   236         16
   251         36
   252         14
   253         68
   277          7
   279         36
   280         20
   281        111
   293         11
   294          7
   295         21
   299          8
   321         12
   322          5
   323         26
   339          8
   350          9
   351         67
   352         15
   353         13
   354         35
   365         38
   366         11
   367        120
   368         24
   380          3
   381         17
   382        673
   383        170
   384         36