##TITLE=Library Entry 65983
##JCAMP-DX=Revision 4.10 
##DATA TYPE=MASS SPECTRUM
##SAMPLE DESCRIPTION=D.HENNEBERG, MAX-PLANCK INSTITUTE, MULHEIM, WEST GERMAN
Y
##NAMES=HP
##CAS NAME=Cyclohexene, 1-methyl-5-(1-methylethenyl)-
##MOLFORM=C10H16
##CAS REGISTRY NO=13898-73-2
##MP= -300
##BP= -300
##MW= 136
##$RETENTION INDEX=0
##$CONDENSED SPECTRUM=NO
##NPOINTS= 88
##XYDATA=(XY..XY) 1 
    22          3
    25          2
    26          7
    27        171
    28          0
    29        100
    30          2
    34          0
    36          1
    37          5
    38         10
    39        251
    40         72
    41        276
    42         34
    43         69
    45          1
    46          1
    47          1
    48          0
    49          3
    50         14
    51         63
    52         32
    53        217
    54         15
    55        104
    56          3
    58         10
    59          3
    61          2
    62          6
    63         21
    64         11
    65         70
    66         75
    67        448
    68        768
    69         54
    70          3
    72          1
    74          2
    75         10
    76          4
    77        166
    78         38
    79        257
    80         80
    81        107
    82         15
    84          2
    86          1
    87          2
    88          1
    89         19
    91        162
    92        350
    93        999
    94        180
    95         47
    96          3
   101          1
   102          1
   103         11
   104          4
   105         45
   106         14
   107        131
   108         27
   109          4
   113          0
   114          0
   115         10
   116          2
   117         12
   118          3
   119         24
   120          4
   121         95
   122         10
   128          1
   131          1
   132         12
   133          2
   134          4
   135          2
   136         56
   137          6