##TITLE=Library Entry 39618
##JCAMP-DX=Revision 4.10 
##DATA TYPE=MASS SPECTRUM
##SAMPLE DESCRIPTION=Exported from NIST MS Search
##NAMES=HP
##CAS NAME=DL-Norvaline, ethyl ester
##MOLFORM=C7H15NO2
##CAS REGISTRY NO=13893-43-1
##MP= -300
##BP= -300
##MW= 145
##$RETENTION INDEX=0
##$CONDENSED SPECTRUM=NO
##NPOINTS= 24
##XYDATA=(XY..XY) 1 
    18         16
    27         36
    28         49
    29         49
    30        220
    31          4
    39          8
    41         16
    42         20
    43         30
    44         34
    45          2
    46          6
    49          2
    55         24
    56         20
    57         10
    70         14
    72        999
    73         49
    74         65
    84          4
    86          2
   102         81