##TITLE=Library Entry 55764
##JCAMP-DX=Revision 4.10 
##DATA TYPE=MASS SPECTRUM
##SAMPLE DESCRIPTION=Japan AIST/NIMC Database- Spectrum MS-IW-2867
##NAMES=HP
##CAS NAME=(S)-4-Ethyl-2-oxazolidone
##MOLFORM=C5H9NO2
##CAS REGISTRY NO=13896-06-5
##MP= -300
##BP= -300
##MW= 115
##$RETENTION INDEX=0
##$CONDENSED SPECTRUM=NO
##NPOINTS= 43
##XYDATA=(XY..XY) 1 
    14          1
    15         31
    26         11
    27         58
    28        132
    29         43
    30         28
    31         10
    37          2
    38          5
    39         34
    40         11
    41         70
    42        637
    43         49
    44         14
    45          4
    50          1
    51          3
    52          4
    53          3
    54          9
    55          9
    56         67
    57         29
    58        123
    59          4
    60          4
    62          1
    68          1
    69          1
    70          5
    71          1
    72          1
    73          1
    84          4
    85        133
    86        999
    87         42
    88          5
   114          4
   115         71
   116          7