##TITLE=Library Entry 5647
##JCAMP-DX=Revision 4.10 
##DATA TYPE=MASS SPECTRUM
##SAMPLE DESCRIPTION=Exported from NIST MS Search
##NAMES=HP
##CAS NAME=4-Penten-2-one
##MOLFORM=C5H8O
##CAS REGISTRY NO=13891-87-7
##MP= -300
##BP= -300
##MW= 84
##$RETENTION INDEX=0
##$CONDENSED SPECTRUM=NO
##NPOINTS= 23
##XYDATA=(XY..XY) 1 
    12          4
    13          8
    15        136
    25          5
    26         26
    27         50
    28         10
    29         14
    31          5
    37         22
    38         39
    39        167
    40         18
    41        133
    42         50
    43        999
    44         23
    50          8
    51          5
    53          5
    55          3
    69         24
    84         52