##TITLE=Library Entry 28760
##JCAMP-DX=Revision 4.10 
##DATA TYPE=MASS SPECTRUM
##SAMPLE DESCRIPTION=Japan AIST/NIMC Database- Spectrum MS-NW-9059
##NAMES=HP
##CAS NAME=Benzyldimethyltetradecylammonium chloride
##MOLFORM=C23H42ClN
##CAS REGISTRY NO=139-08-2
##MP= -300
##BP= -300
##MW= 367
##$RETENTION INDEX=0
##$CONDENSED SPECTRUM=NO
##NPOINTS= 68
##XYDATA=(XY..XY) 1 
    15          1
    27          3
    28          2
    29          9
    30          5
    36          1
    38          1
    39          9
    40          1
    41         18
    42          9
    43         21
    44         13
    45         18
    46          9
    50          7
    51          4
    52          2
    53          1
    55         14
    56          4
    57         14
    58        999
    59         36
    61          1
    62          2
    63          7
    64          2
    65         17
    67          1
    69          8
    70          3
    71          7
    72          3
    73          1
    77          1
    81          1
    82          1
    83          4
    84          8
    85          3
    89          6
    90          2
    91        180
    92         14
    93          1
    95          1
    97          3
    98          1
    99          1
   100          1
   111          1
   114          2
   120          1
   121          1
   125          4
   126         45
   127          4
   128         14
   129          1
   134         41
   135          5
   149          1
   226          1
   240          6
   241         22
   242          4
   317          1