##TITLE=Library Entry 89820
##JCAMP-DX=Revision 4.10 
##DATA TYPE=MASS SPECTRUM
##SAMPLE DESCRIPTION=Patti Price, Georgia Bureau of Investigation, Decatur,
 Georgia
##NAMES=HP
##CAS NAME=Benzoic acid, p-(cyclohexyloxy)-, 3-(2-methylpiperidino)propyl es
ter
##MOLFORM=C22H33NO3
##CAS REGISTRY NO=139-62-8
##MP= -300
##BP= -300
##MW= 359
##$RETENTION INDEX=0
##$CONDENSED SPECTRUM=NO
##NPOINTS= 109
##XYDATA=(XY..XY) 1 
    41        100
    42         54
    43         19
    44         47
    45          2
    50          3
    51          4
    52          2
    53         24
    54          4
    55        264
    56         76
    57         13
    58          8
    63          6
    65         19
    66          4
    68         28
    69         21
    70         23
    71          3
    72          1
    75          1
    76          7
    77          8
    78          1
    79         15
    80          6
    81          7
    82          4
    83         50
    84         16
    85          2
    86          1
    91          5
    92         27
    93         29
    94         10
    95          7
    96         84
    97         25
    99          3
   100          1
   103          2
   104          6
   105          2
   106          1
   107          3
   108          3
   109          1
   110         54
   111         15
   112        999
   113         76
   114          2
   115          1
   117          1
   118          1
   119          3
   120         33
   121        238
   122         25
   123          3
   124         43
   125          3
   127          1
   131          2
   132          1
   133          1
   135          1
   136          1
   137          1
   140         11
   141          1
   142          1
   146          3
   147          5
   150          1
   151          1
   154          1
   156         33
   157          2
   158          1
   161          1
   162          1
   178         12
   179         71
   180          6
   201          3
   203         34
   204          4
   205          1
   261         45
   262         12
   263          1
   274          1
   275          1
   276          1
   278          1
   316          1
   342          1
   344        332
   345         81
   346         10
   347          1
   357          4
   358          5
   359         19
   360          4