##TITLE=Library Entry 52197
##JCAMP-DX=Revision 4.10 
##DATA TYPE=MASS SPECTRUM
##SAMPLE DESCRIPTION=Chemical Concepts
##NAMES=HP
##CAS NAME=Phosphorous acid, dicyclohexyl ester
##MOLFORM=C12H23O3P
##CAS REGISTRY NO=139-69-5
##MP= -300
##BP= -300
##MW= 246
##$RETENTION INDEX=0
##$CONDENSED SPECTRUM=NO
##NPOINTS= 72
##XYDATA=(XY..XY) 1 
    26          3
    27         58
    28         23
    29         74
    30          1
    31          5
    37          1
    39         74
    40         12
    41        211
    42         25
    43         29
    44         14
    45          7
    47          6
    48          0
    49          0
    50          1
    51          3
    52          4
    53         39
    54         88
    55        245
    56         17
    57         43
    58          8
    59          1
    62          1
    63          0
    65         20
    66          6
    67        145
    68          8
    69          1
    70          1
    71          5
    72          3
    74          0
    76          0
    77          4
    78          2
    79         31
    80          6
    81         63
    83        999
    84          9
    85         12
    90          0
    95          0
    96          1
    97          1
    98          2
    99         43
   100         15
   101          1
   103          0
   104          0
   107          0
   109         10
   110          0
   118          0
   121         14
   122          1
   123          1
   135          1
   136          0
   147          0
   163          5
   164         24
   165         32
   166          2
   167          0