##TITLE=Library Entry 88191
##JCAMP-DX=Revision 4.10 
##DATA TYPE=MASS SPECTRUM
##SAMPLE DESCRIPTION=J.E. WILKINSON S-CUBED, SAN DIEGO, CA.
##NAMES=HP
##CAS NAME=Diazene, bis(3-chlorophenyl)-, 1-oxide
##MOLFORM=C12H8Cl2N2O
##CAS REGISTRY NO=139-24-2
##MP= -300
##BP= -300
##MW= 266
##$RETENTION INDEX=0
##$CONDENSED SPECTRUM=NO
##NPOINTS= 99
##XYDATA=(XY..XY) 1 
    47          1
    48          0
    49         17
    50        277
    51        136
    52         11
    53          0
    60          1
    61         37
    62         82
    63        286
    64         90
    65          5
    72          4
    73         73
    74        139
    75        615
    76        134
    77          9
    78         16
    79          0
    84          9
    85         63
    86          5
    87         22
    88         11
    89         60
    90        265
    91         14
    92          2
    97          2
    98         31
    99        212
   100         17
   101         61
   102          1
   106          0
   109          0
   111        999
   112         71
   113        318
   114         15
   115         10
   117          1
   124          0
   125        184
   126         15
   127        141
   128          7
   129         19
   130          0
   138         12
   139        122
   140         20
   141         43
   142          0
   143          1
   149          4
   150          1
   151          3
   152          4
   153          0
   155          1
   164          0
   165          0
   166          1
   167          0
   168         60
   169          2
   173          1
   174          0
   175         27
   176          1
   177          4
   178          0
   186          0
   200          0
   201          0
   202         23
   203         40
   204          8
   205          8
   231         47
   232          2
   233         10
   234          0
   237         10
   238          4
   239          5
   240          1
   241          0
   250          3
   252          1
   265          1
   266         86
   267          8
   268         52
   269          2
   270          3