##TITLE=Library Entry 29298
##JCAMP-DX=Revision 4.10 
##DATA TYPE=MASS SPECTRUM
##SAMPLE DESCRIPTION=MASS SPECTROMETRY CENTER, UNIV. OF UTAH. EPA-PTSEL 5800
##NAMES=HP
##CAS NAME=Propazine
##MOLFORM=C9H16ClN5
##CAS REGISTRY NO=139-40-2
##MP= -300
##BP= -300
##MW= 229
##$RETENTION INDEX=1756
##$CONDENSED SPECTRUM=NO
##NPOINTS= 83
##XYDATA=(XY..XY) 1 
    15         52
    27        148
    28        118
    30          1
    36          3
    39         64
    40         10
    41        212
    42        192
    43        519
    44        130
    53         12
    54          1
    55          5
    56         21
    57         52
    58        999
    59         44
    62         49
    64          3
    67          8
    68        262
    69        263
    70         11
    79         79
    81         31
    82          4
    83         99
    84          9
    85         39
    87         21
    93         30
    94        109
    95         25
    99          1
   100        122
   103          1
   104        176
   105         97
   106         67
   107         44
   108         21
   109          5
   110         58
   111         17
   129         25
   130         49
   131         25
   132          9
   136         21
   137         10
   145         98
   146         37
   147         41
   152        104
   153         15
   157         11
   159         29
   161          1
   168          7
   172        470
   173         53
   174        161
   175          5
   186         74
   187        293
   188         54
   189        104
   194          5
   195         19
   198         14
   200          3
   210          7
   212          1
   214        836
   215        104
   216        279
   217         36
   228         51
   229        526
   230         87
   231        183
   232         17