##TITLE=Library Entry 69811
##JCAMP-DX=Revision 4.10 
##DATA TYPE=MASS SPECTRUM
##SAMPLE DESCRIPTION=Exported from NIST MS Search
##NAMES=HP
##CAS NAME=Cyclohexane, 1-bromo-3-methyl-
##MOLFORM=C7H13Br
##CAS REGISTRY NO=13905-48-1
##MP= -300
##BP= -300
##MW= 176
##$RETENTION INDEX=0
##$CONDENSED SPECTRUM=NO
##NPOINTS= 71
##XYDATA=(XY..XY) 1 
    15          2
    26          4
    27         50
    28         11
    29         35
    30          1
    38          5
    39         75
    40         12
    41        120
    42         15
    43         37
    44          2
    45          3
    46          6
    47          3
    50          5
    51         12
    52          6
    53          5
    54         32
    55        682
    56         34
    57          7
    63          3
    65          8
    66          4
    67         35
    68         22
    69         50
    70          4
    71          6
    77          9
    78          2
    79         16
    80          3
    81         75
    82          6
    83          7
    84          1
    85          1
    86          1
    91          2
    92          1
    93          2
    94          1
    95         13
    96         13
    97        999
    98         78
    99          3
   105          1
   106          1
   107          2
   108          1
   109          1
   110          1
   111          3
   112          1
   119          3
   120          1
   121          3
   122          1
   133          1
   135          1
   137          1
   147          1
   176          8
   177          1
   178          8
   179          1