##TITLE=Library Entry 22178
##JCAMP-DX=Revision 4.10 
##DATA TYPE=MASS SPECTRUM
##SAMPLE DESCRIPTION=G. LUNN,ENVIRON. CONTROL,NATL. CANCER INST.,FREDERICK,M
D.,USA
##NAMES=HP
##CAS NAME=N-(2-Chloroethyl)-N'-cyclohexylurea
##MOLFORM=C9H17ClN2O
##CAS REGISTRY NO=13908-11-7
##MP= -300
##BP= -300
##MW= 204
##$RETENTION INDEX=0
##$CONDENSED SPECTRUM=NO
##NPOINTS= 106
##XYDATA=(XY..XY) 1 
    35         10
    36         51
    37          4
    38         22
    39        123
    40         30
    41        249
    42        123
    43        379
    44        335
    45         13
    48          1
    49         20
    50          3
    51         14
    52          6
    53         35
    54         64
    55        168
    56        999
    57        126
    58          9
    60         13
    61         34
    62          6
    63        130
    64          6
    65         49
    66          6
    67         71
    68         17
    69         37
    70        171
    71         23
    72          1
    73         20
    74          1
    76          1
    77         14
    78         22
    79         24
    80         64
    81         41
    82         68
    83         53
    84         11
    85         15
    86          7
    87         42
    88          1
    91          1
    93          2
    94          1
    95          5
    96          8
    97         16
    98         72
    99         63
   100          5
   101          1
   105          3
   106         10
   107          2
   108          4
   109          3
   110          1
   111          5
   112          2
   113          4
   121          1
   122          2
   123        272
   124         15
   125        115
   126         12
   127          3
   135          7
   136          1
   137          5
   139          2
   141          1
   142          1
   147          2
   148          2
   149          6
   150          1
   151          0
   153          2
   155          3
   161         74
   162          8
   163         24
   164          2
   165          0
   167          2
   168         31
   169         65
   170          6
   175          4
   177          1
   189          1
   203          0
   204         23
   205          6
   206          8
   207          1