##TITLE=Library Entry 69946
##JCAMP-DX=Revision 4.10 
##DATA TYPE=MASS SPECTRUM
##SAMPLE DESCRIPTION=Chemical Sci. & Tec. Lab., NIST, Gaithersburg, MD 20899
##NAMES=HP
##CAS NAME=Semustine
##MOLFORM=C10H18ClN3O2
##CAS REGISTRY NO=13909-09-6
##MP= -300
##BP= -300
##MW= 247
##$RETENTION INDEX=0
##$CONDENSED SPECTRUM=NO
##NPOINTS= 89
##XYDATA=(XY..XY) 1 
    41         96
    42         35
    43         71
    44         22
    45          3
    46          2
    47          5
    48          3
    49          4
    51          1
    52          0
    53         16
    54         35
    55        617
    56         66
    57         17
    58          1
    59         16
    60          3
    61          2
    62          4
    63         25
    64          1
    65         11
    66          2
    67         20
    68         15
    69         61
    70         12
    71          3
    73         23
    74          0
    76          0
    77          5
    78          8
    79          8
    80          7
    81         28
    82         12
    83          9
    84          2
    85          9
    86          2
    87          1
    88          3
    89          1
    91          3
    93          5
    94          4
    95         31
    97        999
    98         61
    99          3
   104          1
   105          1
   106          1
   108         41
   109         16
   110         14
   111         11
   112          6
   113          0
   114          1
   118          3
   119          0
   121          0
   123          5
   124          1
   125          2
   127          1
   132          2
   133          0
   135          0
   137          0
   138          5
   140        173
   141         15
   142          0
   147          1
   149          1
   161          2
   163          2
   167          1
   205          0
   217          0
   246          4
   247          5
   248          1
   249          1