##TITLE=Library Entry 4812
##JCAMP-DX=Revision 4.10 
##DATA TYPE=MASS SPECTRUM
##SAMPLE DESCRIPTION=D. Rasala, Inst. Chem., Pedagogical Univ., Kielce, Pola
nd
##NAMES=HP
##CAS NAME=6H-1,4-Diazepin-6-one, 2,3-dihydro-5,7-dimethyl-, 4-nitrophenylhy
drazone
##MOLFORM=C13H15N5O2
##CAS REGISTRY NO=139038-67-8
##MP= -300
##BP= -300
##MW= 273
##$RETENTION INDEX=0
##$CONDENSED SPECTRUM=NO
##NPOINTS= 188
##XYDATA=(XY..XY) 1 
    25          9
    26         80
    27        253
    28        496
    29        149
    30        383
    31         61
    32         41
    34         11
    36          9
    37         24
    38         59
    39        258
    40         88
    41        326
    42        999
    43        368
    44        122
    45         70
    46         19
    47          6
    50         97
    51         81
    52        112
    53        336
    54        255
    55        423
    56        132
    57        112
    58         25
    59         27
    60         63
    61         22
    62         31
    63        144
    64        115
    65        233
    66         88
    67        169
    68        692
    69        152
    70         51
    71         61
    72         28
    73         76
    74         31
    75         80
    76        112
    77         84
    78         95
    79         59
    80        112
    81        115
    82        578
    83        117
    84         65
    85        183
    86         42
    87         22
    88          9
    89         18
    90         49
    91         52
    92        163
    93         94
    94        234
    95        628
    96        140
    97         48
    98         24
    99         18
   100          4
   101          9
   102         14
   103         21
   104         42
   105         74
   106         46
   107        436
   108        179
   109         59
   110         27
   111         37
   112         12
   113         14
   114          9
   115         27
   116         10
   117         29
   118         15
   119         40
   120         83
   121         61
   122        110
   123        248
   124        409
   125         66
   126         12
   127          9
   128         11
   129         19
   130         12
   131         14
   132         10
   133         21
   134         38
   135         81
   136        346
   137        126
   138        171
   139         25
   140          7
   141         13
   142          6
   143          9
   144         10
   145         12
   146          8
   147         14
   148         14
   149        274
   150        305
   151        410
   152        125
   153         20
   154         10
   155         10
   157         12
   158         10
   159         12
   163         31
   164         11
   165          6
   169         10
   170         10
   171          9
   180         12
   181          6
   183          9
   184         10
   185         21
   186          8
   190         10
   191          5
   197         13
   198          8
   199         14
   200          8
   204         10
   205         21
   206          8
   207         15
   214         10
   215         11
   216         15
   217         14
   218          7
   219         15
   223         20
   224         12
   225          6
   226         28
   227         12
   228          9
   229         11
   230         12
   231         72
   232         44
   233         10
   241          9
   242          9
   243         37
   244         24
   245         19
   246          9
   247         14
   255          6
   256         15
   257         18
   258         13
   259          9
   270         17
   271         13
   272         48
   273        478
   274        103
   275         14
   276          2