##TITLE=Library Entry 52443
##JCAMP-DX=Revision 4.10 
##DATA TYPE=MASS SPECTRUM
##SAMPLE DESCRIPTION=Insect Chem. Ecol. Lab., USDA, Beltsville, MD 20705
##NAMES=HP
##CAS NAME=4-Hexen-3-one, 5-methyl-
##MOLFORM=C7H12O
##CAS REGISTRY NO=13905-10-7
##MP= -300
##BP= -300
##MW= 112
##$RETENTION INDEX=1080
##$CONDENSED SPECTRUM=NO
##NPOINTS= 54
##XYDATA=(XY..XY) 1 
    41         21
    42          8
    43          9
    45          1
    46          0
    48          1
    49          5
    50         13
    51         18
    52          8
    53         58
    54         14
    55        303
    56         17
    57         20
    58          1
    60          0
    61          1
    62          2
    63          3
    64          1
    65          4
    66          3
    67          7
    68          1
    69          2
    73          0
    74          2
    76          0
    77          8
    78          1
    79          6
    81          3
    82         14
    83        999
    84         65
    85          5
    86          3
    87          0
    88          1
    89          0
    92          0
    93          2
    94          0
    95          2
    96          0
    97          2
    98          0
   110          1
   111          3
   112        296
   113         25
   114          1
   115          0