##TITLE=Library Entry 73223
##JCAMP-DX=Revision 4.10 
##DATA TYPE=MASS SPECTRUM
##SAMPLE DESCRIPTION=Finnigan MAT: Toxicological Library (LIBR-TX)
##NAMES=HP
##CAS NAME=3-Diethylaminobutyranilide
##MOLFORM=C14H22N2O
##CAS REGISTRY NO=13912-77-1
##MP= -300
##BP= -300
##MW= 234
##$RETENTION INDEX=1893
##$CONDENSED SPECTRUM=NO
##NPOINTS= 24
##XYDATA=(XY..XY) 1 
    42         47
    44         90
    56         50
    58         68
    70         57
    72        333
    77         51
    92         30
    93         61
   100        999
   101         62
   112         40
   114         19
   120        120
   126         38
   149         19
   161         20
   162         47
   205        199
   206         30
   219        101
   220         20
   234         20
   235          9