##TITLE=Library Entry 39747
##JCAMP-DX=Revision 4.10 
##DATA TYPE=MASS SPECTRUM
##SAMPLE DESCRIPTION=P. Vainiotalo, Dep. Chem., Joensuu Univ., Joensuu, Finl
and
##NAMES=HP
##CAS NAME=1-Pyrazolidinecarboxamide, N-phenyl-
##MOLFORM=C10H13N3O
##CAS REGISTRY NO=139193-02-5
##MP= -300
##BP= -300
##MW= 191
##$RETENTION INDEX=0
##$CONDENSED SPECTRUM=NO
##NPOINTS= 35
##XYDATA=(XY..XY) 1 
    14         36
    15         15
    16         15
    27         33
    29         24
    30         81
    38         17
    39         50
    40         32
    41         36
    42         49
    43         97
    44        341
    50         13
    51         42
    52         12
    57         15
    63         22
    64         46
    65         53
    66         17
    69         33
    70         53
    71        303
    72        999
    73         42
    77         66
    91         67
    92         31
    93         49
   119        139
   120         21
   189         11
   191        168
   192         21