##TITLE=Library Entry 46892
##JCAMP-DX=Revision 4.10 
##DATA TYPE=MASS SPECTRUM
##SAMPLE DESCRIPTION=Chemical Concepts
##NAMES=HP
##CAS NAME=1,1-Dichloro-4,4-dimethylpent-2-yne
##MOLFORM=C7H10Cl2
##CAS REGISTRY NO=139185-47-0
##MP= -300
##BP= -300
##MW= 164
##$RETENTION INDEX=0
##$CONDENSED SPECTRUM=NO
##NPOINTS= 88
##XYDATA=(XY..XY) 1 
    26         16
    27        165
    28         47
    29         38
    35         19
    36         34
    37         31
    38         66
    39        226
    40         22
    41        164
    42          8
    43          9
    44          1
    45         16
    46          1
    47          3
    48          2
    49         24
    50         91
    51        247
    52         45
    53        156
    54         10
    55         17
    56         21
    57         23
    60          4
    61         36
    62         67
    63        140
    64         15
    65         82
    66         10
    67         29
    68          1
    73         79
    74         27
    75         69
    77        999
    78        125
    79        205
    80         10
    81         20
    83          6
    84          3
    85         21
    86         10
    87         47
    88         20
    89         36
    90         17
    91        216
    93        735
    94         61
    95          2
    96          1
    97          9
    98          1
    99         24
   100          5
   101         15
   102          9
   103          2
   104          1
   107          2
   109         20
   110          1
   111         17
   112         14
   113        227
   114         80
   115         99
   116         21
   117          9
   121          1
   123          1
   129        376
   131        132
   132          5
   134          1
   136          2
   149         43
   150          2
   151         24
   153          2
   164          2
   166          1