##TITLE=Library Entry 85418
##JCAMP-DX=Revision 4.10 
##DATA TYPE=MASS SPECTRUM
##SAMPLE DESCRIPTION=Humboldt-Universitat zu Berlin, Department of Chemistry
, Analytical Group
##NAMES=HP
##CAS NAME=1H-Indene-3-carboxylic acid, 7-[(4-methylphenoxy)sulfonyl]-, 4-me
thylphenyl ester
##MOLFORM=C24H20O5S
##CAS REGISTRY NO=139120-19-7
##MP= -300
##BP= -300
##MW= 420
##$RETENTION INDEX=0
##$CONDENSED SPECTRUM=NO
##NPOINTS= 151
##XYDATA=(XY..XY) 1 
    12         11
    14          6
    15         14
    16         18
    17         36
    18        137
    19          3
    26         17
    27        108
    28         63
    29         34
    30          4
    31          4
    32          8
    37          9
    38         19
    39        125
    40         14
    41         25
    42          7
    43         33
    44         95
    45         22
    46          5
    48         10
    49          7
    50         55
    51        122
    52         73
    53         98
    54         11
    55         25
    56          6
    57         12
    60         12
    61          9
    62         39
    63        124
    64         35
    65         47
    66         11
    67          5
    68          4
    69         13
    70          5
    71          6
    73          8
    74         19
    75         22
    77        415
    78         99
    79        235
    80         51
    81         10
    82          5
    83          5
    84          5
    85          6
    86         24
    87         53
    88        114
    89         39
    90         30
    91         30
    92          5
    93          4
    95          5
    97          5
    98          4
    99          4
   101         17
   102         29
   103          5
   105          8
   107        421
   108        999
   109         83
   110          9
   111          6
   113        459
   114        680
   115        100
   116         10
   128          4
   129         18
   130         11
   133         13
   134          8
   135          3
   139          5
   141        650
   142        299
   143         33
   144          3
   145          9
   146          4
   149          3
   151          7
   152         10
   153          4
   157        100
   158         19
   159          3
   161          9
   162          4
   163          4
   164          7
   165          8
   166          3
   173          5
   176          8
   177          7
   178         27
   179         12
   185          3
   189         46
   190         14
   191         10
   192          7
   193         16
   194          4
   202         10
   203         10
   205        724
   206        101
   207         49
   208          6
   211          3
   218          3
   219         17
   220         31
   221         38
   222          9
   234          3
   239          1
   248         85
   249         29
   250          4
   267          3
   269          1
   285          1
   286          1
   312        163
   313         56
   314         17
   315          4
   316          0
   420         46
   421         13
   422          4
   423          0