##TITLE=Library Entry 93588
##JCAMP-DX=Revision 4.10 
##DATA TYPE=MASS SPECTRUM
##SAMPLE DESCRIPTION=Humboldt-Universitat zu Berlin, Department of Chemistry
, Analytical Group
##NAMES=HP
##CAS NAME=1H-Indene-3-carboxylic acid, 7-(ethoxysulfonyl)-
##MOLFORM=C12H12O5S
##CAS REGISTRY NO=139120-17-5
##MP= -300
##BP= -300
##MW= 268
##$RETENTION INDEX=0
##$CONDENSED SPECTRUM=NO
##NPOINTS= 204
##XYDATA=(XY..XY) 1 
    12          6
    13          1
    14         10
    15         45
    16         15
    17          5
    18         13
    19          1
    20          1
    22          1
    26         17
    27         86
    28         62
    29        204
    30         15
    31          8
    32          6
    34          0
    35          1
    36          4
    37          3
    38         12
    39         71
    40          4
    41          7
    42          5
    43         28
    44         81
    45         32
    46          1
    47          0
    48         11
    49          2
    50         26
    51         55
    52         13
    53         14
    54          1
    55          7
    57          8
    59          0
    61          7
    62         47
    63        116
    64         23
    65         40
    66          4
    67          1
    68          0
    69          8
    70          1
    71          4
    72          0
    73          2
    74         22
    75         33
    76         31
    77        118
    78         10
    79          5
    80          1
    81          1
    82          1
    83          1
    84          1
    85          4
    86         24
    87         42
    88         60
    89         80
    90          9
    91         21
    92          3
    93          2
    94          0
    95          1
    96          0
    97          1
    98          3
    99          2
   100          2
   101         20
   102        105
   103        170
   104         18
   105          3
   106          1
   107          7
   108          2
   109          3
   110          4
   111          4
   113        110
   114        274
   115        999
   116        113
   117          8
   118          5
   119          8
   120          2
   121          3
   122          0
   123          1
   126          0
   127          5
   128         10
   129         15
   130         36
   131        150
   132         19
   133          6
   134          6
   135          3
   136          1
   137          2
   138          0
   139          1
   140          3
   141         12
   142         16
   143          8
   144          1
   145          3
   146          2
   147          7
   148          1
   149          5
   150          5
   151          2
   152          1
   153          0
   155          0
   156          2
   157          3
   158         30
   159        127
   160         19
   161          4
   162          2
   163          1
   164          0
   165          1
   166          1
   167          0
   168          0
   169          0
   171          0
   173          0
   174          0
   175          2
   176          0
   177          0
   178          4
   179         11
   180          2
   181          1
   186          0
   187          2
   188          0
   189          0
   191          0
   192          0
   193          0
   194          2
   195          5
   196         81
   197          8
   198          4
   199          0
   205          1
   206          0
   207          0
   208          0
   209          1
   210          0
   211          1
   212          4
   213          0
   214          2
   215          0
   216          0
   222          8
   223         10
   224         25
   225          3
   226          1
   227          0
   240         65
   241          8
   242          4
   243          0
   250          0
   251          0
   252          0
   253          0
   258          2
   259          0
   260          1
   261          0
   266          0
   268         32
   269          4
   270          2
   271          0