##TITLE=Library Entry 87673
##JCAMP-DX=Revision 4.10 
##DATA TYPE=MASS SPECTRUM
##SAMPLE DESCRIPTION=Chemical Concepts
##NAMES=HP
##CAS NAME=n-Decyl(phenyl)sulfide
##MOLFORM=C16H26S
##CAS REGISTRY NO=13910-18-4
##MP= -300
##BP= -300
##MW= 250
##$RETENTION INDEX=0
##$CONDENSED SPECTRUM=NO
##NPOINTS= 96
##XYDATA=(XY..XY) 1 
    26          3
    27         30
    28          8
    29         49
    39         37
    40          4
    41        164
    42         18
    43        163
    44          7
    45         56
    46          2
    47          5
    50          4
    51         20
    52          3
    53         13
    54          7
    55        123
    56         23
    57        119
    58          6
    59          6
    61          2
    63          3
    65         38
    66         22
    67         18
    68          6
    69         60
    70         17
    71         52
    72          2
    73          2
    74          2
    75          2
    76          3
    77         43
    78         10
    79         18
    81          9
    82          6
    83         28
    84         10
    85         45
    86          3
    87          3
    91         22
    92          3
    93          2
    95          6
    96          2
    97         13
    98          3
    99          5
   103          3
   104          5
   105          4
   107          2
   108          8
   109        116
   110        999
   111         96
   112         60
   113          4
   115          4
   116          2
   117          5
   121          5
   122          2
   123        196
   124         29
   125         12
   129          2
   135         29
   136          4
   137         36
   138          2
   139          2
   141          3
   151          6
   165         17
   166          2
   167          5
   168          2
   173          4
   179          3
   185          3
   186          3
   222          3
   235          2
   249         10
   250        646
   251        109
   252         37
   253          6