##TITLE=Library Entry 99937
##JCAMP-DX=Revision 4.10 
##DATA TYPE=MASS SPECTRUM
##SAMPLE DESCRIPTION=Japan AIST/NIMC Database- Spectrum MS-IW-3954
##NAMES=HP
##CAS NAME=1-Phenylbiuret
##MOLFORM=C8H9N3O2
##CAS REGISTRY NO=13911-40-5
##MP= -300
##BP= -300
##MW= 179
##$RETENTION INDEX=0
##$CONDENSED SPECTRUM=NO
##NPOINTS= 82
##XYDATA=(XY..XY) 1 
    15          1
    16          5
    17         15
    18         28
    26          3
    27          8
    28         19
    29          6
    30          1
    31          1
    32          1
    37          9
    38         24
    39         68
    40         14
    41         16
    42         13
    43         61
    44        155
    45          6
    46          2
    49          2
    50         17
    51         39
    52         20
    53          5
    54          8
    55          1
    57          1
    59          8
    60         44
    61         10
    62         11
    63         43
    64         79
    65        149
    66        127
    67         12
    68          1
    69          1
    70         15
    73          1
    74          6
    75          4
    76          6
    77         47
    78          9
    79          2
    80          3
    85          2
    86          6
    87          7
    88          2
    89          1
    90          9
    91        169
    92         98
    93        736
    94         55
    95          2
   100          2
   105          1
   106          1
   107          3
   108          1
   118          3
   119        999
   120         94
   121          6
   134          2
   135         29
   136        106
   137         13
   138          1
   149          1
   161          1
   162         26
   163          2
   178          1
   179        552
   180         55
   181          4