##TITLE=Library Entry 40390
##JCAMP-DX=Revision 4.10 
##DATA TYPE=MASS SPECTRUM
##SAMPLE DESCRIPTION=P. Vainiotalo, Dep. Chem., Joensuu Univ., Joensuu, Finl
and
##NAMES=HP
##CAS NAME=1-Pyrazolidinecarbothioamide, N-(4-bromophenyl)-
##MOLFORM=C10H12BrN3S
##CAS REGISTRY NO=139192-96-4
##MP= -300
##BP= -300
##MW= 285
##$RETENTION INDEX=0
##$CONDENSED SPECTRUM=NO
##NPOINTS= 82
##XYDATA=(XY..XY) 1 
    14         54
    15         23
    16         23
    26         17
    27         62
    29         52
    30        122
    31         15
    34         11
    37         29
    38         39
    39         59
    40         63
    41         65
    42         84
    43        114
    44        478
    45         16
    49         15
    50        171
    51         53
    52         15
    56         20
    57         22
    61         18
    62         25
    63         73
    64         42
    65         15
    67         91
    68         11
    69         34
    70         37
    71        298
    72        999
    73         47
    74         80
    75        210
    76        157
    77         19
    80         20
    82         21
    83         13
    86         17
    87         17
    88         10
    89         31
    90        109
    91         26
    92         11
   102         49
   103         22
   106         56
   107         57
   108         24
   113         10
   133         18
   134        340
   135         58
   136         21
   155        159
   156         12
   157        154
   158         11
   171         21
   173         17
   181         17
   182         11
   183         18
   184         11
   188         16
   190         15
   213        667
   214         81
   215        696
   216         84
   217         52
   283         12
   285        100
   286         13
   287         89
   288         12