##TITLE=Library Entry 35117
##JCAMP-DX=Revision 4.10 
##DATA TYPE=MASS SPECTRUM
##SAMPLE DESCRIPTION=Chemical Concepts
##NAMES=HP
##CAS NAME=1-Bromo-11-iodoundecane
##MOLFORM=C11H22BrI
##CAS REGISTRY NO=139123-69-6
##MP= -300
##BP= -300
##MW= 360
##$RETENTION INDEX=0
##$CONDENSED SPECTRUM=NO
##NPOINTS= 170
##XYDATA=(XY..XY) 1 
    26          7
    27        191
    28         51
    29        249
    30          6
    38          5
    39        159
    40         31
    41        866
    42        137
    43        916
    44         34
    51         14
    52          5
    53         80
    54         49
    55        855
    56        143
    57        924
    58         54
    63          6
    64          6
    65         21
    66         11
    67         96
    68         37
    69        999
    70         99
    71        789
    72         48
    76          6
    77         22
    78         10
    79         23
    80         13
    81         63
    82         35
    83        692
    84         75
    85        639
    86         43
    91         21
    92          3
    93         12
    94          5
    95         46
    96         19
    97        812
    98         81
    99         71
   100          6
   103          3
   104          4
   105         24
   106          7
   107         53
   108          6
   109         50
   110         12
   111        299
   112         34
   113         22
   114          5
   115         10
   116          2
   117          5
   118          2
   119         25
   120         14
   121         44
   122          8
   123         45
   124          6
   125          9
   126         10
   127         16
   128         27
   129          6
   130          4
   131          9
   132          5
   133         11
   134          9
   135        289
   136         21
   137        264
   138         10
   139          5
   140         10
   141         13
   142          4
   145          5
   146          2
   147          5
   148         25
   149        168
   150         31
   151        110
   152         10
   153         87
   154         14
   155        151
   156          5
   157          1
   158          2
   159          4
   160          7
   161          3
   162         11
   163        124
   164         20
   165        143
   166          9
   167         12
   168          6
   169         85
   170          5
   175          4
   176          5
   177        165
   178         19
   179        160
   180         15
   181          7
   182          5
   183         92
   184          7
   185          6
   186          4
   189          4
   190          7
   191         97
   192         11
   193        107
   194         11
   195          5
   196          3
   197         60
   198          3
   210          5
   211         56
   212          5
   223          4
   224          3
   225         58
   226          5
   227          3
   232          4
   233        110
   234         15
   235         98
   236         14
   237          3
   238          5
   239         30
   240          6
   241          3
   262         24
   263          5
   264          3
   267          4
   279          3
   280          6
   281        104
   282         13
   283          2
   360          7
   361          2
   362          8
   363          2