##TITLE=Library Entry 39725
##JCAMP-DX=Revision 4.10 
##DATA TYPE=MASS SPECTRUM
##SAMPLE DESCRIPTION=P. Vainiotalo, Dep. Chem., Joensuu Univ., Joensuu, Finl
and
##NAMES=HP
##CAS NAME=1-Pyrazolidinecarbothioamide, N-(2-propenyl)-
##MOLFORM=C7H13N3S
##CAS REGISTRY NO=139192-94-2
##MP= -300
##BP= -300
##MW= 171
##$RETENTION INDEX=0
##$CONDENSED SPECTRUM=NO
##NPOINTS= 70
##XYDATA=(XY..XY) 1 
    14         33
    15         29
    16         13
    26         21
    27         95
    29         54
    30        341
    34         17
    38         13
    39        198
    40         36
    41        590
    42        137
    43        191
    44        601
    45         40
    46         12
    53         10
    54         46
    55         45
    56        338
    57         75
    58         37
    59         38
    60         88
    61         11
    67         23
    68         24
    69         52
    70         31
    71        533
    72        999
    73         48
    74         13
    81         19
    82         12
    83         14
    84         12
    86         85
    87         54
    88         15
    95         26
    96         11
    98         22
    99         65
   100         53
   101         91
   102         10
   111         13
   113         30
   114         11
   115        229
   116        154
   117         25
   127         41
   128        265
   129         23
   130         13
   138         80
   139         13
   141         94
   142         98
   143         13
   144         14
   154         27
   155         40
   156         42
   169         24
   171         38
   172          3