##TITLE=Library Entry 48924
##JCAMP-DX=Revision 4.10 
##DATA TYPE=MASS SPECTRUM
##SAMPLE DESCRIPTION=CHBEAM, 112(6)2012(1979); R. HERBERT AND M. CHRISTL
##NAMES=HP
##CAS NAME=1,3-Methanopentalene, octahydro-
##MOLFORM=C9H14
##CAS REGISTRY NO=13913-22-9
##MP= -300
##BP= -300
##MW= 122
##$RETENTION INDEX=0
##$CONDENSED SPECTRUM=NO
##NPOINTS= 12
##XYDATA=(XY..XY) 1 
    39        270
    41        230
    53        210
    67        470
    79        999
    80        750
    81        800
    93        620
    94        410
   107        190
   121         40
   122         10