##TITLE=Library Entry 43096
##JCAMP-DX=Revision 4.10 
##DATA TYPE=MASS SPECTRUM
##SAMPLE DESCRIPTION=O A MAMER, MCGILL UNIVERSITY, MONTRE
##NAMES=HP
##CAS NAME=Methyl L-alaninate, 2TMS derivative
##MOLFORM=C10H25NO2Si2
##CAS REGISTRY NO=139215-59-1
##MP= -300
##BP= -300
##MW= 247
##$RETENTION INDEX=0
##$CONDENSED SPECTRUM=NO
##NPOINTS= 146
##XYDATA=(XY..XY) 1 
    11          3
    18          2
    26         11
    27         35
    28         89
    29         37
    30         16
    31         30
    32          2
    33          4
    35          5
    38          2
    39         16
    40          5
    41        115
    42         31
    43        101
    44         76
    45        230
    46         20
    47         23
    48          3
    49          6
    51          3
    52          5
    53          5
    54         23
    55         42
    56        229
    57         52
    58         44
    59        297
    60         34
    61        102
    62          5
    63          6
    66          3
    67          3
    68          9
    69          5
    70         19
    71         15
    72         38
    73        999
    74        105
    75        177
    76         13
    77          9
    79          5
    80          2
    81          2
    82         20
    83          9
    84        549
    85         39
    86         26
    87         16
    88         11
    89        298
    90         28
    91         21
    95          3
    96          4
    97          3
    98        176
    99         24
   100         78
   101         13
   102         10
   103          6
   104          2
   105         38
   106          4
   107          3
   110          3
   112         12
   113          7
   114         46
   115         11
   116         18
   117          4
   118          3
   121          3
   126          5
   127          3
   128        148
   129         32
   130         55
   131         10
   132          5
   133          2
   140         34
   141          8
   142         13
   143          5
   144         35
   145         16
   146         20
   147         10
   148          2
   154          4
   156         86
   157         14
   158         45
   159          6
   160        139
   161         57
   162         13
   163          3
   168          2
   172        137
   173         22
   174         16
   175          3
   176        116
   177         17
   178         12
   186          4
   187          9
   188        754
   189        106
   190         38
   191          5
   192         12
   193          2
   200         17
   201          3
   203          3
   204         17
   205          3
   207          4
   215          7
   216         72
   217         13
   218          8
   220         12
   221          4
   232         59
   233         10
   234          3
   235          3
   236          0
   237          0
   247         66
   248         11
   249          4