##TITLE=Library Entry 43678
##JCAMP-DX=Revision 4.10 
##DATA TYPE=MASS SPECTRUM
##SAMPLE DESCRIPTION=Chemical Concepts
##NAMES=HP
##CAS NAME=L-Phenylalanine, 3TMS derivative
##MOLFORM=C18H35NO2Si3
##CAS REGISTRY NO=139215-60-4
##MP= -300
##BP= -300
##MW= 381
##$RETENTION INDEX=0
##$CONDENSED SPECTRUM=NO
##NPOINTS= 174
##XYDATA=(XY..XY) 1 
    24          0
    28          2
    29          4
    31          6
    39          1
    43         16
    44         10
    45        186
    46         12
    47         10
    48          0
    50          0
    51          1
    57          0
    58         16
    59         77
    60          3
    61          3
    62          0
    63          0
    64          0
    65         15
    66          0
    70          1
    73        999
    74        101
    75         55
    76          1
    77          3
    84          3
    85          1
    86          5
    87          3
    88          0
    89          2
    91        130
    92         11
    99          2
   100        141
   101         17
   102          9
   103         18
   104          3
   105          4
   107          0
   113          3
   114          5
   115          6
   116          4
   117         14
   118          2
   119          7
   120          2
   121         25
   122          2
   129          2
   130         29
   131         34
   132          9
   133         54
   134          8
   135         12
   136          0
   142          1
   144          1
   145          5
   146          8
   147        279
   148         50
   149         58
   150          6
   151          2
   156          0
   157          0
   158          6
   159          1
   160         23
   161          9
   162          2
   163          2
   166          0
   172         74
   173         15
   174         15
   175          7
   176        219
   177         36
   178          9
   179          1
   186          0
   187          1
   188          6
   189          4
   190         82
   191        206
   192         58
   193         23
   194          3
   195          0
   200          1
   201          0
   202          6
   203          0
   204         17
   205          3
   206          2
   207          0
   209          0
   216          0
   218         11
   219          2
   220          0
   223          0
   230          0
   232          5
   233          1
   234          3
   235          3
   244          0
   246         55
   247         13
   248          9
   249          1
   250          4
   251          2
   252          0
   260          3
   261          3
   262          2
   264        937
   265        258
   266         90
   267         30
   268          4
   269          1
   275         59
   276         16
   277          7
   278          3
   279          0
   280          0
   285          0
   286          1
   288          3
   290        551
   291        199
   292         87
   293         19
   294          4
   295          0
   308          0
   312          0
   322          0
   336          0
   338        252
   339         86
   340         29
   341          6
   342          1
   343          0
   346          0
   350          1
   351          0
   352          1
   356          0
   364          2
   366        120
   367         46
   368         22
   369          4
   370          0
   371          0
   380          0
   381          0