##TITLE=Library Entry 45559
##JCAMP-DX=Revision 4.10 
##DATA TYPE=MASS SPECTRUM
##SAMPLE DESCRIPTION=Chemical Concepts
##NAMES=HP
##CAS NAME=Ethanol, 2-[(triethylsilyl)oxy]-
##MOLFORM=C8H20O2Si
##CAS REGISTRY NO=139217-98-4
##MP= -300
##BP= -300
##MW= 176
##$RETENTION INDEX=0
##$CONDENSED SPECTRUM=NO
##NPOINTS= 89
##XYDATA=(XY..XY) 1 
    23          0
    24          0
    26          7
    27         26
    28         19
    29         18
    30          2
    31         39
    32          4
    33          2
    39          2
    40          0
    41          3
    42          3
    43         35
    44          7
    45        105
    46          7
    47        167
    48          8
    49          6
    50          0
    51          0
    53          4
    54          1
    55         14
    56         11
    57         37
    58         60
    59        108
    60         16
    61         34
    62          4
    63         21
    64          1
    65          0
    66          0
    67          0
    69          0
    70          0
    71          5
    72          2
    73         24
    74         18
    75        999
    76         69
    77         34
    78          1
    79          0
    80          0
    81          0
    82          0
    83          1
    84          0
    85          4
    86         10
    87        119
    88         35
    89         27
    90          4
    91         10
    92          0
    93          0
    99          0
   100          0
   101          7
   103        939
   104         84
   105         34
   106          1
   113          0
   114          1
   115         63
   116          9
   117         99
   118         10
   119         48
   120          4
   121          2
   129          3
   130          0
   131          0
   132          0
   133          0
   145          2
   147        214
   148         25
   149          9
   150          0