##TITLE=Library Entry 85272
##JCAMP-DX=Revision 4.10 
##DATA TYPE=MASS SPECTRUM
##SAMPLE DESCRIPTION=Japan AIST/NIMC Database- Spectrum MS-NW-7129
##NAMES=HP
##CAS NAME=2-Isobutyl-3-methylpyrazine
##MOLFORM=C9H14N2
##CAS REGISTRY NO=13925-06-9
##MP= -300
##BP= -300
##MW= 150
##$RETENTION INDEX=1134
##$CONDENSED SPECTRUM=NO
##NPOINTS= 67
##XYDATA=(XY..XY) 1 
    14          1
    15         12
    26         35
    27         64
    28         14
    29         10
    30          2
    37          3
    38         11
    39         92
    40         46
    41         96
    42         82
    43         61
    44          3
    50          7
    51         14
    52         28
    53         37
    54         12
    55          6
    56          4
    57          3
    59          2
    60          9
    62          1
    63          2
    64          6
    65         10
    66         30
    67         97
    68         17
    69          3
    76          1
    77          5
    78          5
    79          7
    80         20
    81         12
    82         19
    83          2
    91          2
    92          3
    93         37
    94         21
    95          9
   104          1
   105          2
   106          5
   107        102
   108        999
   109         75
   110          3
   118          2
   119         10
   120          3
   121          6
   122          3
   131          1
   132          2
   133          9
   134          3
   135        141
   136         13
   149         35
   150         37
   151          4