##TITLE=Library Entry 22716
##JCAMP-DX=Revision 4.10 
##DATA TYPE=MASS SPECTRUM
##SAMPLE DESCRIPTION=Institute of Organic Chemistry, USSR, 1990
##NAMES=HP
##CAS NAME=12,16-Dinydroxy-4,7,20-trioxa-14-thia-1,10-diazabicyclo[8.7.5]-do
cosane
##MOLFORM=C16H32N2O5S
##CAS REGISTRY NO=139336-50-8
##MP= -300
##BP= -300
##MW= 364
##$RETENTION INDEX=0
##$CONDENSED SPECTRUM=NO
##NPOINTS= 184
##XYDATA=(XY..XY) 1 
    54         67
    55        300
    56        999
    57        567
    58        433
    59         60
    67        107
    68        114
    69        300
    70        467
    71        400
    72        227
    73        217
    82        217
    83        267
    84        200
    85        333
    86        300
    87         57
    88        533
    89         67
    90         11
    91        300
    92         40
    96        127
    97        217
    98        147
    99        133
   100        900
   101        267
   102        233
   103         37
   110         67
   111        157
   112        187
   113         70
   114        700
   115        150
   116         90
   117         23
   124         70
   125         53
   126         90
   127        177
   128         67
   129        143
   130         57
   131        183
   132         43
   133        173
   134         47
   135        400
   136         73
   142         67
   143         73
   144        317
   145        110
   146        567
   147         60
   156         50
   157        150
   158        100
   159         50
   160        140
   161         23
   162        217
   163         43
   164        200
   165         33
   170         57
   171         33
   172         53
   173         40
   174         37
   175         33
   176         90
   177         18
   178         28
   179         21
   185         28
   186         50
   187         53
   188         80
   189         33
   190         43
   199         28
   200         20
   201         43
   202         33
   203         17
   204         30
   205         12
   206         87
   207         13
   213         33
   214         20
   215         50
   216         27
   217         47
   218         21
   219         38
   220         77
   221         13
   226          5
   227         30
   228         30
   229         57
   230         16
   231        127
   232         25
   233         30
   234         30
   235          8
   242          7
   243        197
   244         43
   245        400
   246         80
   247         20
   255         30
   256          8
   257         83
   258         15
   259         53
   260         13
   261         27
   262         30
   263         25
   264        190
   265         30
   266         20
   269        113
   270         23
   271        100
   272         18
   273         33
   274          8
   275         83
   276         23
   277         67
   278         53
   279         20
   285         25
   286          7
   287         57
   288         33
   289        117
   290         23
   291         30
   292          8
   301         11
   302         27
   303        117
   304         24
   305         14
   312          8
   313         67
   314         13
   315         18
   316          8
   317         13
   318          9
   319         23
   320         40
   321         37
   322         16
   331         17
   332          5
   333         45
   334         12
   335          6
   336         23
   337          7
   338          3
   345          5
   346        250
   347         67
   348         23
   349          9
   362         26
   363         30
   364         35
   365         17
   366          5