##TITLE=Library Entry 37340
##JCAMP-DX=Revision 4.10 
##DATA TYPE=MASS SPECTRUM
##SAMPLE DESCRIPTION=V.Zaikin,Inst.Petrochem.Synth.,RAS,Moscow
##NAMES=HP
##CAS NAME=5-Bromopentanoic acid, 3-methylbutyl ester
##MOLFORM=C10H19BrO2
##CAS REGISTRY NO=13931-40-3
##MP= -300
##BP= -300
##MW= 250
##$RETENTION INDEX=0
##$CONDENSED SPECTRUM=NO
##NPOINTS= 77
##XYDATA=(XY..XY) 1 
    26         25
    27        197
    28         26
    29        196
    30          4
    39        136
    40         31
    41        290
    42        190
    43        524
    44         12
    50         10
    51         15
    52         13
    53         40
    54         31
    55        810
    56         84
    57         50
    58         11
    59         24
    60          7
    65          3
    67          5
    68          8
    69         53
    70        999
    71        401
    72         25
    73         43
    74          5
    78          3
    79         15
    81          4
    82         10
    83         58
    84          3
    85         13
    86          3
    87         11
    91          9
    93          9
    95          8
    99         12
   100         53
   101        170
   102         12
   105          4
   106          3
   107         14
   108          3
   109         15
   113          2
   115         14
   119          6
   121          3
   135         89
   136          6
   137         81
   138          3
   141          4
   162          6
   163        119
   164         10
   165        122
   166          4
   169          2
   170          2
   171          3
   180          8
   181         18
   182          9
   183         21
   184          3
   192          3
   207         12
   209         13