##TITLE=Library Entry 66991
##JCAMP-DX=Revision 4.10 
##DATA TYPE=MASS SPECTRUM
##SAMPLE DESCRIPTION=V.Zaikin,Inst.Petrochem.Synth.,RAS,Moscow
##NAMES=HP
##CAS NAME=5-Bromopentanoic acid, phenyl ester
##MOLFORM=C11H13BrO2
##CAS REGISTRY NO=13931-45-8
##MP= -300
##BP= -300
##MW= 256
##$RETENTION INDEX=0
##$CONDENSED SPECTRUM=NO
##NPOINTS= 98
##XYDATA=(XY..XY) 1 
    25          3
    26         31
    27        152
    28         13
    29        107
    30          3
    39        220
    40         37
    41        104
    42         46
    43         14
    50         34
    51         71
    52         22
    53         48
    54         16
    55        905
    56         58
    57          7
    60          2
    61          3
    62         11
    63         37
    64         17
    65        139
    66         48
    67          7
    68          5
    69          7
    70          3
    71          3
    73          5
    74          7
    75          6
    76          4
    77         83
    78         16
    79         22
    80          8
    81          5
    82          6
    83         41
    84          3
    88          7
    89          2
    90          4
    91         54
    92          6
    93         29
    94        999
    95        114
    96          9
    97          2
    99          2
   100          2
   101          4
   103          2
   104          5
   105          9
   106          6
   107         32
   108        152
   109         17
   111          3
   112          3
   117          2
   118          2
   119         40
   120          7
   121         15
   122          3
   128          9
   129          2
   130          5
   131          2
   133          3
   134          5
   135        134
   136          9
   137        125
   138          7
   149          4
   161          3
   162         23
   163        150
   164         29
   165        143
   166          9
   175          3
   176          6
   177          4
   178          2
   226          2
   228          2
   256         22
   257          3
   258         25
   259          3