##TITLE=Library Entry 7429
##JCAMP-DX=Revision 4.10 
##DATA TYPE=MASS SPECTRUM
##SAMPLE DESCRIPTION=V.Zaikin,Inst.Petrochem.Synth.,RAS,Moscow
##NAMES=HP
##CAS NAME=5-Bromopentanoic acid, isopropyl ester
##MOLFORM=C8H15BrO2
##CAS REGISTRY NO=13931-38-9
##MP= -300
##BP= -300
##MW= 222
##$RETENTION INDEX=0
##$CONDENSED SPECTRUM=NO
##NPOINTS= 83
##XYDATA=(XY..XY) 1 
    25          4
    26         45
    27        344
    28         22
    29        149
    30          5
    39        191
    40         51
    41        391
    42        259
    43        999
    44         83
    50         13
    51         24
    52         28
    53         38
    54         29
    55        623
    56         89
    57         29
    58         13
    59        279
    60         24
    62          2
    63          6
    65          2
    68         13
    69          6
    70          7
    71          5
    72          5
    73        124
    74         12
    75          3
    77          3
    78          6
    79         32
    80          3
    81          6
    82          9
    83        130
    84          9
    87          8
    91          6
    93          9
    95         12
    99          9
   100         38
   101        472
   102         27
   103          3
   104          3
   105          2
   106          5
   107         18
   108          3
   109         12
   111          3
   112          2
   119          6
   121          3
   122          3
   125          2
   134          4
   135        122
   136         11
   137        115
   138          5
   142          2
   143          9
   152          2
   162          2
   163        203
   164         18
   165        191
   166         10
   180         71
   181        117
   182         68
   183        106
   184          5
   207          2
   209          3