##TITLE=Library Entry 21263
##JCAMP-DX=Revision 4.10 
##DATA TYPE=MASS SPECTRUM
##SAMPLE DESCRIPTION=Zaikin V.G., TIPS RAS, Moscow, Russia
##NAMES=HP
##CAS NAME=5-Bromovaleric acid, hexyl ester
##MOLFORM=C11H21BrO2
##CAS REGISTRY NO=13931-42-5
##MP= -300
##BP= -300
##MW= 264
##$RETENTION INDEX=1636
##$CONDENSED SPECTRUM=NO
##NPOINTS= 80
##XYDATA=(XY..XY) 1 
    26         19
    27        189
    28          3
    29        219
    30          4
    31         11
    36         10
    38          7
    39        117
    40         25
    41        365
    42        258
    43        684
    44         32
    45         10
    50          3
    51          7
    52          5
    53         48
    54         54
    55        999
    56        725
    57        122
    58         10
    59         63
    60          6
    67         21
    68         10
    69        273
    70         23
    71         11
    73        109
    74          8
    79          8
    80         12
    81         11
    82         26
    83        279
    84        798
    85        141
    86          6
    87         12
    93          7
    95          8
    98          5
    99         30
   100         24
   101        802
   102         42
   103          5
   106          5
   107         26
   108          5
   109         26
   111          9
   128          3
   129         68
   130          4
   135        245
   136         11
   137        238
   138          9
   155          6
   157          5
   162          6
   163        393
   164         25
   165        382
   166         19
   167          7
   180         52
   181        346
   182         63
   183        330
   184         17
   185         13
   207          5
   209          4
   221          5
   223          4