##TITLE=Library Entry 37370
##JCAMP-DX=Revision 4.10 
##DATA TYPE=MASS SPECTRUM
##SAMPLE DESCRIPTION=Zaikin V.G., TIPS RAS, Moscow, Russia
##NAMES=HP
##CAS NAME=5-Bromovaleric acid, pentyl ester
##MOLFORM=C10H19BrO2
##CAS REGISTRY NO=13931-41-4
##MP= -300
##BP= -300
##MW= 250
##$RETENTION INDEX=1538
##$CONDENSED SPECTRUM=NO
##NPOINTS= 78
##XYDATA=(XY..XY) 1 
    26         19
    27        164
    28          3
    29        212
    30          5
    31         11
    36         12
    38          8
    39        108
    40         21
    41        276
    42        313
    43        460
    44         26
    45         13
    50          3
    51          6
    52          4
    53         40
    54         33
    55        933
    56         70
    57         35
    58          9
    59         68
    60          7
    67          8
    68          7
    69         91
    70        999
    71        161
    72          7
    73        131
    74         10
    79          4
    80         10
    81          7
    82         15
    83        261
    84         19
    85         22
    87         24
    93          9
    95          8
    99         13
   100         21
   101        832
   102         47
   103          5
   106          6
   107         29
   108          6
   109         28
   111          4
   115         22
   129         21
   135        276
   136         14
   137        267
   138         11
   141          9
   143          9
   153          7
   162          7
   163        532
   164         37
   165        527
   166         29
   171         13
   180         73
   181        454
   182         94
   183        452
   184         25
   207          6
   209          6
   221          6
   223          6