##TITLE=Library Entry 30500
##JCAMP-DX=Revision 4.10 
##DATA TYPE=MASS SPECTRUM
##SAMPLE DESCRIPTION=B.F.G.JOHNSON, DEPT. OF CHEM., UNIV. OF MANCHESTER, UK
##NAMES=HP
##CAS NAME=Cobalt, di-.mu.-chlorotetranitrosyldi-
##MOLFORM=Cl2Co2N4O4
##CAS REGISTRY NO=13931-93-6
##MP= -300
##BP= -300
##MW= 308
##$RETENTION INDEX=0
##$CONDENSED SPECTRUM=NO
##NPOINTS= 10
##XYDATA=(XY..XY) 1 
    59        999
    89        100
    94        620
   124        820
   154        690
   188         80
   218         30
   248         50
   278         40
   308         10