##TITLE=Library Entry 39523
##JCAMP-DX=Revision 4.10 
##DATA TYPE=MASS SPECTRUM
##SAMPLE DESCRIPTION=P. Vainiotalo, Dep. Chem., Joensuu Univ., Joensuu, Finl
and
##NAMES=HP
##CAS NAME=1-Pyrazolidinecarboxylic acid, 2-[N-(4-bromophenyl)thiocarbamoyl]
-, ethyl ester
##MOLFORM=C13H16BrN3O2S
##CAS REGISTRY NO=139325-48-7
##MP= -300
##BP= -300
##MW= 357
##$RETENTION INDEX=0
##$CONDENSED SPECTRUM=NO
##NPOINTS= 89
##XYDATA=(XY..XY) 1 
    14         45
    15         29
    16         19
    26         24
    27        110
    29        190
    30        193
    31        105
    37         28
    38         35
    39         56
    40         53
    41         71
    42        168
    43         79
    44        200
    45         73
    46         32
    49         14
    50        163
    51         49
    52         12
    54         19
    56         53
    57         15
    58         14
    59         11
    60         11
    61         18
    62         26
    63         76
    64         41
    67         91
    69         29
    70         41
    71        999
    72         91
    73         19
    74         76
    75        204
    76        150
    77         14
    80         23
    81         12
    82         24
    83         16
    86         53
    87         14
    88         15
    90        128
    91         16
    97         17
    99         19
   102         59
   106         60
   107         61
   108         20
   113         11
   114        146
   115         12
   116        119
   133         19
   134        356
   135         46
   136         20
   144        432
   145         35
   155        167
   156         14
   157        165
   158         11
   171         13
   181         18
   183         19
   197         19
   199         37
   213        808
   214         84
   215        828
   216         85
   217         41
   225         12
   227         12
   310         19
   311        174
   312         44
   313        181
   314         27
   315         10