##TITLE=Library Entry 22333
##JCAMP-DX=Revision 4.10 
##DATA TYPE=MASS SPECTRUM
##SAMPLE DESCRIPTION=V.Zaikin,Inst.Petrochem.Synth.,RAS,Moscow
##NAMES=HP
##CAS NAME=5-Bromopentanoic acid, 2-methylpropyl ester
##MOLFORM=C9H17BrO2
##CAS REGISTRY NO=13931-39-0
##MP= -300
##BP= -300
##MW= 236
##$RETENTION INDEX=0
##$CONDENSED SPECTRUM=NO
##NPOINTS= 93
##XYDATA=(XY..XY) 1 
    25          3
    26         38
    27        276
    28         52
    29        350
    30         10
    39        172
    40         39
    41        437
    42        109
    43        141
    44          8
    50          9
    51         20
    52         19
    53         39
    54         31
    55        821
    56        999
    57        592
    58         38
    59         37
    60          8
    65          3
    67          4
    68         11
    69          4
    70          5
    71         22
    72          7
    73        111
    74         10
    77          4
    78          3
    79         14
    80          3
    81          5
    82         10
    83         84
    84          5
    85          4
    86          3
    87         10
    89          3
    90          2
    91         11
    93         11
    95          9
    97          3
    98          3
    99         14
   100         58
   101        270
   102         18
   105          3
   106          6
   107         16
   108          5
   109         17
   112          3
   113          4
   114          3
   118          3
   119         14
   121          5
   127         30
   128          3
   133          2
   134          2
   135        161
   136         13
   137        159
   138          7
   156          8
   157          6
   159          4
   161          4
   162         11
   163        392
   164         31
   165        374
   166         19
   167          4
   174          4
   176          3
   180         34
   181         66
   182         37
   183         61
   184          3
   193          3
   195          3
   196          3