##TITLE=Library Entry 257
##JCAMP-DX=Revision 4.10 
##DATA TYPE=MASS SPECTRUM
##SAMPLE DESCRIPTION=D.HENNEBERG, MAX-PLANCK INSTITUTE, MULHEIM, WEST GERMAN
Y
##NAMES=HP
##CAS NAME=Molybdenum hexacarbonyl
##MOLFORM=C6MoO6
##CAS REGISTRY NO=13939-06-5
##MP= -300
##BP= -300
##MW= 266
##$RETENTION INDEX=0
##$CONDENSED SPECTRUM=NO
##NPOINTS= 150
##XYDATA=(XY..XY) 1 
    26          2
    27          3
    28        999
    29         23
    30          4
    32          8
    39          0
    40         16
    41          1
    42          0
    43          1
    44          2
    46          3
    48          3
    49          5
    50          1
    52          1
    54          1
    55          2
    56          1
    57          0
    58          0
    60         22
    62         24
    63         33
    64         13
    66          6
    67          4
    68          8
    69         12
    70          5
    71          0
    74         19
    76         22
    77         31
    78         13
    80          0
    82          1
    83          1
    84          0
    88         12
    90         14
    91         20
    92        115
    94         63
    95        115
    96        122
    97         64
    98        174
   100         66
   102          1
   103          1
   104         23
   105          2
   106         14
   107         24
   108         33
   109         14
   110         41
   111          7
   112         22
   114          9
   116          7
   117          1
   118          2
   119          4
   120         81
   121          1
   122         50
   123         84
   124         91
   125         51
   126        136
   127          1
   128         51
   129          0
   130          2
   131          1
   132          7
   133          2
   134          4
   135          5
   136          5
   137          3
   138          7
   139          0
   140          3
   142          1
   144          0
   148         83
   149          1
   150         50
   151         87
   152        104
   153         55
   154        142
   155          3
   156         54
   157          1
   160          0
   162          0
   163          1
   164          1
   165          0
   166          1
   168          0
   176         98
   177          3
   178         59
   179        111
   180        114
   181         64
   182        168
   183          5
   184         62
   185          2
   186          0
   191          0
   192          0
   194          0
   204          9
   205          0
   206          7
   207         11
   208         13
   209          8
   210         19
   211          1
   212          8
   213          0
   232          8
   233          0
   234          4
   235          9
   236          9
   237          5
   238         14
   239          0
   240          5
   260         48
   261          3
   262         29
   263         51
   264         60
   265         35
   266         81
   267          6
   268         32
   269          2
   270          0