##TITLE=Library Entry 21247
##JCAMP-DX=Revision 4.10 
##DATA TYPE=MASS SPECTRUM
##SAMPLE DESCRIPTION=Zaikin V.G., TIPS RAS, Moscow, Russia
##NAMES=HP
##CAS NAME=5-Bromovaleric acid, octyl ester
##MOLFORM=C13H25BrO2
##CAS REGISTRY NO=13931-44-7
##MP= -300
##BP= -300
##MW= 292
##$RETENTION INDEX=1823
##$CONDENSED SPECTRUM=NO
##NPOINTS= 94
##XYDATA=(XY..XY) 1 
    26         17
    27        153
    28          3
    29        249
    30          5
    31          9
    36         11
    38          7
    39        104
    40         22
    41        446
    42        235
    43        444
    44         25
    45          8
    50          3
    51          6
    52          3
    53         49
    54         64
    55        999
    56        545
    57        458
    58         23
    59         50
    60          5
    65          3
    66          3
    67         46
    68        107
    69        371
    70        647
    71        321
    72         17
    73         88
    74          7
    79         10
    80         11
    81         22
    82        128
    83        608
    84        459
    85         36
    87         10
    93          6
    95         10
    97         59
    98          6
    99         17
   100         27
   101        797
   102         46
   103          7
   106          5
   107         27
   108          5
   109         27
   110          7
   111         21
   112        525
   113         54
   127         13
   129         11
   133          3
   135        272
   136         14
   137        268
   138         12
   139          7
   157         53
   158          5
   162          9
   163        421
   164         34
   165        420
   166         23
   180         71
   181        567
   182         99
   183        537
   184         31
   185          3
   191          3
   193          4
   195          7
   207          7
   209          6
   213         25
   214          3
   220          3
   221         10
   223         11
   236          7
   238          6