##TITLE=Library Entry 80238
##JCAMP-DX=Revision 4.10 
##DATA TYPE=MASS SPECTRUM
##SAMPLE DESCRIPTION=Exported from NIST MS Search
##NAMES=HP
##CAS NAME=s-Triazolo[4,3-a]pyridine, 3,8-dimethyl-
##MOLFORM=C8H9N3
##CAS REGISTRY NO=13936-48-6
##MP= -300
##BP= -300
##MW= 147
##$RETENTION INDEX=0
##$CONDENSED SPECTRUM=NO
##NPOINTS= 19
##XYDATA=(XY..XY) 1 
    39        410
    41        200
    42        150
    50        150
    51        270
    52        290
    53        150
    65        120
    76        100
    77         60
    78        290
    79        770
    80        120
   104        100
   105        999
   106        290
   146         60
   147        710
   148        100