##TITLE=Library Entry 87437
##JCAMP-DX=Revision 4.10 
##DATA TYPE=MASS SPECTRUM
##SAMPLE DESCRIPTION=D.H.WILLIAMS CHEMISTRY DEPT., UNIVERSITY OF CAMBRIDGE
##NAMES=HP
##CAS NAME=Pyrrolidine, 1-(1-butenyl)-
##MOLFORM=C8H15N
##CAS REGISTRY NO=13937-89-8
##MP= -300
##BP= -300
##MW= 125
##$RETENTION INDEX=0
##$CONDENSED SPECTRUM=NO
##NPOINTS= 62
##XYDATA=(XY..XY) 1 
    26         15
    27         70
    28         41
    29         50
    30         30
    37         10
    38         10
    39         60
    40         20
    41        160
    42         60
    43        100
    44         15
    50         10
    51         10
    52         10
    53         40
    54         50
    55        110
    56         30
    57         30
    65         10
    66         10
    67         30
    68         75
    69         50
    70        120
    71         60
    72         10
    77         10
    78         10
    79         10
    80         30
    81         40
    82         40
    83         20
    84         20
    85         15
    91         10
    93         10
    94         20
    95         25
    96         80
    97         30
    98          5
    99          5
   106         10
   107         10
   108         40
   109         20
   110        999
   111        100
   112         10
   113         10
   118          5
   120         10
   121         10
   122         15
   123         30
   124        130
   125        340
   126         30