##TITLE=Library Entry 21239
##JCAMP-DX=Revision 4.10 
##DATA TYPE=MASS SPECTRUM
##SAMPLE DESCRIPTION=Zaikin V.G., TIPS RAS, Moscow, Russia
##NAMES=HP
##CAS NAME=5-Bromovaleric acid, heptyl ester
##MOLFORM=C12H23BrO2
##CAS REGISTRY NO=13931-43-6
##MP= -300
##BP= -300
##MW= 278
##$RETENTION INDEX=1738
##$CONDENSED SPECTRUM=NO
##NPOINTS= 85
##XYDATA=(XY..XY) 1 
    26         16
    27        159
    28          3
    29        248
    30          6
    31          9
    36         10
    38          7
    39        109
    40         23
    41        437
    42        204
    43        306
    44         33
    45          9
    50          3
    51          6
    52          4
    53         49
    54         76
    55        999
    56        737
    57        665
    58         31
    59         56
    60          5
    67         24
    68         91
    69        362
    70        630
    71         49
    73         95
    74          7
    79          8
    80         12
    81         23
    82         21
    83        284
    84         21
    85          9
    87         11
    93          7
    95         10
    96          9
    97         48
    98        685
    99         67
   100         26
   101        821
   102         47
   103          6
   106          5
   107         29
   108          6
   109         27
   113         15
   115          7
   129         10
   135        275
   136         14
   137        269
   138         11
   139          3
   143         28
   157         15
   162          8
   163        457
   164         33
   165        453
   166         24
   169          7
   171          4
   180         71
   181        519
   182         96
   183        501
   184         27
   193          3
   199         22
   207          9
   209          9
   221         10
   223         10
   236          3
   238          3