##TITLE=Library Entry 77550
##JCAMP-DX=Revision 4.10 
##DATA TYPE=MASS SPECTRUM
##SAMPLE DESCRIPTION=Chemical Concepts
##NAMES=HP
##CAS NAME=4-Acetyl-2-phenyl-9,10-dihydro-2H,9aH-2,3,4a-triazaanthracen-1-on
e
##MOLFORM=C19H17N3O2
##CAS REGISTRY NO=139456-31-8
##MP= -300
##BP= -300
##MW= 319
##$RETENTION INDEX=0
##$CONDENSED SPECTRUM=NO
##NPOINTS= 197
##XYDATA=(XY..XY) 1 
    37          3
    38         12
    39         62
    40         12
    41         37
    42         14
    43        524
    44         21
    45         16
    46          6
    49          1
    50         19
    51         94
    52         29
    53         13
    54          8
    55         19
    56          4
    57         16
    58          4
    59          6
    60          6
    61          2
    62          7
    63         45
    64         84
    65         77
    66          8
    67          6
    68         12
    69         15
    70         17
    71         11
    72          2
    73          4
    74          5
    75         12
    76         21
    77        253
    78        195
    79         31
    80          2
    81          6
    82          4
    83          6
    84          2
    85          4
    86          3
    87          3
    88          4
    89         41
    90         16
    91        233
    92         35
    93         13
    94          2
    95          3
    96          2
    97          4
    98          2
    99          3
   100          1
   101         16
   102         45
   103        212
   104        999
   105        129
   106          7
   107          1
   108          0
   109          2
   110          2
   111          2
   112          1
   113          2
   114          5
   115        107
   116         49
   117         38
   118         21
   119         43
   120          6
   121          1
   122          0
   123          2
   124          1
   125          4
   126          2
   127          5
   128         43
   129         56
   130        774
   131        606
   132         86
   133          7
   134          0
   135          0
   136          1
   137          0
   138          0
   139          0
   140          3
   141          2
   142          7
   143          6
   144          3
   145          5
   146          1
   147          1
   148          0
   149          1
   150          0
   151          0
   152          1
   153          1
   154          1
   155         38
   156         13
   157         53
   158          8
   159          1
   160          1
   162          0
   163          0
   165          1
   166          0
   167          1
   168          1
   169          0
   170          1
   171          1
   172         16
   173         35
   174          4
   175          0
   177          0
   178          1
   179          1
   180          0
   181          0
   182          0
   183          2
   184          0
   185          1
   187          0
   188          1
   189          0
   191          0
   193          1
   194          1
   195          0
   198          2
   199         57
   200        294
   201         38
   202          4
   203          0
   204          1
   205          1
   206          5
   207          1
   216          0
   217          1
   218          2
   219          2
   220          0
   221          3
   222          1
   226          1
   227          2
   228          0
   229          0
   230          0
   231          1
   232          0
   233          0
   234          1
   245          0
   246          2
   247          2
   248         18
   249          5
   250          8
   251          1
   262          0
   274          1
   276         46
   277         10
   278          1
   288          0
   290          3
   291          0
   317          0
   318          2
   319         68
   320         16
   321          2