##TITLE=Library Entry 13898
##JCAMP-DX=Revision 4.10 
##DATA TYPE=MASS SPECTRUM
##SAMPLE DESCRIPTION=Chemical Concepts
##NAMES=HP
##CAS NAME=3-Acetyl-1-(4-acetylphenyl)-4,5-dihydro-1H-[1,2,4]triazin-6-one
##MOLFORM=C13H13N3O3
##CAS REGISTRY NO=139455-69-9
##MP= -300
##BP= -300
##MW= 259
##$RETENTION INDEX=0
##$CONDENSED SPECTRUM=NO
##NPOINTS= 125
##XYDATA=(XY..XY) 1 
    38         13
    39         49
    40         11
    41         38
    42         71
    43        999
    44         30
    45          8
    46          0
    49          0
    50         26
    51         26
    52         13
    53          7
    54          6
    55         49
    56         10
    57          8
    58          1
    59          5
    60          2
    61          2
    62         12
    63         64
    64         35
    65         24
    66          3
    67          2
    68          5
    69          6
    70          8
    71          2
    72          3
    73          2
    74          4
    75          8
    76         23
    77         35
    78         13
    79         12
    80          1
    81          2
    82          1
    83          4
    84         18
    85          2
    86          1
    87          3
    88          2
    89         12
    90         74
    91         43
    92         13
    93          3
    94          0
    95          1
    96          0
    97          1
    98          0
    99          0
   101          0
   102          3
   103          4
   104         18
   105          7
   106         19
   107          2
   108          2
   109          0
   110          0
   111          0
   112          0
   114          1
   115          1
   116          4
   117          8
   118         24
   119         20
   120         17
   121          1
   122          1
   125          0
   129          0
   130          0
   131          6
   132         17
   133         43
   134          5
   135          3
   136          0
   143          0
   144          1
   145         57
   146         44
   147          8
   148          1
   149          0
   159          0
   160         13
   161          2
   162          1
   172          2
   173          0
   174          2
   187         12
   188         38
   189          4
   191          0
   202          1
   212          4
   213          1
   214          0
   216         18
   217          2
   229          4
   230        229
   231         42
   232          4
   242          0
   244         44
   245          5
   246          0
   259        144
   260         23
   261          2