##TITLE=Library Entry 97240
##JCAMP-DX=Revision 4.10 
##DATA TYPE=MASS SPECTRUM
##SAMPLE DESCRIPTION=Chemical Concepts
##NAMES=HP
##CAS NAME=Pyruvamide, 3-phenyl-, 2-oxime
##MOLFORM=C9H10N2O2
##CAS REGISTRY NO=13942-61-5
##MP= -300
##BP= -300
##MW= 178
##$RETENTION INDEX=0
##$CONDENSED SPECTRUM=NO
##NPOINTS= 115
##XYDATA=(XY..XY) 1 
    26          4
    27         20
    28          7
    29          6
    30          3
    31          1
    33          1
    36          5
    37          7
    38         19
    39        102
    40         12
    41         34
    42          5
    43         14
    44        219
    45         15
    47          1
    49          3
    50         49
    51        108
    52         26
    53          9
    54          3
    55          8
    56          5
    57         12
    58          2
    59          5
    60          3
    61          9
    62         29
    63         86
    64         34
    65        168
    66         14
    67          3
    68          2
    69          4
    70          5
    71          6
    72          1
    73          5
    74         17
    75         17
    76         18
    77         74
    78         27
    79         13
    80          2
    81          3
    82          1
    83          5
    84          4
    85          3
    86          5
    87         12
    88         14
    89        140
    90        307
    91        613
    92         60
    93          5
    94          6
    95          3
    96          1
    97          4
    98          2
    99          2
   101          3
   102         18
   103         37
   104         16
   105         12
   106         18
   107         11
   108          2
   109          2
   110          1
   111          2
   113          1
   114          4
   115         14
   116        371
   117        999
   118        171
   119         11
   120          2
   123          1
   128          2
   129          4
   130          8
   131         11
   132          7
   133         62
   134         11
   135          2
   141          1
   142          1
   143         16
   144          9
   145          2
   146          7
   147          1
   149          7
   150          1
   153          1
   159          1
   160          2
   161         15
   162          5
   163          1
   178        241
   179         28
   180          3