##TITLE=Library Entry 51107
##JCAMP-DX=Revision 4.10 
##DATA TYPE=MASS SPECTRUM
##SAMPLE DESCRIPTION=Chemical Concepts
##NAMES=HP
##CAS NAME=3-Acetyl-1-(4-chlorophenyl)-5-(3H-imidazol-4-ylmethyl)-4,5-dihydr
o-1H-[1,2,4]triazin-6-one
##MOLFORM=C15H14ClN5O2
##CAS REGISTRY NO=139456-03-4
##MP= -300
##BP= -300
##MW= 331
##$RETENTION INDEX=0
##$CONDENSED SPECTRUM=NO
##NPOINTS= 286
##XYDATA=(XY..XY) 1 
    37         28
    38         55
    39        111
    40         35
    41         93
    42        116
    43        653
    44         61
    45         49
    46          8
    47          5
    48          3
    49         16
    50        128
    51         87
    52         49
    53         57
    54         94
    55        100
    56         34
    57         33
    58          6
    59          8
    60         37
    61         34
    62         52
    63        140
    64         77
    65        113
    66         38
    67         35
    68         55
    69         42
    70         18
    71         23
    72         13
    73         75
    74         68
    75        333
    76         85
    77         39
    78         10
    79         10
    80         15
    81        301
    82        999
    83         95
    84         20
    85         38
    86         10
    87         19
    88         15
    89         31
    90        117
    91         50
    92         73
    93         35
    94         34
    95         39
    96         69
    97         20
    98         30
    99        118
   100         49
   101         45
   102         47
   103         18
   104          8
   105          6
   106         12
   107         20
   108        169
   109         22
   110         36
   111        486
   112         47
   113        154
   114         18
   115         11
   116         10
   117         11
   118         15
   119          6
   120         21
   121         11
   122         12
   123          7
   124         29
   125        147
   126         99
   127        393
   128         55
   129        121
   130         12
   131         10
   132          6
   133         19
   134          6
   135         20
   136          8
   137         30
   138        619
   139         70
   140        210
   141         46
   142         50
   143         23
   144         13
   145          3
   146          2
   147          7
   148          3
   149          4
   150          6
   151         38
   152        102
   153         50
   154         45
   155         16
   156          6
   157          6
   158          4
   159          1
   160          1
   161          7
   162          3
   163          5
   164          7
   165         30
   166        126
   167         29
   168         53
   169         11
   170          7
   171          5
   172          2
   173          1
   174          1
   175          1
   176          1
   177         12
   178         19
   179         17
   180         30
   181         10
   182         11
   183          4
   184          1
   185          3
   186          1
   187          1
   188          1
   189          1
   190          1
   191          2
   192         16
   193        230
   194         35
   195         75
   196         12
   197          3
   198          4
   199          2
   200          2
   201          1
   202          1
   203          1
   204          6
   205          6
   206        187
   207         32
   208         69
   209         16
   210          5
   211          9
   212         21
   213          6
   214          7
   215          1
   216          1
   217          2
   218          2
   219          2
   220          4
   221        106
   222         39
   223         38
   224         13
   225          3
   226          2
   227          1
   228          2
   229          1
   230          1
   231          2
   232          5
   233         13
   234         12
   235         49
   236         16
   237         21
   238          5
   239          3
   240          0
   241          1
   242          1
   243          1
   244          1
   245          2
   246          2
   247          2
   248          4
   249         11
   250         33
   251         35
   252         16
   253         13
   254          4
   255          1
   256          3
   257          1
   258          1
   259          1
   260          2
   261          5
   262          5
   263          8
   264          6
   265          4
   266          2
   267          2
   268          1
   269          0
   270          0
   271          1
   272          2
   273          1
   274          2
   275          4
   276         15
   277          4
   278          4
   279          1
   280          0
   281          1
   282          0
   283          0
   284          1
   285          1
   286          1
   287          1
   288        143
   289         56
   290         56
   291         19
   292          3
   293          1
   294          0
   295          0
   296          0
   297          1
   298          0
   299          0
   300          0
   301          1
   302         10
   303          4
   304          4
   305          2
   306          1
   307          0
   308          0
   313          0
   314          1
   315          0
   316          1
   317          0
   318          0
   327          0
   329          4
   330         21
   331         99
   332         27
   333         34
   334          7
   335          1