##TITLE=Library Entry 46621
##JCAMP-DX=Revision 4.10 
##DATA TYPE=MASS SPECTRUM
##SAMPLE DESCRIPTION=A.A.Kutin, Moscow, Russia
##NAMES=HP
##CAS NAME=Benzoic acid, 2-(1H-tetrazol-5-yl)-
##MOLFORM=C8H6N4O2
##CAS REGISTRY NO=13947-58-5
##MP= -300
##BP= -300
##MW= 190
##$RETENTION INDEX=0
##$CONDENSED SPECTRUM=NO
##NPOINTS= 137
##XYDATA=(XY..XY) 1 
    33          0
    35          4
    36         32
    37         68
    38        188
    39        672
    40         47
    41         45
    42         26
    43         78
    44        245
    45        149
    46          6
    47          3
    48          0
    49         21
    50        473
    51        909
    52        310
    53        110
    54         12
    55         26
    56          7
    57         31
    58         24
    59          8
    60         24
    61         92
    62        385
    63        500
    64        161
    65         73
    66         29
    67          9
    68          3
    69          9
    70          1
    71          9
    72          2
    73         33
    74         63
    75        129
    76        356
    77        999
    78        224
    79         32
    80          3
    81          1
    82          1
    83          1
    84          2
    85         15
    86         46
    87         73
    88         91
    89        105
    90        115
    91         63
    92         26
    93          4
    94          0
    95          0
    96          0
    97          1
    98          1
    99          2
   100          3
   101          7
   102        106
   103         93
   104        385
   105        791
   106         73
   107          5
   108          0
   109          0
   110          0
   111          0
   112          0
   113          0
   114          0
   115          1
   116         24
   117         22
   118         47
   119          8
   120          0
   121          0
   122          0
   125          1
   126          0
   127          4
   128          3
   129          3
   130        132
   131         15
   132        150
   133         55
   134        277
   135         23
   136          1
   137          0
   138          0
   139          0
   143          0
   144         17
   145         22
   146        294
   147         38
   148          9
   149          0
   150          0
   151          0
   152          0
   155          0
   157          0
   158          0
   160          0
   161          0
   162        300
   163         37
   164          3
   165          0
   166          0
   167          0
   169          0
   171          0
   172          0
   173         40
   174          3
   177          0
   178          0
   189          0
   190        122
   191         62
   192          7
   193          0