##TITLE=Library Entry 14782
##JCAMP-DX=Revision 4.10 
##DATA TYPE=MASS SPECTRUM
##SAMPLE DESCRIPTION=Chemical Concepts
##NAMES=HP
##CAS NAME=3-Acetyl-1-(4-iodophenyl)-4,5-dihydro-1H-[1,2,4]triazin-6-one
##MOLFORM=C11H10IN3O2
##CAS REGISTRY NO=139455-68-8
##MP= -300
##BP= -300
##MW= 343
##$RETENTION INDEX=0
##$CONDENSED SPECTRUM=NO
##NPOINTS= 184
##XYDATA=(XY..XY) 1 
    38         40
    39        115
    40         24
    41         79
    42        114
    43        999
    44         43
    45         13
    46          0
    47          2
    48          2
    49          3
    50        110
    51         31
    52         19
    53         12
    54         12
    55        120
    56         39
    57         23
    58          4
    59         22
    60          7
    61         12
    62         45
    63        215
    64        125
    65         36
    66          5
    67          6
    68         10
    69         17
    70         14
    71          9
    72          9
    73          8
    74         27
    75         30
    76        158
    77         38
    78          9
    79          3
    80          1
    81          5
    82          3
    83         13
    84         35
    85          8
    86          3
    87          6
    88         13
    89         33
    90        302
    91         90
    92         28
    93          6
    94          1
    95          4
    96          3
    97          7
    98          5
    99          3
   100          8
   101          1
   102          6
   103          8
   104         16
   105          8
   106          2
   107          1
   108          0
   109          4
   110          6
   111          4
   112          2
   113          1
   114          3
   115          3
   116         26
   117         24
   118         58
   119         15
   120          3
   121          1
   122          1
   123          1
   124          1
   125          2
   126          1
   127         13
   128          6
   129          1
   130          1
   131          1
   132         10
   133          4
   134          0
   135          1
   136          1
   137          1
   138          0
   139          1
   140          0
   141          0
   142          0
   143          1
   144          9
   145         49
   146         19
   147          3
   148          0
   149          2
   150          0
   151          0
   152          0
   153          0
   155          0
   157          1
   158          0
   159          0
   160          0
   163          0
   164          0
   165          2
   166          0
   169          2
   171          0
   172          1
   173          1
   174          1
   177          0
   186          1
   187         35
   188          7
   189          1
   191         11
   192          1
   193          0
   203         39
   204          3
   206          0
   207          1
   210          0
   215          0
   216         15
   217        128
   218         43
   219         14
   220          1
   224          0
   230         18
   231         13
   232          3
   233          1
   235          0
   236          1
   243          9
   244         63
   245         53
   246         10
   247          1
   258          0
   271          1
   272         54
   273          5
   275          2
   279          0
   286          0
   290          1
   296          8
   297          1
   298          1
   300          1
   301          0
   313         13
   314        476
   315        108
   316         12
   317          1
   341          2
   342          1
   343        584
   344         77
   345          7