##TITLE=Library Entry 9694
##JCAMP-DX=Revision 4.10 
##DATA TYPE=MASS SPECTRUM
##SAMPLE DESCRIPTION=Chemical Concepts
##NAMES=HP
##CAS NAME=4-Acetyl-2-(4-chlorophenyl)-7,8,9,9a-tetrahydro-2H,6H-pyrido[1,2-
d][1,2,4]triazin-1-one
##MOLFORM=C15H16ClN3O2
##CAS REGISTRY NO=139456-27-2
##MP= -300
##BP= -300
##MW= 305
##$RETENTION INDEX=0
##$CONDENSED SPECTRUM=NO
##NPOINTS= 213
##XYDATA=(XY..XY) 1 
    37          7
    38         22
    39        146
    40         36
    41        320
    42        127
    43        999
    44         46
    45         22
    46          8
    47          1
    48          1
    49          4
    50         25
    51         26
    52         16
    53         77
    54        120
    55        480
    56        151
    57         21
    58         37
    59          5
    60          4
    61          5
    62         18
    63         81
    64         30
    65         30
    66         17
    67         95
    68        103
    69         37
    70         26
    71          8
    72          7
    73         16
    74          9
    75         83
    76         18
    77         10
    78          8
    79         10
    80         65
    81         39
    82        318
    83        573
    84        191
    85         17
    86         85
    87         12
    88          5
    89         29
    90        128
    91         21
    92         15
    93         10
    94          6
    95          4
    96          4
    97         21
    98         14
    99         38
   100         10
   101         21
   102          8
   103          5
   104          3
   105          4
   106          1
   107          6
   108         10
   109         67
   110         13
   111         86
   112         15
   113         27
   114          3
   115          2
   116          3
   117         11
   118          6
   119          3
   120          3
   121          0
   122          0
   123         21
   124         18
   125        227
   126         31
   127         93
   128         11
   129         11
   130          4
   131          2
   132          1
   133          1
   134          1
   135          4
   136          1
   137          8
   138         49
   139         12
   140         18
   141          4
   142          2
   143          3
   144          2
   145          1
   149          2
   150          2
   151         51
   152        113
   153         90
   154         22
   155         28
   156          3
   157          3
   158          1
   160          0
   161          1
   162          0
   163          1
   164          3
   165          7
   166         14
   167          4
   168          5
   169          2
   170          3
   171          6
   172          2
   173          1
   174          0
   175          1
   177          1
   178          9
   179         57
   180         19
   181          7
   182          6
   183          2
   184          1
   185          0
   186          2
   187          1
   188          1
   189          1
   190          2
   191          2
   192         23
   193         20
   194         10
   195          7
   196          2
   198          1
   199         10
   200          3
   204          2
   205          2
   206        182
   207         36
   208         61
   209         11
   210          1
   213          1
   214          1
   218          1
   219          2
   220          4
   221         94
   222         30
   223         32
   224         10
   225          3
   226          2
   227          1
   232          3
   233          2
   234        562
   235         84
   236        190
   237         29
   238          4
   241          1
   245          0
   246          1
   247          0
   248         45
   249         16
   250         17
   251          4
   252          1
   253          1
   260          2
   262         43
   263          6
   264         14
   265          2
   270          3
   271          1
   276         94
   277         16
   278         31
   279          5
   280          0
   303          3
   304          3
   305        283
   306         49
   307         94
   308         14
   309          1