##TITLE=Library Entry 13822
##JCAMP-DX=Revision 4.10 
##DATA TYPE=MASS SPECTRUM
##SAMPLE DESCRIPTION=Chemical Concepts
##NAMES=HP
##CAS NAME=3-Acetyl-1-(4-chlorophenyl)-4,5-dihydro-1H-[1,2,4]triazin-6-one
##MOLFORM=C11H10ClN3O2
##CAS REGISTRY NO=139455-67-7
##MP= -300
##BP= -300
##MW= 251
##$RETENTION INDEX=0
##$CONDENSED SPECTRUM=NO
##NPOINTS= 144
##XYDATA=(XY..XY) 1 
    38         29
    39         56
    40         21
    41         61
    42        110
    43        999
    44         33
    45         11
    46          2
    47          2
    48          1
    49          7
    50         40
    51         29
    52         11
    53         10
    54         10
    55        101
    56         22
    57         15
    58          1
    59         11
    60          4
    61         11
    62         34
    63        109
    64         44
    65         12
    66          2
    67          4
    68          9
    69         11
    70         11
    71          5
    72         10
    73         27
    74         17
    75         92
    76         19
    77          9
    78          2
    79          1
    80          0
    81          3
    82          2
    83          7
    84         32
    85         12
    86          3
    87          5
    88          7
    89         27
    90        115
    91         19
    92          4
    93          1
    95          2
    96          1
    97          5
    98         12
    99         50
   100          8
   101         16
   102          4
   103          2
   104          1
   105          1
   106          0
   107          0
   108          0
   109          1
   110          3
   111         59
   112          6
   113         19
   114          3
   115          1
   116          1
   117          4
   118          3
   119          2
   123          0
   124          4
   125        205
   126         46
   127         86
   128         14
   129          7
   131          0
   132          1
   133          0
   134          0
   135          0
   137          1
   138         24
   139         12
   140         10
   141          5
   142          1
   143          0
   144          1
   145          4
   146          3
   147          1
   148          0
   149          1
   151          4
   152         55
   153         38
   154         22
   155         11
   156          1
   163          0
   165          0
   166          0
   167          0
   179          1
   180         54
   181          6
   182         18
   183          1
   187          2
   188          0
   197          0
   204          6
   205          0
   206          3
   207          0
   208          0
   209          0
   213          0
   216          1
   217          0
   221          9
   222        363
   223         76
   224        125
   225         24
   226          1
   249          1
   251        206
   252         27
   253         68
   255          0