##TITLE=Library Entry 17268
##JCAMP-DX=Revision 4.10 
##DATA TYPE=MASS SPECTRUM
##SAMPLE DESCRIPTION=E. Zissis, LC, NIDDK, NIH, Bethesda, MD 20892
##NAMES=HP
##CAS NAME=1-Deoxy-d-arabitol
##MOLFORM=C5H12O4
##CAS REGISTRY NO=13942-77-3
##MP= -300
##BP= -300
##MW= 136
##$RETENTION INDEX=0
##$CONDENSED SPECTRUM=NO
##NPOINTS= 43
##XYDATA=(XY..XY) 1 
    41        197
    42        183
    43        602
    44        491
    45        999
    46         54
    47         38
    49          2
    51          2
    53         12
    55        319
    56        791
    57        570
    58        473
    59        103
    60        138
    61        510
    62         35
    63         10
    69         31
    70         79
    71         42
    73        336
    74        942
    75        613
    76         28
    77          8
    78          9
    83          5
    85         16
    86          5
    87        109
    88         56
    89          5
    90          2
    91         39
   101          9
   103         17
   105         27
   106          4
   119         15
   135          3
   136          9