##TITLE=Library Entry 33361
##JCAMP-DX=Revision 4.10 
##DATA TYPE=MASS SPECTRUM
##SAMPLE DESCRIPTION=NIST Mass Spectrometry Data Center
##NAMES=HP
##CAS NAME=2-(Hydroxymethyl)but-2-enenitrile
##MOLFORM=C5H7NO
##CAS REGISTRY NO=139443-52-0
##MP= -300
##BP= -300
##MW= 97
##$RETENTION INDEX=1007
##$CONDENSED SPECTRUM=NO
##NPOINTS= 38
##XYDATA=(XY..XY) 1 
    25          2
    26         13
    27         29
    28         40
    29         27
    30          5
    31         75
    37         44
    38         61
    39        160
    40         63
    41        250
    42         46
    45          7
    48          1
    49         11
    50         38
    51         63
    52        385
    53         93
    54        328
    55         94
    62          8
    63         26
    64         59
    65         28
    66         82
    67        223
    68        999
    69        178
    70          9
    75         10
    76         10
    78         20
    82        307
    96         76
    97        189
    98         12