##TITLE=Library Entry 40140
##JCAMP-DX=Revision 4.10 
##DATA TYPE=MASS SPECTRUM
##SAMPLE DESCRIPTION=Div. of Experiment Therapeutics WRAIR, WRAMC, Washingto
n DC 20307
##NAMES=HP
##CAS NAME=Methyl 2-pyridyl ketone [5-[pyrrolidin-1-yl]-1,3,4-thiadiazol-2-y
l]hydrazone
##MOLFORM=C13H16N6S
##CAS REGISTRY NO=139435-22-6
##MP= -300
##BP= -300
##MW= 288
##$RETENTION INDEX=0
##$CONDENSED SPECTRUM=NO
##NPOINTS= 119
##XYDATA=(XY..XY) 1 
    41        396
    42        420
    43        116
    44         43
    45         73
    46         34
    47         75
    48         14
    49        216
    50        108
    51        574
    52        292
    53        137
    54         38
    55        832
    56         53
    57         16
    58         59
    59        115
    60         68
    61         17
    62          9
    63         35
    64         25
    65         30
    66         17
    67         64
    68         73
    69         38
    70         78
    72        999
    73         35
    74         53
    75         15
    76         55
    78        759
    79        481
    80         30
    81         14
    82        102
    84        102
    85         53
    86         96
    87         20
    88         69
    89          4
    90          3
    91         79
    92         25
    93         29
    94          3
    95         49
    96         23
    97         41
    99          8
   100          8
   101          2
   102          9
   104        333
   105        154
   106         73
   107         16
   109         16
   111         15
   112         11
   114        989
   115         54
   116         45
   117          5
   118          3
   119         25
   120         30
   121          8
   124         16
   125          2
   128          4
   129          8
   130          3
   131         22
   132         10
   133         15
   134         12
   136          3
   137          6
   141          5
   142          3
   144          2
   146         34
   149          7
   150          3
   151          3
   156         15
   159         12
   160         17
   161         18
   163         30
   164         54
   165          2
   168         20
   169         27
   170          9
   172          2
   178          4
   184         28
   187         69
   189         14
   210        618
   211         62
   212         27
   250         17
   264         26
   265         34
   266          5
   273        228
   274         32
   275         14
   288        431
   289         77
   290         25