##TITLE=Library Entry 26271
##JCAMP-DX=Revision 4.10 
##DATA TYPE=MASS SPECTRUM
##SAMPLE DESCRIPTION=Chemical Concepts
##NAMES=HP
##CAS NAME=2-(E)-Pentenoic acid, (4S)-4-[(t-butoxycarbonyl)amino]-5-phenyl-
##MOLFORM=C16H21NO4
##CAS REGISTRY NO=139545-04-3
##MP= -300
##BP= -300
##MW= 291
##$RETENTION INDEX=0
##$CONDENSED SPECTRUM=NO
##NPOINTS= 192
##XYDATA=(XY..XY) 1 
    21          0
    25          0
    26          5
    27         32
    28         12
    29        112
    30          5
    31         21
    36          0
    37          0
    38          2
    39         44
    40          3
    41        179
    42         11
    43         42
    44         18
    45          8
    46          0
    47          0
    49          0
    50          4
    51         14
    52          6
    53          8
    54         16
    55         22
    56         22
    57        999
    58         50
    59         90
    60          4
    61          3
    62          3
    63          8
    64          3
    65         54
    66          4
    67          1
    68          2
    69          3
    70          5
    71         13
    72          5
    73          9
    74          1
    75          1
    76          1
    77         13
    78          5
    79          3
    80          2
    81          1
    82         15
    83          5
    84          2
    85          0
    86          1
    87          1
    88          1
    89          9
    90          5
    91        246
    92        101
    93          7
    94          0
    95          1
    96          2
    97          2
    98          4
    99          2
   100        500
   101         40
   102          5
   103          5
   104          3
   105          2
   106          0
   107          4
   108          0
   109          1
   110          0
   111          0
   112          1
   113          0
   114          8
   115         12
   116          5
   117          6
   118          3
   119          1
   120          5
   121          0
   122          0
   123          0
   124          0
   125          0
   126          5
   127          9
   128         20
   129         41
   130          8
   131          3
   132          0
   133          0
   134          0
   136          0
   138          0
   139          1
   140          1
   141          2
   142          1
   143          2
   144        184
   145         13
   146          4
   147          1
   148          1
   152          0
   153          0
   154          0
   155          0
   156         11
   157          7
   158          7
   159          1
   160          1
   161          0
   162          1
   163          0
   164          1
   165          0
   166          0
   167          0
   169          0
   170          1
   171          0
   172          8
   173          4
   174         23
   175         17
   176          2
   177          0
   180          0
   182          0
   183          0
   184          0
   186          0
   187          0
   188          1
   189          2
   190          2
   191          1
   192          3
   193          0
   197          0
   198          2
   199          0
   200        197
   201         20
   202          3
   206          0
   208          1
   209          0
   212          0
   213          0
   214          2
   215          0
   216          0
   217          0
   218          7
   219          0
   220          0
   226          1
   227          0
   228          0
   232          1
   233          2
   234          0
   235         18
   236          4
   237          0
   241          0
   246          0
   249          0
   256          0
   258          1
   260          0
   276          3
   277          0
   291          6
   292          1