##TITLE=Library Entry 15607
##JCAMP-DX=Revision 4.10 
##DATA TYPE=MASS SPECTRUM
##SAMPLE DESCRIPTION=Japan AIST/NIMC Database- Spectrum MS-NW- 928
##NAMES=HP
##CAS NAME=sec-Butylamine
##MOLFORM=C4H11N
##CAS REGISTRY NO=13952-84-6
##MP= -300
##BP= -300
##MW= 73
##$RETENTION INDEX=493
##$CONDENSED SPECTRUM=NO
##NPOINTS= 34
##XYDATA=(XY..XY) 1 
    14          2
    15         24
    17          3
    18        100
    25          1
    26         11
    27         52
    28         59
    29         31
    30         53
    32          2
    37          2
    38          4
    39         21
    40          8
    41         97
    42         69
    43         32
    44        999
    45         25
    50          2
    51          4
    52          4
    53          4
    54          6
    55         25
    56         23
    57         15
    58        115
    59          4
    70          4
    71          1
    72         18
    73          7