##TITLE=Library Entry 40278
##JCAMP-DX=Revision 4.10 
##DATA TYPE=MASS SPECTRUM
##SAMPLE DESCRIPTION=R RYHAGE MS-LAB KAROLINSKA INSTITUTET STOCKHOLM SWEDEN
##NAMES=HP
##CAS NAME=N,N,1-Trimethyl-3,3-diphenylpropylamine
##MOLFORM=C18H23N
##CAS REGISTRY NO=13957-55-6
##MP= -300
##BP= -300
##MW= 253
##$RETENTION INDEX=1973
##$CONDENSED SPECTRUM=NO
##NPOINTS= 108
##XYDATA=(XY..XY) 1 
    15          9
    16          6
    17         10
    18         27
    26          2
    27         13
    28          3
    29          8
    30         13
    31          4
    37          2
    39         23
    40          3
    41         10
    42         46
    43         13
    44         37
    45          5
    46          6
    50          8
    51         18
    52          4
    53          4
    54          3
    55          6
    56         20
    57         11
    58         23
    62          2
    63         17
    64          6
    65         12
    67          2
    70         20
    71         16
    72        999
    73         41
    74          5
    75          6
    76          4
    77         29
    78         15
    79          2
    82          2
    83          2
    84          1
    85          6
    86          1
    87          2
    88          4
    89          3
    90          3
    91         27
    92          4
    93          1
    97          5
   100          1
   101          3
   102         10
   103         24
   104         23
   105          4
   113          4
   115         17
   116          5
   117          2
   126          3
   127          4
   129          5
   130          8
   132          1
   137          2
   139          7
   141          6
   147          1
   151         10
   152         36
   153          6
   154          2
   156          3
   160          3
   162          2
   163          5
   164          8
   165         55
   166         24
   167         86
   168         11
   175          3
   176          3
   177          2
   178         10
   179          8
   180          8
   181          4
   189          2
   191          2
   193          8
   194          2
   202          1
   206          2
   207          3
   208          4
   236          2
   238          4
   252          2
   253         20
   254          5