##TITLE=Library Entry 43803
##JCAMP-DX=Revision 4.10 
##DATA TYPE=MASS SPECTRUM
##SAMPLE DESCRIPTION=Chemical Concepts
##NAMES=HP
##CAS NAME=Borinic acid, [2-(9-borabicyclo[3.3.1]non-9-yl)-1-ethyl-1-propeny
l]ethyl-, trimethylsilyl ester, (Z)-
##MOLFORM=C18H36B2OSi
##CAS REGISTRY NO=139688-30-5
##MP= -300
##BP= -300
##MW= 318
##$RETENTION INDEX=0
##$CONDENSED SPECTRUM=NO
##NPOINTS= 175
##XYDATA=(XY..XY) 1 
    27         21
    28          3
    29          0
    31          7
    37          6
    38          0
    39          3
    40         19
    41         53
    43         20
    44         16
    45         83
    46          4
    50          8
    51         26
    52         15
    53         46
    55          6
    58         21
    59        144
    60          9
    61          2
    63          5
    64         13
    65         36
    66          5
    67          6
    69          3
    71          9
    72         21
    73        999
    74         80
    75          5
    76          6
    77         23
    78         14
    79         44
    80          5
    81          5
    83         12
    85         26
    86         16
    87        233
    88         23
    89         17
    90          9
    91         33
    92         11
    93         27
    94          4
    95          6
    96          2
    97         27
    99         30
   100         29
   101         94
   102         10
   103          7
   104          6
   105         14
   106          5
   107         14
   109         15
   111         29
   112          4
   113         14
   114         34
   115         92
   116          2
   118          6
   119         17
   120         10
   121         26
   122          5
   123         15
   124          1
   125         21
   126          0
   127         29
   128        104
   129        457
   130         46
   131         17
   132          6
   134          4
   135         13
   136         11
   137         32
   138         13
   139         35
   140         12
   141         20
   145          4
   146          8
   148          0
   149          5
   150          8
   151         29
   152         10
   153         37
   154          6
   155          7
   159          4
   160          2
   163          6
   164          5
   165         11
   166          2
   167         36
   168         14
   169         22
   173          8
   174          1
   176          2
   177         12
   178         39
   179        103
   180        106
   181        198
   182         27
   183          9
   187         10
   188          2
   190          1
   191         13
   192         13
   193         27
   194         12
   195         22
   196          8
   197          0
   204          0
   205         21
   206         55
   207        108
   208         20
   209         19
   210         14
   214          5
   215         14
   216          6
   217          4
   218          5
   219         13
   220          7
   232          0
   233          9
   234          1
   237          7
   244          0
   245          9
   246         16
   247         38
   248         10
   249          0
   260          0
   261         11
   262          2
   275          0
   287         28
   288        226
   289        503
   290        112
   291         27
   292          0
   301          4
   302         44
   303        101
   304         23
   305          7
   316         12
   317        104
   318        226
   319         56
   320         13