##TITLE=Library Entry 70216
##JCAMP-DX=Revision 4.10 
##DATA TYPE=MASS SPECTRUM
##SAMPLE DESCRIPTION=Chemical Concepts
##NAMES=HP
##CAS NAME=1,2,5-Oxadiborolane, 2,3,3,4,5-pentaethyl-
##MOLFORM=C12H26B2O
##CAS REGISTRY NO=139688-18-9
##MP= -300
##BP= -300
##MW= 208
##$RETENTION INDEX=0
##$CONDENSED SPECTRUM=NO
##NPOINTS= 119
##XYDATA=(XY..XY) 1 
    27        116
    28          0
    29         90
    30          2
    31          4
    36          6
    37         25
    38         27
    39        105
    40        121
    41        385
    42         20
    43         55
    44          9
    45         45
    46          1
    49          2
    50         15
    51         43
    52         66
    53        251
    54         68
    55        246
    56         30
    57         98
    58         10
    59          2
    60          5
    61          3
    62          1
    63          9
    64         18
    65         45
    66         52
    67        184
    68        172
    69        325
    70         14
    71         11
    72          4
    73         17
    76          3
    77         12
    78          9
    79         30
    80         41
    81        176
    82        100
    83         13
    85         15
    86          6
    87          4
    89          5
    90          3
    91         10
    92         12
    93         39
    94         41
    95        181
    96        502
    97        999
    98         43
    99          5
   100          3
   101          7
   105          1
   106          0
   107          7
   108         23
   109         52
   110         78
   111         29
   115          0
   120          1
   121          7
   122         83
   123        315
   124        103
   125          8
   126          5
   127          8
   128          1
   129          2
   135          3
   136         26
   137         82
   138         74
   139         37
   140          6
   141          4
   149          0
   150          5
   151         23
   152          6
   153          0
   154          3
   155          8
   156          7
   163          9
   164         65
   165        131
   166         16
   167         14
   168         23
   169         21
   170          6
   171          6
   177         16
   178        139
   179        302
   180         35
   181          3
   183          4
   184          1
   193          0
   206          3
   207         16
   208         41
   209          4