##TITLE=Library Entry 96838
##JCAMP-DX=Revision 4.10 
##DATA TYPE=MASS SPECTRUM
##SAMPLE DESCRIPTION=Japan AIST/NIMC Database- Spectrum MS-NW-6922
##NAMES=HP
##CAS NAME=Iron, tris(diethylcarbamodithioato-S,S')-, (OC-6-11)-
##MOLFORM=C15H30FeN3S6
##CAS REGISTRY NO=13963-59-2
##MP= -300
##BP= -300
##MW= 500
##$RETENTION INDEX=0
##$CONDENSED SPECTRUM=NO
##NPOINTS= 285
##XYDATA=(XY..XY) 1 
    12          3
    13          2
    14          8
    15         30
    16          1
    17          9
    18         45
    24          3
    25         14
    26         99
    27        420
    28        291
    29        611
    30         94
    31          1
    32         47
    33          9
    34         16
    35         16
    36        126
    37          6
    38         50
    39         13
    40         27
    41         28
    42         97
    43         15
    44        351
    45         58
    46         11
    47         12
    48          2
    49          1
    50          2
    51          9
    52         13
    53          4
    54         38
    55         49
    56        144
    57         14
    58        109
    59        292
    60        547
    61         57
    62         31
    63          4
    64        159
    65          6
    66         28
    67          4
    68          7
    69          6
    70         43
    71         17
    72        522
    73         49
    74          8
    75          1
    76        153
    77         67
    78         16
    79         12
    80          4
    81          4
    82         10
    83          7
    84         12
    85          5
    86        117
    87        415
    88        700
    89         51
    90         34
    91         42
    92          9
    93         12
    94         13
    95          6
    96          7
    97          9
    98         15
    99         15
   100          8
   101          3
   102          2
   103          1
   104          6
   105          9
   106          1
   107          2
   108          2
   109          4
   110          4
   111         10
   112          4
   113         11
   114         33
   115         24
   116        999
   117         91
   118         51
   119          8
   120         60
   121         13
   122         22
   123          6
   124          4
   125          9
   126         10
   127         55
   128         25
   129          8
   130          4
   131          3
   132         19
   133          7
   134          3
   135          4
   136          2
   137          2
   138          2
   139         12
   140          2
   141         14
   142          6
   143         57
   144         28
   145          9
   146         31
   147         41
   148        383
   149         70
   150         40
   151         20
   152         21
   153          6
   154          3
   155          4
   156          1
   157          2
   158         10
   159          6
   160         86
   161          9
   162         15
   163          3
   164          4
   165          4
   166          4
   167          9
   168         28
   169         21
   170          6
   171         71
   172         14
   173         10
   174          8
   175         48
   176         50
   177         49
   178         16
   179         53
   180          8
   181          9
   182          2
   183          3
   184          1
   185          2
   186          1
   187          1
   188         10
   189          4
   190          3
   191          3
   192          2
   194          1
   195          1
   196          1
   197          2
   198          3
   199          4
   200          3
   201          9
   202         16
   203        116
   204        194
   205        503
   206         69
   207         93
   208          9
   209          9
   210          2
   211          5
   212          8
   213          4
   214          7
   215          3
   216          2
   217          3
   218          1
   219          1
   224          1
   226          6
   227          2
   228          1
   229          2
   230          4
   231          9
   232          9
   233          3
   234          4
   235          3
   236         48
   237         27
   238         11
   239         75
   240          9
   241         30
   242         22
   243          6
   244          2
   245          1
   247          4
   248          1
   249          1
   257          5
   258          1
   259         50
   260          9
   261         38
   262          6
   263          6
   264          4
   265          2
   266          1
   268          2
   273          3
   274          6
   275         39
   276         17
   277          6
   278          2
   280          3
   281          2
   282          1
   283          1
   286          4
   287          1
   288         47
   289          9
   290          6
   291          4
   292          1
   306          1
   308          1
   318          2
   319          1
   320          3
   322          1
   348          4
   349          2
   350         63
   351         27
   352        906
   353        162
   354        180
   355         31
   356         16
   357          3
   358          1
   359         25
   360          5
   361         16
   362          3
   363          3
   385          5
   386          1
   387         60
   388         10
   389         31
   390          6
   391          6
   392          1
   500          2