##TITLE=Library Entry 202
##JCAMP-DX=Revision 4.10 
##DATA TYPE=MASS SPECTRUM
##SAMPLE DESCRIPTION=ETHYL CORPORATION, FERNDALE, MICHIGAN
##NAMES=HP
##CAS NAME=Manganese, acetylpentacarbonyl-, (OC-6-21)-
##MOLFORM=C7H3MnO6
##CAS REGISTRY NO=13963-91-2
##MP= -300
##BP= -300
##MW= 238
##$RETENTION INDEX=0
##$CONDENSED SPECTRUM=NO
##NPOINTS= 36
##XYDATA=(XY..XY) 1 
    13          5
    14         23
    15         46
    16         39
    26         10
    27         14
    28        999
    29         22
    39         17
    40          9
    41         12
    42          7
    43         17
    44          4
    53          3
    54          2
    55         66
    56          2
    59          2
    67          5
    68          5
    69          4
    70         20
    77          2
    79          2
    83         11
    91          2
    98          1
   105          1
   111          4
   126          1
   139          3
   154          3
   167          2
   182          5
   195          1