##TITLE=Library Entry 100155
##JCAMP-DX=Revision 4.10 
##DATA TYPE=MASS SPECTRUM
##SAMPLE DESCRIPTION=Chemical Concepts
##NAMES=HP
##CAS NAME=9-Borabicyclo[3.3.1]nonane, 9-[[ethyl[1-ethyl-2-(trimethylgermyl)
-1-propenyl]boryl]oxy]-, (Z)-
##MOLFORM=C18H36B2GeO
##CAS REGISTRY NO=139688-33-8
##MP= -300
##BP= -300
##MW= 364
##$RETENTION INDEX=0
##$CONDENSED SPECTRUM=NO
##NPOINTS= 201
##XYDATA=(XY..XY) 1 
    26         17
    27         77
    28         51
    29         53
    37         18
    38         18
    39         92
    40         73
    41        316
    42         29
    43         27
    50         33
    51        116
    52         52
    53        197
    54         45
    55        143
    56         21
    57         20
    63         15
    64         55
    65        172
    66         57
    67        376
    68         54
    69         78
    70         11
    73          8
    75          8
    76         30
    77         92
    78         63
    79        219
    80         65
    81        105
    82         37
    83         23
    85         41
    87         75
    88         16
    89        103
    90         31
    91        125
    92         85
    93        183
    94         38
    95         66
    96         21
    97         27
    98         12
    99         11
   100         30
   101        106
   102         38
   103        146
   104         85
   105        185
   106         39
   107         86
   108        124
   109        184
   110         36
   111         17
   113         19
   115        579
   116         24
   117        710
   118        231
   119        999
   120        106
   121        197
   122         19
   123         14
   125         13
   127         18
   129         52
   131         61
   132         22
   133         80
   134         37
   135         52
   136         18
   137         37
   138         57
   139         34
   141         40
   142         14
   143         53
   145         25
   146         35
   147         78
   148         66
   149         66
   150         14
   153          9
   155         17
   157         25
   159         21
   160         16
   161         30
   162         21
   163         25
   164         17
   165         16
   167         55
   168         10
   169        112
   170         41
   171        182
   172         46
   173        154
   174         47
   175         94
   176         61
   177        110
   178         18
   181         26
   182         10
   183         31
   184         12
   185         31
   186         17
   187         46
   188         31
   189         48
   190          8
   193          8
   195         28
   197         40
   198         16
   199         39
   201         11
   209         23
   210         10
   211         31
   212         17
   213         40
   214         22
   215         52
   216         44
   217         70
   218         13
   219          8
   223         22
   224         10
   225         24
   226         11
   227         29
   228         13
   229         22
   230          9
   235          9
   236          9
   237         17
   238          8
   239         19
   240         12
   241         19
   247         10
   249         11
   250         12
   251         20
   252          8
   253         12
   254          9
   255          8
   281          8
   303         20
   304         14
   305         24
   306         25
   307         30
   308          8
   309          9
   319         14
   320         12
   321         16
   330         19
   331         45
   332         31
   333         61
   334         56
   335         71
   336         20
   337         12
   344         37
   345         82
   346         67
   347        136
   348        121
   349        146
   350         46
   351         35
   359         12
   360         33
   361         22
   362         45
   363         43
   364         51
   365         21
   366         18