##TITLE=Library Entry 100156
##JCAMP-DX=Revision 4.10 
##DATA TYPE=MASS SPECTRUM
##SAMPLE DESCRIPTION=Chemical Concepts
##NAMES=HP
##CAS NAME=9-Borabicyclo[3.3.1]nonane, 9-[1-ethyl-2-[ethyl[(trimethylgermyl)
oxy]boryl]-1-butenyl]-, (Z)-
##MOLFORM=C19H38B2GeO
##CAS REGISTRY NO=139688-34-9
##MP= -300
##BP= -300
##MW= 378
##$RETENTION INDEX=0
##$CONDENSED SPECTRUM=NO
##NPOINTS= 198
##XYDATA=(XY..XY) 1 
    29          6
    36          2
    37         11
    38          5
    39         18
    40         17
    41         67
    50          9
    51         28
    52         16
    53         52
    54          3
    55         15
    62          1
    63          8
    64         17
    65         52
    66         10
    67         35
    68          0
    69          5
    73          2
    74          2
    75          4
    76          8
    77         27
    78         12
    79         36
    80         12
    81         16
    85         17
    86          1
    87         29
    88          9
    89         39
    90         10
    91         34
    92         12
    93         40
    94          9
    95         11
    96          2
    97          0
    99          3
   100         10
   101         25
   102         15
   103         37
   104         27
   105         40
   106          5
   107         18
   108          0
   109         36
   113          3
   114          4
   115        546
   116         23
   117        722
   118        222
   119        999
   120         14
   121        189
   122         13
   123          4
   125          1
   127          3
   129          5
   130          1
   131          5
   132          5
   133          7
   134          4
   135          6
   137          1
   138          0
   141          4
   142          1
   143          7
   144          2
   145          7
   146          8
   147         13
   148          9
   149         12
   150         13
   151          4
   153          3
   155          5
   156          3
   157          6
   158          0
   160          0
   169          6
   170         13
   171         49
   172         20
   173         64
   174         37
   175         69
   176          7
   177         15
   178          2
   181          4
   183          8
   184          3
   185         10
   186          2
   187          4
   188          1
   189          1
   195          7
   196          0
   197         10
   198          3
   199          9
   200          1
   201          6
   202          6
   203          0
   207          0
   209          7
   210          3
   211         10
   212          5
   213         10
   214          1
   215          2
   223          2
   224          2
   225          7
   226          4
   227          9
   228          8
   229         16
   230         11
   231         17
   232          3
   233          0
   234          4
   235          7
   236         12
   237         25
   238         22
   239         36
   240         21
   241         27
   242          4
   243          4
   251          2
   252          4
   253          1
   254          1
   258          4
   259          1
   260          7
   262          2
   263          4
   264          3
   265          8
   266          8
   267         10
   268          2
   269          3
   303          0
   305          2
   307          2
   309          1
   336          0
   338          0
   343          7
   344         58
   345        133
   346        105
   347        204
   348        177
   349        232
   350         64
   351         51
   352          9
   358          6
   359         14
   360         12
   361         22
   362         20
   363         28
   364          7
   365          6
   372          2
   373         20
   374         48
   375         37
   376         72
   377         66
   378         82
   379         24
   380         19
   381          4