##TITLE=Library Entry 100153
##JCAMP-DX=Revision 4.10 
##DATA TYPE=MASS SPECTRUM
##SAMPLE DESCRIPTION=Chemical Concepts
##NAMES=HP
##CAS NAME=9-Borabicyclo[3.3.1]nonane, 9-[2-[ethyl[(trimethylgermyl)oxy]bory
l]-1-methyl-1-butenyl]-, (Z)-
##MOLFORM=C18H36B2GeO
##CAS REGISTRY NO=139688-32-7
##MP= -300
##BP= -300
##MW= 364
##$RETENTION INDEX=0
##$CONDENSED SPECTRUM=NO
##NPOINTS= 215
##XYDATA=(XY..XY) 1 
    26          5
    27         27
    28         16
    29         24
    37          8
    38          5
    39         24
    40         31
    41         85
    42          5
    43          9
    50         11
    51         36
    52         17
    53         63
    54         13
    55         48
    56          3
    57          8
    63          8
    64         15
    65         47
    66         22
    67         91
    68         15
    69         21
    71          1
    73          5
    74          2
    75          7
    76          8
    77         33
    78         24
    79         81
    80         28
    81         35
    82         11
    83         11
    85         28
    87         48
    88         14
    89         64
    90         11
    91         41
    92         29
    93         58
    94         14
    95         23
    96          4
    97          7
    99          7
   100         18
   101         35
   102         25
   103         50
   104         42
   105         53
   106         16
   107         40
   108         67
   109         73
   110         11
   111          3
   113          7
   114          5
   115        558
   116         23
   117        728
   118        223
   119        999
   120         35
   121        197
   122          9
   123          1
   127          9
   128          1
   129         15
   130          6
   131         17
   132          7
   133         17
   134         17
   135         21
   136         12
   137         10
   138          6
   139          6
   141         13
   142          7
   143         22
   144          8
   145         22
   146         14
   147         33
   148         22
   149         26
   150         11
   153          4
   155         11
   156         22
   157         16
   158         28
   159         24
   160         35
   161         16
   162          9
   163         12
   164         17
   165          2
   167          9
   168          3
   169         22
   170         19
   171         61
   172         25
   173         64
   174         33
   175         60
   176         13
   177         19
   181         10
   182          2
   183         15
   184          8
   185         18
   186          7
   187         20
   188         13
   189         16
   190         13
   194          1
   195         22
   196          8
   197         31
   198         24
   199         41
   200         18
   201         18
   202         13
   203          7
   204          1
   209         15
   210         10
   211         23
   212         18
   213         32
   214         17
   215         23
   216         31
   217         54
   218          9
   221          7
   222          9
   223         21
   224         16
   225         30
   226         22
   227         32
   228         10
   229         10
   231          1
   237          9
   238          2
   239         12
   240          9
   241         12
   242          7
   243         24
   244         43
   245         34
   246         22
   249          3
   251         16
   252         38
   253         25
   254         48
   255         37
   256         58
   257         13
   258         17
   279          4
   281          5
   282          1
   283          2
   293          4
   325          9
   326          7
   327         29
   328         22
   329         52
   330         37
   331         73
   332         49
   333         86
   334         64
   335         82
   336         22
   337         20
   338          2
   344         11
   345         24
   346         20
   347         34
   348         29
   349         40
   350          9
   351          8
   359          9
   360         19
   361         15
   362         28
   363         25
   364         33
   365         10
   366          9