##TITLE=Library Entry 45905
##JCAMP-DX=Revision 4.10 
##DATA TYPE=MASS SPECTRUM
##SAMPLE DESCRIPTION=NIST Mass Spectrometry Data Center, 2010
##NAMES=HP
##CAS NAME=Heptan-4-ol, O-tert-butyldimethylsilyl ether
##MOLFORM=C13H30OSi
##CAS REGISTRY NO=139656-42-1
##MP= -300
##BP= -300
##MW= 230
##$RETENTION INDEX=0
##$CONDENSED SPECTRUM=NO
##NPOINTS= 87
##XYDATA=(XY..XY) 1 
    27          7
    28          1
    29         15
    31          2
    39          9
    40          1
    41         33
    42          4
    43         19
    44          2
    45         26
    46          2
    47         22
    48          1
    49          1
    53          3
    54          1
    55         12
    56          5
    57         22
    58         14
    59         54
    60          9
    61         21
    62          2
    63          1
    67          2
    68          1
    69          4
    70          2
    71          4
    73        262
    74         23
    75        999
    76         74
    77         37
    78          1
    79          1
    81          1
    83          2
    85         16
    86          2
    87          5
    88          2
    89          5
    95          1
    96          1
    97          5
    98          2
    99         12
   100          4
   101         24
   102          3
   103          1
   111          1
   113          4
   115         64
   116          8
   117          6
   118          1
   127          1
   129         15
   130          4
   131         58
   132          7
   133          3
   143          2
   144          1
   145          1
   157          3
   158          1
   159          1
   171          2
   173        939
   174        144
   175         42
   176          3
   187        282
   188         46
   189         13
   190          1
   201          1
   215         25
   216          4
   229          5
   230          4
   231          1