##TITLE=Library Entry 35838
##JCAMP-DX=Revision 4.10 
##DATA TYPE=MASS SPECTRUM
##SAMPLE DESCRIPTION=A.Pleshkova, Nesmeyanov Inst.Org.Elem.Cpds, Moscow
##NAMES=HP
##CAS NAME=Tetrafluoro-1-trifluoromethoxy-1-iodoethane
##MOLFORM=C3F7IO
##CAS REGISTRY NO=139604-89-0
##MP= -300
##BP= -300
##MW= 312
##$RETENTION INDEX=0
##$CONDENSED SPECTRUM=NO
##NPOINTS= 15
##XYDATA=(XY..XY) 1 
    44         25
    50         11
    69        999
    70         11
    97        209
    98          2
   100         23
   127        129
   158          7
   177         51
   185        208
   186          2
   196         21
   227        143
   228          2