##TITLE=Library Entry 72956
##JCAMP-DX=Revision 4.10 
##DATA TYPE=MASS SPECTRUM
##SAMPLE DESCRIPTION=P. Vainiotalo, Dep. Chem., Joensuu Univ., Joensuu, Finl
and
##NAMES=HP
##CAS NAME=Oxazolidine, 2-ethyl-4,4-dimethyl-
##MOLFORM=C7H15NO
##CAS REGISTRY NO=13973-28-9
##MP= -300
##BP= -300
##MW= 129
##$RETENTION INDEX=0
##$CONDENSED SPECTRUM=NO
##NPOINTS= 39
##XYDATA=(XY..XY) 1 
    15         27
    26         15
    27         90
    29        124
    30         64
    31         26
    39         97
    40         23
    41        210
    42        218
    43         67
    44         49
    45         15
    46        343
    53         22
    54         30
    55        413
    56        175
    57        123
    58         92
    68         21
    69         12
    70         61
    71         55
    72        149
    73        196
    74         51
    82         15
    84        398
    85         25
    86         46
    98        277
    99        133
   100        999
   101         61
   114         13
   115          0
   129         57
   130          4