##TITLE=Library Entry 17614
##JCAMP-DX=Revision 4.10 
##DATA TYPE=MASS SPECTRUM
##SAMPLE DESCRIPTION=Chemical Concepts
##NAMES=HP
##CAS NAME=3,6,9,12-Tetraoxabicyclo[12.3.1]octadeca-1(18),14,16-triene, 18-(
1,3,2-dioxaborolan-2-yl)-
##MOLFORM=C16H23BO6
##CAS REGISTRY NO=139719-98-5
##MP= -300
##BP= -300
##MW= 322
##$RETENTION INDEX=0
##$CONDENSED SPECTRUM=NO
##NPOINTS= 183
##XYDATA=(XY..XY) 1 
    26          5
    27         42
    28          7
    29         34
    30          3
    31         68
    33          2
    34          1
    35          2
    36          2
    38          1
    39         27
    40        102
    41         30
    42          7
    43        108
    44         36
    45        999
    46         21
    47          5
    49          3
    50          4
    51         14
    52         10
    53         13
    54          2
    55         13
    56          5
    57         22
    58         11
    59         49
    60          7
    61          4
    62          3
    63         11
    64          7
    65         33
    66          5
    67          6
    68          2
    69          9
    70          5
    71         48
    72         11
    73        136
    74          7
    75          7
    76          9
    77         71
    78         48
    79         21
    80          5
    81          4
    82          3
    83          6
    84          4
    85          6
    86         34
    87        128
    88         10
    89        630
    90         42
    91         78
    92         15
    93          4
    94          5
    95          4
    96          2
    97          6
    98          2
    99          1
   100          3
   101         14
   102         49
   103         66
   104        277
   105        101
   106         12
   107          0
   109          7
   110          1
   111          2
   112          1
   113          5
   114         90
   115        483
   116        101
   117        174
   118         76
   119         52
   120         12
   121          5
   122          1
   123          2
   124          1
   125          2
   126          1
   127          6
   128         33
   129        146
   130        144
   131        124
   132         39
   133        710
   134         50
   135          8
   136          2
   139          0
   141          4
   142          7
   143         23
   144         23
   145         52
   146        148
   147         46
   148         10
   149          8
   150          1
   152          0
   153          0
   155          2
   156          1
   157          1
   158         58
   159        240
   160         71
   161         36
   162         33
   163         12
   164          3
   165          2
   170          0
   171          3
   172         92
   173        418
   174        228
   175         48
   176         10
   177          9
   178          1
   185          2
   186          4
   187         16
   188         23
   189         35
   190         36
   191         20
   192          2
   199          1
   200          1
   201          2
   202         58
   203        256
   204         28
   205          9
   206          2
   207          2
   215          4
   216          7
   217          4
   218          3
   219          2
   221          1
   231          1
   232          1
   233          7
   234         16
   235          4
   236          1
   249          1
   252          1
   260          1
   261          0
   268          3
   277          1
   278          6
   279          1
   293          1
   294          2
   321         29
   322        126
   323         24
   324          4