##TITLE=Library Entry 64456
##JCAMP-DX=Revision 4.10 
##DATA TYPE=MASS SPECTRUM
##SAMPLE DESCRIPTION=V.G.Zaikin,TIPS,Russian Acad.Sci.Moscow
##NAMES=HP
##CAS NAME=Diphenyl(t-butyl)silyloxymethylbenzene
##MOLFORM=C23H26OSi
##CAS REGISTRY NO=139706-45-9
##MP= -300
##BP= -300
##MW= 346
##$RETENTION INDEX=0
##$CONDENSED SPECTRUM=NO
##NPOINTS= 89
##XYDATA=(XY..XY) 1 
    27         39
    28          6
    29         99
    35          6
    36          7
    38         17
    39         79
    40         18
    41        145
    42         16
    43         25
    44         45
    45        105
    46          7
    47          7
    50         17
    51         67
    52          9
    53         23
    55          8
    56         16
    57         88
    64         22
    65        141
    66          6
    67          7
    69          7
    73          6
    75          7
    76          7
    77         91
    78         39
    79         25
    82          6
    88          6
    89         12
    90         14
    91        999
    92         61
    93          7
   103          9
   104          7
   105         72
   106          7
   107          8
   115          7
   119          7
   121         29
   122          7
   123          6
   125          8
   126          6
   127          9
   129          7
   133          7
   135         15
   137          7
   141          7
   143          7
   144          7
   151          6
   152         13
   153          7
   155          8
   165          9
   167         79
   168          9
   180          6
   181         29
   182          6
   183        156
   184         27
   197         35
   198          7
   199         59
   200          7
   210          6
   211        119
   212         32
   213          7
   217          6
   259        122
   260         35
   261          7
   288         15
   289        445
   290        115
   291         21
   292          4