##TITLE=Library Entry 65655
##JCAMP-DX=Revision 4.10 
##DATA TYPE=MASS SPECTRUM
##SAMPLE DESCRIPTION=Chemical Concepts
##NAMES=HP
##CAS NAME=Octadecane(dithioic) acid
##MOLFORM=C18H36S2
##CAS REGISTRY NO=139759-10-7
##MP= -300
##BP= -300
##MW= 316
##$RETENTION INDEX=0
##$CONDENSED SPECTRUM=NO
##NPOINTS= 176
##XYDATA=(XY..XY) 1 
    26          1
    27         56
    29        198
    30          4
    33          4
    34         11
    35          0
    36          0
    39         40
    40         18
    41        384
    42         51
    43        514
    44         16
    45         46
    46          3
    47         22
    49          0
    50          0
    51          1
    52          1
    53         20
    54         29
    55        371
    56         44
    57        284
    58         72
    59         99
    60         31
    61         18
    62          2
    63          1
    65         15
    66          7
    67        205
    68         40
    69        243
    70         26
    71        113
    72         18
    73         48
    74          8
    75          4
    76         11
    77         27
    78          2
    79         48
    80         14
    81        232
    82         41
    83        208
    84         21
    85         57
    86         12
    87         71
    88         10
    89          8
    90          1
    91         10
    92        999
    93        104
    94         83
    95        248
    96         42
    97        176
    98         16
    99         25
   100         32
   101         50
   102          5
   103          4
   104         10
   105         59
   106         95
   107         16
   108          7
   109        151
   110         21
   111         90
   112          8
   113         23
   114         19
   115         16
   116          3
   117          3
   118          1
   119          6
   120         20
   121         14
   122          2
   123         89
   124         13
   125         27
   126          5
   127         16
   128          5
   129          4
   130          1
   131          1
   132          1
   133          3
   134          5
   135          8
   136          1
   137         61
   138         12
   139         15
   140          1
   141          7
   142          2
   143          3
   145          0
   146          0
   147          0
   148          1
   149          2
   151         21
   152          4
   153         15
   154          2
   155          5
   157          3
   163          1
   165         12
   166          1
   167         11
   168          2
   169          1
   171          1
   179          6
   180          4
   181          1
   183          0
   184          1
   185          1
   187          3
   191          0
   193          7
   194          1
   197          1
   199          2
   201          7
   202          1
   203          1
   207          2
   208          0
   213          1
   215          3
   216          0
   222          7
   224          0
   225          1
   227          1
   239          1
   241          4
   247          1
   248          3
   249         34
   250          5
   253          0
   255          1
   267         39
   268          9
   269          3
   281          3
   282          4
   283        611
   284        132
   285         43
   286          6
   287          0
   315         11
   316         76
   317         18
   318          6
   319          1