##TITLE=Library Entry 60470
##JCAMP-DX=Revision 4.10 
##DATA TYPE=MASS SPECTRUM
##SAMPLE DESCRIPTION=NIST Mass Spectrometry Data Center
##NAMES=HP
##CAS NAME=(1S,3S,5S)-1-Isopropyl-4-methylenebicyclo[3.1.0]hexan-3-yl acetat
e
##MOLFORM=C12H18O2
##CAS REGISTRY NO=139757-62-3
##MP= -300
##BP= -300
##MW= 194
##$RETENTION INDEX=1297
##$CONDENSED SPECTRUM=NO
##NPOINTS= 73
##XYDATA=(XY..XY) 1 
    27         12
    29          6
    38          2
    39         36
    40          6
    41         64
    42          7
    43        232
    45          1
    50          5
    51         19
    52          9
    53         36
    54          6
    55         22
    56          4
    57          3
    58          2
    59          1
    61          8
    62          2
    63         11
    64          3
    65         48
    66          9
    67         21
    68          4
    69         20
    70          5
    73          6
    74          1
    75          1
    76          1
    77         66
    78         28
    79         58
    80          7
    81         20
    82          3
    83          8
    84          1
    89          5
    90          7
    91        999
    92        482
    93         53
    94          5
    95          9
    97          2
   102          2
   103         14
   104          8
   105         43
   106          9
   107         19
   108        127
   109         33
   110          4
   115         13
   116          4
   117         30
   118          8
   119        129
   120         14
   121          4
   122          1
   125          2
   131          1
   132          1
   133          5
   134         61
   135         13
   136          2