##TITLE=Library Entry 72754
##JCAMP-DX=Revision 4.10 
##DATA TYPE=MASS SPECTRUM
##SAMPLE DESCRIPTION=John Halket,Royal Holloway, University of London, UK
##NAMES=HP
##CAS NAME=Viagra
##MOLFORM=C22H30N6O4S
##CAS REGISTRY NO=139755-83-2
##MP= -300
##BP= -300
##MW= 474
##$RETENTION INDEX=0
##$CONDENSED SPECTRUM=NO
##NPOINTS= 247
##XYDATA=(XY..XY) 1 
    15          4
    27         11
    28         24
    29         24
    30          8
    39          4
    41         13
    42         74
    43         40
    44         30
    51          2
    52          3
    53          6
    54          8
    56        301
    57         28
    58         47
    59          2
    62          1
    63          5
    64          5
    65          3
    66          4
    67         12
    68         15
    69         11
    70         97
    71         29
    72         29
    75          3
    76          3
    77          3
    78          2
    79          3
    80          3
    81          4
    82          5
    83          4
    84         10
    85          6
    88          1
    89          4
    90          7
    91          8
    92          3
    93          4
    94          4
    95          6
    96          5
    97         31
    99        999
   100         64
   101          5
   102          5
   103          3
   104          3
   105          2
   106          2
   107          2
   108          1
   109          2
   110          1
   111          1
   113          1
   114          2
   116          3
   117          6
   118          4
   119          6
   120          5
   121          1
   122          2
   123          1
   124          1
   127          2
   128          3
   129          6
   130          4
   131          4
   132          3
   134          2
   136         30
   137          4
   138          1
   140          1
   141          2
   142          3
   143          3
   144          4
   145          5
   146          3
   148          2
   150          1
   153          1
   154          2
   155          3
   156          4
   157          3
   158          3
   159          3
   160          2
   162          2
   164          2
   166         11
   167          3
   168          2
   169          3
   170          4
   171          3
   172          2
   173          2
   174          1
   175          1
   180          1
   181          1
   182          2
   183          4
   184          5
   185          3
   186          3
   187          2
   188          1
   196          2
   197          3
   198          4
   199          2
   200          2
   201          1
   202          1
   209          4
   210          2
   211          5
   212          4
   213          3
   214          1
   215          1
   217          1
   219          1
   220          1
   223          3
   224          4
   225         12
   226          8
   227          6
   228          3
   229          1
   235          1
   236          1
   237          3
   238          7
   239         13
   240          6
   241          2
   250          2
   252          3
   253         19
   254         19
   255         12
   256          4
   257          1
   263          1
   264          1
   265          2
   266          3
   267          9
   268          6
   269          4
   278          7
   279          2
   281          4
   282         16
   283         58
   284         13
   285          2
   286          1
   287          1
   292          1
   293          2
   294          1
   296          7
   297          9
   298          2
   299          2
   301          2
   302          1
   303          1
   309          1
   310          8
   311         57
   312         51
   313         12
   314          2
   315          1
   319          1
   325          6
   326          6
   329          1
   330          1
   331          3
   332          1
   338         13
   339          3
   347          1
   348          1
   350          1
   351          1
   352          1
   353          1
   354         11
   361          1
   366          1
   367          2
   368          9
   369          2
   375          3
   376          4
   377          5
   378          1
   379          1
   381         56
   382         13
   383          1
   388          1
   389          1
   391          1
   392          1
   395          2
   402          2
   404        498
   405        108
   406         37
   407          7
   408          1
   409          3
   410         48
   411         12
   412          2
   417          1
   418          2
   419          1
   445          1
   446          1
   459          2
   473          5
   474         17
   475          4
   476          2