##TITLE=Library Entry 10865
##JCAMP-DX=Revision 4.10 
##DATA TYPE=MASS SPECTRUM
##SAMPLE DESCRIPTION=Exported from NIST MS Search
##NAMES=HP
##CAS NAME=Sydnone, 4-acetyl-3-phenyl-
##MOLFORM=C10H8N2O3
##CAS REGISTRY NO=13973-33-6
##MP= -300
##BP= -300
##MW= 204
##$RETENTION INDEX=0
##$CONDENSED SPECTRUM=NO
##NPOINTS= 20
##XYDATA=(XY..XY) 1 
    39         50
    43        999
    44         40
    50        100
    51         80
    52         30
    63         20
    64         20
    74         20
    75         30
    76        100
    77        280
    78         30
   103        130
   104        890
   105         80
   146        270
   147         30
   204        110
   205         10