##TITLE=Library Entry 78567
##JCAMP-DX=Revision 4.10 
##DATA TYPE=MASS SPECTRUM
##SAMPLE DESCRIPTION=A.A.Kutin, Moscow, Russia
##NAMES=HP
##CAS NAME=Benzamide, N-(2,6-dimethyl-4-nitrophenyl)-
##MOLFORM=C15H14N2O3
##CAS REGISTRY NO=139765-25-6
##MP= -300
##BP= -300
##MW= 270
##$RETENTION INDEX=0
##$CONDENSED SPECTRUM=NO
##NPOINTS= 154
##XYDATA=(XY..XY) 1 
    34          1
    36          6
    39         88
    40         18
    41         25
    43          7
    44         11
    45          2
    46          1
    47          0
    50         47
    51        236
    53         18
    54          4
    55          2
    56          0
    57          1
    58          0
    60          0
    61          1
    63         29
    65         54
    66          7
    67          4
    68          1
    69          1
    70          0
    71          0
    72          0
    74         13
    75         16
    77        627
    79         14
    80          4
    81          1
    82          1
    83          1
    84          1
    85          0
    86          0
    87          1
    88          1
    89         12
    91         45
    92          8
    93          5
    94          1
    96          1
    97          1
    98          1
    99          0
   100          1
   102         10
   105        999
   108          9
   110          2
   111          1
   112          2
   113          0
   115          2
   116          8
   117          7
   118         19
   119          9
   120          3
   121          2
   122          2
   123          0
   125          0
   127          1
   128          1
   129          1
   130          3
   131          2
   132          1
   133          1
   135         10
   137          1
   138          0
   139          0
   140          0
   141          0
   142          0
   143          0
   144          0
   145          1
   146          1
   148         44
   149          8
   151          1
   152          1
   153          0
   154          0
   155          0
   156          0
   160          0
   161          0
   162          0
   163          0
   165          6
   166          3
   167          0
   168          0
   173          0
   174          0
   175          0
   176          0
   177          0
   178          1
   179          1
   180          2
   181          0
   182          0
   190          0
   191          0
   192          1
   193          1
   194          2
   195          1
   196          0
   204          0
   205          0
   207          4
   208          2
   209          0
   210          0
   218          0
   219          1
   220          1
   221          7
   222         17
   224        105
   225         14
   226          1
   227          0
   235          0
   238          0
   239          1
   240          3
   241          0
   248          0
   249          0
   250          0
   252          7
   253          1
   254          0
   255          0
   256          0
   258          0
   266          0
   267          0
   268          1
   270         26
   271          3