##TITLE=Library Entry 33311
##JCAMP-DX=Revision 4.10 
##DATA TYPE=MASS SPECTRUM
##SAMPLE DESCRIPTION=A.A.Kutin, Moscow, Russia
##NAMES=HP
##CAS NAME=Tetrazole, 1-(4-bromophenyl)-5-[2-(1-piperidyl)ethenyl]-
##MOLFORM=C14H16BrN5
##CAS REGISTRY NO=139719-86-1
##MP= -300
##BP= -300
##MW= 333
##$RETENTION INDEX=0
##$CONDENSED SPECTRUM=NO
##NPOINTS= 188
##XYDATA=(XY..XY) 1 
    33          8
    37         32
    38        147
    39        486
    40        205
    41        877
    42        555
    43        102
    44         81
    45          4
    50        223
    51        119
    52        168
    53        264
    54        278
    55        412
    56        142
    57         93
    58         11
    59          2
    60          4
    61         21
    62         78
    63        237
    64        100
    65        101
    66        141
    68        999
    69        282
    70         50
    71         21
    72          1
    74         57
    75        271
    76        210
    77         69
    79        225
    80        227
    81        183
    82        252
    83        333
    84        184
    85         37
    86         10
    87         12
    88         25
    89         57
    90        247
    91         87
    92         37
    93         71
    94        151
    95        436
    96        600
    97         74
    98         24
    99         15
   100         12
   102        270
   103         44
   104         35
   105         41
   106         46
   107         78
   108         90
   109         74
   110        276
   111         27
   113         25
   114         25
   115         43
   116         56
   117         48
   118         40
   119         34
   120         45
   121         87
   122        182
   123        619
   124         82
   125          8
   128         17
   129         50
   130         34
   131         43
   132         18
   133         30
   135        357
   136        226
   137         23
   142         39
   143         61
   144         28
   145         23
   146          6
   148          2
   150         60
   151          2
   153          9
   154         20
   155        182
   156         78
   157        245
   158         31
   159         17
   163          3
   167          2
   168         14
   169        129
   170        150
   171         95
   172         17
   173         16
   179          2
   181        189
   182         73
   183        184
   184         78
   185         24
   186         30
   187          8
   193          6
   195         49
   196         52
   197         57
   198         34
   199         11
   200         29
   201         20
   207          2
   208         17
   209         23
   210         26
   211         11
   212          7
   220          6
   221         53
   222         65
   224        147
   225         68
   226         50
   227          7
   229         43
   230          3
   234          6
   235         15
   236         25
   237         22
   238         33
   239          9
   240          9
   247         11
   248        130
   249        225
   250        158
   251        205
   252         37
   253          4
   261          6
   262         20
   263         22
   264         37
   265         24
   266         17
   267          4
   274          4
   276        137
   277         66
   278        134
   279         57
   280         10
   289          9
   290          4
   291         18
   292          7
   293         14
   301          1
   302         14
   304        391
   305        158
   306        361
   307        150
   308         20
   331         10
   333        349
   335        373
   336         52
   337          3