##TITLE=Library Entry 13405
##JCAMP-DX=Revision 4.10 
##DATA TYPE=MASS SPECTRUM
##SAMPLE DESCRIPTION=Div. of Experiment Therapeutics WRAIR, WRAMC, Washingto
n DC 20307
##NAMES=HP
##CAS NAME=(-)-Octahydro-3,6,11-trimethyl-3,12-epoxy-12H-pyridino[4,3-j]1,2-
benzo[c][1,2]-dioxepin-3-one
##MOLFORM=C15H23NO4
##CAS REGISTRY NO=139727-35-8
##MP= -300
##BP= -300
##MW= 281
##$RETENTION INDEX=0
##$CONDENSED SPECTRUM=NO
##NPOINTS= 157
##XYDATA=(XY..XY) 1 
    41        363
    42        293
    43        999
    44         76
    45         16
    47         35
    48          7
    52          0
    53         95
    54          2
    55        309
    56         34
    57          9
    58        158
    59          5
    60        106
    61          3
    63          3
    65         26
    66          1
    67        118
    68         58
    69         70
    70         35
    71         31
    72          1
    73         25
    74          8
    77         39
    78          3
    79         65
    80         18
    81         82
    82         30
    83         24
    88         12
    89          0
    91         40
    92          2
    93         47
    94         27
    95         52
    96         16
    97         17
    98         15
    99          3
   100          1
   101          1
   102          1
   103          3
   105         25
   106         10
   107         33
   108         23
   109         39
   110         39
   111         17
   112          8
   113          5
   114          3
   115          3
   117          6
   118          1
   119         28
   120         16
   121         20
   122         21
   123         26
   124         18
   125          8
   126         13
   127          0
   128          3
   129          1
   131          6
   132          3
   133         12
   134         15
   135         13
   136         31
   137         83
   138         14
   139          6
   140          4
   141          2
   142          1
   143          0
   144          0
   145          4
   146          7
   147         17
   148         13
   149         11
   150         16
   151         29
   152         16
   153          2
   154          2
   155          0
   158          0
   159          1
   160          1
   161          7
   162         25
   163         21
   164         66
   165         53
   166         17
   167          2
   168          2
   169          0
   171          0
   174          3
   176         30
   178        748
   179         89
   180         36
   181          7
   182          3
   183          1
   186          0
   188          1
   189          2
   191        927
   192        132
   193         15
   194         32
   195          7
   196          4
   197          1
   204         10
   205          8
   206          8
   207          3
   210          0
   211          1
   220          1
   221          6
   222         44
   223          8
   224          1
   226          2
   234          0
   235          0
   238          4
   248          2
   249        757
   250        116
   251         11
   252          1
   263         35
   264          6
   265          0
   266          0
   280          0
   281         33
   282          5