##TITLE=Library Entry 78660
##JCAMP-DX=Revision 4.10 
##DATA TYPE=MASS SPECTRUM
##SAMPLE DESCRIPTION=Japan AIST/NIMC Database- Spectrum MS-NW-7304
##NAMES=HP
##CAS NAME=S-Benzoyl-N-(p-nitrobenzylidene)thiohydroxylamine
##MOLFORM=C14H10N2O3S
##CAS REGISTRY NO=139776-09-3
##MP= -300
##BP= -300
##MW= 286
##$RETENTION INDEX=0
##$CONDENSED SPECTRUM=NO
##NPOINTS= 90
##XYDATA=(XY..XY) 1 
    16          1
    17          6
    18          1
    26          3
    27         15
    28          9
    30         21
    32          3
    33          1
    37          7
    38         14
    39         32
    40          2
    41          1
    43          1
    44          1
    45         16
    46          3
    47          1
    48          1
    49          5
    50        103
    51        194
    52         16
    53          3
    56          1
    57          2
    58          9
    59          6
    60          3
    61          4
    62         11
    63         36
    64         11
    65         11
    66          2
    69         32
    70          4
    71          3
    73          3
    74         27
    75         37
    76         50
    77        512
    78         37
    79          2
    81          2
    82         14
    83          3
    84          3
    85          2
    86          2
    87          2
    88          1
    89          3
    90         11
    91         17
    92          3
    93          2
    95          2
    96          3
    99          2
   100          1
   101          1
   102         21
   103          9
   104          6
   105        999
   106         79
   107          9
   108         22
   109          9
   110          2
   118          3
   119          1
   121          2
   122          3
   123          1
   133          1
   134         14
   135         23
   136          4
   137          2
   138          1
   148          8
   149          3
   150          5
   151          2
   181          1
   286          2