##TITLE=Library Entry 4150
##JCAMP-DX=Revision 4.10 
##DATA TYPE=MASS SPECTRUM
##SAMPLE DESCRIPTION=Chemical Concepts
##NAMES=HP
##CAS NAME=9-Borabicyclo[3.3.1]nonane, 9,9'-[1,4-phenylenebis(carbonothioylt
hio)]bis-
##MOLFORM=C24H32B2S4
##CAS REGISTRY NO=139759-17-4
##MP= -300
##BP= -300
##MW= 470
##$RETENTION INDEX=0
##$CONDENSED SPECTRUM=NO
##NPOINTS= 268
##XYDATA=(XY..XY) 1 
    27        264
    28        129
    29        331
    30          8
    31         11
    34          6
    36         10
    37         23
    38         26
    39        288
    40        129
    41        999
    42         49
    43        172
    44         18
    45         48
    50         22
    51         77
    52         56
    53        185
    54         74
    55        503
    56         30
    57         30
    58         13
    59         39
    61          9
    62          9
    63         30
    64         29
    65        143
    66         47
    67        771
    68         72
    69        146
    70         26
    71         63
    73          9
    75          8
    76         36
    77        118
    78         35
    79        155
    80         38
    81        141
    82         32
    83         40
    84         16
    85         22
    87         14
    88          9
    89         27
    90         18
    91         97
    92         35
    93         55
    94         30
    95         48
    96         17
    97         35
    98         10
    99         11
   102          7
   105         14
   106          7
   107         46
   108         24
   109        292
   110         35
   111         25
   112         11
   113         10
   115         14
   116          8
   117         15
   118          6
   119         22
   120        442
   121        226
   122         37
   123         13
   125          6
   128          8
   129          9
   130          6
   131          9
   132         16
   133         15
   134         60
   135         21
   136          6
   137          9
   138          7
   140          7
   141         18
   145         26
   146         33
   147         24
   148         13
   149         17
   150          7
   151         14
   152          9
   153         16
   154          7
   155          7
   157          7
   158         15
   159         17
   160         14
   161          7
   162         23
   163         91
   164        938
   165        358
   166        131
   167         48
   168          9
   169         12
   171         11
   172          6
   173         10
   174          9
   175         41
   176         65
   177         33
   178         26
   179         15
   180          6
   183         14
   184          7
   185         14
   186         11
   187          9
   188         10
   189         20
   190         14
   191         22
   192         13
   193          7
   195          5
   196          6
   197         57
   198         11
   199         14
   200          8
   201         11
   202         13
   203         23
   204          9
   205          9
   206         16
   207        119
   208        270
   209        163
   210         62
   211         24
   212          8
   213         11
   214          9
   215         10
   216          9
   217          9
   219          8
   220         26
   221         83
   222         34
   223         18
   224          6
   225          6
   227          7
   228          6
   229          9
   231          6
   232          7
   233         13
   234         37
   235         45
   236         14
   237          8
   239         11
   240         13
   241         22
   242         15
   243          8
   244          8
   245          9
   246          8
   247         30
   248         26
   249         19
   250         12
   251         27
   252         45
   253         21
   254         20
   255          9
   256          9
   257          7
   258          9
   259         11
   260         13
   261         17
   262          9
   263         10
   264         10
   265         20
   266         18
   267          7
   272         11
   273         38
   274         22
   275         19
   276         10
   277          6
   278         10
   279          8
   282         18
   283         31
   284         23
   285         18
   286         20
   287         10
   288         10
   289         14
   290          5
   291          8
   292          6
   293          8
   299          6
   300         11
   301         13
   304          6
   305          8
   315        113
   316        481
   317        290
   318        126
   319         46
   320         13
   326          7
   327         12
   328         15
   329         10
   350         11
   358          7
   359         42
   360         84
   361         49
   362         51
   363         15
   364         11
   373         12
   374         34
   375         12
   376          6
   387          7
   388          9
   436         10
   437         17
   438          6
   468         13
   469        112
   470        224
   471         82
   472         46
   473         12
   474          6