##TITLE=Library Entry 24415
##JCAMP-DX=Revision 4.10 
##DATA TYPE=MASS SPECTRUM
##SAMPLE DESCRIPTION=Div. of Experiment Therapeutics WRAIR, WRAMC, Washingto
n DC 20307
##NAMES=HP
##CAS NAME=2-t-Butylperoxy-2-ethylbutan-1-ol, propionate ester
##MOLFORM=C13H26O4
##CAS REGISTRY NO=139727-32-5
##MP= -300
##BP= -300
##MW= 246
##$RETENTION INDEX=0
##$CONDENSED SPECTRUM=NO
##NPOINTS= 111
##XYDATA=(XY..XY) 1 
    41        217
    42         41
    43        391
    44         14
    45         74
    46          1
    47          9
    48          3
    49         24
    50         26
    51         22
    52          3
    53         24
    54         11
    55        203
    57        999
    58         40
    59         35
    60          2
    61          2
    62          2
    63          5
    64          2
    65          9
    66          2
    67         24
    68          5
    69         57
    70          9
    71         54
    72         25
    73        347
    74         24
    75         51
    76         11
    77         11
    78          2
    79          7
    80          1
    81         13
    82         25
    83        255
    84         51
    85         12
    86         14
    87         43
    88          4
    89          8
    90          0
    91         10
    92          1
    93          1
    95          2
    96          2
    97          6
    98          3
    99         26
   100         18
   101          6
   102          1
   103          6
   104          4
   105         23
   106          3
   107          1
   108          2
   109          2
   110          2
   111         38
   112          4
   113         15
   114          2
   115          3
   116          1
   117          4
   118          1
   119          2
   123          0
   125          1
   127          1
   128          2
   129          2
   131          1
   133          0
   135          1
   136          0
   138          6
   139         66
   140          1
   141         25
   142          1
   143          1
   145          5
   149          1
   153          0
   154          0
   155          4
   156         18
   157         77
   158          8
   159          3
   163          1
   164          1
   172          0
   173          1
   189          0
   190          0
   203          1
   217          1
   246          1
   247          0