##TITLE=Library Entry 175
##JCAMP-DX=Revision 4.10 
##DATA TYPE=MASS SPECTRUM
##SAMPLE DESCRIPTION=J. COMBOURIEU, CEN. RECH. CHIM. COMB., CNRS, ORLEANS, F
RANCE
##NAMES=HP
##CAS NAME=Bromine azide
##MOLFORM=BrN3
##CAS REGISTRY NO=13973-87-0
##MP= -300
##BP= -300
##MW= 121
##$RETENTION INDEX=0
##$CONDENSED SPECTRUM=NO
##NPOINTS= 11
##XYDATA=(XY..XY) 1 
    14        250
    28        999
    29         10
    42        700
    43         15
    79        250
    81        245
    93        650
    95        635
   121        180
   123        176