##TITLE=Library Entry 23249
##JCAMP-DX=Revision 4.10 
##DATA TYPE=MASS SPECTRUM
##SAMPLE DESCRIPTION=Chemical Concepts
##NAMES=HP
##CAS NAME=1,3-Dioxan-4-one, 2-(1,1-dimethylethyl)-6-(trichloromethyl)-, (2s
-cis)-
##MOLFORM=C9H13Cl3O3
##CAS REGISTRY NO=139883-53-7
##MP= -300
##BP= -300
##MW= 274
##$RETENTION INDEX=0
##$CONDENSED SPECTRUM=NO
##NPOINTS= 67
##XYDATA=(XY..XY) 1 
    26          7
    27         74
    28         10
    29        129
    31          6
    36         14
    38         12
    39         92
    40         11
    41        212
    42         25
    43        109
    44         13
    45         10
    49         26
    51          7
    53          9
    55         22
    56         43
    57        999
    58         56
    59          7
    61         10
    63         12
    69         21
    71         96
    72          8
    73         17
    75         23
    76          6
    77         11
    83         37
    85         34
    86         97
    87         63
    97          9
    99          6
   109         55
   111         43
   112         11
   113         12
   114          6
   117          8
   119          7
   125         16
   127         10
   137         92
   139         59
   141          9
   143         36
   145         34
   147         10
   153         18
   155         12
   157          6
   171        110
   173        106
   175         34
   183         14
   185          9
   195          6
   197          4
   217         27
   219         28
   221         10
   239          2
   241          1