##TITLE=Library Entry 69987
##JCAMP-DX=Revision 4.10 
##DATA TYPE=MASS SPECTRUM
##SAMPLE DESCRIPTION=R. RYHAGE KAROLINSKA INSTITUTET, STOCKHOLM
##NAMES=HP
##CAS NAME=Docosanoic acid, 2-hydroxy-, methyl ester
##MOLFORM=C23H46O3
##CAS REGISTRY NO=13980-17-1
##MP= -300
##BP= -300
##MW= 370
##$RETENTION INDEX=0
##$CONDENSED SPECTRUM=NO
##NPOINTS= 249
##XYDATA=(XY..XY) 1 
    15         71
    17         65
    18        280
    19          8
    26          7
    27         47
    28         57
    29        180
    30         18
    31         86
    32         50
    33         49
    38          2
    39         36
    40         10
    41        400
    42         89
    43        780
    44        100
    45         39
    46          2
    50          3
    51          4
    52          2
    53         23
    54         55
    55        560
    56        130
    57        860
    58         61
    59         54
    60         11
    61         22
    62          3
    65          7
    66         32
    67        240
    68        150
    69        560
    70        110
    71        500
    72         39
    73         21
    74         44
    75         18
    76         23
    77         10
    78          4
    79         33
    80         25
    81        320
    82        310
    83        740
    84        110
    85        380
    86         37
    87         89
    88         21
    89         29
    90        500
    91         29
    92          9
    93         26
    94         24
    95        380
    96        320
    97        999
    98        230
    99        190
   100         37
   101         52
   102          9
   103        270
   104         27
   105         12
   106          4
   107         18
   108         15
   109        240
   110        130
   111        640
   112        100
   113        280
   114        130
   115         28
   116          9
   117          6
   118          3
   119          9
   120          5
   121         23
   122         20
   123        140
   124        100
   125        350
   126         51
   127        350
   128         48
   129         25
   130         10
   131         13
   132         37
   133         11
   134          6
   135         18
   136         15
   137         92
   138        110
   139        190
   140         30
   141        140
   142         27
   143         26
   144          7
   145        190
   146         23
   147          8
   148          4
   149         24
   150          6
   151         42
   152         45
   153        110
   154         22
   155         42
   156         78
   157         21
   158          4
   159        140
   160         14
   161          5
   163          5
   164          3
   165         22
   166         21
   167         75
   168         15
   169         34
   170         56
   171         16
   172          3
   173          3
   175          3
   177          3
   178          2
   179         12
   180         14
   181         51
   182         12
   183         26
   184         12
   185         14
   186          3
   187          5
   189          2
   191          3
   193          9
   194         12
   195         39
   196         11
   197         24
   198          7
   199         13
   200          4
   201          2
   202          3
   205          2
   207          8
   208         13
   209         30
   210         22
   211         22
   212         10
   213         11
   214          3
   221          7
   222         13
   223         23
   224         21
   225         13
   226         11
   227         10
   228          3
   235          9
   236         20
   237         16
   238          7
   239          7
   240          5
   241          8
   242          4
   249          6
   250         11
   251          7
   252          5
   253          5
   254          3
   255         10
   256          8
   257          2
   263          5
   264         21
   265          8
   266         57
   267         17
   268          4
   269          7
   270          4
   277          3
   278          3
   279          8
   280          4
   281          4
   282          2
   283          4
   284          4
   291          9
   292        110
   293         39
   294         14
   295          5
   297          5
   298          7
   299          2
   307          3
   308          2
   309         63
   310         25
   311        600
   312        140
   313         18
   314          3
   320         14
   321          5
   323          3
   325         28
   326          8
   338         75
   339         21
   340         12
   341          5
   352         16
   353          5
   354          6
   355          2
   369        740
   370        230
   371         41
   372          5