##TITLE=Library Entry 11217
##JCAMP-DX=Revision 4.10 
##DATA TYPE=MASS SPECTRUM
##SAMPLE DESCRIPTION=Japan AIST/NIMC Database- Spectrum MS-IW-7535
##NAMES=HP
##CAS NAME=Hexanoic acid, 5-oxo-, ethyl ester
##MOLFORM=C8H14O3
##CAS REGISTRY NO=13984-57-1
##MP= -300
##BP= -300
##MW= 158
##$RETENTION INDEX=0
##$CONDENSED SPECTRUM=NO
##NPOINTS= 89
##XYDATA=(XY..XY) 1 
    14          9
    15         50
    16          1
    18          2
    25          3
    26         31
    27        132
    28         64
    29        179
    30          6
    31         48
    35          5
    37          3
    38          7
    39         62
    40         17
    41         87
    42        202
    43        999
    44         46
    45        151
    46         11
    47          1
    49         10
    50          4
    51          5
    52          3
    53         11
    54          4
    55        374
    56         17
    57          7
    58         97
    59          8
    60        181
    61        118
    62          4
    63          2
    65          5
    66          7
    67          9
    68         13
    69         51
    70        147
    71        107
    72          6
    73        107
    74          5
    75          1
    77          1
    78          1
    79          1
    81          2
    82          6
    83         21
    84        257
    85        378
    86         25
    87        193
    88        517
    89         34
    90          3
    94         10
    95          5
    96          4
    97         36
    98          3
    99          2
   101        102
   102          8
   107          1
   109          2
   110          4
   111         11
   112        704
   113        623
   114         44
   115        103
   116         48
   117          5
   124          2
   129          1
   130          3
   140          7
   141          1
   143         31
   144          2
   158         35
   159          9