##TITLE=Library Entry 28940
##JCAMP-DX=Revision 4.10 
##DATA TYPE=MASS SPECTRUM
##SAMPLE DESCRIPTION=Exported from NIST MS Search
##NAMES=HP
##CAS NAME=Butanenitrile, 4-(dimethylamino)-
##MOLFORM=C6H12N2
##CAS REGISTRY NO=13989-82-7
##MP= -300
##BP= -300
##MW= 112
##$RETENTION INDEX=0
##$CONDENSED SPECTRUM=NO
##NPOINTS= 13
##XYDATA=(XY..XY) 1 
    41          6
    42         13
    43          9
    44         35
    58        999
    59         43
    70         13
    71         22
    72         39
    73          2
   111         23
   112        106
   113          7