##TITLE=Library Entry 5057
##JCAMP-DX=Revision 4.10 
##DATA TYPE=MASS SPECTRUM
##SAMPLE DESCRIPTION=LAC, NIDDK, NIH, Bethesda, MD 20892
##NAMES=HP
##CAS NAME=Hexahydro-1,3,5-trinitroso-1,3,5-triazine
##MOLFORM=C3H6N6O3
##CAS REGISTRY NO=13980-04-6
##MP= -300
##BP= -300
##MW= 174
##$RETENTION INDEX=0
##$CONDENSED SPECTRUM=NO
##NPOINTS= 23
##XYDATA=(XY..XY) 1 
    42        999
    43         20
    45          1
    46          0
    53          6
    54          1
    55          8
    56         11
    57          1
    58         11
    59          4
    69          1
    70          0
    71          0
    73          2
    82          2
    83          0
    88          0
   100        135
   101          3
   117          1
   140          0
   174          0