##TITLE=Library Entry 4160
##JCAMP-DX=Revision 4.10 
##DATA TYPE=MASS SPECTRUM
##SAMPLE DESCRIPTION=Insect Chem. Ecol. Lab., USDA, Beltsville, MD 20705
##NAMES=HP
##CAS NAME=p-Chlorophenyl allyl ether
##MOLFORM=C9H9ClO
##CAS REGISTRY NO=13997-70-1
##MP= -300
##BP= -300
##MW= 168
##$RETENTION INDEX=0
##$CONDENSED SPECTRUM=NO
##NPOINTS= 108
##XYDATA=(XY..XY) 1 
    41        999
    42         36
    43         10
    44          0
    45          0
    47          7
    48          1
    49         18
    50         49
    51         34
    52          3
    53         12
    54         10
    55         22
    56          3
    57          2
    58          0
    59          2
    60          3
    61         22
    62         48
    63        135
    64         39
    65         44
    66          6
    67          1
    68          7
    69          2
    71          2
    72         11
    73        110
    74         37
    75        114
    76         16
    77         35
    78         11
    79         20
    80          1
    81          2
    82          0
    83          1
    84         12
    85         12
    86          8
    87          5
    88          1
    89          5
    90          1
    91         11
    92          7
    93          5
    94          0
    97          3
    98          4
    99        202
   100         29
   101         69
   102         13
   103         27
   104         12
   105         92
   106          9
   107          2
   109          1
   110          0
   111         37
   112         22
   113         19
   114          8
   115         13
   116          1
   119          1
   125         11
   126          5
   127         96
   128        143
   129         40
   130         52
   131         18
   132         11
   133        168
   134         17
   135          2
   137          0
   138          0
   139         10
   140          9
   141         13
   142          4
   143          3
   147          1
   150          1
   151          0
   152          1
   153         23
   154          1
   155          8
   156          0
   161          0
   162          1
   163          0
   164          0
   165          1
   167          7
   168        538
   169         57
   170        182
   171         18