##TITLE=Library Entry 18968
##JCAMP-DX=Revision 4.10 
##DATA TYPE=MASS SPECTRUM
##SAMPLE DESCRIPTION=NIST Mass Spectrometry Data Center
##NAMES=HP
##CAS NAME=trans-2-Pentenoic acid
##MOLFORM=C5H8O2
##CAS REGISTRY NO=13991-37-2
##MP= -300
##BP= -300
##MW= 100
##$RETENTION INDEX=0
##$CONDENSED SPECTRUM=NO
##NPOINTS= 45
##XYDATA=(XY..XY) 1 
    12          9
    17          9
    18          6
    25         17
    26         91
    27        282
    28        119
    29         73
    30         24
    36         17
    37         60
    38        121
    39        663
    40         86
    41        251
    42         34
    43        117
    44         17
    45         89
    46         19
    49         28
    50        129
    51        110
    52         40
    53        261
    54        331
    55        999
    56        241
    57        147
    58        121
    60         32
    66          9
    68         28
    69         13
    71         60
    72         27
    73         49
    79          7
    81         74
    82        178
    83        119
    84         14
    85         43
   100        626
   101         41