##TITLE=Library Entry 31163
##JCAMP-DX=Revision 4.10 
##DATA TYPE=MASS SPECTRUM
##SAMPLE DESCRIPTION=Exported from NIST MS Search
##NAMES=HP
##CAS NAME=Propylamine, N,N,2,2-tetramethyl-, N-oxide
##MOLFORM=C7H17NO
##CAS REGISTRY NO=13993-87-8
##MP= -300
##BP= -300
##MW= 131
##$RETENTION INDEX=0
##$CONDENSED SPECTRUM=NO
##NPOINTS= 16
##XYDATA=(XY..XY) 1 
    41        350
    42        124
    43        480
    44        240
    45         28
    55         68
    56         16
    57        400
    58         48
    59          6
    60        320
    61        999
    62         24
    71         60
    86         60
   131         40