##TITLE=Library Entry 11352
##JCAMP-DX=Revision 4.10 
##DATA TYPE=MASS SPECTRUM
##SAMPLE DESCRIPTION=Japan AIST/NIMC Database- Spectrum MS-IW-6606
##NAMES=HP
##CAS NAME=.beta.-D-Glucopyranosyl azide, 2,3,4,6-tetraacetate
##MOLFORM=C14H19N3O9
##CAS REGISTRY NO=13992-25-1
##MP= -300
##BP= -300
##MW= 373
##$RETENTION INDEX=0
##$CONDENSED SPECTRUM=NO
##NPOINTS= 187
##XYDATA=(XY..XY) 1 
    12          2
    13          4
    14         37
    15         53
    16          5
    17         15
    18         82
    19          1
    25          1
    26          9
    27         46
    28        141
    29         22
    30          4
    31          5
    37          2
    38          4
    39         17
    40         11
    41         35
    42        154
    43        999
    44         59
    45        105
    46          7
    47          1
    50          4
    51          7
    52         12
    53         10
    54          9
    55         24
    56          7
    57         10
    58          2
    59          3
    60        133
    61         22
    62          1
    64          1
    65          2
    66          3
    67          6
    68         34
    69         89
    70         74
    71         17
    72          5
    73         56
    74          7
    75          2
    77          1
    78          2
    79          5
    80         17
    81         98
    82         21
    83          9
    84         13
    85        109
    86         55
    87          7
    88         13
    89          2
    91          1
    93          3
    94          5
    95         17
    96         35
    97         75
    98        106
    99         59
   100         17
   101         14
   102        110
   103        166
   104          9
   105          2
   106          4
   107          4
   108          3
   109         41
   110         18
   111         11
   112         62
   113         21
   114         29
   115        186
   116         31
   117          9
   118          1
   121          1
   122          3
   123         33
   124         25
   125         11
   126         16
   127         72
   128         83
   129         19
   130          6
   131          4
   132          1
   133          1
   135          1
   137          1
   138         14
   139         33
   140         36
   141         81
   142         16
   143         26
   144         43
   145        148
   146         11
   147          2
   149          3
   150          4
   151         10
   152         14
   153          7
   154          7
   155          4
   156         34
   157         95
   158         21
   159          7
   160          2
   161          2
   165          9
   166          7
   167          3
   168          4
   169         68
   170         42
   171          9
   172          4
   173          4
   174          1
   175          2
   180         34
   181          3
   182          4
   183         39
   184         16
   185          3
   186          3
   187         58
   188          6
   189          1
   193         22
   194          3
   198          2
   199          8
   200         19
   201          8
   202          2
   203          4
   210          3
   211          5
   212         28
   213          3
   214          2
   215          1
   216          4
   217          3
   225          4
   226          4
   228          2
   229          3
   230          1
   242          5
   243         15
   244          5
   245          4
   253          4
   259          5
   270          2
   271          2
   272          2
   286          1
   288          1
   289          1
   328          1
   330          3
   331         10
   332          1