##TITLE=Library Entry 66391
##JCAMP-DX=Revision 4.10 
##DATA TYPE=MASS SPECTRUM
##SAMPLE DESCRIPTION=Japan AIST/NIMC Database- Spectrum MS-NW- 393
##NAMES=HP
##CAS NAME=Diphenylcarbazide
##MOLFORM=C13H14N4O
##CAS REGISTRY NO=140-22-7
##MP= -300
##BP= -300
##MW= 242
##$RETENTION INDEX=0
##$CONDENSED SPECTRUM=NO
##NPOINTS= 78
##XYDATA=(XY..XY) 1 
    16          3
    17          2
    18          7
    26          4
    27         15
    28         12
    29         31
    30          2
    31          6
    37         11
    38         27
    39         95
    40         13
    41         13
    42          3
    43         21
    44         91
    45          3
    46          9
    49          4
    50         47
    51        156
    52         45
    53         19
    54          9
    55          3
    56          1
    57          3
    60          2
    61          6
    62         10
    63         38
    64         45
    65        217
    66         85
    67         10
    68          1
    69          2
    73          3
    74         12
    75          8
    76         15
    77        477
    78        144
    79         57
    80         40
    81          9
    82          2
    83          2
    88          1
    90          6
    91        116
    92        313
    93        999
    94        106
    95          5
    97          1
    98          1
   105         67
   106         93
   107        344
   108        777
   109         58
   110          2
   133          7
   134         31
   135          5
   149          2
   150         28
   151        368
   152         31
   153          2
   167          2
   168          3
   169          7
   242        111
   243         16
   244          2