##TITLE=Library Entry 7663
##JCAMP-DX=Revision 4.10 
##DATA TYPE=MASS SPECTRUM
##SAMPLE DESCRIPTION=Japan AIST/NIMC Database- Spectrum MS-NW- 430
##NAMES=HP
##CAS NAME=N-Hexadecylpyridinium bromide
##MOLFORM=C21H38BrN
##CAS REGISTRY NO=140-72-7
##MP= -300
##BP= -300
##MW= 383
##$RETENTION INDEX=0
##$CONDENSED SPECTRUM=NO
##NPOINTS= 142
##XYDATA=(XY..XY) 1 
    15          2
    25          6
    26         52
    27        159
    28         40
    29        317
    30          9
    36          3
    37         16
    38         15
    39        139
    40         25
    41        765
    42        179
    43        999
    44         33
    48          4
    49         24
    50        109
    51        145
    52        258
    53         79
    54         63
    55        716
    56        211
    57        981
    58         43
    60          1
    62          1
    63          2
    64          2
    65          9
    66          5
    67         64
    68         44
    69        426
    70        129
    71        529
    72         29
    73          2
    74          2
    75          8
    76          7
    77          8
    78         41
    79        337
    80         30
    81         27
    82         31
    83        240
    84         65
    85        319
    86         19
    91          4
    92          2
    93          8
    94          5
    95         12
    96         12
    97        143
    98         37
    99         87
   100          7
   105          2
   106          7
   107         20
   108          2
   109         18
   110          5
   111         54
   112         20
   113         57
   114          5
   119          2
   120          3
   121          9
   122          1
   123          9
   124          3
   125         17
   126         12
   127         43
   128          4
   129          3
   130          1
   134          2
   135        510
   136         24
   137        486
   138         21
   139          7
   140          7
   141         34
   142          4
   148         10
   149        108
   150         15
   151        102
   152          6
   153          3
   154          4
   155         29
   156          6
   157          1
   162          5
   163         19
   164          6
   165         18
   167          2
   168          2
   169         20
   170          3
   177          9
   178          2
   179          9
   183          9
   184          2
   191          7
   192          1
   193          6
   196          2
   197          2
   205          5
   207          4
   218          1
   219          4
   221          3
   224          3
   225         41
   226          7
   233          3
   234          1
   235          2
   247          2
   249          2
   253          2
   261          2
   263          1
   302          2
   304         17
   305          7
   306          6