##TITLE=Library Entry 52312
##JCAMP-DX=Revision 4.10 
##DATA TYPE=MASS SPECTRUM
##SAMPLE DESCRIPTION=NIST Mass Spectrometry Data Center, 1990.
##NAMES=HP
##CAS NAME=Cyclopentanepropanoic acid
##MOLFORM=C8H14O2
##CAS REGISTRY NO=140-77-2
##MP= -300
##BP= -300
##MW= 142
##$RETENTION INDEX=2169
##$CONDENSED SPECTRUM=NO
##NPOINTS= 33
##XYDATA=(XY..XY) 1 
    14         43
    27        106
    28        126
    29         73
    32         29
    39        229
    40         60
    41        373
    42         92
    43         66
    45        104
    51         29
    53         98
    54        121
    55        463
    56         71
    57         47
    60        309
    61         45
    65         33
    67        276
    68        138
    69        185
    73        402
    74        138
    79         54
    80         49
    81         65
    82        157
    83        999
    84         74
    95         39
    96         61