##TITLE=Library Entry 518
##JCAMP-DX=Revision 4.10 
##DATA TYPE=MASS SPECTRUM
##SAMPLE DESCRIPTION=Japan AIST/NIMC Database- Spectrum MS-NW- 361
##NAMES=HP
##CAS NAME=1,3-Bis(hydroxymethyl)urea
##MOLFORM=C3H8N2O3
##CAS REGISTRY NO=140-95-4
##MP= -300
##BP= -300
##MW= 120
##$RETENTION INDEX=0
##$CONDENSED SPECTRUM=NO
##NPOINTS= 50
##XYDATA=(XY..XY) 1 
    12          7
    13          9
    14          9
    15          7
    16         77
    17        315
    18        252
    19          5
    26          5
    27         42
    28        284
    29        999
    30        774
    31        378
    32          8
    41         12
    42         32
    43        160
    44        935
    45         54
    46        936
    47         58
    48          7
    53          4
    55          7
    56         45
    57          9
    58          9
    59         95
    60        462
    61         12
    62         15
    69          5
    70          3
    71          5
    72         76
    73         23
    74         91
    75          4
    76          4
    83          5
    85          9
    89         90
    90          6
    95          4
    97          4
   101         45
   102         50
   103          7
   119          8