##TITLE=Library Entry 97922
##JCAMP-DX=Revision 4.10 
##DATA TYPE=MASS SPECTRUM
##SAMPLE DESCRIPTION=Japan AIST/NIMC Database- Spectrum MS-NW-9572
##NAMES=HP
##CAS NAME=N,N,N',N'-Tetrakis(2-hydroxyethyl)ethylenediamine
##MOLFORM=C10H24N2O4
##CAS REGISTRY NO=140-07-8
##MP= -300
##BP= -300
##MW= 236
##$RETENTION INDEX=0
##$CONDENSED SPECTRUM=NO
##NPOINTS= 83
##XYDATA=(XY..XY) 1 
    15          3
    17          1
    18          7
    27          7
    28         17
    29          7
    30         29
    31          3
    41          5
    42         30
    43         10
    44         37
    45         49
    46          1
    54          2
    55          2
    56        101
    57          9
    58         15
    59          1
    65          6
    68          1
    69          1
    70         22
    71          3
    72          7
    73          2
    74        151
    75          6
    76          1
    83          1
    84          1
    85          2
    86          7
    87         20
    88        155
    89          9
    97          1
    98          1
    99          2
   100         20
   101         11
   102         19
   103          1
   104          1
   106          1
   112          1
   113          3
   114          7
   115          1
   116          2
   117          2
   118        999
   119         68
   120          6
   125          2
   126          1
   128          1
   129          1
   130          6
   131         19
   132         29
   133          2
   141          1
   143         10
   144          6
   156          7
   157          2
   158          3
   159          1
   161          6
   162         23
   163          2
   169          3
   170          5
   187         17
   188          6
   189          1
   193          2
   205          4
   206          1
   236          1
   237          2