##TITLE=Library Entry 12438
##JCAMP-DX=Revision 4.10 
##DATA TYPE=MASS SPECTRUM
##SAMPLE DESCRIPTION=Japan AIST/NIMC Database- Spectrum MS-NW-6842
##NAMES=HP
##CAS NAME=Nithiamide
##MOLFORM=C5H5N3O3S
##CAS REGISTRY NO=140-40-9
##MP= -300
##BP= -300
##MW= 187
##$RETENTION INDEX=0
##$CONDENSED SPECTRUM=NO
##NPOINTS= 75
##XYDATA=(XY..XY) 1 
    12          1
    13          2
    14          9
    15         63
    16          2
    17         10
    18         50
    25          1
    26          3
    27         17
    28         38
    29          5
    30         29
    32          9
    33          1
    34          1
    38          5
    39          6
    40          4
    41          7
    42         29
    43        999
    44         33
    45         43
    46          5
    47          3
    48          2
    51          1
    52          2
    53         18
    54         14
    55         30
    56          3
    57         50
    58          8
    59         12
    60         12
    61          2
    62          1
    64          1
    66          1
    69          2
    70         24
    71         78
    72         32
    73          6
    74          2
    76          2
    82          2
    83          4
    84          1
    85          2
    86          2
    97          9
    98        105
    99        133
   100         13
   101          7
   112          1
   113          2
   115          4
   129         39
   130          3
   131          2
   145        531
   146         30
   147         28
   148          2
   149          2
   158          1
   171          1
   172          3
   187        140
   188         11
   189          8