##TITLE=Library Entry 96739
##JCAMP-DX=Revision 4.10 
##DATA TYPE=MASS SPECTRUM
##SAMPLE DESCRIPTION=Japan AIST/NIMC Database- Spectrum MS-NW-3554
##NAMES=HP
##CAS NAME=Benzeneacetonitrile, 4-chloro-
##MOLFORM=C8H6ClN
##CAS REGISTRY NO=140-53-4
##MP= -300
##BP= -300
##MW= 151
##$RETENTION INDEX=0
##$CONDENSED SPECTRUM=NO
##NPOINTS= 69
##XYDATA=(XY..XY) 1 
    26          4
    27          5
    28          4
    35          1
    36          3
    37         13
    38         17
    39         34
    40          4
    41          2
    43          7
    44          7
    47          2
    48          2
    49          8
    50         45
    51         27
    52          5
    55          1
    56          3
    57         21
    58          4
    60          3
    61         16
    62         29
    63         54
    64         15
    65          9
    66          1
    72          3
    73         18
    74         19
    75         39
    76         11
    77          4
    78          1
    84          4
    85          9
    86          8
    87         15
    88         23
    89        139
    90         24
    91          2
    97          5
    98          2
    99          9
   100          2
   101          3
   102          1
   110          1
   111          8
   112          3
   113          3
   114         21
   115         21
   116        999
   117         91
   118          5
   123         20
   124         12
   125         26
   126          6
   127          7
   150         42
   151        268
   152         38
   153         91
   154          9