##TITLE=Library Entry 73483
##JCAMP-DX=Revision 4.10 
##DATA TYPE=MASS SPECTRUM
##SAMPLE DESCRIPTION=Tox21 Consortium/NIST Mass Spectrometry Data Center, 20
12
##NAMES=HP
##CAS NAME=Morpholine, 4-[3-(4-butoxyphenoxy)propyl]-
##MOLFORM=C17H27NO3
##CAS REGISTRY NO=140-65-8
##MP= -300
##BP= -300
##MW= 293
##$RETENTION INDEX=2270
##$CONDENSED SPECTRUM=NO
##NPOINTS= 112
##XYDATA=(XY..XY) 1 
    15          2
    26          2
    27         10
    28         17
    29         41
    30          6
    31          1
    38          1
    39         12
    40          2
    41         70
    42         65
    43         23
    44          9
    45          4
    50          2
    51          2
    52          2
    53          6
    54         10
    55         18
    56         58
    57         26
    58          5
    59          1
    63          4
    64          6
    65         11
    66          4
    67          3
    68         12
    69         14
    70        107
    71         14
    72         10
    73          2
    75          1
    76          3
    77          4
    78          2
    79          3
    80          3
    81         15
    82         13
    83          4
    84         16
    85          6
    86         18
    87         13
    88          3
    89          1
    91          3
    92          2
    93          8
    94          5
    95          4
    96          8
    97         12
    98         46
   100        999
   101         62
   102          4
   103          1
   105          1
   106          1
   107          6
   108          3
   109         30
   110         35
   111          3
   112          9
   113         26
   114          6
   115          1
   119          1
   120          2
   121          3
   122          3
   123          8
   124          1
   126         11
   128        719
   129         59
   130          4
   133          3
   134          1
   135          2
   136          4
   137          2
   142          1
   143          2
   144          2
   149          3
   150          4
   151          2
   163          1
   165          1
   166          1
   176          1
   177          1
   178          1
   179          1
   192          1
   205          1
   206          1
   236          1
   248          1
   291          1
   292          2
   293         24
   294          5
   295          1