##TITLE=Library Entry 61269
##JCAMP-DX=Revision 4.10 
##DATA TYPE=MASS SPECTRUM
##SAMPLE DESCRIPTION=Chemical Concepts
##NAMES=HP
##CAS NAME=Dodecanoic acid, phenylmethyl ester
##MOLFORM=C19H30O2
##CAS REGISTRY NO=140-25-0
##MP= -300
##BP= -300
##MW= 290
##$RETENTION INDEX=2097
##$CONDENSED SPECTRUM=NO
##NPOINTS= 180
##XYDATA=(XY..XY) 1 
    25          0
    26          4
    27        105
    28         36
    29        240
    30          5
    31          2
    36          0
    37          1
    38          5
    39         98
    40         17
    41        373
    42         89
    43        502
    44         22
    45         10
    46          2
    49          0
    50         11
    51         35
    52         11
    53         19
    54         18
    55        247
    56         57
    57        349
    58         17
    59          8
    60          5
    61          1
    62          4
    63         22
    64          8
    65        129
    66          9
    67         37
    68         18
    69        117
    70         26
    71        133
    72          7
    73         16
    74          3
    75          1
    76          2
    77         56
    78         15
    79         74
    80          8
    81         44
    82         12
    83        133
    84         39
    85         82
    86          6
    87         10
    88          0
    89         37
    90         73
    91        999
    92        378
    93         35
    94          4
    95         53
    96         25
    97        126
    98         38
    99         16
   100          4
   101         20
   102          2
   103          1
   104         10
   105         26
   106          8
   107         78
   108        896
   109        112
   110         14
   111         46
   112          8
   113          5
   114          7
   115         20
   116          3
   117          5
   118          2
   119          4
   120          1
   121         12
   122          1
   123         15
   124          4
   125         31
   126          4
   127          5
   128          1
   129          8
   130          2
   131          2
   132          2
   133          2
   134          1
   135          3
   136          7
   137          7
   138         10
   139         25
   140          2
   141          1
   142          0
   143          5
   144          1
   145          0
   146          0
   147          1
   148          0
   149          0
   150          8
   151          3
   152          1
   153          0
   154          0
   155          1
   156          0
   157          2
   158          1
   159          1
   160          0
   161          1
   162          7
   163         64
   164          8
   165          1
   166          0
   167          0
   169          0
   170          0
   173          0
   174          0
   175          0
   176          0
   177          5
   178          0
   179          1
   180         12
   181         65
   182          8
   183         39
   184          5
   185          0
   187          0
   188          0
   189          1
   190          0
   191          2
   192          0
   196          0
   197          0
   198          3
   199         62
   200          8
   201          1
   202          0
   203          2
   204          0
   205          0
   206          0
   217          2
   218          0
   219          0
   230          1
   231          0
   244          0
   272          2
   273          0
   290         16
   291          3
   292          0