##TITLE=Library Entry 18858
##JCAMP-DX=Revision 4.10 
##DATA TYPE=MASS SPECTRUM
##SAMPLE DESCRIPTION=NIST Mass Spectrometry Data Center, 1998.
##NAMES=HP
##CAS NAME=2-Propenoic acid, ethyl ester
##MOLFORM=C5H8O2
##CAS REGISTRY NO=140-88-5
##MP= -300
##BP= -300
##MW= 100
##$RETENTION INDEX=648
##$CONDENSED SPECTRUM=NO
##NPOINTS= 46
##XYDATA=(XY..XY) 1 
    13          1
    14          2
    15          8
    19          1
    24          1
    25          7
    26         63
    27        239
    28         30
    29        138
    30          8
    31         14
    37          1
    38          2
    39          4
    40          2
    41         22
    42         11
    43         62
    44         22
    45        115
    46          3
    52          2
    53         21
    54         68
    55        999
    56        168
    57         22
    58         52
    59          2
    60          2
    69          1
    70          1
    71          5
    72         15
    73         79
    74          3
    81          4
    82         57
    83          6
    84          1
    85         54
    86          2
    99         84
   100         11
   101          2