##TITLE=Library Entry 55004
##JCAMP-DX=Revision 4.10 
##DATA TYPE=MASS SPECTRUM
##SAMPLE DESCRIPTION=Exported from NIST MS Search
##NAMES=HP
##CAS NAME=Butanoic acid, 3-methyl-, 3-phenyl-2-propenyl ester
##MOLFORM=C14H18O2
##CAS REGISTRY NO=140-27-2
##MP= -300
##BP= -300
##MW= 218
##$RETENTION INDEX=1670
##$CONDENSED SPECTRUM=NO
##NPOINTS= 58
##XYDATA=(XY..XY) 1 
    27        166
    28         95
    29        179
    30          5
    31         10
    38         17
    39        193
    40         24
    41        224
    42         56
    43        130
    44          7
    45          6
    50         30
    51         87
    52         21
    53         13
    55         32
    56         12
    57        855
    58         44
    60         11
    62         12
    63         43
    64         10
    65         42
    69         12
    71          7
    74          8
    75         12
    76         14
    77         94
    78         49
    79         20
    85        999
    86         57
    87          8
    89         26
    90          7
    91        145
    92         41
   102         27
   103         47
   104         29
   105         48
   106          6
   113          7
   114         26
   115        370
   116        202
   117        519
   118         60
   131         14
   133         73
   134         67
   135          6
   218        128
   219         20