##TITLE=Library Entry 72056
##JCAMP-DX=Revision 4.10 
##DATA TYPE=MASS SPECTRUM
##SAMPLE DESCRIPTION=RADIAN CORP
##NAMES=HP
##CAS NAME=1-Piperazineethanamine
##MOLFORM=C6H15N3
##CAS REGISTRY NO=140-31-8
##MP= -300
##BP= -300
##MW= 129
##$RETENTION INDEX=1186
##$CONDENSED SPECTRUM=NO
##NPOINTS= 55
##XYDATA=(XY..XY) 1 
    15         10
    18          6
    26          8
    27         43
    28        180
    29         79
    30        216
    31          5
    39          7
    40         13
    41         76
    42        233
    43        123
    44        285
    45         14
    52          5
    53          5
    54         35
    55         36
    56        751
    57         80
    58         94
    59          4
    61         12
    67          4
    68         29
    69         30
    70        431
    71         50
    72         29
    73          5
    80          5
    81          5
    82         12
    83         34
    84        117
    85         31
    86          6
    87        131
    88          6
    95          2
    97         29
    98         26
    99        999
   100         75
   101          1
   111          5
   112         47
   113          8
   119          1
   120          2
   122          1
   127          6
   129          3
   130          2