##TITLE=Library Entry 85079
##JCAMP-DX=Revision 4.10 
##DATA TYPE=MASS SPECTRUM
##SAMPLE DESCRIPTION=Japan AIST/NIMC Database- Spectrum MS-NW-3364
##NAMES=HP
##CAS NAME=Acetic acid, 4-methylphenyl ester
##MOLFORM=C9H10O2
##CAS REGISTRY NO=140-39-6
##MP= -300
##BP= -300
##MW= 150
##$RETENTION INDEX=1169
##$CONDENSED SPECTRUM=NO
##NPOINTS= 52
##XYDATA=(XY..XY) 1 
    14          4
    15         19
    26          4
    27         23
    28          4
    29          1
    37          2
    38          6
    39         27
    40          3
    41          3
    42          8
    43        136
    44          3
    49          2
    50         18
    51         38
    52         23
    53         24
    54          2
    55          5
    61          2
    62          6
    63         13
    64          4
    65         14
    66          3
    68          1
    74          3
    75          2
    76          1
    77         83
    78         27
    79         59
    80         33
    81          4
    86          1
    89          6
    90         41
    91         25
    92          2
    94          3
   105          2
   106          6
   107        414
   108        999
   109         77
   110          4
   121          1
   150        101
   151         10
   152          1