##TITLE=Library Entry 76827
##JCAMP-DX=Revision 4.10 
##DATA TYPE=MASS SPECTRUM
##SAMPLE DESCRIPTION=Chemical Concepts
##NAMES=HP
##CAS NAME=Butanoic acid, 3-methyl-, 2-phenylethyl ester
##MOLFORM=C13H18O2
##CAS REGISTRY NO=140-26-1
##MP= -300
##BP= -300
##MW= 206
##$RETENTION INDEX=1490
##$CONDENSED SPECTRUM=NO
##NPOINTS= 82
##XYDATA=(XY..XY) 1 
    27         32
    28          2
    29         44
    30          0
    31          2
    32          0
    37          0
    38          2
    39         30
    40          2
    41         75
    42         13
    43         35
    44          1
    45          2
    46          0
    50          5
    51         21
    52          6
    53          4
    54          0
    55          8
    56          5
    57        242
    58         11
    59          3
    60          1
    61          0
    62          1
    63          6
    64          2
    65         26
    66          1
    67          0
    68          0
    69          5
    70          0
    71          0
    72          0
    73          0
    74          1
    75          1
    76          2
    77         42
    78         25
    79         29
    80          1
    81          0
    82          0
    83          1
    84          0
    85        139
    86          8
    87          1
    88          0
    89          5
    90          3
    91         49
    92          9
    93          1
    96          0
   100          0
   101          1
   102          4
   103         32
   104        999
   105        235
   106         17
   107          0
   115          0
   117          0
   119          0
   120          0
   121          0
   122          0
   131          0
   133          0
   145          0
   147          0
   149          1
   154          0
   170          0