##TITLE=Library Entry 63266
##JCAMP-DX=Revision 4.10 
##DATA TYPE=MASS SPECTRUM
##SAMPLE DESCRIPTION=NIST Mass Spectrometry Data Center, 1994
##NAMES=HP
##CAS NAME=Dibenzyl sebacate
##MOLFORM=C24H30O4
##CAS REGISTRY NO=140-24-9
##MP= -300
##BP= -300
##MW= 382
##$RETENTION INDEX=0
##$CONDENSED SPECTRUM=NO
##NPOINTS= 157
##XYDATA=(XY..XY) 1 
    12          0
    13          0
    15          0
    27         26
    29         30
    30          0
    31          2
    37          1
    39         45
    41         85
    42         30
    43         62
    44          2
    45          4
    50          8
    51         25
    52          8
    53          8
    54          1
    55        100
    56         19
    57         21
    58          2
    59          5
    60          3
    61          1
    62          4
    63         17
    64          1
    65        104
    66          7
    67         19
    68         13
    69         74
    70         10
    71          9
    73          9
    74          1
    75          1
    76          1
    77         46
    78         15
    79         53
    80          8
    81         37
    82          7
    83         29
    84         15
    85          5
    86          1
    87          4
    88          1
    89         43
    90          1
    91        999
    92         88
    93         20
    94          4
    95         22
    96          1
    97         87
    98         28
    99          4
   101          8
   102          0
   103          1
   104          4
   105         16
   106          0
   107         38
   108         41
   109          5
   111         25
   112          4
   113          1
   115          6
   117          5
   118          1
   119          5
   120          1
   121         70
   122          7
   123          2
   124          0
   125          0
   127          0
   128          0
   129          1
   130          1
   131          7
   132          0
   133          1
   134          0
   135          1
   137          3
   139        147
   140         16
   141          2
   142          0
   143          1
   144          0
   145          1
   147          0
   149         11
   150          1
   151          0
   152          0
   153          0
   155          0
   157          2
   158          0
   159          0
   163          1
   164          0
   165          2
   166          2
   167          7
   168          1
   169          1
   177          0
   178          1
   179          2
   180          8
   181          5
   185        903
   186         95
   187         10
   188          0
   195          0
   197          2
   198          0
   209          1
   211          2
   212          0
   219          0
   227          0
   229          1
   230          1
   237          0
   245          1
   246          0
   247          0
   248          1
   249          0
   255          3
   256          0
   257          1
   258          0
   263          2
   264          0
   273          0
   274          0
   275          1
   276          2
   277          0
   291          7
   292          1