##TITLE=Library Entry 4928
##JCAMP-DX=Revision 4.10 
##DATA TYPE=MASS SPECTRUM
##SAMPLE DESCRIPTION=NIST Mass Spectrometry Data Center, 1994
##NAMES=HP
##CAS NAME=Piperazine, 1,4-dinitroso-
##MOLFORM=C4H8N4O2
##CAS REGISTRY NO=140-79-4
##MP= -300
##BP= -300
##MW= 144
##$RETENTION INDEX=0
##$CONDENSED SPECTRUM=NO
##NPOINTS= 34
##XYDATA=(XY..XY) 1 
    12          5
    13          0
    14         29
    15        104
    16          8
    18         10
    26         94
    27        190
    28        450
    29        150
    30        359
    38          7
    39         17
    40         59
    41        164
    42        999
    43         17
    44          6
    51          9
    52         20
    53         10
    54         87
    55        341
    56        286
    57        348
    58         13
    81          9
    84        483
    85         33
   114        113
   115          8
   144        151
   145          8
   146          0