##TITLE=Library Entry 97221
##JCAMP-DX=Revision 4.10 
##DATA TYPE=MASS SPECTRUM
##SAMPLE DESCRIPTION=Exported from NIST MS Search
##NAMES=HP
##CAS NAME=Benzyl nitrile
##MOLFORM=C8H7N
##CAS REGISTRY NO=140-29-4
##MP= -300
##BP= -300
##MW= 117
##$RETENTION INDEX=1144
##$CONDENSED SPECTRUM=NO
##NPOINTS= 80
##XYDATA=(XY..XY) 1 
    14          6
    15          6
    16          1
    17          1
    18          3
    24          1
    25          4
    26         27
    27         43
    28         18
    29          1
    31          1
    32          2
    36          3
    37         44
    38         70
    39        150
    40         17
    41         13
    42          1
    43         10
    44          4
    45          2
    46          1
    48          1
    49         16
    50        120
    51        175
    52         31
    53          5
    54          1
    56          2
    57          1
    58          4
    59          3
    60          4
    61         33
    62         64
    63        130
    64         54
    65         51
    66          7
    67          1
    68          1
    69          6
    70          3
    72          1
    73          8
    74         31
    75         25
    76         20
    77         78
    78         12
    79          1
    84          2
    85          7
    86         12
    87         17
    88         29
    89        230
    90        380
    91         85
    92          5
    97          1
    98          1
    99          1
   100          1
   101          1
   102          2
   103          1
   110          1
   111          2
   112          1
   113          1
   114          8
   115         19
   116        370
   117        999
   118         89
   119          4