##TITLE=Library Entry 76051
##JCAMP-DX=Revision 4.10 
##DATA TYPE=MASS SPECTRUM
##SAMPLE DESCRIPTION=Japan AIST/NIMC Database- Spectrum MS-NW-8947
##NAMES=HP
##CAS NAME=Methyl 2,2-dimethyl-3-hydroxypropionate
##MOLFORM=C6H12O3
##CAS REGISTRY NO=14002-80-3
##MP= -300
##BP= -300
##MW= 132
##$RETENTION INDEX=0
##$CONDENSED SPECTRUM=NO
##NPOINTS= 63
##XYDATA=(XY..XY) 1 
    14          1
    15         57
    16          1
    26          4
    27         55
    28         11
    29         45
    30          6
    31        111
    32          3
    33         19
    37          1
    38          4
    39         75
    40         16
    41        170
    42        135
    43        187
    44          9
    45         86
    46          2
    51          2
    52          1
    53         14
    54          8
    55        316
    56         34
    57         75
    58          6
    59        106
    60          6
    61         23
    68          1
    69         53
    70        358
    71         59
    72         22
    73        447
    74         66
    75          4
    77          1
    81          1
    82         19
    83         84
    84          7
    85         48
    86          5
    87        478
    88         20
    89          2
    99         18
   100          6
   101        145
   102        999
   103         56
   104          5
   113          1
   114         62
   115          8
   117          9
   131          1
   132         16
   133          1