##TITLE=Library Entry 56383
##JCAMP-DX=Revision 4.10 
##DATA TYPE=MASS SPECTRUM
##SAMPLE DESCRIPTION=Tox21 Consortium/NIST Mass Spectrometry Data Center, 20
12
##NAMES=HP
##CAS NAME=Butetamate
##MOLFORM=C16H25NO2
##CAS REGISTRY NO=14007-64-8
##MP= -300
##BP= -300
##MW= 263
##$RETENTION INDEX=1754
##$CONDENSED SPECTRUM=NO
##NPOINTS= 81
##XYDATA=(XY..XY) 1 
    15          1
    18          2
    26          1
    27          9
    28         16
    29         27
    30         37
    31          1
    39          8
    40          1
    41         22
    42         35
    43          9
    44         30
    45          3
    50          2
    51          7
    52          2
    53          1
    54          3
    55          4
    56         39
    57         17
    58         50
    59          2
    62          1
    63          5
    64          1
    65          8
    66          1
    68          1
    69          2
    70         13
    71         21
    72         10
    73          4
    74          1
    75          1
    76          1
    77         13
    78          8
    79          5
    84         19
    85          6
    86        999
    87         59
    88          2
    89          8
    90         10
    91        133
    92         10
    98          2
    99         93
   100         22
   101          2
   102          4
   103          9
   104         11
   105          3
   106          1
   107          1
   109          1
   114          1
   115         10
   116          4
   117         10
   118          8
   119         28
   120          3
   131          1
   146          1
   147          1
   149          1
   162          3
   163          1
   191         29
   192          4
   248          4
   249          1
   262          1
   263          2