##TITLE=Library Entry 44655
##JCAMP-DX=Revision 4.10 
##DATA TYPE=MASS SPECTRUM
##SAMPLE DESCRIPTION=Chemical Concepts
##NAMES=HP
##CAS NAME=2H-Pyran-3,4,5-triol, tetrahydro-2-methoxy-6-methyl-
##MOLFORM=C7H14O5
##CAS REGISTRY NO=14009-07-5
##MP= -300
##BP= -300
##MW= 178
##$RETENTION INDEX=0
##$CONDENSED SPECTRUM=NO
##NPOINTS= 80
##XYDATA=(XY..XY) 1 
    26         10
    27         71
    28          2
    29        107
    30         20
    31        147
    33         59
    37          1
    38          3
    39         41
    40         10
    41         82
    42         58
    43        154
    44         17
    45        133
    46          3
    47          8
    50          4
    51          3
    52          1
    53         18
    54         10
    55         39
    56         48
    57        139
    58        407
    59        132
    60        854
    61        227
    62          9
    63          3
    65          2
    67          2
    68          2
    69         19
    70          8
    71        197
    72         22
    73        115
    74        999
    75         79
    76          8
    77          2
    81          4
    82          5
    83         21
    84          3
    85         72
    86          6
    87         77
    88         23
    89         11
    91          2
    93          1
    95          1
    97          2
    99          8
   100         36
   101         10
   102          2
   103          9
   104         10
   105         31
   106          2
   111          4
   116         37
   117          5
   118         37
   119          4
   120         20
   121          2
   128          4
   129         22
   130          2
   131          1
   133          4
   134          3
   147         28
   148          2