##TITLE=Library Entry 109880
##JCAMP-DX=Revision 4.10 
##DATA TYPE=MASS SPECTRUM
##SAMPLE DESCRIPTION=V.A. KOPTYUG, VOL5, ATLAS OF MS OF ORGANIC COMPOUNDS
##NAMES=HP
##CAS NAME=Pyrimidine, 2-methoxy-5-nitro-
##MOLFORM=C5H5N3O3
##CAS REGISTRY NO=14001-69-5
##MP= -300
##BP= -300
##MW= 155
##$RETENTION INDEX=0
##$CONDENSED SPECTRUM=NO
##NPOINTS= 72
##XYDATA=(XY..XY) 1 
    36         30
    37          5
    38         40
    39        106
    40         56
    41          8
    42         83
    43         13
    44         33
    46         20
    48          3
    50          5
    51         54
    52        139
    53        164
    54         96
    55         46
    56         42
    57         18
    58         51
    59         21
    64          4
    65         46
    66         63
    67        137
    68         22
    69         12
    70         16
    71          3
    72          7
    76          4
    77         54
    78         22
    79        427
    80         55
    81         67
    82         79
    83         13
    84         18
    91          2
    93          2
    94        103
    95         27
    96          7
    97         23
    98         72
    99          4
   100          1
   106          2
   107          5
   108         49
   109         63
   110         18
   111          2
   114          3
   122         54
   123         47
   124         10
   125        999
   126        133
   127         24
   128          5
   137          1
   138          6
   139         11
   140         20
   141          2
   144          2
   154         98
   155        573
   156         49
   157          6