##TITLE=Library Entry 96722
##JCAMP-DX=Revision 4.10 
##DATA TYPE=MASS SPECTRUM
##SAMPLE DESCRIPTION=Institute of Organic Chemistry, USSR, 1990
##NAMES=HP
##CAS NAME=3,3-Dimethylbenzonorbornen-2-one
##MOLFORM=C13H14O
##CAS REGISTRY NO=140169-19-3
##MP= -300
##BP= -300
##MW= 186
##$RETENTION INDEX=0
##$CONDENSED SPECTRUM=NO
##NPOINTS= 72
##XYDATA=(XY..XY) 1 
    40          9
    41         87
    42         20
    43         94
    44         73
    45         31
    50         15
    51         46
    52         10
    53         10
    55         30
    56         12
    57         43
    58         30
    62         12
    63         69
    64         24
    65         54
    67         10
    69         28
    70         20
    71         61
    72         11
    74         12
    75         18
    76         18
    77         37
    78         12
    79          5
    81         15
    83         26
    85         18
    86          6
    87         18
    88          8
    89         73
    90          6
    91         47
    94         25
    95         10
    97         11
    99          8
   101          9
   102         23
   103          9
   109          5
   110          5
   111          6
   113         11
   114         11
   115        588
   116        999
   117        112
   126          9
   127         80
   128        315
   129        151
   130         26
   139         23
   141        105
   142         65
   143        842
   144        104
   145         10
   149          9
   152          6
   157         36
   158        166
   159         19
   172         20
   186        241
   187         38