##TITLE=Library Entry 6810
##JCAMP-DX=Revision 4.10 
##DATA TYPE=MASS SPECTRUM
##SAMPLE DESCRIPTION=Exported from NIST MS Search
##NAMES=HP
##CAS NAME=Hydroperoxide, 1-methylbutyl
##MOLFORM=C5H12O2
##CAS REGISTRY NO=14018-58-7
##MP= -300
##BP= -300
##MW= 104
##$RETENTION INDEX=855
##$CONDENSED SPECTRUM=NO
##NPOINTS= 51
##XYDATA=(XY..XY) 1 
    12          2
    13          4
    14         21
    15        108
    16         30
    19         16
    26         42
    27        272
    28        124
    29        255
    30         15
    31        159
    32         29
    33          5
    34         14
    37          6
    38         15
    39        132
    40         22
    41        239
    42         83
    43        999
    44        128
    45        317
    46         30
    47          5
    50          4
    51          5
    52          2
    53         12
    54          3
    55        113
    56         13
    57         29
    58         21
    59          7
    60          3
    61         70
    62          3
    63          2
    67          4
    69          9
    70         28
    71        145
    72         20
    73         24
    75          4
    83          3
    86          4
    87          4
   104         27