##TITLE=Library Entry 89863
##JCAMP-DX=Revision 4.10 
##DATA TYPE=MASS SPECTRUM
##SAMPLE DESCRIPTION=Dmitri Zagorevskii, University of Missouri-Columbia, Co
lumbia, MO
##NAMES=HP
##CAS NAME=4-(2-Methacriloyloxyethoxy)azobenzene
##MOLFORM=C18H18N2O3
##CAS REGISTRY NO=140191-27-1
##MP= -300
##BP= -300
##MW= 310
##$RETENTION INDEX=0
##$CONDENSED SPECTRUM=NO
##NPOINTS= 48
##XYDATA=(XY..XY) 1 
    27         11
    29          2
    31          2
    38          6
    39         42
    40         10
    41        266
    42         10
    43          9
    44          5
    45          9
    50         15
    51         49
    52          7
    53          1
    55          6
    63         16
    64         25
    65         21
    69        246
    70         10
    75          6
    76         30
    77        260
    78         21
    79          5
    91         21
    92         11
    93         11
   105         34
   106          6
   112          2
   113        999
   114         73
   115         24
   116          2
   117          7
   119          6
   121          2
   131          4
   133         34
   141          6
   149          8
   161         10
   197          2
   233          8
   310         50
   311          9