##TITLE=Library Entry 57955
##JCAMP-DX=Revision 4.10 
##DATA TYPE=MASS SPECTRUM
##SAMPLE DESCRIPTION=Japan AIST/NIMC Database- Spectrum MS-NW-5915
##NAMES=HP
##CAS NAME=Heptadecanoic acid, ethyl ester
##MOLFORM=C19H38O2
##CAS REGISTRY NO=14010-23-2
##MP= -300
##BP= -300
##MW= 298
##$RETENTION INDEX=2094
##$CONDENSED SPECTRUM=NO
##NPOINTS= 158
##XYDATA=(XY..XY) 1 
    15          3
    17          1
    18          3
    26          4
    27         51
    28         11
    29        180
    30          4
    31          7
    39         23
    40          6
    41        227
    42         52
    43        328
    44         12
    45         56
    46          2
    47          1
    51          1
    53         12
    54         19
    55        220
    56         55
    57        213
    58         11
    59         10
    60         96
    61        126
    62          3
    65          2
    66          2
    67         30
    68         18
    69        129
    70        125
    71         92
    72          5
    73        160
    74         21
    75          7
    77          3
    78          1
    79          7
    80          4
    81         27
    82         14
    83         85
    84         44
    85         46
    86          4
    87         26
    88        999
    89        145
    90          9
    91          3
    92          1
    93          7
    94          3
    95         24
    96         10
    97         62
    98         61
    99         11
   100          2
   101        596
   102         50
   103          5
   107          5
   108          2
   109         14
   110          5
   111         30
   112         13
   113          6
   114          1
   115         56
   116          6
   117          1
   119          1
   121          6
   122          1
   123          7
   124          3
   125         15
   126          4
   127          3
   128          1
   129         25
   130         10
   131          1
   135          5
   136          1
   137          4
   138          2
   139          9
   140          2
   141          2
   143         53
   144         11
   145          2
   149          5
   151          2
   152          1
   153          5
   154          1
   155          1
   157        112
   158         13
   159          2
   163          3
   165          1
   166          1
   167          4
   168          1
   169          1
   171         13
   172          3
   177          1
   181          2
   185          9
   186          3
   191          1
   195          1
   196          1
   199         27
   200          6
   201          1
   205          1
   208          1
   209          2
   210          1
   213         26
   214          5
   215          1
   219          1
   223          1
   224          1
   225          1
   227         11
   228          2
   233          2
   234          1
   241         10
   242          3
   251          3
   252          2
   253         58
   254         12
   255         61
   256         12
   257          2
   269         16
   270          5
   271          2
   297          1
   298         60
   299         13
   300          2