##TITLE=Library Entry 97758
##JCAMP-DX=Revision 4.10 
##DATA TYPE=MASS SPECTRUM
##SAMPLE DESCRIPTION=W.VOELTER CHEM. INST., UNIV., TUBINGEN, GERMANY, F.R.G.
##NAMES=HP
##CAS NAME=O-Trifluoroacetyl cinnamyl alcohol
##MOLFORM=C11H9F3O2
##CAS REGISTRY NO=140184-22-1
##MP= -300
##BP= -300
##MW= 230
##$RETENTION INDEX=0
##$CONDENSED SPECTRUM=NO
##NPOINTS= 37
##XYDATA=(XY..XY) 1 
    27         50
    29         40
    39        160
    40         50
    41         10
    50         90
    51        160
    53         10
    55         10
    57         10
    58         30
    63        100
    65         70
    69        200
    77        190
    78         80
    79         70
    89         60
    91        250
    92         30
   103         90
   104         30
   105        200
   106         20
   115        730
   116        700
   117        999
   118        120
   119         10
   131         50
   132         20
   133         90
   134         10
   182         10
   230        999
   231         70
   232         10