##TITLE=Library Entry 107318
##JCAMP-DX=Revision 4.10 
##DATA TYPE=MASS SPECTRUM
##SAMPLE DESCRIPTION=Japan AIST/NIMC Database- Spectrum MS-NW-5560
##NAMES=HP
##CAS NAME=Magnesium, bis(2,4-pentanedionato-O,O')-, (T-4)-
##MOLFORM=C10H14MgO4
##CAS REGISTRY NO=14024-56-7
##MP= -300
##BP= -300
##MW= 222
##$RETENTION INDEX=0
##$CONDENSED SPECTRUM=NO
##NPOINTS= 127
##XYDATA=(XY..XY) 1 
    14          7
    15         23
    24         87
    25         16
    26         11
    27         19
    28          4
    29          7
    31          4
    37          5
    38          8
    39         86
    40         13
    41         30
    42         19
    43        176
    44          6
    47          3
    49          8
    50          4
    51          7
    52          2
    53          6
    54          6
    55          9
    56          2
    57          3
    58          3
    61         10
    62          5
    63          6
    64          2
    65         27
    66          7
    67         17
    68          4
    69          7
    70          2
    71          2
    72          4
    73          2
    74          5
    75          3
    76          2
    77          2
    79          3
    80          8
    81         29
    82          9
    83         21
    84          6
    85         34
    86          2
    89          4
    91          2
    92          1
    93         17
    94         24
    95          8
    96         14
    97          3
    98          2
    99          2
   100         15
   103          4
   104          2
   105         41
   106          9
   107         67
   108         59
   109         22
   110          9
   111          4
   112          2
   119          1
   120          1
   121          2
   122         22
   123        999
   124        197
   125        161
   126          9
   127          2
   133          1
   135          4
   136          6
   137          3
   138          2
   139          2
   141          3
   147          1
   149          4
   150          2
   151          3
   152          2
   155          9
   156          1
   161          2
   165          3
   166          1
   177          2
   179          6
   180        138
   181         32
   182         22
   183          3
   193         39
   194         11
   195          8
   196          1
   201          1
   204          2
   206          3
   207        864
   208        201
   209        146
   210         16
   211          3
   217          2
   219          1
   221          3
   222        670
   223        170
   224        120
   225         15
   226          2
   227          1