##TITLE=Library Entry 61223
##JCAMP-DX=Revision 4.10 
##DATA TYPE=MASS SPECTRUM
##SAMPLE DESCRIPTION=Exported from NIST MS Search
##NAMES=HP
##CAS NAME=Hydrocinnamic acid, ester with 2-methyllactonitrile
##MOLFORM=C13H15NO2
##CAS REGISTRY NO=14026-17-6
##MP= -300
##BP= -300
##MW= 217
##$RETENTION INDEX=0
##$CONDENSED SPECTRUM=NO
##NPOINTS= 32
##XYDATA=(XY..XY) 1 
    41        210
    42         70
    43        150
    44        250
    45         20
    50        180
    51         20
    65        150
    66         70
    67         80
    77        360
    78        180
    79        280
    80         30
    91        999
    92         90
   103        210
   104        610
   105        670
   106         70
   107        999
   108        130
   109         10
   131        120
   132         60
   133        330
   134         30
   149        400
   150        220
   151         20
   217        340
   218         40