##TITLE=Library Entry 46503
##JCAMP-DX=Revision 4.10 
##DATA TYPE=MASS SPECTRUM
##SAMPLE DESCRIPTION=A.A.Kutin, Moscow, Russia
##NAMES=HP
##CAS NAME=But-3-en-2-one, 4-phenylamino-3-(1-phenyl-5-tetrazolyl)-
##MOLFORM=C17H15N5O
##CAS REGISTRY NO=140215-50-5
##MP= -300
##BP= -300
##MW= 305
##$RETENTION INDEX=0
##$CONDENSED SPECTRUM=NO
##NPOINTS= 222
##XYDATA=(XY..XY) 1 
    33          1
    34          0
    35          0
    36          4
    37          9
    38         36
    39        116
    40         31
    41         29
    43        531
    44         29
    45          3
    46          0
    50         80
    51        364
    52         76
    53         19
    54         16
    55         19
    56          3
    57          3
    58          1
    59          1
    60          1
    61          3
    62         15
    63         72
    64        114
    65        119
    66         27
    67          8
    68          8
    69          6
    70          8
    71          7
    72          1
    73          3
    74         15
    75         32
    76        113
    77        999
    78        111
    79          9
    80          2
    81          2
    82          4
    83          4
    84          1
    85          1
    86          1
    87          3
    88         11
    89         59
    90         69
    91        142
    92         79
    93         88
    94          8
    95          5
    96          1
    97          1
    98          1
    99          1
   100          2
   101         12
   102         38
   103        109
   104        336
   105         49
   106         20
   107          3
   108          1
   109          2
   110          2
   111          2
   112          1
   113          3
   114          8
   115         33
   116         92
   117        242
   118         86
   119         17
   120          4
   121          1
   122          0
   123          1
   124          2
   125          1
   126          2
   127          6
   128         32
   129         40
   130        104
   131        223
   132         58
   133          8
   134          2
   135          1
   136          0
   138          4
   139          3
   140          4
   141          9
   142         39
   143         91
   144         65
   145         24
   146          6
   147          2
   148          0
   149          2
   150          1
   151          2
   152          6
   153          5
   154          5
   155         10
   156         15
   157         28
   158         33
   159         26
   160          5
   161          1
   163          0
   164          1
   165          8
   166          6
   167         20
   168          9
   169          8
   171         80
   172         18
   173         10
   174          5
   175          0
   176          1
   177          2
   178         17
   179         11
   180         59
   181         10
   182          7
   183          4
   184          8
   185         35
   186         37
   187          5
   188          1
   189          1
   190          6
   191          6
   192         55
   193         23
   194         20
   195         21
   196          4
   197          0
   198          1
   199          2
   200         22
   201          3
   202          0
   203          1
   204          5
   205         12
   206         25
   207         77
   208         19
   209          3
   210          1
   211          1
   212          2
   214         36
   215          5
   216          8
   217         18
   218         21
   219         90
   220         26
   221         11
   222          2
   229          1
   230          1
   231         10
   232         16
   233         47
   234        264
   235         58
   236          6
   237          1
   241          0
   243         25
   244          7
   245         32
   246          7
   247          5
   248         16
   249          7
   250          2
   251          1
   257          3
   258         37
   259         18
   260         44
   261        124
   262        134
   263         43
   264          6
   265          1
   273          1
   274          4
   276        455
   277        120
   278         17
   279          2
   280          0
   302          1
   305        498
   306         96
   307         10
   308          0