##TITLE=Library Entry 32362
##JCAMP-DX=Revision 4.10 
##DATA TYPE=MASS SPECTRUM
##SAMPLE DESCRIPTION=Chemical Concepts
##NAMES=HP
##CAS NAME=Cyclopropanecarboxylic acid, 2-ethenyl-, methyl ester
##MOLFORM=C7H10O2
##CAS REGISTRY NO=14027-56-6
##MP= -300
##BP= -300
##MW= 126
##$RETENTION INDEX=0
##$CONDENSED SPECTRUM=NO
##NPOINTS= 62
##XYDATA=(XY..XY) 1 
    26         19
    27        137
    28         12
    29         27
    30          5
    31         12
    37         13
    38         37
    39        338
    40         62
    41        591
    42         27
    43         40
    44          7
    45         14
    50         17
    51         33
    52         18
    53         47
    54         45
    55        110
    56         10
    57         13
    58          7
    59        247
    60          7
    61          8
    62          9
    63         18
    64          5
    65        176
    66        289
    67        999
    68         68
    69         35
    70          6
    71        173
    72         13
    74         22
    77         19
    78         10
    79         54
    80         10
    81         27
    82          5
    83         30
    84        190
    85         16
    93         26
    94         38
    95        255
    96         24
    97         15
    98         16
    99          5
   109          7
   111        245
   112         17
   113          4
   125         24
   126         65
   127          7