##TITLE=Library Entry 62152
##JCAMP-DX=Revision 4.10 
##DATA TYPE=MASS SPECTRUM
##SAMPLE DESCRIPTION=Div. of Experiment Therapeutics WRAIR, WRAMC, Washingto
n DC 20307
##NAMES=HP
##CAS NAME=1-Benzyl-4-[5-phenyl-4-oxo-2-oxazolin-2-yl]piperazine
##MOLFORM=C20H21N3O2
##CAS REGISTRY NO=14021-65-9
##MP= -300
##BP= -300
##MW= 335
##$RETENTION INDEX=0
##$CONDENSED SPECTRUM=NO
##NPOINTS= 96
##XYDATA=(XY..XY) 1 
    42        259
    43          4
    44         12
    47          4
    49         24
    51         45
    52          6
    54         43
    56        108
    57          3
    58          3
    62          5
    63         32
    65         66
    66          4
    68         15
    70         71
    71         11
    72          8
    74          1
    75          0
    77         61
    78          8
    79          5
    80          1
    82         11
    83         43
    84          9
    85         10
    86          4
    87         30
    89         75
    91        999
    92         53
    93          2
    95          4
    97         23
    98          4
    99          2
   104         57
   105         47
   106          9
   107          2
   109          1
   110         24
   111          2
   112          0
   113          4
   114          2
   115          1
   116          2
   117         46
   118         55
   119         14
   120          3
   124         11
   125          2
   126          2
   132        146
   134        382
   135         22
   138         11
   144         13
   146        313
   147         26
   148          1
   149          1
   152          3
   154          4
   159        124
   160         10
   161          1
   168          3
   171          1
   172          0
   173         17
   175        164
   176         15
   177          0
   187          0
   189          2
   199          3
   201         57
   202         25
   204          8
   205          0
   215          1
   216          0
   218          1
   228          3
   230          4
   244          4
   267          3
   335         43
   336         12
   337          2