##TITLE=Library Entry 28655
##JCAMP-DX=Revision 4.10 
##DATA TYPE=MASS SPECTRUM
##SAMPLE DESCRIPTION=Exported from NIST MS Search
##NAMES=HP
##CAS NAME=Piperidine, 2-[3-allyl-4-(dimethylamino)-2,6-diphenylcyclohexyl]-
1-methyl-
##MOLFORM=C29H40N2
##CAS REGISTRY NO=14028-79-6
##MP= -300
##BP= -300
##MW= 416
##$RETENTION INDEX=0
##$CONDENSED SPECTRUM=NO
##NPOINTS= 34
##XYDATA=(XY..XY) 1 
    55         21
    56         15
    57         15
    58        999
    59         52
    68         36
    70         52
    71         52
    82          5
    84        110
    85         21
    91         73
    96         52
    97        105
    98         10
   111         42
   112         52
   115         52
   117         31
   129         42
   130         42
   143         26
   186         94
   187         21
   188        110
   189         10
   199         26
   200         52
   201         52
   214         42
   301         15
   358         21
   401         15
   416         42