##TITLE=Library Entry 13122
##JCAMP-DX=Revision 4.10 
##DATA TYPE=MASS SPECTRUM
##SAMPLE DESCRIPTION=Exported from NIST MS Search
##NAMES=HP
##CAS NAME=Isoquinoline, 2-acetyl-1,2,3,4-tetrahydro-
##MOLFORM=C11H13NO
##CAS REGISTRY NO=14028-67-2
##MP= -300
##BP= -300
##MW= 175
##$RETENTION INDEX=0
##$CONDENSED SPECTRUM=NO
##NPOINTS= 69
##XYDATA=(XY..XY) 1 
    27         80
    28         88
    29         75
    30         15
    31         78
    38         10
    39         90
    40         10
    41         50
    42        100
    43        999
    44         45
    45        125
    50         40
    51        115
    52         30
    53         20
    54         15
    55         15
    56         28
    57         20
    59         28
    60        110
    62         20
    63         60
    64         50
    74         45
    75         25
    76         30
    77        230
    78        175
    79         60
    88         13
    90         65
    91         93
    92          8
    99         25
   101         15
   102         45
   103        205
   104        713
   105        200
   106         25
   115        113
   116        250
   117        600
   118        250
   128         20
   129         20
   130        150
   131         38
   132        688
   133        175
   134         13
   141         15
   142         25
   145         20
   146         58
   147         58
   148         10
   156         15
   158         13
   160        120
   161         15
   173         13
   174         53
   175        975
   176        138
   177         15