##TITLE=Library Entry 87710
##JCAMP-DX=Revision 4.10 
##DATA TYPE=MASS SPECTRUM
##SAMPLE DESCRIPTION=M.MEOT-NER THE ROCKEFELLER UNIV., NEW YORK, N.Y., USA
##NAMES=HP
##CAS NAME=Cholestan-6-one, 3-(acetyloxy)-5-hydroxy-, 6-oxime, (3.beta.,5.al
pha.)-
##MOLFORM=C29H49NO4
##CAS REGISTRY NO=14026-21-2
##MP= -300
##BP= -300
##MW= 475
##$RETENTION INDEX=0
##$CONDENSED SPECTRUM=NO
##NPOINTS= 292
##XYDATA=(XY..XY) 1 
    14         23
    15         29
    16          8
    17        134
    18          6
    26         13
    27         24
    28          8
    29         59
    31         42
    32          1
    36          8
    39         21
    40         14
    41        178
    42         29
    43        307
    44         42
    45         51
    50          6
    53         37
    54         14
    55        278
    56         37
    57        223
    58         14
    60         57
    61          9
    65         12
    66         11
    67        109
    68        694
    69        187
    70         34
    71        122
    72          6
    73          5
    77         39
    78         13
    79        103
    80         36
    81        220
    82         59
    83        104
    84         21
    85         23
    91         93
    92         22
    93        164
    94         51
    95        149
    96         30
    97         61
    98          9
    99          8
   103          6
   104          6
   105         89
   106         36
   107        131
   108         66
   109        122
   110        999
   111        125
   112         16
   113         11
   115          6
   116          9
   117         21
   118         25
   119         62
   120         53
   121         85
   122         40
   123         54
   124         16
   125         12
   126         13
   127          8
   128          9
   129         15
   130         13
   131         41
   132         43
   133         79
   134         47
   135         77
   136         38
   137         21
   138          7
   139         10
   141          8
   142          6
   143         21
   144         15
   145         35
   146         31
   147         45
   148         28
   149         40
   150         60
   151         17
   152         12
   155         17
   156         17
   157         24
   158         22
   159         38
   160         35
   161         40
   162         24
   163         14
   164         11
   165          6
   167          9
   168         14
   169         11
   170         18
   171         17
   172         28
   173         25
   174         51
   175         29
   176         23
   177         12
   178         11
   181          6
   183          9
   184         10
   185         11
   186          9
   187         17
   188         21
   189         14
   190         15
   191          8
   192         15
   193         13
   194          7
   196          7
   198          9
   199         10
   200         16
   201         13
   202         23
   203         11
   204         12
   205         12
   206          8
   207          7
   209          9
   210         56
   211         22
   212         12
   213         14
   214         20
   215         17
   216         30
   217         11
   218         10
   219          9
   224          9
   225          8
   226        108
   227         52
   228         24
   229         13
   230         16
   231          9
   232         10
   233          5
   238          5
   240         13
   241         10
   242         23
   243         16
   244         25
   245         14
   246         10
   247         25
   248         38
   249          9
   250          6
   256         20
   257         13
   258         25
   259         11
   260          8
   261          6
   262          6
   266          8
   268          6
   270          9
   271          6
   272         21
   273         12
   274          8
   275          9
   284         28
   285          9
   286         15
   287         17
   288         20
   289         10
   290          9
   300          9
   302         12
   304          5
   312         13
   313          9
   314         22
   315         15
   316         27
   317         14
   318         25
   319          6
   326         15
   327          6
   328         17
   329         19
   330         32
   331         10
   332         39
   333        129
   334         32
   339          7
   340          9
   341          8
   342         11
   343         23
   344         19
   345         11
   346         21
   347          7
   352          9
   353          6
   354         45
   355        195
   356         75
   357         21
   358         13
   359          6
   362          5
   363          6
   364         20
   365         17
   366         16
   367         28
   368        109
   369        160
   370        114
   371         45
   372         58
   373         17
   379          7
   380         71
   381         58
   382        128
   383         65
   384         31
   385          9
   386         10
   387        225
   388        282
   389         79
   390         12
   396         21
   397        248
   398        402
   399        135
   400         41
   401          9
   414         23
   415         98
   416         56
   417         12
   430          5
   432          8
   440         23
   441          9
   442         20
   443          8
   447         21
   448          7
   457         39
   458        798
   459        286
   460         58
   461          9
   475        252
   476         87
   477         15