##TITLE=Library Entry 14553
##JCAMP-DX=Revision 4.10 
##DATA TYPE=MASS SPECTRUM
##SAMPLE DESCRIPTION=Japan AIST/NIMC Database- Spectrum MS-IW-2411
##NAMES=HP
##CAS NAME=Palladium(II) acetylacetonate
##MOLFORM=C10H14O4Pd
##CAS REGISTRY NO=14024-61-4
##MP= -300
##BP= -300
##MW= 304
##$RETENTION INDEX=0
##$CONDENSED SPECTRUM=NO
##NPOINTS= 228
##XYDATA=(XY..XY) 1 
    12          1
    13          3
    14         13
    15         67
    16         10
    25          4
    26         16
    27         53
    28         94
    29         25
    30          2
    31         17
    36          2
    37          7
    38         12
    39         50
    40         23
    41         56
    42         66
    43        999
    44         28
    45          8
    49          2
    50          4
    51          3
    52          2
    53         12
    54          2
    55         65
    56          6
    57         15
    58         18
    59          2
    60          1
    66          2
    67          7
    68         11
    69        114
    70          6
    71         92
    72         37
    73          3
    79          2
    81          2
    82          4
    83          3
    84        120
    85        401
    86         19
    87          2
    95          2
    96          1
    97          3
    98         23
    99         46
   100        305
   101         22
   102          3
   104         32
   105         73
   106         91
   107          7
   108         84
   109          7
   110         37
   111          3
   112          2
   113          2
   114          3
   117          6
   118          9
   119         51
   120         84
   121        102
   122          9
   123         94
   124          5
   125         41
   127          2
   129          2
   130          6
   131         26
   132         72
   133        125
   134        104
   135         86
   136         72
   137         59
   138         32
   139         17
   140          1
   141          3
   142          4
   143          9
   144         10
   145         56
   146        101
   147        194
   148        144
   149        249
   150         37
   151        183
   152         37
   153         75
   154         10
   155          7
   156          1
   157         13
   158          9
   159         21
   160         30
   161         47
   162         24
   163         49
   164         11
   165         26
   166          6
   167          6
   168          1
   171          1
   172          3
   173          9
   174         28
   175        102
   176        156
   177        148
   178         56
   179        132
   180         29
   181         57
   182          3
   185          1
   186          3
   187         22
   188         62
   189        111
   190         80
   191         76
   192         66
   193         45
   194         31
   195         10
   196          2
   197          1
   199          1
   201         19
   202         20
   203        171
   204        359
   205        495
   206        161
   207        364
   208        145
   209        163
   210         61
   211          3
   215          2
   216          6
   217          9
   218         18
   219         39
   220         36
   221         10
   222         30
   223          5
   224         12
   225          1
   230          1
   231          6
   232          9
   233         12
   234          2
   235          9
   236          1
   237          4
   239          4
   241         13
   242          2
   243          8
   244          1
   245          5
   246          7
   247          9
   248          4
   249          6
   250          9
   251          4
   252          2
   254          7
   256         15
   257          2
   258          7
   259          5
   260          9
   261         14
   262          6
   263         10
   264          6
   265          4
   266          3
   272          1
   273          3
   274          2
   275          3
   277          2
   278          2
   279          1
   285          8
   287         75
   288        165
   289        212
   290         23
   291        192
   292         19
   293         87
   294          9
   295          1
   300         26
   301          1
   302        300
   303        635
   304        802
   305         93
   306        718
   307         83
   308        330
   309         36
   310          5