##TITLE=Library Entry 73905
##JCAMP-DX=Revision 4.10 
##DATA TYPE=MASS SPECTRUM
##SAMPLE DESCRIPTION=Institute of Organic Chemistry, Novosibirsk, USSR 1988
##NAMES=HP
##CAS NAME=Butanedioic acid, ethyl-, dimethyl ester
##MOLFORM=C8H14O4
##CAS REGISTRY NO=14035-95-1
##MP= -300
##BP= -300
##MW= 174
##$RETENTION INDEX=0
##$CONDENSED SPECTRUM=NO
##NPOINTS= 68
##XYDATA=(XY..XY) 1 
    29        135
    30         12
    31         34
    33         14
    34          7
    38          9
    39         75
    41        193
    42         24
    43        707
    44         25
    45        371
    47         35
    50         22
    51         10
    53         43
    54         86
    55        894
    56        171
    57         25
    58         33
    59        466
    60          9
    61         12
    69        192
    70          5
    71         62
    72         78
    73        604
    74        127
    75         22
    82        105
    83        519
    84        135
    85         73
    86          5
    87         97
    88         24
    94         15
    95          7
    99         60
   100         45
   101        999
   102         48
   103         28
   106         12
   110         23
   113         71
   114        647
   115        351
   116         24
   120         12
   121          8
   123         29
   127         28
   128         13
   129         14
   130         25
   131         18
   137         24
   140         15
   141          2
   142        165
   143        557
   144         64
   145         44
   146        198
   147         28