##TITLE=Library Entry 21364
##JCAMP-DX=Revision 4.10 
##DATA TYPE=MASS SPECTRUM
##SAMPLE DESCRIPTION=Exported from NIST MS Search
##NAMES=HP
##CAS NAME=Pentanedioic acid, 2-methyl-, dimethyl ester
##MOLFORM=C8H14O4
##CAS REGISTRY NO=14035-94-0
##MP= -300
##BP= -300
##MW= 174
##$RETENTION INDEX=1149
##$CONDENSED SPECTRUM=NO
##NPOINTS= 95
##XYDATA=(XY..XY) 1 
    12          1
    13          1
    14         10
    15        617
    16          9
    17          2
    18          8
    24          1
    25          1
    26         30
    27        241
    28        173
    29        242
    30         14
    31         48
    32          3
    33          9
    34          1
    35          2
    36          7
    38          9
    39        137
    40         26
    41        256
    42        186
    43        245
    44         14
    45         83
    46          4
    47          3
    49          1
    50          6
    51         11
    52          6
    53         51
    54         71
    55        999
    56        268
    57         95
    58         51
    59        751
    60         40
    61          4
    63          1
    65          1
    66          1
    67          2
    68          6
    69         99
    70          6
    71         23
    72         58
    73        569
    74        104
    75         10
    76          1
    79          1
    81         10
    82         61
    83        316
    84         24
    85         12
    86          9
    87        137
    88        285
    89         13
    96          7
    97          3
    98          1
    99        216
   100         19
   101        127
   102         10
   103          1
   109          2
   110          5
   111          3
   112          3
   113         13
   114        776
   115        450
   116         32
   117          3
   127          8
   128          1
   129          2
   132         11
   133          1
   141          3
   142        102
   143        324
   144         26
   145          3
   146          2
   174          1