##TITLE=Library Entry 66332
##JCAMP-DX=Revision 4.10 
##DATA TYPE=MASS SPECTRUM
##SAMPLE DESCRIPTION=Div. of Experiment Therapeutics WRAIR, WRAMC, Washingto
n DC 20307
##NAMES=HP
##CAS NAME=2-Imino-3-phenylcarbamoylthiazolidine
##MOLFORM=C10H11N3OS
##CAS REGISTRY NO=14033-35-3
##MP= -300
##BP= -300
##MW= 221
##$RETENTION INDEX=0
##$CONDENSED SPECTRUM=NO
##NPOINTS= 83
##XYDATA=(XY..XY) 1 
    41         17
    42         28
    43         41
    44         13
    45         46
    46         20
    47         12
    48          7
    49          4
    50         15
    51         62
    52         15
    53          4
    54          8
    55        114
    56         39
    57          4
    58         13
    59         76
    60        444
    61         50
    62         25
    63         28
    64         42
    65         80
    66         28
    67          3
    68          3
    69         47
    70         28
    71          1
    73          6
    74         14
    75          8
    76          6
    77        107
    78          9
    79          0
    80          0
    82          3
    84          2
    86         75
    87          3
    88          4
    90          6
    91         66
    92         69
    93        999
    94         76
    95          3
    97          0
   100          3
   101         52
   102        444
   103         62
   104         21
   105          3
   106          2
   111          8
   118          3
   119        134
   120         26
   121          2
   124          1
   127          5
   129        305
   130         17
   131         14
   132          2
   145          0
   150          0
   151          0
   160          7
   161          2
   177          1
   179         11
   188          0
   204          3
   218          1
   221        302
   222         35
   223         15
   224          4