##TITLE=Library Entry 26262
##JCAMP-DX=Revision 4.10 
##DATA TYPE=MASS SPECTRUM
##SAMPLE DESCRIPTION=V.G. Zaikin, R.S.Borisov, TIPS RAS, Moscow, Russia
##NAMES=HP
##CAS NAME=Ethanediamide, N,N'-dibutyl-
##MOLFORM=C10H20N2O2
##CAS REGISTRY NO=14040-75-6
##MP= -300
##BP= -300
##MW= 200
##$RETENTION INDEX=0
##$CONDENSED SPECTRUM=NO
##NPOINTS= 48
##XYDATA=(XY..XY) 1 
    26          3
    27        129
    28        111
    29        277
    30        292
    39         81
    40          7
    41        394
    42         37
    43        110
    44         58
    46         44
    53          5
    54          3
    55         57
    56         69
    57        999
    58         87
    59        321
    60          3
    69          2
    70          5
    71         20
    72        186
    73         58
    74          3
    84          9
    85          3
    86         13
    89          1
   100        757
   101        187
   102         66
   103          9
   128          2
   129         50
   130          2
   142          4
   143         73
   144         15
   145         72
   146          4
   157         80
   158          3
   172         54
   173          9
   200         72
   201         18