##TITLE=Library Entry 325
##JCAMP-DX=Revision 4.10 
##DATA TYPE=MASS SPECTRUM
##SAMPLE DESCRIPTION=D.HENNEBERG, MAX-PLANCK INSTITUTE, MULHEIM, WEST GERMAN
Y
##NAMES=HP
##CAS NAME=Tungsten hexacarbonyl
##MOLFORM=C6O6W
##CAS REGISTRY NO=14040-11-0
##MP= -300
##BP= -300
##MW= 352
##$RETENTION INDEX=0
##$CONDENSED SPECTRUM=NO
##NPOINTS= 135
##XYDATA=(XY..XY) 1 
    26          6
    27          5
    28        999
    29         18
    30          3
    31          1
    32         27
    39          1
    40         27
    41          1
    43          1
    44          7
    57          1
    69          1
    91          4
    92          5
    93          5
    97          4
    98          6
    99          4
   100          1
   103          2
   104          2
   105         43
   106         43
   107         40
   111         24
   112         24
   113         23
   114          1
   115          1
   117          0
   118          0
   119         51
   120         57
   121         52
   125          5
   126          7
   127          6
   128          1
   129          0
   133         32
   134         39
   135         35
   140          1
   141          1
   147         11
   148         14
   149         11
   161          3
   162          4
   163          4
   175          5
   176          6
   177          6
   180          0
   182        160
   183         89
   184        186
   186        178
   194         63
   195         34
   196         78
   197          0
   198         91
   199         12
   200         23
   202         22
   206          8
   207          4
   208         10
   210        181
   211         93
   212        198
   213          2
   214        180
   215          2
   216          0
   222         27
   223         14
   224         32
   225          0
   226         31
   227          1
   228          1
   230          1
   236          1
   238        139
   239         80
   240        165
   241          5
   242        150
   243          4
   244          0
   250          3
   251          2
   252          4
   254          4
   255          0
   256          0
   264          1
   266        314
   267        176
   268        374
   269         14
   270        337
   271         10
   272          2
   278          2
   279          1
   280          3
   282          2
   292          0
   294        110
   295         64
   296        123
   297          6
   298        119
   299          5
   300          1
   308          0
   322         19
   323         10
   324         23
   325          1
   326         19
   327          1
   348          0
   350        123
   351         75
   352        149
   353         10
   354        133
   355         10
   356          1