##TITLE=Library Entry 70368
##JCAMP-DX=Revision 4.10 
##DATA TYPE=MASS SPECTRUM
##SAMPLE DESCRIPTION=ATLAS OF MASS SPECTRA OF ORGANIC COMPOUNDS, V. A. KOPTY
UG, ED.
##NAMES=HP
##CAS NAME=2-Pyrazoline, 1,3,4-trimethyl-
##MOLFORM=C6H12N2
##CAS REGISTRY NO=14044-41-8
##MP= -300
##BP= -300
##MW= 112
##$RETENTION INDEX=895
##$CONDENSED SPECTRUM=NO
##NPOINTS= 37
##XYDATA=(XY..XY) 1 
    26         18
    27         81
    28        187
    29         44
    30         78
    38         10
    39         94
    40         28
    41        178
    42        625
    43        141
    44         30
    51         10
    52         10
    53         31
    54         31
    55         26
    56        260
    57         14
    66          5
    67         11
    68        108
    69         88
    70        137
    71         10
    80          4
    81         10
    82         23
    95         28
    96         17
    97        999
    98         63
   109         14
   110         23
   111        438
   112        734
   113         53