##TITLE=Library Entry 26997
##JCAMP-DX=Revision 4.10 
##DATA TYPE=MASS SPECTRUM
##SAMPLE DESCRIPTION=A.A.Kutin, Moscow, Russia
##NAMES=HP
##CAS NAME=3-Pyrroline-3-carboxylic acid, 2-(4-bromophenyl)-4-hydroxy-5-oxo-
1-phenyl-, tert-butyl ester
##MOLFORM=C21H20BrNO4
##CAS REGISTRY NO=140424-47-1
##MP= -300
##BP= -300
##MW= 429
##$RETENTION INDEX=0
##$CONDENSED SPECTRUM=NO
##NPOINTS= 230
##XYDATA=(XY..XY) 1 
    33          7
    34          0
    36          3
    39         99
    41        407
    43         59
    44         17
    45          8
    51        139
    53         63
    55         36
    57        999
    59        112
    63         40
    64         25
    65         26
    66          7
    67          1
    69         55
    71          4
    72          0
    75         92
    77        381
    78         23
    79          9
    80         12
    81          5
    82         13
    83          2
    85          0
    86          1
    87          4
    89         47
    90         37
    91         65
    92         38
    93         53
    94          4
    95          1
    96          1
    97          1
    98          3
    99          5
   101        157
   102        221
   104        154
   105         13
   106          3
   107          4
   108          0
   110          1
   111          1
   112          1
   113          2
   114          4
   115          9
   116         13
   117         16
   119        124
   120        120
   122          0
   124          2
   125          3
   126          2
   128         16
   129         25
   130         27
   131          8
   132          1
   133          1
   134          1
   135          0
   136          0
   137          1
   138          1
   139          2
   140          1
   141          1
   143          7
   144         16
   145          6
   146          6
   147          8
   148          1
   150          1
   151          7
   152          8
   153          5
   157        690
   158         67
   159         11
   160          1
   161          3
   162          1
   163          3
   164          5
   165         23
   166          7
   167          5
   169         10
   171         10
   172         10
   173         13
   174         14
   175         31
   176          5
   177          4
   178         11
   180         87
   181         30
   182         56
   183         31
   185         59
   187         41
   190         15
   191         18
   193         78
   194         15
   195          4
   196          8
   197          3
   198          3
   199          2
   200         11
   201          3
   202          2
   203          4
   204          8
   205          8
   208        371
   210        395
   211         60
   212          3
   219         11
   220         26
   221         21
   222         10
   223          3
   225         13
   226         12
   227         10
   228          9
   229          1
   230          1
   232          4
   233          2
   236         86
   238        100
   239          5
   240          0
   245          1
   246          1
   248         17
   249         13
   250         19
   251         15
   253        270
   255        286
   256         30
   258         33
   259         11
   260         25
   261          9
   262          3
   264          2
   265          6
   266          1
   270          0
   271          6
   272          3
   273          6
   274          1
   275          1
   276          4
   277          2
   278          0
   281          0
   282          0
   283          1
   284          1
   285          1
   286          0
   294          7
   295          5
   296          2
   298          5
   300         21
   301          6
   302         12
   303          2
   309          0
   310          2
   311          0
   312          1
   313          0
   315          0
   317          0
   323          0
   324          4
   327        202
   329        118
   330        136
   331         79
   332         12
   333          1
   344         11
   346         11
   347          1
   351          6
   352          3
   355        100
   356         79
   357         79
   358         61
   359          9
   360          1
   365          0
   366          0
   373        450
   375        402
   376         51
   377          8
   378          0
   423          1
   424          3
   429        312
   431        311
   432         57
   433          4
   434          0