##TITLE=Library Entry 57893
##JCAMP-DX=Revision 4.10 
##DATA TYPE=MASS SPECTRUM
##SAMPLE DESCRIPTION=AU9-84-8
##NAMES=HP
##CAS NAME=.alpha.-D-Glucopyranoside, methyl 2,3-di-O-methyl-
##MOLFORM=C9H18O6
##CAS REGISTRY NO=14048-30-7
##MP= -300
##BP= -300
##MW= 222
##$RETENTION INDEX=0
##$CONDENSED SPECTRUM=NO
##NPOINTS= 23
##XYDATA=(XY..XY) 1 
    41         76
    43         68
    45        217
    61         60
    71        112
    73        233
    74        145
    75        645
    85         96
    87        221
    88        999
    89         72
    99         32
   101        112
   103         20
   111         72
   112         72
   130        193
   159        193
   161        399
   162         24
   190         28
   191         36