##TITLE=Library Entry 16133
##JCAMP-DX=Revision 4.10 
##DATA TYPE=MASS SPECTRUM
##SAMPLE DESCRIPTION=Humboldt-Universitat zu Berlin, Department of Chemistry
, Analytical Group
##NAMES=HP
##CAS NAME=2-(5-Methylaminopentyl)-5-methylthio-1,3,4-thiadiazole
##MOLFORM=C9H17N3S2
##CAS REGISTRY NO=140440-12-6
##MP= -300
##BP= -300
##MW= 231
##$RETENTION INDEX=0
##$CONDENSED SPECTRUM=NO
##NPOINTS= 160
##XYDATA=(XY..XY) 1 
    14          3
    15         40
    17          2
    18         67
    26          7
    27         57
    28         92
    29         50
    30         89
    31         16
    32          9
    33          1
    34          1
    35         33
    36        111
    37         10
    38         44
    39         52
    40         10
    41         97
    42        115
    43         30
    44        999
    45        119
    46         64
    47         64
    48          7
    49          3
    50          3
    51          5
    52          5
    53         19
    54         45
    55         52
    56         43
    57         66
    58         65
    59         37
    60         20
    61          5
    62          2
    63          2
    64          3
    65          6
    66          5
    67         16
    68         41
    69         20
    70         90
    71         43
    72         27
    73         41
    74         41
    75          1
    76         13
    77          7
    78          4
    79         21
    80          7
    81         11
    82         54
    83         65
    84         45
    85         12
    86         25
    87         28
    88          5
    89          3
    90         17
    91        120
    92          8
    93         13
    94         10
    95          3
    96         12
    97         13
    98         18
    99         14
   100         20
   101         15
   102          4
   103          2
   104          1
   105         10
   106         20
   107          4
   108          7
   109          9
   110          8
   111          8
   112          4
   113         14
   114         19
   115         68
   116          8
   117          6
   121         15
   122          1
   123          8
   124         16
   125        341
   126         18
   127          6
   128          2
   129          2
   130          1
   131          1
   133         10
   134          5
   135          1
   136          1
   139          1
   140          3
   141        180
   142         15
   143          8
   144          5
   145         12
   146         58
   147          4
   148          5
   149          2
   153          3
   154          1
   155          4
   156          1
   157          1
   159        270
   160         56
   161         30
   162          5
   163          1
   168          1
   170          4
   171          3
   172          2
   173         20
   174          2
   175          2
   184         15
   185          5
   186          1
   187         11
   188         96
   189         10
   190          4
   191          0
   199          9
   200          8
   201         20
   202          3
   216         20
   217          6
   218          3
   219          0
   230          0
   231         10
   232          4
   233          1
   234          0