##TITLE=Library Entry 109195
##JCAMP-DX=Revision 4.10 
##DATA TYPE=MASS SPECTRUM
##SAMPLE DESCRIPTION=Japan AIST/NIMC Database- Spectrum MS-IW-7079
##NAMES=HP
##CAS NAME=2-Pyridinemethanol, 3-hydroxy-
##MOLFORM=C6H7NO2
##CAS REGISTRY NO=14047-53-1
##MP= -300
##BP= -300
##MW= 125
##$RETENTION INDEX=0
##$CONDENSED SPECTRUM=NO
##NPOINTS= 68
##XYDATA=(XY..XY) 1 
    14          2
    15          4
    17         12
    18         67
    25          3
    26         21
    27         25
    28         46
    29         23
    30          3
    31         28
    32          1
    36          2
    37         21
    38         57
    39        311
    40         43
    41         80
    42         20
    43          9
    44          2
    48          1
    49          5
    50         21
    51         45
    52        186
    53         47
    54         17
    55         11
    56          2
    57          1
    61          2
    62          4
    63          6
    64         11
    65          9
    66         40
    67         58
    68         45
    69          7
    70          2
    71          3
    75          4
    76          9
    77          7
    78         53
    79        470
    80         61
    81          8
    82          4
    91          2
    92          1
    93          2
    94         73
    95         41
    96        200
    97         13
   106          4
   107         90
   108         16
   109         45
   110          3
   122         19
   123          9
   124        203
   125        999
   126         74
   127          8