##TITLE=Library Entry 76096
##JCAMP-DX=Revision 4.10 
##DATA TYPE=MASS SPECTRUM
##SAMPLE DESCRIPTION=LDDRD, NCI, NIH-FCRDC, Frederick, MD 21702
##NAMES=HP
##CAS NAME=Nogalamycin
##MOLFORM=C39H49NO16
##CAS REGISTRY NO=1404-15-5
##MP= -300
##BP= -300
##MW= 787
##$RETENTION INDEX=0
##$CONDENSED SPECTRUM=NO
##NPOINTS= 125
##XYDATA=(XY..XY) 1 
    41        225
    42        113
    43        457
    44         64
    45        264
    46          4
    47         48
    49         27
    51         18
    53         49
    54         17
    55        138
    56         60
    57        162
    58        102
    59        345
    60         21
    61         32
    65         15
    67         48
    68         24
    69         84
    70         62
    71        167
    72        752
    73        156
    74        327
    75        138
    77         16
    78          2
    79         19
    81         33
    82         25
    83         71
    84         39
    85         67
    86         92
    87        747
    88        331
    89         51
    91          9
    95         20
    96         14
    97         43
    98         15
    99         59
   100         19
   101        118
   102        999
   103        382
   104         26
   105         10
   109          8
   111         37
   112         14
   113         34
   114         25
   115        917
   116        749
   117        139
   118         11
   119          2
   125          5
   127         19
   128          2
   129         29
   130          7
   131         36
   139          6
   141          3
   143         19
   144          8
   145          6
   147        134
   148          7
   149         36
   157          3
   159          9
   165          5
   171         20
   187          2
   188         49
   189         17
   200          2
   202         10
   203         13
   207          2
   215          3
   219          9
   230          9
   275          3
   276          3
   323          3
   345         13
   346          5
   347          3
   371         10
   373         18
   374          3
   375          2
   385          2
   401          2
   402          3
   403         29
   404          9
   405          9
   406          2
   416          3
   417          6
   420          6
   421          3
   433         16
   434         15
   435         10
   444         18
   445         38
   446         12
   462         51
   463         22
   464          2
   492          6
   518          3
   549         16
   550          7
   568          2