##TITLE=Library Entry 75915
##JCAMP-DX=Revision 4.10 
##DATA TYPE=MASS SPECTRUM
##SAMPLE DESCRIPTION=R.B.KING UNIVERSITY OF GEORGIA, ATHENS, GEORGIA, USA
##NAMES=HP
##CAS NAME=Manganese, tetracarbonyl[3-(methylthio)propionyl]-
##MOLFORM=C8H7MnO5S
##CAS REGISTRY NO=14051-98-0
##MP= -300
##BP= -300
##MW= 270
##$RETENTION INDEX=0
##$CONDENSED SPECTRUM=NO
##NPOINTS= 14
##XYDATA=(XY..XY) 1 
    45        410
    47        940
    48        790
    55        530
    75        130
    87        120
   102        999
   130        320
   142        150
   158        190
   186        120
   214         80
   242        310
   270          3