##TITLE=Library Entry 7565
##JCAMP-DX=Revision 4.10 
##DATA TYPE=MASS SPECTRUM
##SAMPLE DESCRIPTION=Asinex Ltd, Moscow, Russia
##NAMES=HP
##CAS NAME=2-Acetylamino-2-cyano-acetamide
##MOLFORM=C5H7N3O2
##CAS REGISTRY NO=14056-39-4
##MP= -300
##BP= -300
##MW= 141
##$RETENTION INDEX=0
##$CONDENSED SPECTRUM=NO
##NPOINTS= 69
##XYDATA=(XY..XY) 1 
    33          1
    34          2
    36          0
    38         12
    39         24
    40         55
    41         26
    43        999
    44        239
    45         14
    46          1
    47          0
    48          0
    50          1
    51          3
    52          7
    53         32
    54         20
    55         84
    56        529
    57         14
    59          2
    60          1
    61          0
    64          1
    65          1
    66          2
    67          8
    68          5
    69          2
    70          4
    71         15
    72          2
    73          4
    74          0
    76          0
    77          1
    78          0
    79          1
    80          2
    81         12
    82          3
    83          7
    84          2
    85          1
    86          0
    87          4
    91          0
    92          0
    95          0
    98        473
    99         43
   100          3
   101          0
   105          1
   106          0
   107          0
   108          0
   111          0
   112          0
   113          0
   118          0
   119          0
   123          0
   124          0
   126          2
   127          0
   128          0
   141          1