##TITLE=Library Entry 44801
##JCAMP-DX=Revision 4.10 
##DATA TYPE=MASS SPECTRUM
##SAMPLE DESCRIPTION=R. RYHAGE KAROLINSKA INSTITUTET, STOCKHOLM
##NAMES=HP
##CAS NAME=Octadecanoic acid, 9-methyl-, methyl ester
##MOLFORM=C20H40O2
##CAS REGISTRY NO=14066-50-3
##MP= -300
##BP= -300
##MW= 312
##$RETENTION INDEX=0
##$CONDENSED SPECTRUM=NO
##NPOINTS= 173
##XYDATA=(XY..XY) 1 
    15          9
    17          2
    18          6
    27         12
    28          4
    29         57
    30          2
    31          2
    39         11
    40          3
    41        120
    42         29
    43        210
    44          8
    45          9
    53          9
    54         13
    55        250
    56         75
    57        330
    58         18
    59         64
    60          4
    61          2
    65          2
    66          2
    67         38
    68         24
    69        290
    70         56
    71        180
    72         12
    73         28
    74        999
    75        200
    76         11
    77          4
    78          2
    79         11
    80          4
    81         43
    82         16
    83        150
    84         52
    85         99
    86          7
    87        610
    88         58
    89          5
    91          3
    93         16
    94          4
    95         46
    96         22
    97        140
    98         48
    99         21
   100          6
   101        110
   102         11
   103          2
   107         17
   108          6
   109         35
   110         24
   111        110
   112         24
   113         16
   114          8
   115         96
   116         33
   117          4
   119          2
   121         10
   122          2
   123         18
   124          9
   125         55
   126         18
   127          9
   128          3
   129         98
   130         81
   131          9
   132          2
   133          2
   134          2
   135         92
   136         11
   137          5
   138          3
   139         13
   140          4
   141          5
   142          2
   143        240
   144         35
   145          4
   151          8
   152         15
   153        150
   154         34
   155          7
   157         85
   158         68
   159         29
   160          3
   163          6
   165          4
   166          4
   167         19
   168          9
   169          5
   171          6
   172          2
   177          4
   179          3
   180          7
   181          8
   182          3
   183          3
   185        120
   186         23
   187          6
   191          3
   193          2
   194         11
   195          6
   196          2
   197          2
   199         13
   200          3
   206          3
   208          4
   209          2
   210          3
   211          2
   213        250
   214         38
   215          4
   223          4
   227          4
   237          4
   238          4
   239          4
   241          4
   247          4
   251          2
   255         11
   256          4
   261          2
   262          6
   263         16
   264          4
   265          7
   266          2
   269        120
   270         23
   271          3
   279          6
   280          6
   281         40
   282          9
   283         26
   284          6
   294          2
   297         11
   298          2
   311          5
   312        470
   313        120
   314         16
   315          2