##TITLE=Library Entry 675
##JCAMP-DX=Revision 4.10 
##DATA TYPE=MASS SPECTRUM
##SAMPLE DESCRIPTION=Japan AIST/NIMC Database- Spectrum MS-NW-6370
##NAMES=HP
##CAS NAME=Diethyl chloromalonate
##MOLFORM=C7H11ClO4
##CAS REGISTRY NO=14064-10-9
##MP= -300
##BP= -300
##MW= 194
##$RETENTION INDEX=0
##$CONDENSED SPECTRUM=NO
##NPOINTS= 114
##XYDATA=(XY..XY) 1 
    12          1
    13          2
    14          8
    15         26
    16          1
    18          2
    25          1
    26         20
    27        197
    28         42
    29        999
    30         23
    31         31
    32          1
    35          2
    36         14
    37          1
    38          4
    39          3
    40          3
    41         35
    42         23
    43         33
    44         12
    45         60
    46          3
    47          4
    48         14
    49         12
    50          6
    51          3
    55          4
    56          2
    57          3
    58          2
    59          5
    60          4
    61          1
    63          2
    65         13
    67          5
    68          4
    69         51
    70          4
    71          2
    72          1
    73         14
    74          1
    75          4
    76        139
    77         52
    78         49
    79         17
    82          1
    83          2
    84          1
    85          2
    86         16
    87         21
    88          2
    93         10
    94        584
    95         21
    96        192
    97          5
    98          1
    99          1
   101          2
   103          4
   104          1
   105          2
   107          1
   108          9
   109          1
   110          7
   111          1
   112          4
   113          1
   114          3
   115         12
   116          1
   120          4
   121         41
   122        129
   123         25
   124         44
   125          5
   127          1
   128         43
   129          2
   130         27
   131          1
   132          5
   133          1
   135          2
   137          1
   139          3
   141          1
   142          1
   148          1
   149        102
   150          7
   151         34
   152          2
   155          5
   156          6
   157          4
   158          4
   166          3
   167          5
   168          1
   169          2
   179          1
   194          2