##TITLE=Library Entry 13424
##JCAMP-DX=Revision 4.10 
##DATA TYPE=MASS SPECTRUM
##SAMPLE DESCRIPTION=V.A.Korolev, Moscow, Russia
##NAMES=HP
##CAS NAME=1-(5-Tert-butyl-2,4-dihydroxyphenyl)ethanone
##MOLFORM=C12H16O3
##CAS REGISTRY NO=140660-31-7
##MP= -300
##BP= -300
##MW= 208
##$RETENTION INDEX=0
##$CONDENSED SPECTRUM=NO
##NPOINTS= 65
##XYDATA=(XY..XY) 1 
    37          6
    38         15
    39        125
    40         52
    41        246
    42        128
    43        999
    44         43
    45         11
    50         34
    51         99
    52         41
    53        113
    54         17
    55         71
    56         11
    57        224
    62         15
    63         48
    64         15
    65         62
    66         22
    67         42
    69        130
    73          3
    75         52
    77        113
    78         29
    79         57
    80          4
    81         27
    89         21
    91         66
    92          8
    93         16
    95         14
   103         19
   105         18
   107         15
   108          3
   115          9
   119          2
   121          5
   122          8
   123         12
   128         11
   131          3
   137         18
   146          3
   147         17
   149         11
   150         26
   151         18
   155          2
   163          3
   165         71
   166          6
   176         14
   177          5
   178         25
   193        467
   194         49
   195          4
   208        185
   209         28