##TITLE=Library Entry 81523
##JCAMP-DX=Revision 4.10 
##DATA TYPE=MASS SPECTRUM
##SAMPLE DESCRIPTION=Chuck Anderson, Aldrich Chemical Co.
##NAMES=HP
##CAS NAME=Ethyl-p-tolylacetate
##MOLFORM=C11H14O2
##CAS REGISTRY NO=14062-19-2
##MP= -300
##BP= -300
##MW= 178
##$RETENTION INDEX=0
##$CONDENSED SPECTRUM=NO
##NPOINTS= 95
##XYDATA=(XY..XY) 1 
    14          0
    15          1
    16          0
    25          0
    26          3
    27         47
    28          5
    29        130
    30          4
    31          1
    37          0
    38          4
    39         35
    40          3
    41          4
    42          1
    43          3
    44          2
    45          2
    46          0
    49          0
    50         13
    51         45
    52         20
    53         23
    54          1
    55          1
    56          0
    58          0
    59          0
    60          0
    61          1
    62          5
    63         20
    64          4
    65         18
    66          3
    67          0
    69          0
    73          0
    74          3
    75          4
    76          6
    77        121
    78         48
    79         77
    80          5
    81          0
    85          0
    86          1
    87          1
    88          0
    89         12
    90          3
    91         31
    92          4
    93          3
    94          0
    98          0
    99          0
   101          1
   102         12
   103         98
   104         54
   105        999
   106         85
   107          4
   108          0
   115          0
   116          0
   117          0
   118          0
   119          9
   120          1
   121          2
   122          0
   131          0
   132          6
   133         14
   134          1
   135          0
   136          0
   147          0
   148          0
   149          1
   150          5
   151          0
   163          1
   164          0
   176          0
   177          0
   178        252
   179         29
   180          2
   181          0