##TITLE=Library Entry 47631
##JCAMP-DX=Revision 4.10 
##DATA TYPE=MASS SPECTRUM
##SAMPLE DESCRIPTION=Div. of Experiment Therapeutics WRAIR, WRAMC, Washingto
n DC 20307
##NAMES=HP
##CAS NAME=N-[Phenylsulfonyl]benzenecarboxamidine
##MOLFORM=C13H12N2O2S
##CAS REGISTRY NO=14067-77-7
##MP= -300
##BP= -300
##MW= 260
##$RETENTION INDEX=0
##$CONDENSED SPECTRUM=NO
##NPOINTS= 124
##XYDATA=(XY..XY) 1 
    41          5
    43         24
    44          0
    45          9
    46          6
    48          4
    50         99
    51        397
    52         28
    53          7
    54          1
    55          2
    56          1
    57          3
    58          1
    59          1
    62          6
    63         20
    64         23
    65         33
    66         13
    67          2
    69          6
    70          2
    71          2
    73          0
    74         27
    75         30
    77        999
    78         73
    79          2
    80          4
    81          2
    82          2
    83          2
    84          1
    85          0
    86          0
    87          0
    89          8
    90          4
    91         19
    92          1
    93        277
    94         21
    95          1
    97         15
    98          3
    99          1
   103         59
   104        225
   105         24
   107          2
   108          2
   109          4
   110          0
   111          1
   112          0
   113          0
   115          2
   117          3
   118          0
   119        161
   120         21
   121          1
   122          0
   125         26
   126          2
   127          3
   128          1
   129          1
   134          2
   135          4
   136          3
   139          1
   141         80
   142          6
   143          3
   149          1
   150          0
   151         12
   152         14
   153          9
   154         11
   155          1
   157          9
   158          0
   159          0
   167         77
   168          7
   169          5
   170          1
   171          1
   172          1
   178         91
   180        157
   181         16
   183         18
   184          0
   185          1
   192          0
   193          2
   195        819
   196        407
   197         47
   198          3
   199          2
   200          1
   201          0
   211          2
   217          1
   218          0
   221          0
   226          0
   233          1
   241          0
   242          0
   244          9
   245          1
   259         25
   260        340
   261         63
   262         18
   263          2