##TITLE=Library Entry 59543
##JCAMP-DX=Revision 4.10 
##DATA TYPE=MASS SPECTRUM
##SAMPLE DESCRIPTION=Organic Synthesis Lab, MSU, Moscow.TRC 589
##NAMES=HP
##CAS NAME=7-Phenoxybicyclo[2.2.1]hepta-2,5-diene
##MOLFORM=C13H12O
##CAS REGISTRY NO=14069-87-5
##MP= -300
##BP= -300
##MW= 184
##$RETENTION INDEX=0
##$CONDENSED SPECTRUM=NO
##NPOINTS= 47
##XYDATA=(XY..XY) 1 
    31          3
    32          2
    37         11
    38         43
    39        227
    40         17
    41         10
    50         51
    51        154
    52         30
    53         15
    55          2
    61          5
    62         21
    63         70
    65        274
    66         19
    74          9
    75          9
    77        143
    78         49
    79         15
    86          3
    89         36
    91        999
    92         74
    93          5
    94          4
   105          9
   106         12
   115         15
   127          6
   128         13
   129         12
   140          4
   152          6
   153         12
   154          8
   155         30
   156          5
   165          6
   166          3
   167          3
   169          3
   183         16
   184         50
   185          6