##TITLE=Library Entry 14725
##JCAMP-DX=Revision 4.10 
##DATA TYPE=MASS SPECTRUM
##SAMPLE DESCRIPTION=LAC, NIDDK, NIH, Bethesda, MD 20892
##NAMES=HP
##CAS NAME=Pregn-5-en-20-one, 16-bromo-3,17-dihydroxy-, (3.beta.,16.beta.)-
##MOLFORM=C21H31BrO3
##CAS REGISTRY NO=14072-39-0
##MP= -300
##BP= -300
##MW= 410
##$RETENTION INDEX=0
##$CONDENSED SPECTRUM=NO
##NPOINTS= 233
##XYDATA=(XY..XY) 1 
    41        175
    43        999
    44         37
    49         11
    51         11
    53         68
    55        209
    57         80
    59          7
    61          3
    65         40
    66          7
    67        125
    68         11
    69         48
    71         41
    77         86
    78         22
    79        170
    81        289
    83         49
    84          5
    85         16
    87          6
    89          3
    91        188
    92         16
    93        148
    94         14
    95        127
    96         20
    97         41
    99         36
   100          9
   101          5
   103         17
   105        183
   106         31
   107        140
   108         15
   109         95
   110         16
   111         13
   113          7
   115         31
   116         13
   117         60
   118         17
   119         99
   120         30
   121         81
   122         34
   123         51
   124         13
   125         12
   127          9
   128         21
   129         37
   130         16
   131         92
   132         11
   133        151
   134         13
   135         86
   136         31
   137         22
   138          8
   139          5
   141         20
   142         16
   143         65
   144         20
   145        109
   146         22
   147         97
   148         11
   149         64
   150          7
   151         35
   152          2
   153          9
   154          3
   155         26
   157        112
   158         30
   159        114
   160          9
   161         50
   162          5
   163         53
   164         12
   165         17
   166          7
   167          9
   168          4
   169         24
   170          8
   171         46
   172         11
   173         33
   174         10
   175         31
   176         15
   177         28
   178          4
   179         10
   180          2
   181         12
   182          4
   183         21
   184          8
   185         34
   186          8
   187         23
   188          5
   189         13
   190          3
   191          8
   192          3
   193          6
   194          2
   195         23
   196          8
   197         33
   198          9
   199         25
   200          7
   201         16
   202          5
   203         15
   204          8
   205          8
   207          3
   209         20
   210          6
   211         40
   213        198
   214         42
   215         65
   216          4
   217         18
   218          4
   219          7
   221          7
   222          3
   223         19
   224          5
   225         22
   226          7
   227         20
   228          6
   229         12
   231         62
   232         11
   233         12
   235          7
   237         26
   238          2
   239         23
   240          4
   241         18
   242          5
   243          5
   244          7
   245          7
   249          6
   251        102
   252         34
   253         28
   254          6
   255         30
   256          6
   257         10
   258          3
   259         11
   265          3
   267         24
   269         81
   270         25
   271         24
   273         40
   274          9
   277         19
   279          9
   280          2
   283          4
   285         13
   286          6
   287         21
   288         60
   289         13
   291          2
   293          5
   295         96
   296         19
   297         13
   298          2
   302         21
   303          6
   305          3
   307          4
   309          5
   311          6
   312          4
   313        189
   314         37
   315         14
   328          3
   329          7
   330         95
   331        368
   332         74
   333         40
   334          5
   347          3
   349        150
   350         17
   351        137
   352         21
   367         41
   368          9
   369         34
   370          6
   374          2
   375         10
   376          4
   377         10
   392          6
   393         10
   394          6
   395          9
   410          3
   412          3