##TITLE=Library Entry 6593
##JCAMP-DX=Revision 4.10 
##DATA TYPE=MASS SPECTRUM
##SAMPLE DESCRIPTION=A.A.Kutin, Moscow, Russia
##NAMES=HP
##CAS NAME=Acetamide, N-(4-amino-3-furazanyl)-
##MOLFORM=C4H6N4O2
##CAS REGISTRY NO=140706-47-4
##MP= -300
##BP= -300
##MW= 142
##$RETENTION INDEX=0
##$CONDENSED SPECTRUM=NO
##NPOINTS= 83
##XYDATA=(XY..XY) 1 
    33          1
    34          1
    36          0
    38          7
    39         10
    40         37
    41         41
    42        180
    43        999
    44         81
    45          5
    46          0
    50          2
    51          4
    52          5
    53         48
    54         20
    55          6
    56          5
    57          6
    58         12
    59          3
    60          0
    61          0
    62          0
    63          0
    64          0
    65          1
    66          0
    67          2
    68          7
    69          7
    70         49
    71          4
    72          1
    73          0
    74          0
    75          0
    76          1
    77          3
    78          3
    79          0
    80          0
    81          0
    82          1
    83          2
    85        127
    86          4
    87          0
    89          0
    90          0
    91          1
    92          1
    93          0
    94          0
    95          0
    96          0
    97          0
    98          0
   100         81
   101          2
   102          0
   103          0
   104          0
   105          1
   106          0
   107          0
   109          0
   110          0
   112         56
   113          3
   114          0
   118          0
   119          0
   120          0
   121          1
   122          0
   125          0
   127          1
   128          0
   140          0
   142         65
   143          3