##TITLE=Library Entry 89414
##JCAMP-DX=Revision 4.10 
##DATA TYPE=MASS SPECTRUM
##SAMPLE DESCRIPTION=NIST Mass Spectrometry Data Center, 1990.
##NAMES=HP
##CAS NAME=l-Menthone
##MOLFORM=C10H18O
##CAS REGISTRY NO=14073-97-3
##MP= -300
##BP= -300
##MW= 154
##$RETENTION INDEX=0
##$CONDENSED SPECTRUM=NO
##NPOINTS= 48
##XYDATA=(XY..XY) 1 
    27        148
    28         18
    29        109
    39        302
    40         89
    41        660
    42        171
    43        246
    44         16
    50         13
    51         35
    52         21
    53        122
    55        589
    56        289
    57         66
    58         21
    65         34
    66         17
    67        108
    68         90
    69        794
    70        356
    71         44
    77         33
    79         53
    80         15
    81         60
    83        265
    84        236
    85         23
    91         18
    93         56
    94         40
    95        218
    97        332
    98         93
   109         25
   110         64
   111        291
   112        999
   113         74
   121         53
   125         62
   139        427
   140         44
   154        294
   155         35