##TITLE=Library Entry 86086
##JCAMP-DX=Revision 4.10 
##DATA TYPE=MASS SPECTRUM
##SAMPLE DESCRIPTION=J. SHAW, BORRISTON RESEARCH, ROCKVILLE, MD, USA
##NAMES=HP
##CAS NAME=Fenthion O-analog sulfone
##MOLFORM=C10H15O6PS
##CAS REGISTRY NO=14086-35-2
##MP= -300
##BP= -300
##MW= 294
##$RETENTION INDEX=2150
##$CONDENSED SPECTRUM=NO
##NPOINTS= 176
##XYDATA=(XY..XY) 1 
    12          6
    13          7
    15         50
    16         53
    17         32
    18         42
    25          1
    26         19
    27         66
    28         92
    29        114
    30         19
    31        126
    32         11
    33         20
    34          8
    35          2
    36          1
    37          7
    38         45
    39        280
    40         41
    41         33
    42          7
    43         67
    44         13
    45         76
    46         12
    47        179
    48         31
    49         22
    50        110
    51        374
    52        222
    53         66
    54         22
    55         32
    56          2
    57          7
    58          9
    59          6
    60          2
    61         11
    62         87
    63        527
    64         82
    65        177
    66         76
    67         41
    68         10
    69         27
    70         10
    71          9
    72          2
    73          5
    74         21
    75         27
    76         54
    77        307
    78        303
    79        517
    80         22
    81         20
    82         18
    83          7
    84          5
    85          6
    86         10
    87         19
    89        393
    90         84
    91        133
    92         39
    93        224
    94         41
    95         77
    96         32
    97         31
    98          6
    99          4
   100          1
   102         80
   103        141
   104        603
   105        134
   106         44
   107         49
   109        999
   110         49
   111         18
   113         38
   114          1
   115          7
   116          4
   117         11
   118         17
   119         38
   120         57
   121        237
   122         33
   123         52
   124         12
   125         78
   126         13
   127         85
   128          3
   129          2
   131          2
   133          2
   134          4
   135         20
   136         29
   137         35
   138          7
   139         11
   140          4
   141         10
   142          1
   143          1
   149         15
   150          3
   151          5
   152          4
   153         19
   154          7
   155         40
   156          5
   157         14
   158          2
   159          1
   165          3
   168         69
   169         18
   170          8
   171         19
   172          2
   173          3
   174          1
   175          1
   182         41
   183         23
   184         12
   185         24
   186          9
   187         62
   188          7
   189          1
   197          1
   199         31
   200         34
   201          6
   202          2
   203          3
   215        386
   216         43
   217          7
   218          2
   230        117
   231         69
   232          8
   233          3
   247          6
   248          1
   249          2
   261          3
   262          2
   263          7
   264          1
   277          1
   279         34
   280          3
   281          2
   294        207
   295         37
   296         12
   297          2