##TITLE=Library Entry 38158
##JCAMP-DX=Revision 4.10 
##DATA TYPE=MASS SPECTRUM
##SAMPLE DESCRIPTION=R.D.Bowen ET AL, Org. Mass Spectrom., 26,421(1991)
##NAMES=HP
##CAS NAME=3-Methoxy-1-pentene
##MOLFORM=C6H12O
##CAS REGISTRY NO=14092-18-3
##MP= -300
##BP= -300
##MW= 100
##$RETENTION INDEX=0
##$CONDENSED SPECTRUM=NO
##NPOINTS= 22
##XYDATA=(XY..XY) 1 
    39        100
    40         20
    41        490
    42         30
    43         40
    45         60
    53         40
    54         10
    55         50
    56         20
    57         20
    59         10
    67         30
    68         10
    69         60
    71        999
    72         60
    73         50
    85         10
    99         10
   100         70
   101          6