##TITLE=Library Entry 78582
##JCAMP-DX=Revision 4.10 
##DATA TYPE=MASS SPECTRUM
##SAMPLE DESCRIPTION=LAC, NIDDK, NIH, Bethesda, MD 20892
##NAMES=HP
##CAS NAME=.beta.-Benzilmonoxime
##MOLFORM=C14H11NO2
##CAS REGISTRY NO=14090-77-8
##MP= -300
##BP= -300
##MW= 225
##$RETENTION INDEX=0
##$CONDENSED SPECTRUM=NO
##NPOINTS= 42
##XYDATA=(XY..XY) 1 
    49          0
    50         64
    51        197
    52         17
    53          3
    62          6
    63         17
    64          5
    65          3
    74         12
    75         18
    76         63
    77        481
    78         30
    87          2
    88          0
    89          6
    90          1
    94          1
   102          3
   103         38
   104         17
   105        999
   106         72
   107          4
   115          0
   120          5
   122          3
   139          1
   152          1
   163          0
   164          1
   165          9
   166          0
   167          3
   180         10
   181          1
   195          1
   209          3
   224          7
   225         30
   226          6