##TITLE=Library Entry 44494
##JCAMP-DX=Revision 4.10 
##DATA TYPE=MASS SPECTRUM
##SAMPLE DESCRIPTION=Japan AIST/NIMC Database- Spectrum MS-NW-6897
##NAMES=HP
##CAS NAME=4-Bromo-dl-phenylalanine
##MOLFORM=C9H10BrNO2
##CAS REGISTRY NO=14091-15-7
##MP= -300
##BP= -300
##MW= 243
##$RETENTION INDEX=0
##$CONDENSED SPECTRUM=NO
##NPOINTS= 113
##XYDATA=(XY..XY) 1 
    15          6
    17          1
    18          1
    26          1
    27          6
    28        107
    29          9
    30         12
    37          2
    38          8
    39         26
    40          5
    41          8
    42         16
    43         15
    44          7
    45          5
    46         45
    47          2
    49          1
    50         18
    51         22
    52          6
    53          2
    54          1
    55          1
    56          8
    57          2
    58         36
    59         50
    60          6
    61          4
    62         10
    63         29
    64         11
    65         20
    66          2
    67          2
    68          1
    69          1
    71          1
    73          1
    74        999
    75         37
    76         12
    77          9
    78          4
    79          3
    80          2
    81          1
    82          1
    85          2
    86          2
    87          3
    88          3
    89         52
    90         74
    91         67
    92         11
    93          2
    97          1
    98          1
    99          8
   100          7
   101          4
   102         10
   103          5
   104          5
   105          1
   111          1
   115          1
   116          8
   117         19
   118         34
   119         93
   120          9
   121          1
   123          1
   125          1
   130          1
   131          1
   143          2
   145          2
   146          1
   155          1
   157          1
   169        104
   170         50
   171        104
   172         50
   173          4
   181          1
   182          5
   183          1
   184          5
   195          2
   196          3
   197         11
   198         57
   199         15
   200         55
   201          6
   209          1
   211          1
   224          1
   225          3
   226          2
   227          2
   228          1
   243         21
   244          3
   245         21
   246          3