##TITLE=Library Entry 48474
##JCAMP-DX=Revision 4.10 
##DATA TYPE=MASS SPECTRUM
##SAMPLE DESCRIPTION=Exported from NIST MS Search
##NAMES=HP
##CAS NAME=2-Hexen-4-yne
##MOLFORM=C6H8
##CAS REGISTRY NO=14092-20-7
##MP= -300
##BP= -300
##MW= 80
##$RETENTION INDEX=0
##$CONDENSED SPECTRUM=NO
##NPOINTS= 44
##XYDATA=(XY..XY) 1 
    12          3
    13          2
    14          3
    15          8
    24          2
    25          8
    26         37
    27        141
    28         35
    29          4
    30          1
    36        119
    37         65
    38        114
    39        651
    40        172
    41        110
    42          5
    48          4
    49         23
    50        124
    51        157
    52        188
    53         96
    54         28
    55          2
    60          4
    61        130
    62        183
    63         30
    64          5
    65         69
    66          4
    72          1
    73          9
    74         25
    75          8
    76          4
    77        382
    78         58
    79        999
    80        379
    81         25
    82          2