##TITLE=Library Entry 91348
##JCAMP-DX=Revision 4.10 
##DATA TYPE=MASS SPECTRUM
##SAMPLE DESCRIPTION=Chemical Concepts
##NAMES=HP
##CAS NAME=2,3-Oxiranedicarboxylic acid, 2-methyl-, dimethyl ester
##MOLFORM=C7H10O5
##CAS REGISTRY NO=140925-23-1
##MP= -300
##BP= -300
##MW= 174
##$RETENTION INDEX=0
##$CONDENSED SPECTRUM=NO
##NPOINTS= 52
##XYDATA=(XY..XY) 1 
    26         18
    27         64
    28         24
    29         47
    30          5
    31         30
    33         14
    38          4
    39         15
    40          5
    41         33
    42         12
    43        304
    44         16
    45         37
    47         14
    53         11
    54         13
    55        113
    56         30
    57         23
    59        266
    60          6
    61          4
    68          5
    69         26
    72         15
    73          9
    75         32
    83         66
    84          7
    85         38
    86         13
    87         70
    89         12
    99         17
   100         30
   101          7
   103         29
   104         19
   114         35
   115        999
   116         52
   117         80
   131         46
   132          5
   133          0
   142          3
   143          5
   144          0
   145          6
   146          0