##TITLE=Library Entry 59773
##JCAMP-DX=Revision 4.10 
##DATA TYPE=MASS SPECTRUM
##SAMPLE DESCRIPTION=Div. of Experiment Therapeutics WRAIR, WRAMC, Washingto
n DC 20307
##NAMES=HP
##CAS NAME=2,4-Dichlorophenyl-.alpha.-toluenesulfonate
##MOLFORM=C13H10Cl2O3S
##CAS REGISTRY NO=14099-18-4
##MP= -300
##BP= -300
##MW= 316
##$RETENTION INDEX=0
##$CONDENSED SPECTRUM=NO
##NPOINTS= 71
##XYDATA=(XY..XY) 1 
    41         15
    43          1
    45          2
    48          0
    49          3
    50          6
    51         20
    52          6
    53          2
    57          0
    61          5
    62         17
    63         48
    64          7
    65         63
    66          4
    70          0
    71          1
    72          4
    73         12
    74          2
    75          5
    76          0
    77          2
    78          1
    83          3
    85          3
    86          1
    87          1
    89         30
    90         19
    91        999
    92         51
    93          2
    96          0
    97          7
    98          3
    99          2
   105          1
   107          6
   109          4
   111          1
   115          0
   125          2
   126          1
   132          0
   133         39
   134          0
   135         23
   137          2
   145          1
   152          1
   153          1
   161         15
   162          3
   163          6
   164          0
   165          1
   181          1
   215          1
   249          0
   251          1
   252         50
   253          4
   254         20
   255          3
   256          5
   257          0
   316          4
   318          2
   320          0