##TITLE=Library Entry 90153
##JCAMP-DX=Revision 4.10 
##DATA TYPE=MASS SPECTRUM
##SAMPLE DESCRIPTION=RADIAN CORP
##NAMES=HP
##CAS NAME=4,6-Nonanedione
##MOLFORM=C9H16O2
##CAS REGISTRY NO=14090-88-1
##MP= -300
##BP= -300
##MW= 156
##$RETENTION INDEX=1152
##$CONDENSED SPECTRUM=NO
##NPOINTS= 43
##XYDATA=(XY..XY) 1 
    15         13
    26         24
    27        257
    29         91
    37          4
    38         16
    39        159
    41        296
    42        129
    43        694
    45          9
    50          1
    52          3
    53         18
    54          3
    55         64
    56          5
    57         43
    58         42
    65          6
    66          5
    67         49
    68          7
    69         89
    70         20
    71        878
    72         35
    81          2
    85         51
    95         16
    97         14
    99         11
   100         14
   111          3
   113        999
   114         74
   115          5
   128         86
   129          7
   141         24
   156        123
   157         33
   158          1