##TITLE=Library Entry 15892
##JCAMP-DX=Revision 4.10 
##DATA TYPE=MASS SPECTRUM
##SAMPLE DESCRIPTION=ATLAS OF MASS SPECTRA OF ORGANIC COMPOUNDS, V. A. KOPTY
UG, ED.
##NAMES=HP
##CAS NAME=Valeraldehyde, dimethylhydrazone
##MOLFORM=C7H16N2
##CAS REGISTRY NO=14090-57-4
##MP= -300
##BP= -300
##MW= 128
##$RETENTION INDEX=971
##$CONDENSED SPECTRUM=NO
##NPOINTS= 29
##XYDATA=(XY..XY) 1 
    27        194
    29        125
    30        100
    39         76
    41        175
    42        462
    43        488
    44        999
    45        362
    46         41
    55         55
    56         75
    57         55
    58         88
    70         28
    71        156
    72         32
    83         24
    84         31
    85        811
    86        839
    87         48
    99        175
   100         30
   113        113
   114         10
   127         22
   128        661
   129         61