##TITLE=Library Entry 100144
##JCAMP-DX=Revision 4.10 
##DATA TYPE=MASS SPECTRUM
##SAMPLE DESCRIPTION=Richard Turcotte. Direction des laboratoires d'expertis
es et d'analyses alimentaires, Quebec, Canada.
##NAMES=HP
##CAS NAME=IPROVALICARB-1
##MOLFORM=C18H28N2O3
##CAS REGISTRY NO=140923-17-7
##MP= -300
##BP= -300
##MW= 320
##$RETENTION INDEX=0
##$CONDENSED SPECTRUM=NO
##NPOINTS= 102
##XYDATA=(XY..XY) 1 
    41        133
    42         90
    43        346
    44         72
    45        422
    46         11
    50         11
    51         17
    52          8
    53         10
    54          8
    55        116
    56         45
    57         22
    58         26
    59         25
    62          9
    63         22
    64          3
    65         53
    66          5
    67          3
    68          6
    69         17
    70         18
    71          4
    72        600
    73         32
    74         16
    75          4
    76          8
    77         64
    78         17
    79         12
    82         11
    83          4
    89         26
    90          8
    91        226
    92         25
    93         41
    94          4
    98        141
    99         13
   100         34
   101         17
   102         27
   103         40
   104         45
   105         37
   106          5
   114         45
   115         90
   116        704
   117        237
   118        222
   119        999
   120        220
   121         19
   129          2
   130          5
   131          5
   132          4
   133         39
   134        692
   135         82
   136          3
   140          4
   141          3
   142          3
   143         25
   144         13
   145          3
   146        105
   147          9
   157          4
   158        260
   159         45
   160         28
   161         23
   174         46
   175          9
   186          8
   188         10
   189          5
   191          5
   202         35
   203          3
   207         34
   208          2
   209          2
   217         49
   218         26
   219          5
   245         42
   246         10
   253          3
   260        111
   261         24
   269          2
   278          2
   320          4