##TITLE=Library Entry 57397
##JCAMP-DX=Revision 4.10 
##DATA TYPE=MASS SPECTRUM
##SAMPLE DESCRIPTION=Exported from NIST MS Search
##NAMES=HP
##CAS NAME=o-Dithiane-3-carboxylic acid
##MOLFORM=C5H8O2S2
##CAS REGISTRY NO=14091-98-6
##MP= -300
##BP= -300
##MW= 164
##$RETENTION INDEX=0
##$CONDENSED SPECTRUM=NO
##NPOINTS= 85
##XYDATA=(XY..XY) 1 
    32         91
    33         47
    34         99
    36         25
    37         29
    38         43
    39        170
    40         23
    41        150
    42         51
    43         77
    44        297
    45        496
    46         77
    47         87
    48         19
    49         19
    50         51
    51         39
    52         19
    53        158
    54         25
    55        192
    56         25
    57         47
    58        144
    59        166
    60        150
    61         25
    64        123
    65         19
    66         33
    67         19
    68         25
    69         33
    70         19
    71         93
    72         43
    73        178
    74         39
    75         27
    76        138
    77         25
    78         35
    79         19
    81         51
    82         31
    83         27
    84         45
    85        781
    86        347
    87        999
    88         89
    89         69
    90         19
    91         39
    92         19
    97         41
    98         37
    99         75
   100         47
   103         15
   104         19
   105         19
   111         67
   112         19
   113         23
   114         27
   115         19
   116         35
   117         15
   118         69
   119        283
   120         37
   121         39
   128         55
   129         21
   130         99
   131        134
   132        317
   133         59
   134         39
   164        313
   165         33
   166         39