##TITLE=Library Entry 43171
##JCAMP-DX=Revision 4.10 
##DATA TYPE=MASS SPECTRUM
##SAMPLE DESCRIPTION=RADIAN CORP
##NAMES=HP
##CAS NAME=Propanoic acid, 3-iodo-
##MOLFORM=C3H5IO2
##CAS REGISTRY NO=141-76-4
##MP= -300
##BP= -300
##MW= 200
##$RETENTION INDEX=0
##$CONDENSED SPECTRUM=NO
##NPOINTS= 40
##XYDATA=(XY..XY) 1 
    25         15
    26         54
    27        194
    28         94
    29        154
    30          2
    31         17
    32          1
    40          7
    41          2
    42         30
    43         61
    44         23
    45        345
    46          5
    53         12
    54          3
    55         88
    56          6
    64          1
    71          4
    72         39
    73        999
    74         47
    75          3
    77          3
    91          9
    92          1
   127        327
   128        304
   129         13
   139          6
   140          2
   141         31
   153          3
   154         16
   155        153
   183          8
   200        465
   201         18