##TITLE=Library Entry 37727
##JCAMP-DX=Revision 4.10 
##DATA TYPE=MASS SPECTRUM
##SAMPLE DESCRIPTION=Zaikin V.G., TIPS RAS, Moscow, Russia
##NAMES=HP
##CAS NAME=2-Butenedioic acid (E)-, bis(2-ethylhexyl) ester
##MOLFORM=C20H36O4
##CAS REGISTRY NO=141-02-6
##MP= -300
##BP= -300
##MW= 340
##$RETENTION INDEX=0
##$CONDENSED SPECTRUM=NO
##NPOINTS= 80
##XYDATA=(XY..XY) 1 
    26          9
    27         55
    29        118
    31          2
    39         29
    41        242
    42         58
    43        263
    53         22
    54         69
    55        316
    56        178
    57        635
    58         26
    59          3
    67         19
    68         20
    69        199
    70        999
    71        369
    72         22
    81         33
    82        148
    83        285
    84        167
    85        120
    86          9
    95          3
    97         30
    98          6
    99        247
   100        420
   101         23
   102          3
   109          2
   110         20
   111         39
   112        638
   113        169
   114         13
   117         48
   118         17
   119          3
   125          2
   126          2
   127          3
   128          3
   129         10
   131          7
   137          4
   138          2
   139          2
   141          2
   142          6
   151          1
   153          4
   154          4
   155          2
   165          6
   167          6
   168          2
   169          5
   180          2
   181          5
   182          5
   183         10
   185          7
   192          5
   199          2
   210         10
   211        206
   212         47
   213          5
   228          3
   229         33
   230          4
   243          2
   283          5
   297          2
   311          3