##TITLE=Library Entry 88734
##JCAMP-DX=Revision 4.10 
##DATA TYPE=MASS SPECTRUM
##SAMPLE DESCRIPTION=Japan AIST/NIMC Database- Spectrum MS-NW- 838
##NAMES=HP
##CAS NAME=Diethyl adipate
##MOLFORM=C10H18O4
##CAS REGISTRY NO=141-28-6
##MP= -300
##BP= -300
##MW= 202
##$RETENTION INDEX=1385
##$CONDENSED SPECTRUM=NO
##NPOINTS= 85
##XYDATA=(XY..XY) 1 
    14          3
    15         22
    16          1
    17          5
    18         15
    19          1
    26         30
    27        269
    28        181
    29        746
    30         18
    31         44
    32         14
    38          2
    39         76
    40         13
    41        208
    42         96
    43        135
    44          9
    45        137
    46          4
    47          1
    50          2
    51          4
    52          2
    53         27
    54         49
    55        492
    56        127
    57         33
    58         14
    59        107
    60        172
    61        114
    62          1
    65          1
    66          1
    67          5
    68         27
    69         58
    70         68
    71          9
    73        262
    74         34
    75          5
    81          5
    82         29
    83        252
    84         66
    85         13
    86          8
    87        109
    88        201
    89         10
    90          1
    98          3
    99         43
   100         64
   101        334
   102         41
   103          4
   109          4
   110         40
   111        999
   112         86
   113          7
   114         16
   115        570
   116         38
   117          2
   127         11
   128        576
   129        174
   130         35
   131          2
   139          2
   155          1
   156        131
   157        954
   158         82
   159          9
   174          2
   202         10
   203          1