##TITLE=Library Entry 85909
##JCAMP-DX=Revision 4.10 
##DATA TYPE=MASS SPECTRUM
##SAMPLE DESCRIPTION=Japan AIST/NIMC Database- Spectrum MS-NW-1400
##NAMES=HP
##CAS NAME=2,6-Pyridinediamine
##MOLFORM=C5H7N3
##CAS REGISTRY NO=141-86-6
##MP= -300
##BP= -300
##MW= 109
##$RETENTION INDEX=1377
##$CONDENSED SPECTRUM=NO
##NPOINTS= 55
##XYDATA=(XY..XY) 1 
    13          1
    14          3
    15          2
    16          1
    17          3
    18         10
    25          1
    26          6
    27         10
    28         13
    29          8
    30          6
    32          2
    36          2
    37         18
    38         49
    39         99
    40         27
    41         57
    42         13
    43         58
    44          6
    46          2
    49          1
    50          3
    51          6
    52         26
    53         13
    54         68
    55         97
    56          6
    62          2
    63          4
    64         16
    65         67
    66         72
    67         11
    68          5
    69          3
    77          1
    78          1
    79          3
    80          3
    81        101
    82        353
    83         20
    91          5
    92         70
    93         13
    94          5
   107          1
   108          6
   109        999
   110         64
   111          2