##TITLE=Library Entry 3383
##JCAMP-DX=Revision 4.10 
##DATA TYPE=MASS SPECTRUM
##SAMPLE DESCRIPTION=RESEARCH LABORATORY, STATE ALCOHOL MONOPOLY ALKO, HELSI
NKI, FINLAND; IRMA NYKANEN ET AL
##NAMES=HP
##CAS NAME=7-Octenal, 3,7-dimethyl-
##MOLFORM=C10H18O
##CAS REGISTRY NO=141-26-4
##MP= -300
##BP= -300
##MW= 154
##$RETENTION INDEX=1581
##$CONDENSED SPECTRUM=NO
##NPOINTS= 71
##XYDATA=(XY..XY) 1 
    27        120
    28         54
    29        110
    30          3
    31         10
    39        234
    40         44
    41        999
    42        117
    43        168
    44        172
    45          3
    50         17
    51         41
    52         17
    53        141
    54         37
    55        620
    56        334
    57        106
    58         13
    59         20
    63         13
    65         44
    66         17
    67        368
    68        131
    69        989
    70        203
    71        120
    72         24
    77         55
    78         10
    79        106
    80         41
    81        213
    82         62
    83        175
    84        213
    85         37
    91         55
    92         17
    94         58
    95        527
    96         72
    97        175
    98        131
    99          3
   105         20
   106          6
   107         41
   108         17
   109        131
   110        131
   111        241
   112        286
   113         27
   119          6
   121        275
   122         34
   123         37
   124          6
   125         17
   126         20
   136         55
   137          6
   139        144
   140         17
   152          6
   154         62
   155          6