##TITLE=Library Entry 21200
##JCAMP-DX=Revision 4.10 
##DATA TYPE=MASS SPECTRUM
##SAMPLE DESCRIPTION=Japan AIST/NIMC Database- Spectrum MS-NW-8905
##NAMES=HP
##CAS NAME=Ricinoleic acid
##MOLFORM=C18H34O3
##CAS REGISTRY NO=141-22-0
##MP= -300
##BP= -300
##MW= 298
##$RETENTION INDEX=2352
##$CONDENSED SPECTRUM=NO
##NPOINTS= 207
##XYDATA=(XY..XY) 1 
    17          4
    18         13
    26          2
    27         32
    28         10
    29         95
    30          5
    31         15
    32          2
    36          1
    38          1
    39         36
    40          7
    41        298
    42         52
    43        311
    44         32
    45         35
    46          1
    51          2
    52          2
    53         33
    54        172
    55        999
    56        145
    57        153
    58         22
    59         19
    60         66
    61         12
    65         13
    66         25
    67        355
    68        296
    69        452
    70        130
    71         93
    72          9
    73        118
    74         11
    75          1
    77         19
    78         12
    79         96
    80         78
    81        344
    82        416
    83        309
    84        380
    85         78
    86         11
    87         52
    88         16
    89          1
    91         27
    92         13
    93         63
    94         91
    95        250
    96        385
    97        498
    98        614
    99         66
   100         56
   101         70
   102         27
   103          3
   104          2
   105         16
   106         25
   107         41
   108         71
   109        139
   110        190
   111        147
   112         71
   113         52
   114        121
   115         65
   116         24
   117          6
   118          6
   119         62
   120         16
   121         30
   122        152
   123        176
   124        261
   125         90
   126         17
   127         49
   128         17
   129         21
   130          3
   131          6
   132          3
   133         30
   134          8
   135         32
   136         27
   137        142
   138         66
   139         19
   140         13
   141         33
   142          9
   143          6
   144          1
   145          3
   146          2
   147         10
   148        164
   149         44
   150         25
   151         38
   152         18
   153         11
   154         11
   155         27
   156          5
   157          5
   158          1
   159          6
   160          1
   161          4
   162          2
   163          9
   164         13
   165         17
   166        315
   167         52
   168         17
   169          5
   170          1
   171          5
   172          2
   173          6
   174          1
   175          3
   176          1
   177          7
   178          6
   179          8
   180          6
   181          9
   182         24
   183          5
   184        113
   185         21
   186          5
   187          3
   189          2
   191          3
   192          2
   193          5
   194          5
   195         38
   196         13
   197          4
   198          1
   199          3
   200          1
   201          1
   203          1
   205          2
   206          1
   207          3
   208          3
   209          6
   210          7
   211          4
   212          1
   213          4
   214          1
   215          1
   219          1
   220          6
   221          4
   222          4
   223          5
   224          4
   225          1
   227          2
   234          1
   235          2
   236          2
   237          3
   238          2
   239          2
   241          3
   245          2
   246          2
   249          1
   251          2
   252          1
   255          1
   256          2
   262          4
   263          8
   264         11
   265          4
   278          4
   279          6
   280         83
   281         24
   282          6
   283          1