##TITLE=Library Entry 35647
##JCAMP-DX=Revision 4.10 
##DATA TYPE=MASS SPECTRUM
##SAMPLE DESCRIPTION=NIST Mass Spectrometry Data Center
##NAMES=HP
##CAS NAME=2,6-Octadien-1-ol, 3,7-dimethyl-, acetate, (Z)-
##MOLFORM=C12H20O2
##CAS REGISTRY NO=141-12-8
##MP= -300
##BP= -300
##MW= 196
##$RETENTION INDEX=1364
##$CONDENSED SPECTRUM=NO
##NPOINTS= 103
##XYDATA=(XY..XY) 1 
    14          1
    15          7
    26          2
    27         36
    28          7
    29         28
    30          1
    31          1
    37          1
    38          3
    39         82
    40         24
    41        417
    42         30
    43        362
    44         11
    45          6
    50          5
    51         17
    52         10
    53         91
    54         12
    55         45
    56         10
    57          8
    58          1
    59          3
    60          4
    61          4
    62          1
    63          5
    64          1
    65         31
    66         13
    67        209
    68        415
    69        999
    70         61
    71         15
    72          3
    73          1
    74          1
    75          1
    77         53
    78         11
    79         76
    80        219
    81        100
    82         15
    83         27
    84         72
    85         53
    86         13
    87          1
    89          1
    91         77
    92        106
    93        505
    94         82
    95         36
    96          5
    97         17
    98          8
    99          2
   101          4
   102          1
   103          5
   104          2
   105         33
   106          8
   107         72
   108         20
   109         15
   110          4
   111         11
   112          3
   113          1
   114          1
   115          3
   116          1
   117          3
   118          1
   119         12
   120          4
   121        235
   122         24
   123         26
   124          3
   125          1
   126          6
   127         11
   128          1
   134          1
   135          4
   136        164
   137         26
   138          4
   139         10
   140          1
   153          2
   154         26
   155          3
   196          1