##TITLE=Library Entry 5582
##JCAMP-DX=Revision 4.10 
##DATA TYPE=MASS SPECTRUM
##SAMPLE DESCRIPTION=Japan AIST/NIMC Database- Spectrum MS-NW-1297
##NAMES=HP
##CAS NAME=Ethyl acetoacetate
##MOLFORM=C6H10O3
##CAS REGISTRY NO=141-97-9
##MP= -300
##BP= -300
##MW= 130
##$RETENTION INDEX=944
##$CONDENSED SPECTRUM=NO
##NPOINTS= 54
##XYDATA=(XY..XY) 1 
    12          1
    13          3
    14         21
    15         81
    16          6
    18          3
    19          4
    25          3
    26         20
    27        106
    28         71
    29        235
    30          6
    31         68
    32          2
    37          2
    38          4
    39          9
    40          8
    41         10
    42        102
    43        999
    44         27
    45         53
    46          9
    53          1
    55          5
    56          7
    57          3
    58         34
    59          3
    60         96
    61         38
    62          1
    68          1
    69         52
    70         17
    71          3
    73         13
    74          2
    84         42
    85        145
    86          8
    87         30
    88        190
    89          9
    90          1
   102         35
   103          3
   113          1
   115         16
   116          1
   130         57
   131          4