##TITLE=Library Entry 45472
##JCAMP-DX=Revision 4.10 
##DATA TYPE=MASS SPECTRUM
##SAMPLE DESCRIPTION=RADIAN CORP
##NAMES=HP
##CAS NAME=2-Octanol, 8,8-dimethoxy-2,6-dimethyl-
##MOLFORM=C12H26O3
##CAS REGISTRY NO=141-92-4
##MP= -300
##BP= -300
##MW= 218
##$RETENTION INDEX=1414
##$CONDENSED SPECTRUM=NO
##NPOINTS= 72
##XYDATA=(XY..XY) 1 
    27          6
    29         29
    31         41
    33          2
    39         19
    40          3
    41         79
    42         10
    43        170
    45         49
    47         53
    51          1
    53         24
    54          5
    55        122
    56         17
    57         23
    58         50
    59        240
    60          8
    61         42
    65          4
    67         33
    68         12
    69        102
    70         12
    71         83
    72          7
    73          5
    74          2
    75        999
    76         34
    77         11
    78          2
    79         15
    80          7
    81        143
    82         14
    83         21
    85        465
    86         40
    87          4
    89          1
    91          4
    93         17
    94          3
    95         74
    96         54
    97         41
    98         41
    99          7
   107          3
   109          8
   110          9
   111         98
   112         14
   113         16
   115          4
   121         38
   122          4
   123          3
   125          6
   126          2
   127         21
   128          8
   136          3
   137         33
   138          3
   139         18
   153          7
   168          7
   169         16