##TITLE=Library Entry 19676
##JCAMP-DX=Revision 4.10 
##DATA TYPE=MASS SPECTRUM
##SAMPLE DESCRIPTION=Leung Pu, NIH, Bethesda, Maryland, U.S.
##NAMES=HP
##CAS NAME=1-Glyceryl ricinoleate
##MOLFORM=C21H40O5
##CAS REGISTRY NO=141-08-2
##MP= -300
##BP= -300
##MW= 372
##$RETENTION INDEX=0
##$CONDENSED SPECTRUM=NO
##NPOINTS= 232
##XYDATA=(XY..XY) 1 
    41        358
    42        142
    43        796
    44        560
    45        285
    46          7
    47          7
    50          2
    51          4
    52          4
    53         44
    54        201
    55        999
    56         11
    57        347
    58         26
    59         24
    60        116
    61        641
    62        272
    63          6
    65         14
    66         23
    67        325
    68        195
    69        361
    70         96
    71         99
    72         12
    73         46
    74         87
    75         87
    76          4
    77         22
    78         17
    79        116
    80         99
    81        317
    82        185
    83        256
    84        228
    85         78
    86         11
    87         23
    88          3
    90          4
    91         42
    92         21
    93        120
    94         88
    95        218
    96        174
    97        353
    98        454
    99        542
   100         13
   101         15
   102          5
   103         17
   104          3
   105         32
   106         36
   107         65
   108         96
   109        177
   110        107
   111        152
   112        104
   113         34
   114         12
   115         40
   116         40
   117         13
   118          6
   119         56
   120         23
   121         53
   122         68
   123        223
   124        110
   125         57
   126         14
   127         13
   128          4
   129         98
   130         12
   131         13
   132          3
   133         48
   134         60
   135         61
   136         30
   137        274
   138         80
   139         27
   140         10
   141         10
   142          3
   143         18
   144          9
   145          8
   146          3
   147         43
   148         96
   149         59
   150         34
   151         77
   152         27
   153         17
   154         14
   155         15
   156          3
   157          9
   158          9
   159          8
   160          3
   161         14
   162          8
   163         24
   164         38
   165         55
   166        621
   167        294
   168         15
   169          8
   171         10
   172          8
   173          5
   175          9
   176         23
   177         16
   178         15
   179         23
   180          9
   181         13
   182          9
   183         10
   184          4
   185         33
   186          4
   187          5
   189          6
   190          7
   191          9
   192          6
   193         12
   194          9
   195         24
   196          8
   197         12
   198          2
   199          8
   201          2
   203          4
   205          5
   206          4
   207         10
   208          4
   209          7
   210          6
   211          7
   213          4
   215          2
   217          2
   218          2
   219          7
   220          7
   221         12
   222          4
   223          3
   224          3
   225          4
   227          5
   229          5
   231          2
   233          3
   234         10
   235          6
   236          4
   237          3
   238          4
   239         13
   240         22
   241         29
   242          5
   243          2
   245         32
   246          8
   247          3
   256          2
   258         56
   259         13
   260          5
   261          9
   262         95
   263        148
   264         62
   265         19
   266          5
   267          7
   269         32
   270          6
   271          2
   278          2
   279         13
   280         17
   281         30
   282          6
   284          2
   285          2
   292          2
   293          2
   294          5
   295          2
   299          3
   305         24
   306          5
   313          3
   314          2
   323         18
   324          4
   325          2
   336          7
   337         29
   338          8
   339          8
   341          2
   353          4
   354          9
   355         34
   356          8
   372          3