##TITLE=Library Entry 34339
##JCAMP-DX=Revision 4.10 
##DATA TYPE=MASS SPECTRUM
##SAMPLE DESCRIPTION=Chemical Concepts
##NAMES=HP
##CAS NAME=3,5,9-Undecatrien-2-one, 6,10-dimethyl-
##MOLFORM=C13H20O
##CAS REGISTRY NO=141-10-6
##MP= -300
##BP= -300
##MW= 192
##$RETENTION INDEX=1581
##$CONDENSED SPECTRUM=NO
##NPOINTS= 66
##XYDATA=(XY..XY) 1 
    27         71
    28         13
    29         36
    38          4
    39        108
    40         19
    41        652
    42         24
    43        354
    44          7
    45          8
    50          4
    51         20
    52         12
    53         59
    54          7
    55         24
    63          7
    64          3
    65         29
    66          8
    67         38
    68         10
    69        999
    70         48
    71          2
    77         43
    78         12
    79         61
    80        101
    81        495
    82         36
    83          4
    91         34
    92          5
    93         18
    94          4
    95         12
   103          3
   105         11
   106          6
   107         18
   108         10
   109        353
   110         26
   111          2
   115          3
   117          3
   119          8
   121         12
   122          3
   123         10
   124        371
   126         29
   131          2
   133          3
   134         11
   135          5
   149         30
   150          3
   159          2
   164          2
   174          1
   177         12
   192         54
   193          9