##TITLE=Library Entry 3321
##JCAMP-DX=Revision 4.10 
##DATA TYPE=MASS SPECTRUM
##SAMPLE DESCRIPTION=Chemical Concepts
##NAMES=HP
##CAS NAME=2,6-Octadienal, 3,7-dimethyl-, (E)-
##MOLFORM=C10H16O
##CAS REGISTRY NO=141-27-5
##MP= -300
##BP= -300
##MW= 152
##$RETENTION INDEX=1270
##$CONDENSED SPECTRUM=NO
##NPOINTS= 106
##XYDATA=(XY..XY) 1 
    25          0
    26         10
    27        184
    28         32
    29        141
    30          3
    31          4
    34          0
    35          0
    36          0
    37          3
    38         17
    39        281
    40         44
    41        999
    42         49
    43         63
    44          3
    45          1
    46          0
    47          0
    49          0
    50         18
    51         48
    52         18
    53        122
    54         30
    55         83
    56         48
    57         10
    58          2
    59         40
    60          1
    61          1
    62          4
    63         11
    64          2
    65         34
    66         11
    67        108
    68         33
    69        956
    70         70
    71          6
    72          2
    74          1
    75          0
    76          1
    77         42
    78          9
    79         52
    80         25
    81         81
    82         51
    83        108
    84        242
    85         13
    86          1
    87          0
    88          0
    89          1
    90          0
    91         48
    92         13
    93         32
    94        150
    95         63
    96         14
    97          5
    98          1
    99          0
   101          0
   102          0
   103          2
   104          1
   105         11
   106          4
   107         14
   108         13
   109         88
   110         18
   111          3
   112          0
   113          0
   114          0
   115          3
   116          0
   117          3
   118          0
   119         28
   120          3
   121         14
   122          2
   123         59
   124         10
   125          1
   133          1
   134         12
   135          2
   136          3
   137         70
   138          8
   139          1
   151          0
   152         38
   153          4