##TITLE=Library Entry 38319
##JCAMP-DX=Revision 4.10 
##DATA TYPE=MASS SPECTRUM
##SAMPLE DESCRIPTION=NIST Mass Spectrometry Data Center
##NAMES=HP
##CAS NAME=Butanoyl chloride
##MOLFORM=C4H7ClO
##CAS REGISTRY NO=141-75-3
##MP= -300
##BP= -300
##MW= 106
##$RETENTION INDEX=709
##$CONDENSED SPECTRUM=NO
##NPOINTS= 60
##XYDATA=(XY..XY) 1 
    14          3
    15          8
    25          4
    26         36
    27        159
    28         44
    29         28
    30          1
    33          1
    35         11
    36          5
    37         29
    38         43
    39        181
    40         27
    41        354
    42        206
    43        608
    44         23
    45          1
    47          3
    48          3
    49         20
    50          9
    51          9
    52          2
    53         11
    54          2
    55         48
    56         12
    57          1
    60          3
    61          6
    62          3
    63         98
    64          3
    65         33
    66          1
    67          1
    68          1
    69          5
    71        999
    72         55
    73          5
    75          2
    76          1
    77          6
    78        186
    79          6
    80         63
    81          2
    91         48
    92          2
    93         16
    94          1
   105          1
   106         11
   107          2
   108          4
   109          1