##TITLE=Library Entry 26292
##JCAMP-DX=Revision 4.10 
##DATA TYPE=MASS SPECTRUM
##SAMPLE DESCRIPTION=H. Fales, LC, NHLBI, NIH, Bethesda, MD 20892
##NAMES=HP
##CAS NAME=Decanedioic acid, bis(2-butoxyethyl) ester
##MOLFORM=C22H42O6
##CAS REGISTRY NO=141-19-5
##MP= -300
##BP= -300
##MW= 402
##$RETENTION INDEX=2700
##$CONDENSED SPECTRUM=NO
##NPOINTS= 232
##XYDATA=(XY..XY) 1 
    41        260
    42         73
    43        167
    44         99
    45        252
    46          5
    47          1
    49          8
    51          3
    53         14
    54          3
    55        304
    56        124
    57        999
    58          7
    59          3
    60         43
    61         13
    63         15
    65          2
    67         41
    68         22
    69        136
    70         63
    71         74
    72         17
    73         61
    74          7
    75          5
    77          3
    79         21
    80         11
    81         40
    82         22
    83         91
    84         19
    85        781
    86         18
    87         88
    88         37
    89          7
    91          5
    93         23
    94         10
    95         40
    96         22
    97         82
    98        181
    99        182
   100        127
   101        864
   102          4
   103          4
   104          6
   105         31
   107         14
   108          2
   109         11
   110         13
   111         42
   112         83
   113         42
   114          1
   115         27
   116         12
   117        129
   119         35
   121         44
   122          1
   123         12
   124         20
   125         26
   127         21
   128         11
   129         24
   130          4
   131         12
   132          1
   133          1
   135          3
   136          2
   137         14
   138         49
   139         42
   140         58
   141         51
   142          6
   143          8
   145         10
   147          6
   148          8
   149         15
   150          3
   151          3
   152          4
   153          3
   154          4
   155         43
   156         13
   157         10
   158         14
   160        160
   161         15
   162          2
   164          3
   165          7
   166         76
   167         26
   168          7
   169         67
   170          1
   171         22
   173         65
   174          7
   176          3
   177          1
   179          1
   180          2
   181          2
   182          2
   183         13
   184         47
   185        241
   186          5
   187         36
   188          3
   189          1
   193          1
   194          5
   195          1
   197          4
   198          3
   199         17
   201         23
   202          7
   203          8
   209          3
   210          1
   211         77
   213        180
   214         23
   215         11
   216          2
   217          2
   225          3
   226          2
   227         19
   228         13
   229        412
   230         81
   231         13
   232          3
   239          2
   240          2
   241         17
   242          6
   243        162
   244         24
   245          4
   247          5
   254          1
   255          4
   256         33
   257         36
   258         51
   259         10
   260          1
   268          2
   269          2
   270          4
   271         13
   272          4
   273         23
   274          4
   275          1
   283          3
   284          5
   285        202
   286         38
   287         14
   289          2
   296          1
   297          6
   298          3
   299         10
   300          2
   301         11
   302          9
   303         19
   304          3
   307          5
   308          1
   311          1
   312          1
   313          8
   314          3
   315          4
   316          2
   317          1
   325          3
   326          1
   327          3
   328         16
   329         97
   330         28
   331          5
   339          1
   340          2
   341          7
   342          4
   343          6
   344          1
   345          2
   347          1
   353          1
   355          1
   356          1
   357          4
   358          1
   359          2
   368          1
   369          3
   370          1
   371          2
   387          1
   395          1
   397          1
   399          1
   400          3
   401          7
   402         15
   403          3