##TITLE=Library Entry 75399
##JCAMP-DX=Revision 4.10 
##DATA TYPE=MASS SPECTRUM
##SAMPLE DESCRIPTION=NIST Mass Spectrometry Data Center, 1994
##NAMES=HP
##CAS NAME=Butanedioic acid, dibutyl ester
##MOLFORM=C12H22O4
##CAS REGISTRY NO=141-03-7
##MP= -300
##BP= -300
##MW= 230
##$RETENTION INDEX=1529
##$CONDENSED SPECTRUM=NO
##NPOINTS= 62
##XYDATA=(XY..XY) 1 
    14          0
    15          2
    16          0
    25          0
    26          6
    27         51
    28         54
    29        104
    30          4
    31          5
    37          0
    39         24
    41        126
    42         14
    43         18
    44          3
    45         10
    46          0
    51          0
    52          0
    53          4
    55         70
    56        113
    57        115
    58          5
    59          1
    60          0
    70          0
    71          4
    72          4
    73         43
    74         31
    75         13
    76          0
    82          0
    83          3
    84          4
    85          1
    86          0
    87          0
    97          0
   101        999
   102         42
   103          7
   112          0
   114          4
   115          0
   119         31
   120          1
   127          1
   128          1
   130         12
   131          1
   141          0
   145          1
   154          0
   157        156
   158         13
   159          2
   175         27
   176          2
   201          1