##TITLE=Library Entry 50197
##JCAMP-DX=Revision 4.10 
##DATA TYPE=MASS SPECTRUM
##SAMPLE DESCRIPTION=RESEARCH LABORATORY, STATE ALCOHOL MONOPOLY ALKO, HELSI
NKI, FINLAND; IRMA NYKANEN ET AL
##NAMES=HP
##CAS NAME=6-Octen-1-ol, 3,7-dimethyl-, propanoate
##MOLFORM=C13H24O2
##CAS REGISTRY NO=141-14-0
##MP= -300
##BP= -300
##MW= 212
##$RETENTION INDEX=1445
##$CONDENSED SPECTRUM=NO
##NPOINTS= 67
##XYDATA=(XY..XY) 1 
    27         96
    28         89
    29        462
    30         17
    31         20
    38          6
    39        103
    40         31
    41        903
    42        103
    43        124
    44         41
    45          6
    51         13
    52          6
    53         82
    54         41
    55        527
    56        151
    57        837
    58         34
    59         10
    65         20
    66         13
    67        744
    68        393
    69        941
    70        106
    71         27
    72          6
    73          6
    74          6
    75         75
    77         20
    78          6
    79         44
    80         79
    81        999
    82        651
    83        148
    84         17
    85         10
    87          3
    91         13
    92          3
    93         27
    94         55
    95        724
    96        158
    97         24
    98          3
    99         13
   101          3
   107         10
   108          3
   109        234
   110         62
   111         17
   112          3
   121         17
   122          3
   123        427
   124         48
   137         17
   138        220
   139         31
   155          3