##TITLE=Library Entry 72500
##JCAMP-DX=Revision 4.10 
##DATA TYPE=MASS SPECTRUM
##SAMPLE DESCRIPTION=Chuck Anderson, Aldrich Chemical Co.
##NAMES=HP
##CAS NAME=2-Butenedioic acid (Z)-, diethyl ester
##MOLFORM=C8H12O4
##CAS REGISTRY NO=141-05-9
##MP= -300
##BP= -300
##MW= 172
##$RETENTION INDEX=1079
##$CONDENSED SPECTRUM=NO
##NPOINTS= 87
##XYDATA=(XY..XY) 1 
    13          0
    14          1
    15          9
    16          0
    19          1
    24          0
    25          2
    26         64
    27        139
    28         29
    29        221
    30         10
    31         14
    32          0
    36          0
    37          0
    38          1
    39          4
    40          0
    41          9
    42         11
    43         64
    44         21
    45        163
    46          6
    47         22
    48          0
    49          0
    50          0
    51          0
    52          1
    53         63
    54        176
    55        119
    56         19
    57          2
    58          3
    59          2
    60          0
    68          1
    69          4
    70          1
    71         67
    72         31
    73          5
    74          1
    75          0
    79          0
    80          0
    81         14
    82        105
    83          7
    84          0
    85          1
    86          2
    87          0
    88          0
    97          1
    99        999
   100        105
   101         10
   102          0
   111          0
   113          0
   114          2
   115          0
   116          0
   117          3
   118          0
   125         29
   126        300
   127        446
   128        105
   129          8
   130          0
   141          2
   142          0
   143         78
   144          5
   145         15
   146          0
   147          0
   154          0
   171          0
   172          0
   173          2
   174          0