##TITLE=Library Entry 1456
##JCAMP-DX=Revision 4.10 
##DATA TYPE=MASS SPECTRUM
##SAMPLE DESCRIPTION=Exported from NIST MS Search
##NAMES=HP
##CAS NAME=Acetaldehyde, hydroxy-
##MOLFORM=C2H4O2
##CAS REGISTRY NO=141-46-8
##MP= -300
##BP= -300
##MW= 60
##$RETENTION INDEX=557
##$CONDENSED SPECTRUM=NO
##NPOINTS= 29
##XYDATA=(XY..XY) 1 
    12          4
    13         12
    14         32
    15         62
    16          2
    17          9
    18         31
    24          2
    25          6
    26         11
    27          4
    28        127
    29        404
    30         56
    31        999
    32        485
    33          8
    36          6
    38          1
    40          6
    41         15
    42         48
    43          8
    44          2
    45          3
    56          9
    58          7
    60         71
    61          4