##TITLE=Library Entry 16939
##JCAMP-DX=Revision 4.10 
##DATA TYPE=MASS SPECTRUM
##SAMPLE DESCRIPTION=Japan AIST/NIMC Database- Spectrum MS-NW-6418
##NAMES=HP
##CAS NAME=Diethylene glycol monolaurate
##MOLFORM=C16H32O4
##CAS REGISTRY NO=141-20-8
##MP= -300
##BP= -300
##MW= 288
##$RETENTION INDEX=0
##$CONDENSED SPECTRUM=NO
##NPOINTS= 215
##XYDATA=(XY..XY) 1 
    12          1
    13          1
    14          3
    15         78
    16          7
    17          3
    18         11
    19          1
    24          2
    25          6
    26         35
    27        194
    28        116
    29        203
    30         43
    31        142
    32         13
    33          9
    35          1
    36          8
    37          3
    38          4
    39         60
    40         11
    41        238
    42         63
    43        280
    44        328
    45        999
    46         30
    47         15
    48          1
    50          2
    51          5
    52          3
    53         18
    54         25
    55        201
    56         61
    57        287
    58         68
    59         27
    60        175
    61        128
    62          8
    63          6
    65          4
    66          3
    67         39
    68         25
    69         97
    70         39
    71        111
    72          8
    73        182
    74         48
    75        200
    76         87
    77          9
    78          4
    79          9
    80          8
    81         31
    82         23
    83         63
    84        121
    85         77
    86         83
    87        103
    88        125
    89         43
    90          3
    91          8
    92          2
    93          8
    94          5
    95         31
    96         15
    97         54
    98        156
    99        172
   100         18
   101         37
   102          9
   103         19
   104         15
   105         18
   106          2
   107         16
   108          4
   109         22
   110          9
   111         25
   112         41
   113         15
   114          4
   115         26
   116         18
   117         12
   118          7
   119          2
   120          1
   121          5
   122          2
   123          7
   124          4
   125         10
   126         20
   127         87
   128         10
   129         47
   130          7
   131          8
   132          2
   133          2
   134          9
   135          4
   136          2
   137          4
   138          8
   139          6
   140          8
   141         11
   142          3
   143         22
   144          4
   145          9
   146          2
   147          2
   148         37
   149          5
   150          2
   151          2
   152          2
   153          5
   154          7
   155         46
   156          6
   157         22
   158          5
   159          2
   160          1
   161          8
   162          2
   163          3
   164          1
   165          2
   166          2
   167          2
   168          2
   169          5
   170          7
   171         50
   172         12
   173          5
   174          2
   176          1
   180          3
   181          4
   182          8
   183        102
   184         16
   185          8
   186          2
   187          2
   190          2
   191          1
   197          5
   198          4
   199         19
   200         15
   201         14
   202          6
   203          1
   208          1
   210          3
   211         18
   212          4
   213          2
   214          3
   215          2
   216          1
   217          1
   218          1
   225          3
   226          9
   227         57
   228         18
   229          4
   230          2
   231          1
   232          2
   233          2
   234          1
   236          1
   239          4
   240          3
   243          2
   251          1
   253          1
   254          2
   255         10
   256          4
   257          2
   258          6
   259          2
   260          2
   261          1
   262          2
   264          2
   283          2
   284          1
   286          1
   288          2
   289          1