##TITLE=Library Entry 8290
##JCAMP-DX=Revision 4.10 
##DATA TYPE=MASS SPECTRUM
##SAMPLE DESCRIPTION=Exported from NIST MS Search
##NAMES=HP
##CAS NAME=Ethyl Acetate
##MOLFORM=C4H8O2
##CAS REGISTRY NO=141-78-6
##MP= -300
##BP= -300
##MW= 88
##$RETENTION INDEX=612
##$CONDENSED SPECTRUM=NO
##NPOINTS= 41
##XYDATA=(XY..XY) 1 
    14         11
    15         52
    16          1
    17          1
    18          2
    19          1
    25          1
    26         11
    27         54
    28         22
    29        124
    30          7
    31          9
    39          1
    40          1
    41          3
    42         46
    43        999
    44         29
    45        146
    46          4
    47          1
    55          1
    56          1
    57          1
    58          1
    59          2
    60          9
    61        153
    62          4
    63          1
    70        118
    71          5
    72          1
    73         49
    74          2
    75          1
    87          4
    88         70
    89          6
    90          1