##TITLE=Library Entry 20455
##JCAMP-DX=Revision 4.10 
##DATA TYPE=MASS SPECTRUM
##SAMPLE DESCRIPTION=Japan AIST/NIMC Database- Spectrum MS-NW-1748
##NAMES=HP
##CAS NAME=9-Octadecenoic acid, 12-hydroxy-, methyl ester, [R-(Z)]-
##MOLFORM=C19H36O3
##CAS REGISTRY NO=141-24-2
##MP= -300
##BP= -300
##MW= 312
##$RETENTION INDEX=0
##$CONDENSED SPECTRUM=NO
##NPOINTS= 238
##XYDATA=(XY..XY) 1 
    14          8
    15         64
    16          5
    17         10
    18         35
    26          5
    27         92
    28        217
    29        207
    30          6
    31         36
    32         66
    33          3
    37          1
    38          2
    39         87
    40         15
    41        498
    42         72
    43        388
    44         39
    45         39
    46          1
    50          3
    51          9
    52          6
    53         62
    54        200
    55        999
    56        107
    57        120
    58         15
    59        101
    60         10
    61          4
    62          1
    63          2
    64          2
    65         22
    66         23
    67        386
    68        243
    69        427
    70         74
    71         69
    72         11
    73         36
    74        557
    75         69
    76          6
    77         35
    78         16
    79        110
    80         80
    81        350
    82        350
    83        275
    84        416
    85         77
    86          9
    87        319
    88         34
    89          3
    90          1
    91         31
    92         12
    93         68
    94         86
    95        235
    96        382
    97        341
    98        374
    99         39
   100          8
   101         60
   102         14
   103          3
   104          9
   105         24
   106         14
   107         43
   108         47
   109        118
   110        151
   111        107
   112         33
   113         52
   114         43
   115         82
   116         21
   117          6
   118          4
   119         43
   120         13
   121         39
   122        101
   123        163
   124        339
   125        108
   126         11
   127         21
   128         48
   129         37
   130         14
   131          9
   132          7
   133         21
   134          9
   135         38
   136         30
   137        116
   138         67
   139         25
   140          7
   141         40
   142         12
   143         36
   144          5
   145          5
   146          2
   147         13
   148         81
   149         38
   150         36
   151         35
   152         23
   153         11
   154          7
   155         30
   156          6
   157          9
   158          2
   159          7
   160          2
   161          6
   162          2
   163         15
   164         30
   165         35
   166        503
   167         73
   168         11
   169         12
   170          2
   171          7
   172          2
   173          5
   174          1
   175          4
   176          1
   177         11
   178         17
   179         13
   180         16
   181         10
   182          6
   183          5
   184          1
   185          7
   186          2
   187          4
   188          1
   189          2
   191          7
   192          7
   193          7
   194          6
   195         38
   196         11
   197          4
   198        126
   199         26
   200          5
   201          2
   203          1
   205          4
   206          4
   207          4
   208          4
   209          6
   210          5
   211          2
   212          1
   213          3
   214          1
   215          1
   217          1
   218          2
   219          3
   220         15
   221          8
   222         11
   223          6
   224          4
   225          2
   227         11
   228          2
   233          2
   234          4
   235          3
   236          2
   237          5
   238          2
   239          3
   240          1
   241          3
   242          1
   245          5
   246          3
   247          1
   248          1
   249          1
   250          2
   251          3
   252          1
   253          1
   255          6
   256          1
   261          2
   262         20
   263         31
   264         34
   265         15
   266          3
   267          3
   269          1
   270          8
   271          2
   278          1
   279          4
   280          2
   281          2
   292          6
   293          3
   294         65
   295         14
   296          8
   297          1