##TITLE=Library Entry 24933
##JCAMP-DX=Revision 4.10 
##DATA TYPE=MASS SPECTRUM
##SAMPLE DESCRIPTION=J.Little,Eastman Chem.Com.,Kingsport
##NAMES=HP
##CAS NAME=di(Butoxyethyl)adipate
##MOLFORM=C18H34O6
##CAS REGISTRY NO=141-18-4
##MP= -300
##BP= -300
##MW= 346
##$RETENTION INDEX=0
##$CONDENSED SPECTRUM=NO
##NPOINTS= 93
##XYDATA=(XY..XY) 1 
    39         47
    41        374
    42         63
    43         82
    44        111
    45        440
    46          9
    51          2
    53         14
    54         16
    55        408
    56        777
    57        999
    58         62
    59         41
    60          6
    61          3
    63         23
    64         28
    67          9
    68         23
    69         25
    70          6
    71         21
    72         17
    73         43
    74          2
    75          8
    78         13
    81         12
    82         11
    83        115
    84        182
    85        555
    86         53
    87         74
    88         11
    89          5
    95          4
    98          6
    99        227
   100        365
   101        387
   102         27
   103          5
   105          9
   109          2
   110         25
   111        367
   112        111
   113         52
   114         10
   115          8
   116          2
   117         58
   118          4
   119         15
   125          3
   126          6
   127         18
   128         82
   129        108
   130         10
   131          8
   142         13
   143          7
   155        394
   156         86
   157         88
   158          7
   160         10
   171          5
   173        242
   174         27
   175          2
   183         13
   185          4
   187         16
   200         19
   201          4
   202         47
   203          4
   211         46
   212          4
   217          5
   228          2
   229        123
   230         14
   231          2
   245          2
   273        111
   274         42
   275          4