##TITLE=Library Entry 27115
##JCAMP-DX=Revision 4.10 
##DATA TYPE=MASS SPECTRUM
##SAMPLE DESCRIPTION=H. Fales, LC, NHLBI, NIH, Bethesda, MD 20892
##NAMES=HP
##CAS NAME=Hexanedioic acid, bis[2-(2-butoxyethoxy)ethyl] ester
##MOLFORM=C22H42O8
##CAS REGISTRY NO=141-17-3
##MP= -300
##BP= -300
##MW= 434
##$RETENTION INDEX=0
##$CONDENSED SPECTRUM=NO
##NPOINTS= 220
##XYDATA=(XY..XY) 1 
    41        360
    42         69
    43        159
    44         81
    45        503
    46         10
    47          3
    49          8
    50          1
    51          5
    52          1
    53         15
    54         17
    55        373
    56        426
    57        999
    58         81
    59        125
    60         30
    61          8
    62          2
    63          4
    64          6
    65          0
    67          9
    68         17
    69         36
    70         22
    71         78
    72        303
    73        183
    75         92
    76          0
    77          5
    78          3
    79          0
    81         10
    82         25
    83        130
    84         87
    85        352
    86         13
    87        215
    88         53
    89        238
    90         11
    91          2
    93          1
    94          0
    95          2
    96          7
    97          8
    98         34
    99        243
   100        459
   101        548
   102         46
   103         24
   104          6
   105          2
   107         18
   108          2
   109          5
   110          9
   111        258
   112         44
   113         57
   114         16
   115         36
   116          7
   117         19
   119         10
   121          1
   123          2
   124          1
   125          6
   126          9
   127         20
   128         37
   129        324
   131         89
   132          9
   133          4
   135          2
   136          3
   137          4
   138          8
   139         11
   140          2
   142         26
   143         28
   144        126
   145        230
   146         21
   147         10
   149         14
   150          1
   151          0
   152          2
   153          2
   154          6
   155        181
   156         30
   157         73
   158         16
   159         65
   160         44
   161        100
   163        162
   164         14
   165          2
   166          1
   167          1
   168          0
   169          1
   171         11
   172         22
   173        619
   174         52
   175         14
   176          1
   177          1
   182          3
   183          1
   184          2
   185         37
   186         24
   187         24
   188          4
   189         10
   191          8
   193          0
   197          1
   198          1
   199          9
   200         16
   201         87
   202          9
   203          7
   204          9
   205          3
   211          1
   213          1
   215         20
   216         12
   217        442
   218         52
   219          8
   220          0
   227          1
   228          3
   229         43
   230          7
   231         36
   232          7
   233          1
   235          1
   242          2
   243          6
   244         15
   245         24
   246         11
   247          3
   248          2
   249          2
   255         64
   256         10
   257          1
   259         38
   260          1
   261        228
   262         31
   263          5
   270          1
   271          9
   272          9
   273        107
   274         17
   275          8
   276          1
   287          1
   288         10
   289         18
   290          5
   291         32
   292          5
   303          1
   304         14
   305          6
   306          0
   307          2
   315          1
   316          2
   317        116
   318         21
   319          5
   331          0
   332          1
   333          8
   334          1
   335          1
   345          0
   347          7
   348          2
   349          1
   360          4
   361          1
   362          2
   363          0
   377          0
   379          8
   380          1
   391          6
   392          1
   405          1
   432          6
   433          5
   434         57
   435         14
   436          1