##TITLE=Library Entry 100095
##JCAMP-DX=Revision 4.10 
##DATA TYPE=MASS SPECTRUM
##SAMPLE DESCRIPTION=Japan AIST/NIMC Database- Spectrum MS-NW-3676
##NAMES=HP
##CAS NAME=Benzene, 1,3-diethyl-
##MOLFORM=C10H14
##CAS REGISTRY NO=141-93-5
##MP= -300
##BP= -300
##MW= 134
##$RETENTION INDEX=1032
##$CONDENSED SPECTRUM=NO
##NPOINTS= 74
##XYDATA=(XY..XY) 1 
    15          7
    26          4
    27         52
    28          3
    29         27
    37          2
    38          8
    39         72
    40          7
    41         55
    42          2
    43          1
    44          1
    49          1
    50         25
    51         63
    52         20
    53         23
    54          2
    55          5
    57         13
    58         10
    59          5
    61          3
    62         11
    63         39
    64         13
    65         53
    66          7
    67          3
    73          1
    74          9
    75         10
    76          9
    77        120
    78         52
    79         76
    80          6
    85          1
    86          2
    87          3
    88          1
    89         22
    90          8
    91        192
    92         19
    93         17
    94          1
    98          2
   101          3
   102         14
   103         81
   104         64
   105        949
   106         99
   107          5
   113          1
   114          1
   115         54
   116         14
   117         74
   118         14
   119        999
   120        104
   121          5
   127          2
   128          5
   129          2
   131          3
   132          2
   133         15
   134        493
   135         55
   136          3