##TITLE=Library Entry 55357
##JCAMP-DX=Revision 4.10 
##DATA TYPE=MASS SPECTRUM
##SAMPLE DESCRIPTION=Japan AIST/NIMC Database- Spectrum MS-NW-5438
##NAMES=HP
##CAS NAME=Pentanoic acid, propyl ester
##MOLFORM=C8H16O2
##CAS REGISTRY NO=141-06-0
##MP= -300
##BP= -300
##MW= 144
##$RETENTION INDEX=978
##$CONDENSED SPECTRUM=NO
##NPOINTS= 66
##XYDATA=(XY..XY) 1 
    14          2
    15         17
    18          2
    26         18
    27        240
    28         79
    29        290
    30          9
    31         40
    32          2
    37          3
    38          7
    39        100
    40         17
    41        383
    42        193
    43        401
    44         14
    45         27
    46          1
    47          2
    50          3
    51          4
    52          1
    53          9
    54          6
    55         68
    56         51
    57        566
    58         28
    59         72
    60        344
    61        286
    62          8
    63          2
    67          2
    68          1
    69          4
    70          1
    71          2
    72          9
    73        185
    74         18
    75         53
    76          2
    82          1
    83         14
    84         10
    85        999
    86         56
    87         33
    88          2
    99          1
   100          1
   101          9
   102        104
   103        604
   104         37
   105          4
   114          4
   115         37
   116          4
   117          1
   129          1
   144          1
   145          1