##TITLE=Library Entry 55543
##JCAMP-DX=Revision 4.10 
##DATA TYPE=MASS SPECTRUM
##SAMPLE DESCRIPTION=Japan AIST/NIMC Database- Spectrum MS-NW-5041
##NAMES=HP
##CAS NAME=Pyridazine, 3,6-dichloro-
##MOLFORM=C4H2Cl2N2
##CAS REGISTRY NO=141-30-0
##MP= -300
##BP= -300
##MW= 148
##$RETENTION INDEX=0
##$CONDENSED SPECTRUM=NO
##NPOINTS= 75
##XYDATA=(XY..XY) 1 
    12          9
    13          2
    14          2
    24         10
    25         32
    26         70
    27          9
    28         28
    29          1
    35         27
    36         45
    37         57
    38         44
    39         21
    40          5
    41          2
    42          4
    43          4
    44          5
    47         41
    48         14
    49         66
    50        199
    51        229
    52        154
    53         27
    54          1
    59          5
    60        199
    61         45
    62         91
    63          9
    64         10
    66          1
    67          9
    71          5
    72          9
    73         24
    74          7
    75          8
    76         26
    77         68
    78         89
    79          5
    82          1
    83          7
    84         94
    85        999
    86         76
    87        334
    88         17
    89          4
    94         45
    95          1
    96         29
    97          1
    98          5
   102         11
   103          1
   104          4
   113          2
   118          4
   119          6
   120        655
   121         32
   122        426
   123         20
   124         70
   125          3
   148        853
   149         46
   150        543
   151         29
   152         92
   153          5