##TITLE=Library Entry 24769
##JCAMP-DX=Revision 4.10 
##DATA TYPE=MASS SPECTRUM
##SAMPLE DESCRIPTION=NIST Mass Spectrometry Data Center, 1998.
##NAMES=HP
##CAS NAME=Oxiraneoctanoic acid, 3-octyl-, 2-ethylhexyl ester
##MOLFORM=C26H50O3
##CAS REGISTRY NO=141-38-8
##MP= -300
##BP= -300
##MW= 410
##$RETENTION INDEX=0
##$CONDENSED SPECTRUM=NO
##NPOINTS= 218
##XYDATA=(XY..XY) 1 
    15          1
    26          2
    27         31
    29         89
    30          3
    31         12
    37          1
    38          1
    39         36
    40          8
    41        344
    42         93
    43        512
    44         39
    45         18
    50          1
    51          2
    52          1
    53         25
    54         50
    55        874
    56        191
    57        999
    58         71
    59         24
    60         40
    61         21
    62          1
    65          5
    66          5
    67        123
    68         62
    69        355
    70        441
    71        714
    72         45
    73         72
    74         17
    75          2
    76          6
    77          4
    78          2
    79         26
    80         11
    81        139
    82         81
    83        320
    84        165
    85         98
    86         15
    87         46
    88          6
    89          1
    90          7
    91          7
    92          1
    93         22
    94         11
    95        163
    96         51
    97        387
    98        127
    99         37
   100          9
   101         35
   102          4
   103          1
   104          1
   105          5
   106          1
   107         16
   108         10
   109         66
   110         33
   111        108
   112        568
   113        410
   114         43
   115         96
   116         10
   117          1
   118          1
   119          9
   120          2
   121         23
   122          5
   123         23
   124         20
   125         60
   126         21
   127         23
   128         12
   129         95
   130          9
   131          2
   133          9
   134          5
   135         27
   136          6
   137         25
   138          9
   139         31
   140          8
   141         12
   142          5
   143         81
   144          9
   145          2
   147          3
   148          3
   149         18
   150          7
   151         12
   152         11
   153         31
   154         11
   155          8
   156          2
   157         47
   158          6
   159          1
   160          1
   161         31
   162          5
   163         10
   164          3
   165          8
   166          6
   167         18
   168         11
   169         13
   170          3
   171         18
   172          5
   173          4
   174          1
   175          2
   176          1
   177          6
   178          3
   179         22
   180          8
   181         11
   182         10
   183          4
   184          1
   185         10
   186        261
   187         53
   188          5
   189          1
   191          4
   192          1
   193          3
   194          3
   195         10
   196         11
   197        601
   198         79
   199         15
   200          2
   203          1
   205          1
   207          2
   208          2
   209          5
   210          6
   211          4
   212          1
   213          9
   214          2
   215         48
   216          7
   217          1
   220          5
   221          4
   222          8
   223          6
   224          2
   225          1
   227          3
   228          1
   229          1
   235          2
   236          1
   237          1
   239          2
   240          1
   241          3
   245          1
   246          3
   247         13
   248          3
   251          1
   253          1
   263          4
   264         35
   265         48
   266         14
   267          7
   268          1
   269          1
   280          2
   281         26
   282         10
   283         55
   284         11
   285          1
   297          1
   298         11
   299          4
   300          1
   327         53
   328         11
   329          1
   340          2
   341          1
   355          1