##TITLE=Library Entry 19290
##JCAMP-DX=Revision 4.10 
##DATA TYPE=MASS SPECTRUM
##SAMPLE DESCRIPTION=NIST Mass Spectrometry Data Center
##NAMES=HP
##CAS NAME=(Z)-Methyl heptadec-9-enoate
##MOLFORM=C18H34O2
##CAS REGISTRY NO=14101-91-8
##MP= -300
##BP= -300
##MW= 282
##$RETENTION INDEX=2003
##$CONDENSED SPECTRUM=NO
##NPOINTS= 115
##XYDATA=(XY..XY) 1 
    27         80
    29         94
    30         29
    39        108
    40         45
    41        777
    42        114
    43        546
    44         29
    45         28
    52         13
    53        148
    54        309
    55        999
    56        218
    57        243
    58         17
    59        169
    65         72
    66         58
    67        587
    68        284
    69        752
    70        141
    71         99
    72         17
    73         41
    74        395
    77         40
    78         21
    79        213
    80        102
    81        477
    82        281
    83        465
    84        324
    85         49
    87        252
    91         49
    92         17
    93         39
    94         41
    95        270
    96        297
    97        253
    98        262
    99         42
   100         37
   101         57
   102         21
   103          8
   105         30
   106         15
   107         23
   108         35
   109        164
   110        205
   111        190
   112         46
   113         11
   114         23
   115         79
   118          8
   120         16
   121         46
   122         10
   123        129
   124        147
   125         71
   129         27
   130         10
   131         14
   133         49
   134         24
   135         53
   136         29
   137         94
   138         58
   139         42
   140         39
   141         39
   143         30
   145         19
   147         13
   149         39
   150         19
   151         19
   152         41
   153         42
   155         28
   159          9
   163         14
   165         13
   166         59
   167         24
   171         11
   172          8
   177         10
   179         12
   180         15
   193         20
   194         10
   206         29
   207         43
   208        108
   209         30
   221         13
   222         23
   227         18
   232         13
   249         17
   250        128
   251        116
   252         22
   282         28