##TITLE=Library Entry 54487
##JCAMP-DX=Revision 4.10 
##DATA TYPE=MASS SPECTRUM
##SAMPLE DESCRIPTION=B. Decosta, LC, NIDDK, NIH, Bethesda, MD 20892
##NAMES=HP
##CAS NAME=.beta.-(3,4-Dichlorophenyl)ethylamine, N-[3-hydroxypropyl]-N-
##MOLFORM=C17H26Cl2N2O
##CAS REGISTRY NO=141044-92-0
##MP= -300
##BP= -300
##MW= 344
##$RETENTION INDEX=0
##$CONDENSED SPECTRUM=NO
##NPOINTS= 165
##XYDATA=(XY..XY) 1 
    42        197
    43         35
    44         24
    45         17
    46          5
    50          3
    51          7
    52          3
    53          7
    54         15
    55         66
    56         46
    57         64
    58         14
    59          3
    60          2
    62          2
    63          7
    64          1
    65          2
    67          4
    68          8
    69         19
    70         28
    71          7
    72          6
    73          5
    74          2
    75          6
    76          3
    77         19
    78         25
    79         41
    80        107
    81         46
    82        119
    83         16
    84        999
    85         63
    86          4
    87          2
    88          5
    89         14
    91          2
    94          3
    95          3
    96         22
    97         17
    98         43
    99         10
   100         11
   101         24
   102         37
   103         31
   104          3
   105          2
   106         12
   107          3
   109          6
   110          4
   111          8
   112          3
   113          3
   114          6
   115          3
   116         27
   117          3
   121          2
   123         15
   124         18
   125         16
   126          3
   127          3
   128          2
   129          2
   130          2
   133          4
   135          5
   136          4
   137         42
   138         27
   139         26
   140          9
   141          6
   146          3
   147          3
   148          2
   149          3
   151          2
   152          2
   153          3
   155          3
   157          2
   159         47
   160          4
   161         31
   162          3
   163          5
   164          3
   165          2
   166          2
   167          2
   171          4
   172         15
   173        121
   174         18
   175         78
   176          8
   177         13
   178          3
   179          2
   180          2
   181         10
   182         20
   183          7
   184          7
   185        232
   186         27
   187          3
   190          2
   192          2
   199          4
   200          3
   202          4
   214          9
   215          2
   216        339
   217         40
   218        218
   219         23
   220         36
   221          4
   224          1
   225          9
   226         54
   227         10
   228         19
   229          3
   230         10
   232          6
   234          1
   240          1
   242          2
   244          2
   246          2
   256          2
   258          3
   260        851
   261        120
   262        571
   263         75
   264         95
   265         11
   270          1
   272          2
   273          2
   274          8
   275          2
   276          5
   287          2
   299          2
   344          9
   345          5
   346          6
   347          3