##TITLE=Library Entry 54491
##JCAMP-DX=Revision 4.10 
##DATA TYPE=MASS SPECTRUM
##SAMPLE DESCRIPTION=B. Decosta, LC, NIDDK, NIH, Bethesda, MD 20892
##NAMES=HP
##CAS NAME=.beta.-(3,4-Dichlorophenyl)ethylamine, N-(3-fluoropropyl)-N-[2-(1
-pyrrolidinyl)ethyl]
##MOLFORM=C17H25Cl2FN2
##CAS REGISTRY NO=141044-74-8
##MP= -300
##BP= -300
##MW= 346
##$RETENTION INDEX=0
##$CONDENSED SPECTRUM=NO
##NPOINTS= 206
##XYDATA=(XY..XY) 1 
    42        190
    43         24
    44          7
    45          2
    46          0
    47          0
    50          1
    51          3
    52          1
    53          5
    54         12
    55         54
    56         37
    57         41
    58          5
    59          5
    60          1
    61          5
    62          1
    63          5
    64          0
    65          1
    66          0
    67          3
    68          8
    69         16
    70         12
    71          3
    72          1
    73          2
    74          1
    75          6
    76          1
    77         11
    78          2
    79         19
    80         44
    81         20
    82         55
    83         13
    84        999
    85         81
    86          3
    87          1
    88          2
    89         11
    90          7
    91          1
    93          0
    94          2
    95          1
    96         16
    97         10
    98         22
    99          8
   100          1
   101         22
   102         47
   103         28
   104          6
   105          0
   106          0
   107          0
   108          0
   109          3
   110          1
   111          8
   112          2
   113          3
   114          0
   115          1
   116          9
   117          1
   118         18
   119          1
   121          0
   123         11
   124          4
   125         10
   126          2
   127          4
   128          0
   129          0
   130          1
   131          0
   133          3
   135          3
   136          3
   137         31
   138         20
   139         18
   140          6
   141          4
   142          1
   143          0
   144          0
   145          1
   146          1
   147          2
   148          0
   149          1
   150          0
   151          1
   152          0
   153          3
   154          0
   155          2
   156          3
   157          1
   159         34
   160          2
   161         21
   162          2
   163          3
   164          2
   165          0
   166          1
   167          3
   168          1
   169          1
   170          3
   171          6
   172          9
   173         96
   174         16
   175         59
   176          6
   177         10
   178          2
   179          0
   180          1
   181          0
   182          0
   183          1
   184          2
   185          3
   186          1
   187         97
   188         11
   189          0
   192          0
   193          0
   194          0
   197          0
   198          1
   199         29
   200          4
   201          0
   202          0
   207          0
   211          0
   212          0
   213          1
   214         35
   215          4
   216          4
   217          0
   218          2
   219          0
   224          0
   226          0
   227          5
   228         16
   229          4
   230          8
   231          1
   232          2
   234          0
   239          0
   242          2
   243          0
   244          1
   246          0
   247          0
   248          0
   249          0
   256          0
   258          0
   260          1
   261          0
   262        320
   263         43
   264        207
   265         27
   266         35
   267          4
   270         10
   271          1
   274          0
   276          6
   277          0
   278          4
   279          0
   280          0
   285          0
   299          1
   301          0
   322          0
   324          0
   336          0
   345          0
   346         11
   347          3
   348          7
   349          2
   350          1