##TITLE=Library Entry 7757
##JCAMP-DX=Revision 4.10 
##DATA TYPE=MASS SPECTRUM
##SAMPLE DESCRIPTION=Div. of Experiment Therapeutics WRAIR, WRAMC, Washingto
n DC 20307
##NAMES=HP
##CAS NAME=4,6-Cholestadiene-3-one, 2,4-dinitrophenylhydrazone
##MOLFORM=C33H46N4O4
##CAS REGISTRY NO=14109-39-8
##MP= -300
##BP= -300
##MW= 562
##$RETENTION INDEX=0
##$CONDENSED SPECTRUM=NO
##NPOINTS= 91
##XYDATA=(XY..XY) 1 
    41        426
    43        999
    44         54
    49         14
    51         24
    53         54
    55        579
    57        584
    58         10
    60         20
    65         12
    67        225
    69        315
    71        260
    77         79
    79        177
    81        437
    83        247
    84         10
    85         58
    91        155
    93        259
    95        423
    97        131
   104         23
   105        148
   106         14
   107        203
   109        166
   110         11
   111         56
   115         34
   116         27
   117         56
   119        101
   120         10
   121        118
   122         22
   123         74
   127         10
   128         39
   129         55
   130         23
   131         81
   133        114
   135        140
   136         10
   137         38
   141         42
   142         40
   143         57
   144         28
   145         63
   146         21
   147         51
   149         58
   151         10
   153          9
   155         73
   156         40
   157         58
   158         21
   159         34
   163         68
   165         48
   167         29
   169         20
   171         10
   173         10
   179         10
   183         40
   191         34
   193         10
   195         42
   211         11
   247        107
   267         38
   269         35
   276         41
   288         48
   302         12
   316         34
   339         23
   353         21
   449         22
   560         65
   561         23
   562        459
   563        173
   564         26
   565          8