##TITLE=Library Entry 6078
##JCAMP-DX=Revision 4.10 
##DATA TYPE=MASS SPECTRUM
##SAMPLE DESCRIPTION=J. Klune, Insect Chem. Ecol. Lab., USDA, Beltsville, MD
 20705
##NAMES=HP
##CAS NAME=1,1,1-Trifluoroheptadecen-2-one
##MOLFORM=C17H31F3O
##CAS REGISTRY NO=141022-99-3
##MP= -300
##BP= -300
##MW= 308
##$RETENTION INDEX=0
##$CONDENSED SPECTRUM=NO
##NPOINTS= 82
##XYDATA=(XY..XY) 1 
    41        758
    42        176
    43        999
    44         34
    53         49
    54         74
    55        539
    56        209
    57        574
    58         38
    59          7
    61         11
    65         11
    66          3
    67        104
    68         67
    69        340
    70        165
    71        238
    72         14
    73          1
    77         16
    79         28
    80          9
    81         75
    82         95
    83        227
    84        118
    85        123
    86          5
    91         17
    93         14
    95         61
    96         62
    97        199
    98         80
    99         24
   109         31
   110         32
   111        108
   112         76
   113         14
   115         16
   123         17
   124         17
   125         66
   126         32
   127          7
   135         34
   137          8
   138         17
   139         65
   140         28
   141          3
   149         39
   150         15
   151          3
   152         11
   153         54
   154         24
   155          5
   163         37
   164         13
   165          2
   167         19
   168         12
   169          1
   177         21
   181         17
   191         12
   195         16
   196         21
   209         20
   210          1
   222         16
   223         19
   237          4
   239        132
   240         22
   280          1
   308         32
   309          1