##TITLE=Library Entry 26927
##JCAMP-DX=Revision 4.10 
##DATA TYPE=MASS SPECTRUM
##SAMPLE DESCRIPTION=Japan AIST/NIMC Database- Spectrum MS-NW-5324
##NAMES=HP
##CAS NAME=Bis-(3,5,5-trimethylhexyl) phthalate
##MOLFORM=C26H42O4
##CAS REGISTRY NO=14103-61-8
##MP= -300
##BP= -300
##MW= 418
##$RETENTION INDEX=0
##$CONDENSED SPECTRUM=NO
##NPOINTS= 137
##XYDATA=(XY..XY) 1 
    15          7
    17          2
    18          6
    26          4
    27         72
    28         23
    29        224
    30          5
    31          5
    36          1
    37          8
    38          9
    39         84
    40         16
    41        487
    42        101
    43        227
    44          8
    45          1
    49          4
    50         44
    51         13
    52          4
    53         33
    54         16
    55        308
    56         96
    57        999
    58         44
    59          2
    61          1
    62          1
    63          2
    64          2
    65         28
    66          4
    67         29
    68         18
    69        231
    70        165
    71        318
    72         16
    73          3
    74         12
    75         12
    76        102
    77         27
    78          3
    79          8
    80          1
    81         11
    82          8
    83         92
    84         19
    85         14
    86          1
    87          2
    91          4
    92          2
    93         18
    94          2
    95         25
    96          4
    97         12
    98         10
    99          4
   103          2
   104        102
   105         32
   106          3
   109          3
   110          9
   111         84
   112          9
   113          2
   115          1
   119          1
   121         17
   122         14
   123          6
   124          1
   125          2
   126         25
   127        153
   128         15
   129          7
   130          1
   131          1
   132          4
   133          3
   135          1
   141          2
   145          1
   146          1
   147          2
   148          7
   149        529
   150         56
   151          6
   159         31
   160          5
   161          1
   162          1
   163          1
   164          1
   167         45
   168          4
   173          1
   174         72
   175          9
   176         14
   177          2
   179          2
   190          1
   193          2
   194          3
   203          2
   205          6
   206          1
   218          1
   219          2
   236          2
   237          1
   259          2
   275         13
   276          8
   277          1
   293         75
   294         13
   295          2
   307          1
   320          3
   362          6
   363          2
   403          2
   418          2
   419          1