##TITLE=Library Entry 7946
##JCAMP-DX=Revision 4.10 
##DATA TYPE=MASS SPECTRUM
##SAMPLE DESCRIPTION=A. Brossi, LC, NIDDK, NIH, Bethesda, MD 20892
##NAMES=HP
##CAS NAME=Piperazine, 1-[5-fluoropentyl]-4-[(3,4-dichlorophenyl)acetyl]-
##MOLFORM=C17H23Cl2FN2O
##CAS REGISTRY NO=141044-94-2
##MP= -300
##BP= -300
##MW= 360
##$RETENTION INDEX=0
##$CONDENSED SPECTRUM=NO
##NPOINTS= 232
##XYDATA=(XY..XY) 1 
    43        999
    44        595
    47         14
    49         44
    50         16
    51         34
    52         12
    53         69
    54        171
    57        998
    58        664
    60         10
    61         21
    62         34
    63         82
    64          7
    65         17
    66         11
    67        176
    68        107
    69         85
    70        378
    71        639
    72         17
    73         78
    74         18
    75         30
    77         19
    78          8
    79         56
    80         26
    81        135
    82        157
    83        212
    84         43
    85        748
    86         40
    87         75
    88         20
    89        153
    90         14
    91          6
    93          6
    94          9
    95         23
    96         63
    97        153
    98        240
    99        272
   100         86
   101         50
   102         13
   103          7
   107         10
   108         15
   109         26
   110         54
   111         84
   112        111
   113        449
   115         15
   116          8
   121          7
   122         11
   123        157
   124        106
   125        220
   126         73
   127        135
   128        129
   129        130
   130         24
   131          7
   132         32
   133         23
   135         22
   136         24
   137         19
   138         23
   139         19
   140        149
   141         97
   142         17
   143         19
   144         52
   145         12
   148         11
   149         14
   150         23
   151         26
   152         24
   153         15
   154         39
   155        249
   156         35
   157         16
   158         23
   159        232
   160         43
   161        183
   162         25
   163         47
   164         21
   165         27
   166         23
   167         74
   168         27
   169         14
   170         14
   171         31
   172         24
   173         45
   174         21
   175         20
   176         10
   177         14
   178          9
   179          8
   180          9
   181          9
   182         14
   183         12
   184         27
   185         37
   186        100
   187         30
   188         64
   189         13
   190         16
   191          8
   192          9
   193          8
   194         10
   195          6
   196         49
   197         12
   198         20
   199         12
   200         34
   201         16
   202         27
   203         22
   204         23
   205         22
   206         16
   207         55
   208         20
   209         10
   210          9
   211         11
   212         18
   213         25
   214         20
   215         13
   216         11
   217          8
   220          6
   222         71
   223         15
   224         15
   225         14
   226         19
   227         21
   228         39
   229         43
   230         29
   231         24
   232         10
   234          6
   236         11
   238          6
   239          7
   240         13
   241         13
   242         22
   243         18
   244         15
   245         10
   246          6
   249         21
   251         10
   253         11
   254         12
   255         19
   256          8
   257         13
   258          8
   265          6
   266         14
   267         16
   268         14
   269         12
   270         10
   271         12
   272          7
   273          7
   276          7
   279          7
   280          6
   281          7
   282         10
   283          7
   284         15
   285         72
   286         46
   287         83
   288         29
   289         33
   290          8
   291          7
   293         23
   294         20
   295         65
   296         16
   297         14
   298         15
   299         12
   300         10
   309          0
   310          3
   311          2
   312          2
   313         14
   314         45
   315         38
   316         31
   317         23
   318          7
   340         10
   342          6
   360          9
   362          3