##TITLE=Library Entry 53625
##JCAMP-DX=Revision 4.10 
##DATA TYPE=MASS SPECTRUM
##SAMPLE DESCRIPTION=T. Kovacs, LC, NIDDK, NIH, Bethesda, MD 20892
##NAMES=HP
##CAS NAME=Pyrimidin-2,4-dione, 1,2,3,4-tetrahydro-5-methyl-1-[[2-hydroxymet
hyl-3-dimethylamino]tetrahydrofur-5-yl
##MOLFORM=C12H19N3O4
##CAS REGISTRY NO=141039-01-2
##MP= -300
##BP= -300
##MW= 269
##$RETENTION INDEX=0
##$CONDENSED SPECTRUM=NO
##NPOINTS= 123
##XYDATA=(XY..XY) 1 
    41        114
    42        287
    43         75
    44        128
    45         75
    46         35
    47          1
    49          0
    50          1
    51          4
    52         10
    53         23
    54         60
    55         91
    56         84
    57         36
    58         83
    59          3
    60          2
    61          1
    63          0
    64          0
    65          3
    66          8
    67         21
    68         38
    69         65
    70         93
    71         90
    72         68
    73          5
    74          2
    75          0
    77          1
    78          1
    79          2
    80         15
    81         17
    82         74
    83         63
    84        999
    85         24
    86        164
    87         10
    88          5
    91          0
    92          1
    93          4
    94          9
    95          9
    96         12
    97         21
    98         19
    99         10
   100         59
   101         36
   102          5
   105          0
   106          1
   107          1
   108          3
   109          4
   110         12
   111          4
   112         44
   113          7
   114         10
   115         15
   116          7
   117          1
   118          7
   119          0
   120          0
   121          1
   122          6
   123          2
   124          2
   125          3
   126         36
   127         14
   128          8
   129          1
   130          0
   136          1
   137          1
   138          1
   139          2
   140          1
   141          1
   142          6
   143        130
   144         60
   145          5
   146          0
   149          0
   151          1
   152          1
   153          1
   154          0
   155          1
   165          4
   166          0
   167          0
   168          0
   169          1
   176          0
   181          0
   194          3
   195          0
   196          0
   198          7
   199          0
   207          0
   208          2
   209          7
   210          1
   211          0
   225          0
   254          0
   268          0
   269         26
   270         13
   271          2