##TITLE=Library Entry 2834
##JCAMP-DX=Revision 4.10 
##DATA TYPE=MASS SPECTRUM
##SAMPLE DESCRIPTION=Chemical Concepts
##NAMES=HP
##CAS NAME=Cyclohexanone, 2,2-dimethyl-5-(3-methyloxiranyl)-, [2.alpha.(R*),
3.alpha.]-(.+-.)-
##MOLFORM=C11H18O2
##CAS REGISTRY NO=141033-65-0
##MP= -300
##BP= -300
##MW= 182
##$RETENTION INDEX=0
##$CONDENSED SPECTRUM=NO
##NPOINTS= 142
##XYDATA=(XY..XY) 1 
    26         30
    27        322
    28         87
    29        308
    30          9
    31         21
    35          9
    36          4
    37          5
    38         19
    39        484
    40        113
    41        999
    42        180
    43        479
    44         24
    45        153
    46          6
    47         29
    48          3
    49         41
    50         21
    51         55
    52         31
    53        226
    54        210
    55        919
    56        357
    57        238
    58         50
    59         48
    60          8
    61          5
    62          4
    63         14
    64          4
    65         54
    66         40
    67        470
    68        579
    69        819
    70        179
    71        139
    72         26
    73         14
    74          5
    75          8
    76          5
    77         73
    78         20
    79        158
    80         70
    81        562
    82        253
    83        217
    84        128
    85         94
    86         81
    87          7
    88         14
    89          6
    90          3
    91         75
    92         21
    93        165
    94         72
    95        623
    96        253
    97        171
    98         83
    99         36
   100          5
   101          4
   103          5
   104          5
   105         52
   106         12
   107        157
   108         39
   109        165
   110        137
   111        121
   112         99
   113         44
   114         18
   115          8
   116          3
   117          6
   118          3
   119         12
   120         20
   121         37
   122         58
   123        202
   124         37
   125        129
   126         48
   127         18
   128          5
   129          4
   130          3
   131          5
   133          3
   134          2
   135         12
   136          9
   137         16
   138        112
   139         41
   140         15
   141          9
   142          3
   143          3
   145          2
   146          2
   147          2
   148          2
   149         19
   150          4
   151         11
   152          5
   153        132
   154         27
   155          5
   156          5
   157          3
   163          2
   164          5
   165          8
   166         15
   167         25
   168          4
   169          2
   170          3
   172          4
   178          3
   179          2
   180          6
   181          4
   182         28
   183          5
   184          1