##TITLE=Library Entry 19368
##JCAMP-DX=Revision 4.10 
##DATA TYPE=MASS SPECTRUM
##SAMPLE DESCRIPTION=Japan AIST/NIMC Database- Spectrum MS-IW-5527
##NAMES=HP
##CAS NAME=trans-10-Hydroxy-2-decenoic acid
##MOLFORM=C10H18O3
##CAS REGISTRY NO=14113-05-4
##MP= -300
##BP= -300
##MW= 186
##$RETENTION INDEX=0
##$CONDENSED SPECTRUM=NO
##NPOINTS= 132
##XYDATA=(XY..XY) 1 
    15          6
    17          3
    18          9
    26          7
    27        145
    28         48
    29        246
    30          8
    31        252
    32          3
    37          1
    38          6
    39        198
    40         51
    41        679
    42        180
    43        308
    44         52
    45         88
    46          3
    47          2
    50          5
    51         19
    52         11
    53        136
    54        358
    55        999
    56        109
    57        183
    58         45
    59         22
    60         32
    61         10
    62          1
    63          4
    64          2
    65         27
    66         58
    67        615
    68        505
    69        179
    70        135
    71        241
    72         62
    73        352
    74         19
    75          3
    76          1
    77         26
    78         23
    79        165
    80        212
    81        673
    82        295
    83        206
    84        182
    85        131
    86        586
    87         81
    88          9
    89          4
    91         26
    92          9
    93        140
    94        137
    95        303
    96        303
    97        293
    98        200
    99        393
   100        233
   101         55
   102         12
   103          4
   104          9
   105          8
   106         37
   107         65
   108        309
   109        152
   110         31
   111         85
   112         61
   113         68
   114         39
   115         11
   116          3
   117         16
   118          3
   119          9
   120          9
   121         67
   122        105
   123         81
   124        277
   125         84
   126         49
   127         33
   128          7
   129          5
   130          5
   131          5
   132         14
   133          7
   134          2
   135         21
   136          3
   137         13
   138         83
   139         63
   140         73
   141         10
   142          1
   143          5
   144          1
   148          1
   149          6
   150         73
   151         14
   152          2
   153          6
   155          1
   156        104
   157         10
   158          2
   166          1
   167          9
   168        191
   169         75
   170          8
   186          1
   187          7