##TITLE=Library Entry 49121
##JCAMP-DX=Revision 4.10 
##DATA TYPE=MASS SPECTRUM
##SAMPLE DESCRIPTION=Chemical Concepts
##NAMES=HP
##CAS NAME=1(2H)-Naphthalenone, 3,4,4a,5,8,8a-hexahydro-
##MOLFORM=C10H14O
##CAS REGISTRY NO=14116-78-0
##MP= -300
##BP= -300
##MW= 150
##$RETENTION INDEX=0
##$CONDENSED SPECTRUM=NO
##NPOINTS= 103
##XYDATA=(XY..XY) 1 
    26         24
    27        323
    28         73
    29         70
    30          6
    31         14
    36          2
    37          4
    38         26
    39        373
    40         81
    41        325
    42         68
    43         62
    44         72
    45          7
    46          3
    50         35
    51        154
    52         64
    53        184
    54        117
    55        114
    56         11
    57         20
    58         11
    59         12
    60          4
    61          4
    62         12
    63         40
    64         10
    65        123
    66        132
    67        176
    68         94
    69         17
    70         10
    71         14
    72          3
    73          1
    74          5
    75          9
    76          9
    77        408
    78        273
    79        999
    80        186
    81        121
    82         15
    83         25
    84         24
    85          4
    86         18
    87          3
    89         10
    90         18
    91        622
    92        113
    93        218
    94        177
    95         54
    96         23
    97          5
    98          3
    99          4
   102          2
   103         16
   104        940
   105        142
   106        130
   107        204
   108         49
   109         24
   110          4
   111          1
   113          1
   115         18
   116          4
   117        286
   118         39
   119         22
   120          8
   121         87
   122         86
   123         14
   128          4
   129          4
   130          4
   131         68
   132        195
   133         24
   134          3
   135        121
   136         16
   137          1
   141          3
   143          2
   148          3
   149         40
   150        619
   151         65
   152          5