##TITLE=Library Entry 70456
##JCAMP-DX=Revision 4.10 
##DATA TYPE=MASS SPECTRUM
##SAMPLE DESCRIPTION=G. Lange, Inst. Org. Chem., Univ. Wurzburg, Wurzburg, G
ermany
##NAMES=HP
##CAS NAME=2,3-Diazabicyclo[2.2.1]heptane-2,3-dicarboxylic acid, 7,7-dimethy
l-, diethyl ester
##MOLFORM=C13H22N2O4
##CAS REGISTRY NO=141119-46-2
##MP= -300
##BP= -300
##MW= 270
##$RETENTION INDEX=0
##$CONDENSED SPECTRUM=NO
##NPOINTS= 102
##XYDATA=(XY..XY) 1 
    39         54
    40         17
    41        244
    42         96
    43        120
    44        109
    45         63
    46         11
    51          7
    52          5
    53         69
    54         46
    55        139
    56        166
    57         44
    58         31
    59         20
    62         26
    65         14
    66         16
    67         97
    68         73
    69        226
    70         73
    71         33
    72          8
    75          9
    77         34
    78         15
    79         61
    80         21
    81        165
    82         93
    83        114
    84         53
    85         13
    87          7
    89          7
    90         16
    91         15
    92         11
    93         36
    94        106
    95        301
    96         53
    97        999
    98         70
   101          8
   102         51
   103         12
   104         18
   105         17
   108         33
   109         31
   110         81
   111         27
   112          7
   114          8
   115         17
   116          5
   118          5
   121          7
   122         60
   123         21
   124         15
   125        809
   126         69
   127         22
   128          8
   129         15
   130        179
   131         16
   132          6
   137          8
   138         13
   141          9
   142          9
   143         30
   144          7
   151         32
   152          8
   153         63
   154         11
   155        151
   156         21
   157          6
   158         20
   169         34
   170         24
   171          9
   176          5
   181          5
   183         24
   197        190
   198        235
   199         25
   205         14
   211         13
   225         14
   226         20
   270        160
   271         23