##TITLE=Library Entry 32703
##JCAMP-DX=Revision 4.10 
##DATA TYPE=MASS SPECTRUM
##SAMPLE DESCRIPTION=Chemical Concepts
##NAMES=HP
##CAS NAME=Cyclodecene, 1,2-dimethyl-, (Z)-
##MOLFORM=C12H22
##CAS REGISTRY NO=14113-67-8
##MP= -300
##BP= -300
##MW= 166
##$RETENTION INDEX=0
##$CONDENSED SPECTRUM=NO
##NPOINTS= 93
##XYDATA=(XY..XY) 1 
    23         22
    24         21
    25         16
    27        272
    29        274
    30          7
    31          4
    37          6
    38          9
    39        337
    40         15
    41        805
    42         99
    43        159
    44          6
    46          2
    50         14
    51         48
    52         29
    53        169
    54        144
    55        675
    56        103
    57         60
    58          7
    62          6
    63         15
    64          6
    65         60
    66         49
    67        999
    68        229
    69        422
    70        930
    71         99
    72          6
    74          4
    75          6
    76          3
    77        100
    78         18
    79        173
    80         45
    81        696
    82        697
    83        234
    84         80
    85         25
    86          4
    89          3
    91         64
    92          6
    93         77
    94         35
    95        701
    96        438
    97         63
    98         14
    99          5
   103          6
   104          3
   105         10
   106          5
   107         32
   108         16
   109        414
   110        133
   111         31
   112          7
   113          2
   115          6
   116          4
   119          3
   121          6
   122         16
   123        142
   124         35
   125         13
   126          2
   133          4
   135          5
   136          3
   137         34
   138         16
   139          4
   141          4
   149          5
   151         34
   152          7
   164          2
   166        272
   167         34
   168          6