##TITLE=Library Entry 32738
##JCAMP-DX=Revision 4.10 
##DATA TYPE=MASS SPECTRUM
##SAMPLE DESCRIPTION=Chemical Concepts
##NAMES=HP
##CAS NAME=Cyclohexane, cyclopropylidene-
##MOLFORM=C9H14
##CAS REGISTRY NO=14114-06-8
##MP= -300
##BP= -300
##MW= 122
##$RETENTION INDEX=0
##$CONDENSED SPECTRUM=NO
##NPOINTS= 53
##XYDATA=(XY..XY) 1 
    26         27
    27        235
    29        128
    31          7
    34          7
    37         13
    38         23
    39        442
    40         63
    41        371
    42         21
    43          2
    45         69
    50         37
    51        116
    52         80
    53        199
    54        177
    55        188
    56         14
    57         31
    58         15
    63         47
    64          1
    65        140
    66        210
    67        999
    68        277
    69         22
    70         10
    71         10
    77        273
    78        101
    79        930
    80        420
    81        325
    82         86
    83         28
    90         14
    91        228
    92         52
    93        605
    94        228
    95         30
    98         13
   105         60
   106          6
   107        449
   108         30
   117          4
   121         24
   122        144
   123         14