##TITLE=Library Entry 21535
##JCAMP-DX=Revision 4.10 
##DATA TYPE=MASS SPECTRUM
##SAMPLE DESCRIPTION=NIST Mass Spectrometry Data Center, 2010
##NAMES=HP
##CAS NAME=Octanoic acid, 8-chloro-8-oxo-, ethyl ester
##MOLFORM=C10H17ClO3
##CAS REGISTRY NO=14113-02-1
##MP= -300
##BP= -300
##MW= 220
##$RETENTION INDEX=1513
##$CONDENSED SPECTRUM=NO
##NPOINTS= 129
##XYDATA=(XY..XY) 1 
    15          7
    16          1
    18          6
    19          1
    26         19
    27        162
    28         87
    29        281
    30         11
    31         17
    35         19
    36        100
    37          9
    38         40
    39        144
    40         36
    41        367
    42        141
    43        138
    44         15
    45         93
    46          4
    47          3
    48          2
    49          6
    50          6
    51         15
    52          9
    53         58
    54         63
    55        999
    56        143
    57         36
    58         11
    59         20
    60        200
    61        148
    62          6
    63         34
    64          3
    65         24
    66         14
    67        145
    68        229
    69        370
    70        212
    71         38
    72          5
    73        114
    74         19
    75          7
    76          2
    77         17
    78         19
    79         57
    80         10
    81         84
    82        140
    83        385
    84        135
    85         33
    86         13
    87         48
    88        480
    89         29
    90          4
    91         24
    92         11
    93        105
    94         41
    95         61
    96         57
    97        269
    98         42
    99         40
   100         19
   101         80
   102         10
   103         10
   104          1
   105          3
   106          1
   107          2
   108          2
   109         35
   110        201
   111        167
   112         72
   113         49
   114         11
   115         27
   116          2
   117          1
   118          1
   119          3
   120         10
   121         61
   122          8
   123          3
   124          2
   125          3
   127         30
   128         81
   129         15
   130          3
   136          1
   137         33
   138        806
   139        295
   140         44
   141         33
   142          9
   143         11
   155          6
   156         24
   157         41
   158          4
   159          2
   166          6
   175        202
   176         17
   177         64
   178          4
   179          1
   184          1
   185        122
   186         13
   187          2
   207          1