##TITLE=Library Entry 8088
##JCAMP-DX=Revision 4.10 
##DATA TYPE=MASS SPECTRUM
##SAMPLE DESCRIPTION=Chemical Concepts
##NAMES=HP
##CAS NAME=Octanoic acid, 7-oxo-
##MOLFORM=C8H14O3
##CAS REGISTRY NO=14112-98-2
##MP= -300
##BP= -300
##MW= 158
##$RETENTION INDEX=0
##$CONDENSED SPECTRUM=NO
##NPOINTS= 119
##XYDATA=(XY..XY) 1 
    35          0
    36          1
    37          3
    38         10
    39        118
    40         38
    41        273
    42        121
    43        999
    44         63
    45         55
    46          3
    47          2
    48          4
    49          1
    50          6
    51         12
    52          6
    53         40
    54         29
    55        309
    56         71
    57         65
    58        478
    59        103
    60         49
    61          6
    62          1
    63          2
    64          1
    65         11
    66          6
    67         61
    68         49
    69        174
    70        137
    71         99
    72         11
    73        224
    74         22
    75          3
    76          1
    77          8
    78          4
    79         20
    80         22
    81         42
    82         91
    83        178
    84         21
    85         19
    86         49
    87         37
    88          4
    89          1
    91          6
    92          3
    93          4
    94          9
    95         28
    96         71
    97         75
    98         43
    99         93
   100         45
   101         45
   102          4
   103          2
   104          1
   105          3
   106          2
   107          2
   108          1
   109          9
   110          3
   111          7
   112         45
   113         12
   114          3
   115          5
   116          4
   117          1
   118          0
   119          1
   120          0
   121          2
   122          5
   123          4
   124         27
   125         34
   126          4
   127          5
   128          1
   129          4
   130          1
   131          1
   133          0
   134          0
   135          2
   136          1
   137          1
   138          1
   139          1
   140         49
   141          7
   142          2
   143          4
   144          0
   147          1
   149          2
   150          0
   151          1
   152          1
   153          2
   154          0
   155          1
   156          0
   157          0
   158          7