##TITLE=Library Entry 69813
##JCAMP-DX=Revision 4.10 
##DATA TYPE=MASS SPECTRUM
##SAMPLE DESCRIPTION=Chemical Concepts
##NAMES=HP
##CAS NAME=4-Octen-3-one
##MOLFORM=C8H14O
##CAS REGISTRY NO=14129-48-7
##MP= -300
##BP= -300
##MW= 126
##$RETENTION INDEX=944
##$CONDENSED SPECTRUM=NO
##NPOINTS= 71
##XYDATA=(XY..XY) 1 
    26         10
    27        158
    28         22
    29        182
    30          4
    31          8
    37          2
    38         10
    39        131
    40         35
    41        348
    42         32
    43         53
    44          1
    45          1
    50          7
    51         14
    52          6
    53         43
    54          9
    55        816
    56         44
    57         85
    58          3
    59          0
    60          1
    61          2
    62          5
    63          1
    64          8
    65          5
    66         20
    67         34
    68        106
    69         11
    70         12
    71          1
    72          2
    73          1
    74          0
    75          0
    77          8
    78          1
    79          7
    80          1
    81         14
    82          4
    83         28
    84         12
    85         10
    86          0
    87          0
    89          0
    90          1
    91          4
    92          0
    93          2
    94          0
    95          5
    96          4
    97        999
    98        102
    99          9
   108          6
   109          2
   110          1
   111          7
   125          1
   126        167
   127         23
   128          2