##TITLE=Library Entry 81389
##JCAMP-DX=Revision 4.10 
##DATA TYPE=MASS SPECTRUM
##SAMPLE DESCRIPTION=Chemical Concepts
##NAMES=HP
##CAS NAME=Copper(II), benzoylacetonate
##MOLFORM=C20H18CuO4
##CAS REGISTRY NO=14128-84-8
##MP= -300
##BP= -300
##MW= 385
##$RETENTION INDEX=0
##$CONDENSED SPECTRUM=NO
##NPOINTS= 308
##XYDATA=(XY..XY) 1 
    26          1
    27         17
    28          3
    29          0
    31          3
    38          1
    39         14
    40          0
    41          1
    42          0
    43        297
    44          6
    45          2
    50         12
    51         55
    52          4
    53          2
    54          0
    55         13
    56          0
    57          4
    58          0
    59          0
    62          1
    63        126
    64          3
    65         50
    66          0
    67          2
    69         33
    72          0
    73          0
    74          2
    75          4
    76          7
    77        393
    78         34
    79         10
    80          1
    81          0
    83          1
    84          0
    85          6
    86          0
    87          0
    88          0
    89         29
    90         10
    91         24
    92          1
    93          1
    94          0
    95          2
    97          0
    98          0
    99          1
   100          0
   101          2
   102          3
   103         10
   104         15
   105        999
   106         70
   107         32
   108          0
   109          4
   110          0
   113          1
   114          1
   115         19
   116          3
   117          3
   118          3
   119          2
   120          1
   121          2
   122          0
   123          0
   124          0
   125          0
   127          1
   128          1
   129          3
   130          0
   131         12
   132         10
   133         22
   134          1
   135          0
   136          1
   138          0
   139         14
   140        101
   141         47
   142         44
   143         18
   144          2
   145          3
   146         16
   147         79
   148          8
   149         35
   150          1
   151          1
   152          2
   153         22
   154          4
   155         10
   156         19
   157          9
   158          9
   159          5
   160          1
   161        773
   162        101
   163          8
   164          1
   165         21
   166          2
   167         18
   168          1
   169          6
   170          0
   171          2
   173          0
   174          0
   175          4
   176          3
   177          2
   178          2
   179          3
   180          3
   181          6
   182         34
   183         10
   184         16
   185         12
   186          1
   187          1
   188          0
   189          0
   190          0
   191          2
   192          1
   193          4
   194          3
   195         28
   196         18
   197         13
   198          7
   199          4
   200          0
   201          1
   202          0
   203          1
   204          0
   205          0
   206          0
   207          3
   208          5
   209        147
   210         17
   211         67
   212          9
   213          1
   214          0
   215          0
   217          4
   218          0
   219          1
   220          6
   221         18
   222          3
   223        206
   224        158
   225        283
   226         87
   227         91
   228         10
   229          1
   230          0
   231          1
   232          0
   233          2
   234          0
   235          2
   236          0
   237         15
   238          2
   239          8
   240          1
   241          3
   242          0
   243          1
   244          1
   245          3
   246          0
   247          6
   248          1
   249          0
   251          1
   252          0
   253          0
   254          0
   255          0
   257          1
   258          0
   259          0
   260          0
   261          1
   262          7
   263         22
   264          4
   265         17
   266          3
   267          1
   270          0
   271          5
   272          1
   273          2
   274          0
   275          0
   279          3
   280          1
   281          2
   282          1
   283          7
   284          2
   285          7
   286          1
   287          2
   288          1
   289          4
   290          1
   291          0
   293          5
   294          1
   295          2
   296          0
   297          2
   298          1
   299          5
   300          1
   301         25
   302          3
   303         10
   304          1
   305          0
   306          0
   307          0
   308          5
   309          1
   310          2
   311          0
   313          1
   314          1
   315          1
   316          0
   317          0
   324          1
   325         29
   326          6
   327         15
   328          2
   329          0
   331          0
   332          0
   333          0
   339          3
   340          0
   341          3
   342          1
   343          6
   344          1
   345          3
   346          2
   347          0
   349          2
   350          1
   351          1
   352          0
   353          0
   355         21
   356          5
   357         11
   358          3
   359          0
   361          0
   363          1
   366          2
   367         25
   368          6
   369         18
   370         56
   371         14
   372         22
   373          5
   374          2
   381          4
   382          0
   383          0
   384          1
   385        458
   386         82
   387        195
   388         39
   389          6
   390          0