##TITLE=Library Entry 98795
##JCAMP-DX=Revision 4.10 
##DATA TYPE=MASS SPECTRUM
##SAMPLE DESCRIPTION=Exported from NIST MS Search
##NAMES=HP
##CAS NAME=2-Hexanone, 5-methyl-5-phenyl-
##MOLFORM=C13H18O
##CAS REGISTRY NO=14128-61-1
##MP= -300
##BP= -300
##MW= 190
##$RETENTION INDEX=0
##$CONDENSED SPECTRUM=NO
##NPOINTS= 22
##XYDATA=(XY..XY) 1 
    41        118
    43        306
    44         12
    52         24
    65         15
    77         42
    78         21
    79         42
    91        288
    92         24
   103         30
   105         21
   115         21
   117         30
   118         70
   119        999
   120         97
   132          9
   157          9
   175          9
   190         67
   191          6