##TITLE=Library Entry 114752
##JCAMP-DX=Revision 4.10 
##DATA TYPE=MASS SPECTRUM
##SAMPLE DESCRIPTION=A.A.Kutin, Moscow, Russia
##NAMES=HP
##CAS NAME=Quinoxaline-5-carboxaldehyde
##MOLFORM=C9H6N2O
##CAS REGISTRY NO=141234-08-4
##MP= -300
##BP= -300
##MW= 158
##$RETENTION INDEX=0
##$CONDENSED SPECTRUM=NO
##NPOINTS= 68
##XYDATA=(XY..XY) 1 
    33         23
    34          2
    37        112
    38         94
    39         63
    40         65
    41          9
    42          5
    43          9
    44         11
    45          2
    48          3
    49         77
    50        297
    51        212
    52        188
    53         49
    54          2
    55          4
    56          0
    57          0
    60          7
    61         35
    62         44
    63         50
    64         39
    65         81
    67          1
    69          1
    72          9
    73         58
    74        188
    75        297
    76        413
    77        114
    78         51
    79         29
    80          2
    84          1
    85          5
    86          7
    87          8
    88          8
    89          4
    90          7
    91          1
    92          0
    98          3
    99         16
   100         15
   101         29
   102        137
   103        399
   104         69
   105          4
   114          1
   115          0
   118          1
   127          1
   128         19
   129        232
   130        999
   131         89
   132          5
   153          0
   157          4
   158         18
   159          2