##TITLE=Library Entry 30481
##JCAMP-DX=Revision 4.10 
##DATA TYPE=MASS SPECTRUM
##SAMPLE DESCRIPTION=A.I. Gren, Phys.-Chem. Inst., Acad. Sci. Ukraine, Odess
a, Ukraine
##NAMES=HP
##CAS NAME=1,5,9-Trioxacyclododecane, 3,3'-[1,6-hexanediyl]bis-
##MOLFORM=C24H46O6
##CAS REGISTRY NO=141315-42-6
##MP= -300
##BP= -300
##MW= 430
##$RETENTION INDEX=0
##$CONDENSED SPECTRUM=NO
##NPOINTS= 75
##XYDATA=(XY..XY) 1 
    53         20
    54         86
    55        379
    56         83
    57        481
    58        378
    59        999
    60         39
    61         35
    67        219
    68         28
    69        225
    70         58
    71        449
    72         45
    73        212
    74         16
    75        124
    76         23
    77         91
    81        258
    82         92
    83        143
    84         38
    85         62
    86         36
    87        222
    88         24
    89        336
    90         18
    95        195
    96         58
    97        144
    98         77
    99        109
   100         23
   101         45
   102         66
   108         29
   109         96
   110         34
   111         82
   115        292
   116         49
   117        742
   118         68
   119         68
   133         48
   134         15
   135        117
   136         15
   155         33
   159         20
   161         32
   163         39
   213         52
   285        146
   286         24
   298         32
   299         12
   300         57
   301         27
   313        212
   314         45
   315        114
   316         24
   329         61
   330         10
   373         46
   374          9
   387        665
   388        161
   389         29
   430        198
   431         55