##TITLE=Library Entry 71629
##JCAMP-DX=Revision 4.10 
##DATA TYPE=MASS SPECTRUM
##SAMPLE DESCRIPTION=A.A.Kutin, Moscow, Russia
##NAMES=HP
##CAS NAME=9H-Purine-6(1H)-thione, 9-(piperidinomethyl)-
##MOLFORM=C11H15N5S
##CAS REGISTRY NO=14133-14-3
##MP= -300
##BP= -300
##MW= 249
##$RETENTION INDEX=0
##$CONDENSED SPECTRUM=NO
##NPOINTS= 152
##XYDATA=(XY..XY) 1 
    33          1
    34          0
    35          0
    36          0
    38         10
    39         23
    40         11
    41         62
    42         67
    43         17
    44         31
    45         18
    46          3
    47          1
    48          0
    50          1
    51          4
    52          5
    53         23
    54         15
    55         53
    56         31
    57         20
    58          4
    59          4
    60          3
    61          0
    62          0
    63          0
    64          4
    65         12
    66         13
    67         10
    68         11
    69         31
    70         62
    71         32
    72          6
    73          2
    74          0
    75          0
    76          5
    77          5
    78          2
    79          5
    80          6
    81          6
    82         14
    83         15
    84         52
    85         19
    86          1
    87          0
    89          0
    91          4
    92         13
    93          7
    94          4
    95          3
    96         43
    97        193
    98        999
    99         60
   100          2
   101          0
   102          0
   103          0
   104          1
   105          1
   106          1
   108          6
   109          7
   110          7
   111          6
   112          2
   113          1
   114          0
   115          0
   116          0
   117          0
   119         60
   120          6
   121          1
   122          0
   124         20
   125         41
   126          5
   127          2
   128          0
   129          0
   130          1
   131          0
   132          0
   133          1
   134          0
   136          3
   137          5
   138          4
   139          1
   140          0
   141          0
   143          0
   145          0
   146          0
   147          0
   149          0
   151         21
   152        256
   153         30
   154         13
   155          1
   159          0
   160          0
   162          0
   163          0
   165         14
   166          2
   167          1
   168          0
   171          1
   172          0
   173          0
   174          0
   176          0
   177          0
   178          0
   179          0
   180          0
   182          0
   183          0
   185          0
   186          0
   189          0
   191          0
   192          0
   194          3
   195         10
   196          1
   197          0
   200          0
   203          0
   214          0
   215          0
   216          2
   217          0
   230          0
   231          0
   247          0
   248          6
   249         11
   250          1
   251          0