##TITLE=Library Entry 70446
##JCAMP-DX=Revision 4.10 
##DATA TYPE=MASS SPECTRUM
##SAMPLE DESCRIPTION=R.C. DOUGHERTY
##NAMES=HP
##CAS NAME=Furan, 2-(1,2-diethoxyethyl)-
##MOLFORM=C10H16O3
##CAS REGISTRY NO=14133-54-1
##MP= -300
##BP= -300
##MW= 184
##$RETENTION INDEX=0
##$CONDENSED SPECTRUM=NO
##NPOINTS= 16
##XYDATA=(XY..XY) 1 
    29         90
    39         80
    41         80
    43        200
    44         60
    81         50
    94         70
    95         60
    97        999
    98         50
   110         50
   111         50
   125        740
   126         50
   138         80
   184         40