##TITLE=Library Entry 49226
##JCAMP-DX=Revision 4.10 
##DATA TYPE=MASS SPECTRUM
##SAMPLE DESCRIPTION=Chemical Concepts
##NAMES=HP
##CAS NAME=1,3-Cyclohexadiene-1-methanol, 4-(1-methylethyl)-
##MOLFORM=C10H16O
##CAS REGISTRY NO=1413-55-4
##MP= -300
##BP= -300
##MW= 152
##$RETENTION INDEX=0
##$CONDENSED SPECTRUM=NO
##NPOINTS= 86
##XYDATA=(XY..XY) 1 
    27        258
    28         34
    29        133
    30         10
    31        167
    38          4
    39        167
    40         20
    41        236
    42         22
    43        247
    44          8
    45          4
    50         18
    51         71
    52         30
    53         97
    54         12
    55        102
    56         13
    57         42
    58          8
    59         11
    60          9
    62          7
    63         33
    64         12
    65        122
    66         35
    67        433
    68         43
    69         43
    70         18
    71         18
    74          3
    75          4
    76          7
    77        398
    78        110
    79        999
    80        104
    81        446
    82         99
    83         23
    84          4
    89         27
    90          9
    91        631
    92        216
    93        253
    94         43
    95        119
    96         44
    97          0
   102         11
   103         67
   104         33
   105        223
   106         35
   107        195
   108         61
   109        674
   110         74
   111          3
   115         40
   116         11
   117         69
   118         17
   119        166
   120         45
   121        373
   122         54
   123         33
   124         23
   125          1
   131          0
   134         19
   135        108
   136         22
   137         42
   138          2
   150         15
   151          3
   152        638
   153         70
   154         14