##TITLE=Library Entry 47885
##JCAMP-DX=Revision 4.10 
##DATA TYPE=MASS SPECTRUM
##SAMPLE DESCRIPTION=A.A.Kutin, Moscow, Russia
##NAMES=HP
##CAS NAME=1,2,4-Triazole, 3-methylthio-4-phenyl-5-phenylamino-
##MOLFORM=C15H14N4S
##CAS REGISTRY NO=14132-79-7
##MP= -300
##BP= -300
##MW= 282
##$RETENTION INDEX=0
##$CONDENSED SPECTRUM=NO
##NPOINTS= 207
##XYDATA=(XY..XY) 1 
    33          6
    34          8
    35          0
    36          2
    39        372
    40        109
    41         65
    42         29
    43         53
    45        148
    46        100
    47        145
    50        141
    51        662
    52         69
    53         20
    55         38
    57         37
    58         51
    59         16
    60          9
    63        145
    65        501
    66         36
    67         12
    68          8
    69         22
    70         20
    71         17
    73         38
    74         63
    75        112
    77        999
    78         84
    79         12
    80          5
    81          7
    82          5
    83         16
    85         25
    86          4
    88         21
    89         74
    91        521
    92        243
    93         35
    94          7
    96          6
    97         13
    99          4
   100          5
   101          4
   103         77
   104        132
   105         26
   106          7
   107          7
   109         52
   110          9
   111          8
   112          9
   113          5
   115          9
   117        140
   118        266
   119         58
   121         23
   122          5
   123          5
   124          6
   125          2
   127          7
   128         13
   129         13
   131         18
   132         18
   133         12
   135        172
   136         74
   137         13
   138          4
   139          3
   140          4
   141         11
   142          3
   143         14
   144         23
   145         14
   146         17
   147          6
   149         62
   150         91
   151         16
   152         18
   153         10
   154         15
   155         10
   156          2
   157          4
   158         10
   159          7
   160          3
   161         10
   162          2
   163          4
   164         18
   165          6
   166         12
   167         39
   168         24
   169         21
   170          4
   171         14
   173        109
   174         12
   175          3
   176          2
   177          5
   178         41
   179         19
   180         36
   181         10
   182          3
   183          2
   184          0
   185          1
   186          1
   187          1
   188          1
   189          1
   190          3
   191          4
   192         14
   193         36
   194        120
   195        165
   196         25
   198          0
   199          1
   200          0
   201          0
   202          0
   203          2
   204          4
   205         32
   206         18
   207         25
   208         38
   209          9
   210          3
   211          2
   212          4
   213          0
   214          0
   215          0
   216          0
   217          2
   218         30
   219         20
   220          8
   221          3
   222          2
   223          4
   224          1
   225          0
   227          0
   229          0
   230          0
   232          8
   233         20
   234         40
   235        151
   236         26
   237         16
   238          8
   239         12
   240          2
   241          1
   245          1
   247          5
   248          6
   249         72
   250         14
   251          3
   252          0
   253          2
   254          0
   255          2
   256          0
   264          2
   265          9
   266         25
   267         54
   268         11
   269          3
   270          0
   274          0
   276          0
   277          2
   278          3
   279          8
   280         19
   281        188
   282        842
   283        155
   284         52
   285          7