##TITLE=Library Entry 1970
##JCAMP-DX=Revision 4.10 
##DATA TYPE=MASS SPECTRUM
##SAMPLE DESCRIPTION=D. BAK HARTWICK COLLEGE, ONEONTA, NEW YORK, USA
##NAMES=HP
##CAS NAME=1,2-Cyclobutanedicarboxylic acid, 3-methyl-, dimethyl ester
##MOLFORM=C9H14O4
##CAS REGISTRY NO=14132-19-5
##MP= -300
##BP= -300
##MW= 186
##$RETENTION INDEX=0
##$CONDENSED SPECTRUM=NO
##NPOINTS= 59
##XYDATA=(XY..XY) 1 
    15        910
    26         33
    29        759
    38         50
    39        583
    40        999
    41        717
    42        267
    43        267
    44         66
    45        133
    47         50
    50         84
    51        234
    52         33
    53        133
    54         38
    55        266
    56         38
    57         38
    59        868
    65         33
    66         33
    67        266
    68        117
    69        330
    70         50
    71         66
    72         33
    73         84
    74         50
    75         33
    77        263
    78         50
    79        133
    81         33
    85        103
    87         50
    93         40
    94        100
    95        233
    96         66
    99         33
   100         80
   101         50
   105        317
   109        384
   111        384
   113        292
   114         66
   115         33
   124         38
   126        150
   127        466
   128        200
   129        117
   136         66
   145         17
   155        117