##TITLE=Library Entry 57028
##JCAMP-DX=Revision 4.10 
##DATA TYPE=MASS SPECTRUM
##SAMPLE DESCRIPTION=D. BAK HARTWICK COLLEGE, ONEONTA, NEW YORK, USA
##NAMES=HP
##CAS NAME=Cyclobutanecarboxylic acid, 2-methyl-, methyl ester
##MOLFORM=C7H12O2
##CAS REGISTRY NO=14132-44-6
##MP= -300
##BP= -300
##MW= 128
##$RETENTION INDEX=0
##$CONDENSED SPECTRUM=NO
##NPOINTS= 43
##XYDATA=(XY..XY) 1 
    15        680
    26         96
    27        664
    29        368
    30         80
    31        256
    37         32
    38         64
    39        592
    41        896
    42        672
    43        576
    44         64
    45         80
    49         32
    51         48
    53        112
    54        664
    55        800
    56         96
    57         48
    58        128
    59        224
    65         48
    67         96
    68        304
    69        864
    70        144
    71         96
    72         48
    73         48
    74        256
    75         48
    81         64
    85        112
    87        999
    88        208
    96         64
    97        216
   100        112
   101         64
   113        112
   128        128