##TITLE=Library Entry 114254
##JCAMP-DX=Revision 4.10 
##DATA TYPE=MASS SPECTRUM
##SAMPLE DESCRIPTION=H. Lloyd, LC, NHLBI, NIH, Bethesda, MD 20892
##NAMES=HP
##CAS NAME=Piperidine, 1-(1-oxo-3-phenyl-2-propynyl)-
##MOLFORM=C14H15NO
##CAS REGISTRY NO=14143-92-1
##MP= -300
##BP= -300
##MW= 213
##$RETENTION INDEX=0
##$CONDENSED SPECTRUM=NO
##NPOINTS= 122
##XYDATA=(XY..XY) 1 
    41         51
    42         71
    43         10
    44          6
    47          0
    49          5
    50         17
    51         65
    52         10
    53         10
    54         19
    55         73
    56         37
    57         10
    61          2
    62          7
    63         13
    64          3
    65          5
    66          1
    67          8
    68          7
    69         10
    70         16
    71          2
    73          3
    74         41
    75        139
    76         23
    77         38
    78          8
    79          2
    80          6
    81          3
    82         18
    83         32
    84         91
    85          7
    86          4
    87          2
    88          2
    89          6
    90          2
    91         11
    92          4
    93          6
    94          3
    96          0
    97          1
    98          8
    99          6
   100         14
   101         89
   102         97
   103         25
   104          7
   105          2
   106          2
   107          1
   108         14
   109          1
   111          0
   112          1
   113          1
   114          2
   115         32
   116         58
   117         11
   118          2
   119          0
   120          0
   126          1
   127          7
   128         21
   129        999
   130        100
   131         58
   132          5
   134          1
   135          6
   136        128
   137         10
   138          1
   139          0
   140          1
   141          9
   142         10
   143         33
   144         15
   145          2
   146          0
   152          0
   153          1
   154          3
   155          6
   156         69
   157         60
   158         10
   159          8
   166          1
   167          3
   168          2
   169          4
   170         26
   171         25
   172         16
   173          1
   182          1
   184        233
   185         99
   186         11
   187          0
   194          0
   196         73
   197         10
   198         10
   199          1
   212        470
   213        672
   214        107
   215         11
   216          0