##TITLE=Library Entry 66592
##JCAMP-DX=Revision 4.10 
##DATA TYPE=MASS SPECTRUM
##SAMPLE DESCRIPTION=Philip Morris R&D
##NAMES=HP
##CAS NAME=Pyridine, 3-(2-methylpropyl)-
##MOLFORM=C9H13N
##CAS REGISTRY NO=14159-61-6
##MP= -300
##BP= -300
##MW= 135
##$RETENTION INDEX=1076
##$CONDENSED SPECTRUM=NO
##NPOINTS= 66
##XYDATA=(XY..XY) 1 
    36          0
    37          3
    38         23
    39        150
    40         19
    41         97
    42          5
    43        244
    44         10
    45          0
    46          3
    47          0
    49          1
    50         19
    51         41
    52         21
    53         10
    54          2
    55          3
    56          0
    57          0
    59         10
    60          1
    61          3
    62          8
    63         34
    64         18
    65        130
    66         52
    67         23
    68          0
    73          0
    74          3
    75          2
    76          4
    77         13
    78         15
    79          8
    80          6
    81          0
    86          0
    88          0
    89          6
    90          5
    91         20
    92        262
    93        999
    94         72
    95          1
   102          0
   103          4
   104          7
   105          4
   106          4
   107          1
   119          3
   120         17
   121          1
   130          1
   131          0
   132          1
   133          0
   134          4
   135        368
   136         37
   137          1