##TITLE=Library Entry 59211
##JCAMP-DX=Revision 4.10 
##DATA TYPE=MASS SPECTRUM
##SAMPLE DESCRIPTION=K. Kirk, LBC, NIDDK, NIH, Bethesda, MD 20892
##NAMES=HP
##CAS NAME=Phenylacetic acid, 4-benzyloxy-2-fluoro-.alpha.-hydroxy-5-methoxy
-
##MOLFORM=C16H15FO5
##CAS REGISTRY NO=141523-24-2
##MP= -300
##BP= -300
##MW= 306
##$RETENTION INDEX=0
##$CONDENSED SPECTRUM=NO
##NPOINTS= 232
##XYDATA=(XY..XY) 1 
    41         19
    42          5
    43         15
    44        176
    45         18
    46          3
    49          4
    50         22
    51         47
    52         12
    53         11
    54          2
    55          9
    56          4
    57         17
    58          3
    59         10
    60          3
    61          5
    62         13
    63         33
    64         11
    65        115
    66         10
    67          5
    68          3
    69         21
    70         13
    71         10
    72          3
    73          9
    74          6
    75          9
    76          6
    77         30
    78         10
    79         29
    80          9
    81         12
    82         11
    83         22
    84          9
    85          7
    86          3
    87          3
    89         27
    91        999
    92        129
    93         10
    94          6
    95         12
    96          8
    97         15
    98          6
    99         19
   100          3
   101          2
   102          2
   103          3
   104          2
   105          9
   106          4
   107         28
   108         26
   109          9
   110          6
   111         13
   112          8
   113          7
   114          2
   115          8
   116          2
   117          2
   119          2
   120          1
   121          3
   122          3
   123         10
   124          7
   125         15
   126          6
   127         21
   128          5
   129          3
   131          1
   132          0
   133          6
   134          1
   135          2
   136          1
   137          5
   138          3
   139         11
   140         12
   141         17
   142         12
   143          4
   144          1
   145          1
   146          2
   147          1
   148          1
   149          4
   150          3
   151          8
   152         12
   153         13
   154         13
   155         28
   156          6
   157          3
   158          1
   159          5
   160          1
   163          2
   164          2
   165         12
   166          6
   167         13
   168          7
   169         23
   170         22
   171         21
   172          4
   173          1
   175          1
   176          1
   177          2
   178          4
   179          6
   180          9
   181         11
   182          8
   183         16
   184          4
   185          3
   186          1
   187          1
   188          1
   189          2
   190          1
   191          2
   192          2
   193          2
   194          1
   195          1
   196          3
   197          5
   198          4
   199         18
   200          9
   201          7
   202          1
   203          0
   205          0
   207          2
   209          2
   210          1
   211          3
   212          3
   213          5
   214          3
   215          6
   216          4
   217          5
   218          1
   219          1
   220          0
   223          1
   224          1
   225          3
   226          2
   227          4
   228          3
   229          3
   230          2
   231          8
   232         44
   233          8
   234          0
   235          1
   237          1
   239          3
   240          2
   241          4
   242          2
   243          4
   244         17
   245         17
   246          8
   247          1
   252          2
   253          3
   254          0
   255          1
   256          7
   257          3
   258          2
   259         12
   260         12
   261         20
   262          4
   265          0
   267          1
   268          6
   269          3
   270          6
   271          1
   272          3
   273          1
   274          3
   275          1
   280          1
   281          1
   282          0
   283          1
   284          1
   287          2
   288          3
   289         31
   290          5
   291          1
   295          0
   296          0
   301          0
   302          0
   303          1
   304          6
   305          1
   306         44
   307          9
   308          3