##TITLE=Library Entry 59587
##JCAMP-DX=Revision 4.10 
##DATA TYPE=MASS SPECTRUM
##SAMPLE DESCRIPTION=K. Kirk, LC, NIDDK, NIH, Bethesda, MD 20892
##NAMES=HP
##CAS NAME=Benzaldehyde, 4-benzyloxy-2-fluoro-5-hydroxy-
##MOLFORM=C14H11FO3
##CAS REGISTRY NO=141523-16-2
##MP= -300
##BP= -300
##MW= 246
##$RETENTION INDEX=0
##$CONDENSED SPECTRUM=NO
##NPOINTS= 113
##XYDATA=(XY..XY) 1 
    41         24
    42          3
    43          3
    44          4
    45          4
    47         19
    48         10
    49        118
    50         23
    51         98
    52         10
    53          7
    54          2
    55          2
    56          2
    57          9
    58          0
    59          0
    60          0
    61          2
    62          9
    63         34
    64          9
    65        158
    66          9
    67          2
    68          3
    69         14
    70         19
    71          7
    72          1
    73          3
    74          2
    75          2
    76          1
    77         13
    78          2
    79          6
    80          1
    81          5
    82          4
    83          6
    84         58
    85          3
    86         39
    87          1
    88          6
    89         30
    90         17
    91        999
    92         48
    93          2
    94          0
    95          0
    96          0
    97         14
    98          6
    99         21
   100          1
   101          0
   103          0
   105          3
   106          1
   107          1
   108          1
   109          1
   110          0
   111          0
   113          0
   115          1
   119          0
   121          0
   122          0
   125          0
   126          4
   127          6
   128          0
   129          0
   131          0
   133          1
   137          1
   138          0
   139          1
   140          0
   141          1
   142          0
   145          0
   146          0
   149          0
   151          0
   152          0
   153          0
   154          1
   155          6
   156          1
   157          0
   159          0
   167          1
   168          0
   169          0
   170          1
   171          1
   175          0
   177          0
   179          0
   181          0
   199          0
   215          0
   243          0
   245          0
   246         34
   247          6
   248          0