##TITLE=Library Entry 96682
##JCAMP-DX=Revision 4.10 
##DATA TYPE=MASS SPECTRUM
##SAMPLE DESCRIPTION=Richard Turcotte. Direction des laboratoires d'expertis
es et d'analyses alimentaires, Quebec, Canada.
##NAMES=HP
##CAS NAME=TRIFLOXYSTROBIN
##MOLFORM=C20H19F3N2O4
##CAS REGISTRY NO=141517-21-7
##MP= -300
##BP= -300
##MW= 408
##$RETENTION INDEX=2339
##$CONDENSED SPECTRUM=NO
##NPOINTS= 128
##XYDATA=(XY..XY) 1 
    41         10
    42         48
    44          7
    45         43
    49          3
    50         38
    51         48
    52         13
    53          3
    57          4
    59        321
    60         10
    61          4
    62         16
    63         40
    64         12
    65         15
    66          6
    69         17
    73          3
    74         18
    75         70
    76         71
    77         93
    78         17
    79          5
    81          2
    83          4
    86          4
    87          5
    88         13
    89        155
    90         73
    91        106
    92         15
    93          5
    94          4
    95         52
    96          5
    99         11
   100          5
   101          9
   102         78
   103        102
   104         66
   105         78
   106         13
   107          7
   109          7
   113          3
   114         20
   115         34
   116        999
   117        204
   118        129
   119         75
   120         14
   121         12
   122          5
   125         43
   126         27
   127         23
   128          8
   130        237
   131        610
   132        283
   133         57
   134         16
   139          2
   142          4
   143         35
   144         21
   145        298
   146        156
   147         28
   148          8
   149          4
   151         34
   152         24
   153          8
   154         10
   157          2
   159         13
   160          3
   161          3
   162         63
   163         10
   164          3
   166          3
   168         24
   169          7
   170          4
   171         34
   172        318
   173         44
   174         21
   175         17
   176          8
   177         13
   178          2
   182          2
   185          4
   186        200
   187        169
   188         23
   189          3
   190        153
   191         28
   192          5
   193          2
   198         34
   199          4
   202          2
   203          3
   206        160
   207         11
   208          3
   209          2
   222        204
   223         22
   224          2
   269          3
   299          2
   301          2
   317          9
   318          2
   377         17
   378          3