##TITLE=Library Entry 7501
##JCAMP-DX=Revision 4.10 
##DATA TYPE=MASS SPECTRUM
##SAMPLE DESCRIPTION=Japan AIST/NIMC Database- Spectrum MS-IW-6573
##NAMES=HP
##CAS NAME=3Beta-chloro-5alpha-cholestane-5,6beta-diol 6-acetate
##MOLFORM=C29H49ClO3
##CAS REGISTRY NO=14150-17-5
##MP= -300
##BP= -300
##MW= 480
##$RETENTION INDEX=0
##$CONDENSED SPECTRUM=NO
##NPOINTS= 394
##XYDATA=(XY..XY) 1 
    12          2
    13          5
    14         22
    15         41
    16          6
    17          2
    18          6
    25          2
    26          5
    27         54
    28        102
    29        154
    30          4
    31          5
    35         20
    36        151
    37          7
    38         50
    39         53
    40         12
    41        469
    42         75
    43        999
    44         30
    45        114
    46          1
    50          2
    51          9
    52          4
    53         84
    54         21
    55        648
    56         70
    57        442
    58         19
    59          2
    60         82
    61          6
    62          1
    63          5
    64          1
    65         40
    66         21
    67        335
    68         96
    69        402
    70         48
    71        218
    72         12
    73          4
    74          2
    75          8
    76          2
    77        124
    78         29
    79        322
    80         66
    81        553
    82        118
    83        249
    84         29
    85         44
    86          4
    87          3
    88          2
    89         11
    90          3
    91        304
    92         71
    93        427
    94        160
    95        515
    96         82
    97        126
    98         12
    99         12
   100          5
   101          8
   102          5
   103         26
   104         20
   105        317
   106         97
   107        381
   108        264
   109        288
   110         62
   111         82
   112         11
   113         13
   114          4
   115         58
   116         24
   117        118
   118        118
   119        217
   120        134
   121        269
   122        247
   123        196
   124         42
   125         30
   126          9
   127         21
   128         78
   129        118
   130         45
   131        186
   132         53
   133        207
   134         88
   135        258
   136        122
   137         74
   138         26
   139         20
   140          8
   141        138
   142        103
   143        208
   144         89
   145        219
   146         99
   147        178
   148         77
   149        213
   150         45
   151         62
   152        107
   153         34
   154         22
   155        112
   156        100
   157        228
   158        166
   159        325
   160         87
   161        172
   162         43
   163         80
   164         20
   165         44
   166         19
   167         39
   168         25
   169         86
   170         46
   171        107
   172         69
   173         71
   174         29
   175         70
   176         28
   177         50
   178         31
   179         67
   180         30
   181         67
   182         34
   183         83
   184         36
   185         95
   186         81
   187         52
   188         14
   189         45
   190         18
   191         38
   192         26
   193        182
   194         61
   195        135
   196         52
   197        135
   198         51
   199         97
   200         28
   201         52
   202         20
   203         30
   204         13
   205         65
   206         80
   207         69
   208         36
   209         58
   210         31
   211        353
   212        106
   213        176
   214         39
   215         39
   216         17
   217         30
   218         11
   219         83
   220         37
   221         51
   222         23
   223         35
   224         21
   225         52
   226         56
   227        101
   228         30
   229         61
   230         23
   231         36
   232         15
   233        114
   234         38
   235        106
   236         32
   237         66
   238         22
   239         30
   240         12
   241         14
   242          7
   243         23
   244         22
   245         46
   246         36
   247        401
   248        267
   249        238
   250        126
   251        103
   252         36
   253        125
   254         32
   255         50
   256         14
   257         14
   258          9
   259         18
   260         31
   261         87
   262        456
   263        218
   264        231
   265        213
   266         70
   267         73
   268         24
   269         15
   270          6
   271         35
   272         13
   273         18
   274         13
   275         37
   276         27
   277         23
   278         15
   279         40
   280         61
   281         37
   282         25
   283         11
   284          4
   285          8
   286          4
   287         13
   288         13
   289        110
   290         35
   291         46
   292         12
   293          8
   294          8
   295          7
   296          5
   297          6
   298          5
   299         11
   300          8
   301         22
   302         10
   303         13
   304          5
   305          6
   306          4
   307         48
   308         16
   309         20
   310          8
   311         10
   312         17
   313         10
   314          9
   315          8
   316          5
   317         23
   318         11
   319          9
   320          3
   321          2
   322         11
   323          7
   324         10
   325         23
   326         49
   327         21
   328          7
   329         14
   330         27
   331         20
   332          9
   333          6
   334          4
   335          8
   336          4
   337          6
   338          8
   339          7
   340          8
   341          9
   342          9
   343          8
   344          9
   345          9
   346          9
   347         10
   348         17
   349         20
   350         27
   351        128
   352         42
   353         45
   354         15
   355         18
   356         45
   357         13
   358          8
   359          4
   360         16
   361          8
   362         32
   363         13
   364         76
   365         31
   366        291
   367        162
   368        139
   369        183
   370         50
   371         10
   376         15
   377          9
   378          9
   379          1
   380          4
   382         10
   383          1
   384        227
   385        135
   386         34
   387        275
   388         78
   389         99
   390         31
   391         16
   392          1
   393          1
   402        589
   403        193
   404        218
   405        159
   406         38
   407         36
   408          9
   409          1
   418          3
   419          2
   420        211
   421         66
   422         74
   423         21
   424          3
   426          2
   434          2
   436          4
   437          1
   438          3
   439          1
   440          1
   444          1
   445          2
   447          2
   462          7
   463          3
   464          3
   465          1