##TITLE=Library Entry 61054
##JCAMP-DX=Revision 4.10 
##DATA TYPE=MASS SPECTRUM
##SAMPLE DESCRIPTION=K. Kirk, LBC, NIDDK, NIH, Bethesda, MD 20892
##NAMES=HP
##CAS NAME=4,5-Dihydrooxazol-5-one, 4-[4-benzyloxy-2-fluoro-5-methoxybenzyli
dene]-
##MOLFORM=C24H18FNO4
##CAS REGISTRY NO=141523-17-3
##MP= -300
##BP= -300
##MW= 403
##$RETENTION INDEX=0
##$CONDENSED SPECTRUM=NO
##NPOINTS= 173
##XYDATA=(XY..XY) 1 
    41         49
    42         13
    43         53
    44          9
    45          6
    46          0
    47         21
    48         10
    49          9
    50         19
    51          7
    52          7
    53          8
    54         17
    55         31
    56         18
    57         43
    58          4
    59          3
    60          5
    61          3
    62          3
    63         12
    64         12
    65         68
    66          6
    67         27
    68          7
    69         22
    70         14
    71         22
    72          5
    73          6
    74          3
    75          6
    76          8
    77        284
    78         24
    79          7
    80          2
    81         14
    82         14
    83         21
    84          5
    85         15
    86          3
    87          4
    88          9
    89         13
    91        999
    92         73
    93          8
    94          9
    95         10
    96          7
    97         12
    98          5
    99          6
   100          4
   101          1
   103          1
   105        571
   106         46
   107         12
   108          6
   109          7
   110          4
   111          7
   112          4
   113          6
   115          4
   116          4
   117          3
   119          4
   120          2
   121          8
   122          4
   123          5
   124          5
   125          5
   126          0
   127          4
   128          4
   129          3
   132          3
   133          4
   134          2
   135          9
   136          1
   137          4
   138          1
   139          3
   141          3
   143          1
   145          1
   147          1
   148          6
   149         40
   150          7
   151          4
   152          3
   153          3
   154          0
   155          2
   159          1
   160          2
   161          0
   162          1
   163          3
   164          1
   165          5
   166          2
   167         15
   168          3
   169          3
   170          2
   171          2
   176          0
   177          1
   178          2
   179          3
   180          2
   181          1
   182          0
   183          2
   185          0
   191          1
   192          1
   193          1
   194          0
   195          1
   196          0
   197          2
   199          0
   207          0
   208          1
   209          0
   210          0
   220          0
   221          1
   224          0
   225          0
   227          2
   236          1
   239          1
   242          3
   243          1
   245          0
   251          0
   254          2
   256          7
   258          1
   259          1
   260          5
   261          1
   270          1
   279          9
   280          2
   282          1
   295          6
   312         78
   313         16
   314          2
   341          4
   360          0
   361          0
   371          3
   375         18
   376          5
   403        530
   404        135
   405         22
   406          2