##TITLE=Library Entry 37973
##JCAMP-DX=Revision 4.10 
##DATA TYPE=MASS SPECTRUM
##SAMPLE DESCRIPTION=J. DALY, LBC, NIDDK, NIH, Bethesda, MD 20892
##NAMES=HP
##CAS NAME=Allopumiliotoxin 325a
##MOLFORM=C19H35NO3
##CAS REGISTRY NO=141643-34-7
##MP= -300
##BP= -300
##MW= 325
##$RETENTION INDEX=0
##$CONDENSED SPECTRUM=NO
##NPOINTS= 57
##XYDATA=(XY..XY) 1 
    59        117
    66         28
    70        999
    75        143
    76         17
    77         31
    78         78
    92         20
   104          9
   112        171
   113         35
   114         14
   116         19
   117         23
   140         15
   141         32
   142         14
   144         14
   165         27
   173         23
   181         15
   182        481
   183         46
   199         10
   201          6
   205          8
   212         14
   216          9
   233          9
   247          7
   258         11
   269          3
   277          6
   278         54
   279          8
   281          4
   282         18
   290         26
   291          8
   292         28
   293          4
   294          4
   295          3
   301          3
   305          6
   307          6
   308        104
   309         23
   311          4
   315          3
   316          4
   317          2
   318          3
   321         10
   325         52
   326         11
   327          3