##TITLE=Library Entry 25519
##JCAMP-DX=Revision 4.10 
##DATA TYPE=MASS SPECTRUM
##SAMPLE DESCRIPTION=NIST Mass Spectrometry Data Center
##NAMES=HP
##CAS NAME=Tritriacontane, 3-methyl-
##MOLFORM=C34H70
##CAS REGISTRY NO=14167-69-2
##MP= -300
##BP= -300
##MW= 478
##$RETENTION INDEX=3376
##$CONDENSED SPECTRUM=NO
##NPOINTS= 129
##XYDATA=(XY..XY) 1 
    27          4
    29         27
    39          9
    40          2
    41        140
    42         36
    43        426
    44         14
    53          5
    54         19
    55        220
    56        378
    57        999
    58         42
    67         25
    68         33
    69        215
    70        157
    71        707
    72         38
    82         38
    83        190
    84         59
    85        444
    86         29
    96         24
    97        169
    98         32
    99        153
   100         11
   110         12
   111         97
   112         24
   113        119
   114         10
   124          9
   125         47
   126         14
   127         91
   128          7
   138          5
   139         19
   140          9
   141         59
   142          6
   152          3
   153         12
   154          7
   155         45
   156          4
   166          3
   167          6
   168          4
   169         33
   170          5
   180          4
   181          4
   182          4
   183         27
   184          3
   194          3
   195          2
   196          3
   197         20
   198          3
   209          3
   211         20
   212          3
   222          2
   223          3
   224          2
   225         14
   226          3
   236          2
   238          2
   239         13
   240          3
   250          2
   252          2
   253         11
   264          2
   265          2
   267         11
   278          3
   281          9
   292          2
   295          9
   296          2
   306          2
   309          7
   310          2
   320          2
   321          1
   323          8
   324          2
   334          2
   337          6
   338          2
   350          1
   351          6
   352          2
   362          1
   363          1
   365          6
   366          2
   376          1
   378          1
   379          4
   380          1
   392          2
   393          3
   406          1
   407          2
   420         15
   421         25
   422          7
   423          1
   434          1
   435          3
   448         75
   449        279
   450         91
   451         15
   452          1
   462          2
   463         10
   464          4
   465          1
   478          1