##TITLE=Library Entry 79981
##JCAMP-DX=Revision 4.10 
##DATA TYPE=MASS SPECTRUM
##SAMPLE DESCRIPTION=Chemical Concepts
##NAMES=HP
##CAS NAME=N-Benzoyl-N-benzoyloxy-2-aminofluorene
##MOLFORM=C27H19NO3
##CAS REGISTRY NO=141612-70-6
##MP= -300
##BP= -300
##MW= 405
##$RETENTION INDEX=0
##$CONDENSED SPECTRUM=NO
##NPOINTS= 236
##XYDATA=(XY..XY) 1 
    27         11
    28         23
    29          8
    30          3
    31          3
    34          3
    36          3
    37          3
    38          8
    39         20
    41         16
    42          3
    43         16
    44          3
    45          3
    49          3
    50         43
    51        120
    52         11
    53          3
    55         16
    56          3
    57         11
    58          3
    59          3
    61          3
    62          8
    63         20
    64          3
    65          8
    67          3
    68          3
    69          8
    70          3
    71          8
    73          3
    74         23
    75         23
    76         36
    77        547
    78         40
    79          3
    80          3
    81          3
    82          3
    83          3
    85          3
    86          8
    87         11
    88          3
    89          8
    91          8
    92          3
    93          3
    94          3
    95          3
    97          3
    98          8
    99          8
   100          3
   101          3
   103          3
   104          8
   105        999
   106        100
   107          8
   109          3
   110          3
   111          8
   112          3
   113          8
   115         11
   116          3
   117          3
   119          3
   121          3
   123          3
   124          3
   125          3
   126         16
   127         20
   129          3
   130          3
   131          3
   133          3
   134          3
   136          3
   137          3
   138          8
   139         51
   140         23
   142          3
   144          3
   145          3
   147          3
   149          3
   150         20
   151         51
   152        148
   153         71
   154          8
   155          3
   159          3
   160          3
   161          3
   162          3
   163          8
   164         10
   165         16
   166         20
   167         36
   168         20
   169          3
   171          3
   173          3
   174          3
   175          3
   176          3
   177         20
   178         20
   179         11
   180         88
   181         40
   182         31
   184          3
   185          3
   186          3
   187          3
   188          3
   190          3
   191          3
   192          3
   193          3
   194          3
   195         10
   196         20
   197          3
   198          3
   199          3
   200          3
   202          3
   203          3
   205          3
   206          3
   207          3
   209          3
   210          3
   211          3
   212          3
   213          3
   215          3
   216          3
   217          3
   218          3
   220          3
   222          3
   223          3
   224          3
   225          3
   226          3
   228          3
   229          3
   233          3
   234          3
   236          3
   238          3
   239          3
   240          3
   241          3
   242          3
   244          3
   249          3
   251          3
   252          3
   253          3
   255          3
   256          3
   257          3
   258          3
   263          3
   265          3
   266          3
   267          3
   268          3
   269          3
   271          3
   272          3
   273          3
   277          3
   278          3
   281          3
   282          3
   283        151
   284         60
   285        507
   286        110
   287         16
   288          3
   293          3
   295          3
   296          3
   298          3
   299          3
   300         11
   301         68
   302         16
   311          3
   312          3
   313          3
   314          3
   315          3
   318          3
   319         28
   320          8
   321          8
   322          3
   324          3
   330          3
   331          3
   332          3
   335          3
   353          3
   357          3
   358          3
   359          3
   361          3
   369          3
   372          3
   374          3
   375          3
   376          3
   389          3
   391          3
   404          3
   405         68
   406         20