##TITLE=Library Entry 24936
##JCAMP-DX=Revision 4.10 
##DATA TYPE=MASS SPECTRUM
##SAMPLE DESCRIPTION=Chemical Concepts
##NAMES=HP
##CAS NAME=Boron, (3,3-dimethylbutyl)(N-methylenemethanamine)bis(trifluorome
thyl)-, (t-4)-
##MOLFORM=C10H18BF6N
##CAS REGISTRY NO=141647-11-2
##MP= -300
##BP= -300
##MW= 277
##$RETENTION INDEX=0
##$CONDENSED SPECTRUM=NO
##NPOINTS= 127
##XYDATA=(XY..XY) 1 
    26          2
    27         40
    29        107
    30          6
    31          6
    33          0
    37          0
    38          1
    39         35
    40          1
    41        184
    42         51
    43         48
    44         34
    45         20
    46          3
    47          1
    48          1
    49          6
    50          0
    51          2
    52          1
    53         10
    54          3
    55         55
    56        682
    57        999
    58         42
    59          7
    60          6
    61          2
    62          1
    63          0
    65          1
    66          1
    67          2
    69         29
    70          7
    71         11
    72         13
    73         34
    74         62
    75         10
    76         16
    77          4
    78          0
    79          2
    80          7
    81         18
    82          1
    83          5
    84          1
    85          2
    86          4
    87          5
    88          2
    89          2
    90          5
    91        156
    92        635
    93         32
    94         11
    95          1
    96          0
    97          2
    98          2
    99          3
   100         11
   101         11
   102          7
   103          1
   104          0
   105          1
   106          0
   107          0
   109          0
   110          0
   111          2
   112          1
   113          2
   114          7
   115          3
   116         11
   117          0
   118          0
   119          1
   120          0
   122          1
   123          6
   124          3
   125          1
   126          0
   127          0
   128          0
   129          0
   130          0
   131          1
   132          0
   134          0
   141          1
   142          6
   143          0
   144          0
   145          0
   146          0
   150          0
   151          1
   157          3
   158         16
   159          2
   160          3
   161          2
   162          8
   163          0
   192          0
   208          1
   209          0
   250          0
   251          0
   260          0
   261         13
   262         51
   263          6
   264          1
   276          2
   277         10
   278          1