##TITLE=Library Entry 25327
##JCAMP-DX=Revision 4.10 
##DATA TYPE=MASS SPECTRUM
##SAMPLE DESCRIPTION=Japan AIST/NIMC Database- Spectrum MS-NW-2326
##NAMES=HP
##CAS NAME=Tetratriacontane
##MOLFORM=C34H70
##CAS REGISTRY NO=14167-59-0
##MP= -300
##BP= -300
##MW= 478
##$RETENTION INDEX=3400
##$CONDENSED SPECTRUM=NO
##NPOINTS= 137
##XYDATA=(XY..XY) 1 
    27         16
    28          5
    29         69
    30          1
    39          9
    40          2
    41        141
    42         40
    43        543
    44         17
    53          5
    54         16
    55        180
    56        109
    57        999
    58         43
    66          1
    67         18
    68         26
    69        138
    70         95
    71        711
    72         38
    79          2
    80          1
    81         10
    82         38
    83        134
    84         70
    85        505
    86         32
    95          6
    96         25
    97        120
    98         58
    99        213
   100         15
   109          3
   110         12
   111         67
   112         51
   113        154
   114         12
   123          1
   124          9
   125         39
   126         45
   127        119
   128         11
   137          1
   138          6
   139         20
   140         39
   141         98
   142          9
   152          5
   153         13
   154         35
   155         82
   156          9
   166          4
   167          9
   168         31
   169         68
   170          9
   180          3
   181          7
   182         27
   183         59
   184          8
   194          2
   195          5
   196         24
   197         52
   198          8
   208          2
   209          4
   210         21
   211         46
   212          7
   222          1
   223          3
   224         18
   225         41
   226          7
   236          1
   237          2
   238         16
   239         36
   240          6
   250          1
   251          2
   252         14
   253         32
   254          6
   265          1
   266         11
   267         27
   268          6
   280          9
   281         23
   282          5
   294          8
   295         19
   296          4
   308          7
   309         17
   310          4
   322          6
   323         14
   324          3
   336          5
   337         12
   338          3
   350          4
   351         10
   352          3
   364          3
   365          9
   366          3
   378          3
   379          9
   380          2
   392          2
   393          8
   394          2
   406          2
   407          7
   408          2
   420          1
   421          6
   422          2
   435          3
   436          1
   449          2
   478          8
   479          3