##TITLE=Library Entry 4265
##JCAMP-DX=Revision 4.10 
##DATA TYPE=MASS SPECTRUM
##SAMPLE DESCRIPTION=A.A.Kutin, Moscow, Russia
##NAMES=HP
##CAS NAME=Ethanol, 2-(4-tert-butylamino-6-chloro-1,3,5-triazin-2-yl)amino-
##MOLFORM=C9H16ClN5O
##CAS REGISTRY NO=141628-49-1
##MP= -300
##BP= -300
##MW= 245
##$RETENTION INDEX=0
##$CONDENSED SPECTRUM=NO
##NPOINTS= 164
##XYDATA=(XY..XY) 1 
    33         19
    34         40
    36        142
    38         44
    39        323
    41        999
    42        490
    43        621
    44        126
    45         95
    46          3
    47          1
    49          5
    50         10
    51         17
    52         20
    53        108
    55        464
    57        459
    58         51
    59          7
    60         17
    62        126
    64         32
    65         25
    67         69
    68        488
    69        152
    70         39
    71         20
    72         10
    73          7
    75          9
    76         11
    77         12
    78         18
    79         47
    81         85
    83        349
    84         26
    85         16
    87        122
    88         12
    89         24
    91        198
    93        147
    94         41
    95         32
    96         14
    97         25
    98          8
   100         39
   101          8
   102          6
   104        233
   106        110
   108         81
   109         23
   110         71
   112        128
   113         17
   115          7
   116         24
   117         16
   118         13
   119         39
   121         24
   122         25
   123         27
   124         39
   125          8
   126          3
   127          5
   129         41
   130         69
   131         14
   132         22
   134         30
   135         21
   136         10
   137          7
   138          2
   139          4
   140          3
   142          8
   143         10
   144         34
   146        635
   148        254
   149         28
   150         23
   152         74
   154         23
   155         22
   156          9
   158        796
   159        222
   160        242
   161         71
   162         13
   163          2
   164          5
   165          4
   166         13
   167          4
   169         24
   170         45
   171         51
   172         47
   173         16
   174         12
   175          2
   176          8
   177          1
   178          1
   179          1
   180          1
   181          2
   182          2
   183          2
   184         12
   185          5
   186         57
   188         51
   189        236
   190         59
   191         75
   192         16
   193          2
   194          5
   195          5
   196          6
   198         72
   199         55
   200         81
   201        113
   202        145
   203         47
   204         41
   205          6
   207          1
   209          0
   210          5
   212         40
   214        154
   215        309
   216         69
   217         96
   218         10
   219          1
   220          1
   221          2
   222          0
   223          0
   230        987
   231         96
   232        313
   233         24
   234          2
   245        237
   246         29
   247         71
   248          9
   249          1