##TITLE=Library Entry 32943
##JCAMP-DX=Revision 4.10 
##DATA TYPE=MASS SPECTRUM
##SAMPLE DESCRIPTION=Japan AIST/NIMC Database- Spectrum MS-NW-8696
##NAMES=HP
##CAS NAME=1,3-Isobenzofurandione, hexahydro-, trans-
##MOLFORM=C8H10O3
##CAS REGISTRY NO=14166-21-3
##MP= -300
##BP= -300
##MW= 154
##$RETENTION INDEX=0
##$CONDENSED SPECTRUM=NO
##NPOINTS= 59
##XYDATA=(XY..XY) 1 
    15          6
    17          2
    18          7
    26         21
    27        143
    28         57
    29         21
    31          1
    37          6
    38         19
    39        220
    40         47
    41        249
    42         19
    43          7
    44          3
    45          4
    49          2
    50         23
    51         38
    52         25
    53         78
    54        686
    55         55
    56          5
    57          1
    60          1
    61          1
    62          2
    63          6
    64          1
    65         18
    66         18
    67        999
    68         63
    69          4
    73          4
    74          3
    75          1
    77         19
    78          6
    79         40
    80         13
    81        108
    82        882
    83         58
    84          2
    97          1
    99          3
   108          4
   109          8
   110          2
   121          1
   126          6
   127          5
   128          7
   153          2
   154         35
   155          3