##TITLE=Library Entry 25370
##JCAMP-DX=Revision 4.10 
##DATA TYPE=MASS SPECTRUM
##SAMPLE DESCRIPTION=NIST Mass Spectrometry Data Center
##NAMES=HP
##CAS NAME=Nonacosane, 3-methyl-
##MOLFORM=C30H62
##CAS REGISTRY NO=14167-67-0
##MP= -300
##BP= -300
##MW= 422
##$RETENTION INDEX=2972
##$CONDENSED SPECTRUM=NO
##NPOINTS= 138
##XYDATA=(XY..XY) 1 
    27          8
    28          3
    29         46
    30          1
    39         13
    40          4
    41        193
    42         42
    43        471
    44         16
    53         10
    54         21
    55        262
    56        399
    57        999
    58         44
    65          2
    66          2
    67         36
    68         29
    69        210
    70        149
    71        680
    72         36
    79          4
    81         15
    82         36
    83        169
    84         56
    85        434
    86         27
    95          9
    96         22
    97        138
    98         31
    99        142
   100         12
   109          4
   110         10
   111         74
   112         21
   113         97
   114          9
   124          7
   125         34
   126         12
   127         64
   128          6
   138          4
   139         11
   140          7
   141         45
   142          5
   152          3
   153          5
   154          4
   155         32
   156          4
   166          2
   167          4
   168          3
   169         24
   170          3
   180          2
   181          3
   182          2
   183         18
   184          2
   194          2
   195          2
   196          2
   197         15
   198          2
   209          2
   210          2
   211         13
   212          2
   222          1
   223          1
   224          2
   225         10
   226          2
   236          1
   237          1
   238          1
   239          9
   240          2
   250          1
   252          1
   253          8
   254          2
   264          1
   266          1
   267          7
   268          1
   278          1
   279          1
   280          1
   281          6
   282          1
   292          1
   293          1
   294          1
   295          7
   296          1
   306          1
   307          1
   308          1
   309          6
   310          2
   320          1
   321          1
   322          1
   323          5
   324          1
   334          1
   335          1
   336          2
   337          4
   338          1
   350          1
   351          3
   352          1
   364         20
   365         31
   366          8
   367          1
   378          2
   379          3
   380          1
   392         93
   393        297
   394         85
   395         12
   406          1
   407         12
   408          4
   423          1