##TITLE=Library Entry 79477
##JCAMP-DX=Revision 4.10 
##DATA TYPE=MASS SPECTRUM
##SAMPLE DESCRIPTION=MUS39 A. Mujsce, AT&T Bell Labs., Murray Hill, N.J., US
A
##NAMES=HP
##CAS NAME=Propanoic acid, 2-(benzoylamino)-3-hydroxy-, 1-methylethyl ester
##MOLFORM=C13H17NO4
##CAS REGISTRY NO=141627-52-3
##MP= -300
##BP= -300
##MW= 251
##$RETENTION INDEX=0
##$CONDENSED SPECTRUM=NO
##NPOINTS= 114
##XYDATA=(XY..XY) 1 
    26          2
    27         29
    28         18
    29         10
    30          6
    31         20
    32          2
    35          1
    36          1
    37          1
    38          2
    39         21
    40          5
    41         43
    42         10
    43         86
    44         12
    45         17
    46          2
    49          1
    50         33
    51        113
    52         10
    55          3
    57          2
    58          2
    59          6
    60          3
    62          1
    63          2
    64          1
    65          2
    67          1
    70          1
    71          5
    72          2
    73          0
    74          8
    75          9
    76         28
    77        457
    78         36
    79          8
    87          1
    88          6
    89          8
    90          2
    91          4
    92          1
    93          0
   101          1
   102          1
   103          2
   105        999
   106         81
   107          6
   111          1
   116          2
   117          3
   118          2
   119          3
   120          1
   122         82
   123          7
   125          0
   128          1
   129          1
   131          2
   132          4
   133         10
   134         17
   135          7
   136          1
   137          0
   138          0
   140          0
   141          0
   146         42
   147          8
   148          1
   155          1
   157          1
   161         70
   162         11
   164        150
   165         15
   166          1
   172          1
   173          3
   174          2
   175          0
   179         34
   180          4
   181          1
   189          1
   190          1
   191          4
   192         28
   193          4
   195          0
   198          0
   199          0
   207          0
   208          0
   209          0
   210          0
   221         86
   222         14
   223          1
   225          0
   229          0
   230          0
   233         37
   234          6