##TITLE=Library Entry 43333
##JCAMP-DX=Revision 4.10 
##DATA TYPE=MASS SPECTRUM
##SAMPLE DESCRIPTION=H. Luftmann, Org. Chem. Inst., Westfalisch-Wilhelms Uni
v., Munster, Germany
##NAMES=HP
##CAS NAME=2-Cyclopentene-1-carboxylic acid, 1-(4-methyl-3-pentenyl)-2-[(tri
methylsilyl)oxy]-, ethyl ester
##MOLFORM=C17H30O3Si
##CAS REGISTRY NO=141694-42-0
##MP= -300
##BP= -300
##MW= 310
##$RETENTION INDEX=0
##$CONDENSED SPECTRUM=NO
##NPOINTS= 188
##XYDATA=(XY..XY) 1 
    38         12
    39        207
    40         86
    41        201
    42         34
    43        162
    44         80
    45        405
    46         32
    47         98
    48         11
    50         14
    51         32
    52         27
    53        112
    54         27
    55        130
    56         27
    57         17
    58         21
    59         71
    60         18
    61         52
    62         13
    63         17
    65         65
    66         32
    67        223
    68         85
    69         48
    70         20
    71         26
    72         25
    73        999
    74        232
    75        502
    76         93
    77        130
    78         37
    79        157
    80         46
    81         94
    82         43
    83         27
    85         18
    89         12
    91        135
    92         38
    93         50
    94         21
    95         47
    96         30
    97         17
    98         12
   100         13
   101         11
   102         12
   103         71
   104         32
   105        182
   106         60
   107         67
   108         35
   109         89
   110         41
   111         55
   112         20
   113         15
   115         42
   116         28
   117         66
   118         30
   119         88
   120         27
   121         45
   122         19
   123         44
   124         13
   125         25
   126         15
   127         13
   128         17
   129         43
   130         21
   131         85
   132         24
   133         34
   134         22
   135         20
   136         20
   137         19
   138         20
   139         33
   140         21
   141         22
   142         31
   143         47
   144         60
   145         67
   146        137
   147        285
   148         67
   149         35
   150         20
   151         27
   152         31
   153         48
   154         35
   155         67
   156         26
   157         28
   158         10
   159         20
   161         11
   162         11
   163         20
   164         27
   165         27
   166         40
   167         88
   168         52
   169        115
   170         35
   171         20
   172         12
   173         26
   174         16
   175         30
   176         15
   177         17
   178         14
   179         26
   180         57
   181        169
   182         97
   183        131
   184         80
   185        269
   186         64
   187         32
   188         12
   193         18
   194         10
   195         28
   196         10
   197         16
   199         16
   205         14
   207         15
   208         15
   209         15
   210         25
   211        117
   212         80
   213        981
   214        226
   215         74
   216         18
   220         32
   221         45
   222         17
   223         15
   225         11
   226         36
   227         40
   228        232
   229         69
   230         27
   231         10
   237        199
   238         45
   239        167
   240         40
   241         93
   242         20
   249         50
   250         15
   253         13
   254         16
   265         17
   267        163
   268         37
   269         13
   295        138
   296         35
   297         10
   310         45
   311         15