##TITLE=Library Entry 64705
##JCAMP-DX=Revision 4.10 
##DATA TYPE=MASS SPECTRUM
##SAMPLE DESCRIPTION=Humboldt-Universitat zu Berlin, Department of Chemistry
, Analytical Group
##NAMES=HP
##CAS NAME=6-Benzylamino-1-methyl-5-nitro-2-phenyl-1H-pyrimidin-4-thion
##MOLFORM=C18H16N4O2S
##CAS REGISTRY NO=141642-85-5
##MP= -300
##BP= -300
##MW= 352
##$RETENTION INDEX=0
##$CONDENSED SPECTRUM=NO
##NPOINTS= 271
##XYDATA=(XY..XY) 1 
    12          5
    13          1
    14          7
    15         23
    16         14
    17         84
    18        297
    19          1
    20          1
    26          6
    27         33
    28         73
    29         33
    30         59
    31          6
    32          6
    33          2
    34          1
    37          2
    38         10
    39        111
    40         12
    41         69
    42         19
    43         47
    44         73
    45         59
    46         27
    47         47
    48         11
    49          4
    50         35
    51        112
    52         36
    53         24
    54         15
    55         34
    56         12
    57         39
    58         15
    59         13
    60         23
    61          8
    62         12
    63         75
    64         27
    65        330
    66         40
    67         18
    68         10
    69         38
    70         77
    71         49
    72         19
    73         23
    74         32
    75         28
    76         83
    77        332
    78         44
    79         51
    80          9
    81         10
    82         17
    83         40
    84         85
    85         40
    86         75
    87         17
    88         19
    89         88
    90         41
    91        999
    92         81
    93          6
    94          6
    95          9
    96         16
    97         36
    98         42
    99         32
   100         11
   101         40
   102         43
   103        125
   104        454
   105        247
   106         56
   107         32
   108          6
   109          8
   110          5
   111         13
   112         15
   113         13
   114         15
   115         32
   116         32
   117         23
   118         18
   119          4
   120          3
   121         16
   122          5
   123          6
   124          4
   125          5
   126         36
   127         20
   128         79
   129         98
   130         46
   131         16
   132          8
   133          8
   134          4
   135          4
   136          5
   137          4
   138          3
   139          2
   140          5
   141         15
   142         19
   143         12
   144          8
   145          8
   146          6
   147          7
   148          5
   149          5
   150          3
   152          6
   153         22
   154         21
   155         66
   156         17
   157         47
   158         11
   159         31
   160         13
   161          5
   162          5
   163          6
   164          1
   165          3
   166          2
   167          3
   168         23
   169         12
   170         10
   171          8
   172          5
   173         10
   174         15
   175         11
   176          3
   177          2
   178          2
   180          4
   181          4
   182          5
   183          7
   184          4
   185         14
   186         14
   187         31
   188         36
   189         27
   190          7
   191          2
   192          2
   193          2
   194          3
   195          4
   196          3
   197         10
   198          3
   199          3
   200         16
   201         20
   202         25
   203         15
   204          8
   205          3
   206          1
   211          1
   212          4
   213          3
   214          6
   215          6
   216         12
   217          8
   218          5
   219          2
   220          1
   225          1
   227          1
   229         37
   230         12
   231         80
   232         16
   233          5
   234          1
   239          1
   240          1
   241          3
   242          1
   243          3
   244          2
   246        469
   247         72
   248         29
   249          4
   256         13
   257         22
   258         17
   259         31
   260          9
   261          3
   262          1
   263          9
   264          4
   265          1
   266          0
   270         22
   271         40
   272         16
   273         11
   274          5
   275          2
   276          0
   277          6
   278          3
   279          1
   283          1
   284          0
   285          1
   286          1
   287          8
   288         32
   289         23
   290         24
   291          5
   292          2
   293          1
   301          1
   302          1
   304        270
   305        212
   306         57
   307         18
   308          2
   317         15
   318         16
   319         22
   320         14
   321          5
   322         20
   323          4
   324          1
   333          0
   335        539
   336        125
   337         39
   338          8
   339          1
   349          0
   352         19
   353          4
   354          2