##TITLE=Library Entry 8268
##JCAMP-DX=Revision 4.10 
##DATA TYPE=MASS SPECTRUM
##SAMPLE DESCRIPTION=Exported from NIST MS Search
##NAMES=HP
##CAS NAME=Acetamide, N-2-norbornen-7-yl-, syn-
##MOLFORM=C9H13NO
##CAS REGISTRY NO=14174-01-7
##MP= -300
##BP= -300
##MW= 151
##$RETENTION INDEX=0
##$CONDENSED SPECTRUM=NO
##NPOINTS= 46
##XYDATA=(XY..XY) 1 
    41        130
    42         80
    43        999
    44        100
    45         30
    50         40
    51         60
    52         60
    53        140
    54         50
    55         80
    56         60
    57         30
    58         20
    59         30
    60        710
    61         30
    62         20
    63         30
    65         70
    66         60
    67         70
    68         30
    72         80
    73         60
    77        120
    78         50
    79        100
    80        160
    81        200
    82         60
    86         30
    91        660
    92        670
    93         80
    94        230
    95         30
   106         30
   108        210
   109        140
   110         20
   123         10
   136         20
   137         10
   151        250
   152         40