##TITLE=Library Entry 10238
##JCAMP-DX=Revision 4.10 
##DATA TYPE=MASS SPECTRUM
##SAMPLE DESCRIPTION=Chemical Concepts
##NAMES=HP
##CAS NAME=2-Hexanone, 6-phenyl-
##MOLFORM=C12H16O
##CAS REGISTRY NO=14171-89-2
##MP= -300
##BP= -300
##MW= 176
##$RETENTION INDEX=0
##$CONDENSED SPECTRUM=NO
##NPOINTS= 97
##XYDATA=(XY..XY) 1 
    25          4
    26         32
    27         70
    28        233
    29         40
    31         61
    36          0
    37          3
    38          6
    39         95
    41         61
    42         22
    43        999
    45         28
    47          3
    50         26
    51         68
    52         23
    53         14
    54          5
    55         20
    56          3
    57         25
    58        241
    59         56
    60          3
    61          5
    62          5
    63         29
    64          9
    65        163
    66         11
    67          5
    69          8
    70          7
    71        285
    72         26
    73         12
    74          5
    75         20
    76         10
    77         86
    78         58
    79         57
    80          9
    81          4
    83          6
    84         15
    85        198
    86         12
    87          3
    88          3
    89         29
    90         10
    91        783
    92        203
    93         16
    94          4
    95          2
    97          2
    98          5
   101          3
   102         10
   103         57
   104         55
   105         78
   106         18
   107          3
   115         52
   116         20
   117        565
   118        645
   119         78
   120          5
   127          2
   128         15
   129        153
   130         17
   131          9
   132         41
   133         20
   134         11
   136         28
   137          2
   143         38
   144          4
   147         11
   148          5
   154          2
   157          9
   158         75
   159         12
   160          6
   161          6
   176        232
   177         31
   178          3