##TITLE=Library Entry 98072
##JCAMP-DX=Revision 4.10 
##DATA TYPE=MASS SPECTRUM
##SAMPLE DESCRIPTION=V.Zaikin,Inst.Petrochem.Synth.,RAS,Moscow
##NAMES=HP
##CAS NAME=o-Toluic acid, 3-phenylpropyl ester
##MOLFORM=C17H18O2
##CAS REGISTRY NO=141809-63-4
##MP= -300
##BP= -300
##MW= 254
##$RETENTION INDEX=0
##$CONDENSED SPECTRUM=NO
##NPOINTS= 82
##XYDATA=(XY..XY) 1 
    25          3
    26         11
    27         39
    28          3
    29         20
    30          4
    39         99
    40         10
    41         71
    42          3
    43         46
    44          3
    50         29
    51         61
    52         20
    53          9
    54          3
    55         28
    56         11
    57          9
    58          2
    59          6
    61          5
    62         18
    63         43
    64         17
    65        129
    66          9
    67          2
    69         11
    70          7
    71         25
    73          4
    74          5
    75         12
    76         13
    77         59
    78         26
    79         30
    81          4
    82          2
    83          5
    84          7
    85         30
    86          5
    87          4
    88          3
    89         41
    90         65
    91        521
    92         64
    93          6
    95          3
    97          3
    98          6
    99          4
   101          9
   102         17
   103         21
   104         31
   105         35
   106          9
   107          6
   108          2
   111          3
   112          3
   113          2
   115         28
   116         54
   117        285
   118        999
   119        440
   120         42
   121          4
   130         22
   131          7
   132          2
   133          3
   134          7
   135         29
   136         55
   137          9