##TITLE=Library Entry 85757
##JCAMP-DX=Revision 4.10 
##DATA TYPE=MASS SPECTRUM
##SAMPLE DESCRIPTION=NIST Mass Spectrometry Data Center, 2010
##NAMES=HP
##CAS NAME=[4-({[tert-Butyl(dimethyl)silyl]oxy}methyl)cyclohexyl]methanol
##MOLFORM=C14H30O2Si
##CAS REGISTRY NO=141836-50-2
##MP= -300
##BP= -300
##MW= 258
##$RETENTION INDEX=0
##$CONDENSED SPECTRUM=NO
##NPOINTS= 110
##XYDATA=(XY..XY) 1 
    27          4
    28          1
    29         15
    31         21
    32          1
    39         10
    40          2
    41         38
    42          3
    43         38
    44          3
    45         17
    46          1
    47         14
    48          1
    49          1
    51          1
    53         10
    54          5
    55         71
    56          6
    57         21
    58         16
    59         41
    60          6
    61         18
    62          1
    63          1
    64          1
    65          6
    67        441
    68         26
    69         13
    70          2
    71          4
    73        114
    74         16
    75        310
    76         23
    77         31
    78          5
    79         63
    80         11
    81        121
    82          9
    83          8
    84          1
    85         10
    86          1
    87          4
    88         14
    89         46
    90          4
    91         25
    92          4
    93         43
    94         22
    95         19
    96          3
    97          8
    98          1
    99         11
   100          3
   101          8
   102          1
   103          2
   105        111
   106         10
   107         52
   108         12
   109        999
   110         90
   111          6
   112          1
   113          5
   114          1
   115          8
   116          1
   117          2
   119          2
   123          1
   125          6
   126          1
   127          9
   128          1
   129          1
   131          2
   133          1
   135          1
   137          3
   138          1
   139          2
   141          2
   145          1
   153          4
   155         22
   156          3
   157          1
   163          1
   165          2
   169          4
   170          2
   171          1
   183         22
   184          4
   185          2
   199          1
   201          9
   202          1
   258          3