##TITLE=Library Entry 49470
##JCAMP-DX=Revision 4.10 
##DATA TYPE=MASS SPECTRUM
##SAMPLE DESCRIPTION=Chemical Concepts
##NAMES=HP
##CAS NAME=6-Methoxyhexahydrocyclopenta[b]furan-2-one
##MOLFORM=C8H12O3
##CAS REGISTRY NO=14181-29-4
##MP= -300
##BP= -300
##MW= 156
##$RETENTION INDEX=0
##$CONDENSED SPECTRUM=NO
##NPOINTS= 110
##XYDATA=(XY..XY) 1 
    33         14
    35          1
    36          0
    37         33
    38        104
    39        798
    40        169
    41        680
    42        193
    43        161
    44         38
    45        226
    46          5
    47         14
    48          4
    49         11
    50         88
    51        148
    52        122
    53        190
    54         94
    55        214
    56         54
    57         70
    58        650
    59         98
    60          5
    61         16
    62         17
    63         43
    64         10
    65        118
    66         92
    67        394
    68        277
    69         79
    70         30
    71        555
    72        140
    73         19
    74         19
    75         35
    76          6
    77        186
    78        110
    79        980
    80        999
    81        166
    82         67
    83         32
    84         30
    85         32
    86          6
    87         13
    88          3
    91          1
    93          2
    94          8
    95        143
    96         87
    97         54
    98         32
    99         37
   100        126
   101          9
   102          2
   103          4
   104          1
   105          5
   106          3
   107          2
   108          5
   109          3
   110          4
   111          7
   112         16
   113         15
   114         67
   115          4
   116          1
   117          1
   119          0
   120          0
   121          1
   122          1
   123          4
   124        184
   125         17
   126         23
   127          6
   128         17
   129          1
   130          0
   131          3
   132          0
   133          2
   134          1
   135          1
   136          0
   137          1
   138          1
   139          0
   140          1
   141          0
   152          0
   153          0
   154          0
   156        162
   157         14
   159          0