##TITLE=Library Entry 52915
##JCAMP-DX=Revision 4.10 
##DATA TYPE=MASS SPECTRUM
##SAMPLE DESCRIPTION=H. Fales, LC, NHLBI, NIH, Bethesda, MD 20892
##NAMES=HP
##CAS NAME=Clivonine, acetate(ester)
##MOLFORM=C19H21NO6
##CAS REGISTRY NO=14199-44-1
##MP= -300
##BP= -300
##MW= 359
##$RETENTION INDEX=0
##$CONDENSED SPECTRUM=NO
##NPOINTS= 232
##XYDATA=(XY..XY) 1 
    51         14
    53         24
    54         24
    55        125
    56         21
    57         55
    58         10
    59          4
    60         13
    61          9
    62          7
    63         16
    64          4
    65         18
    66          7
    67         47
    68         37
    69         38
    70         15
    71         13
    72          2
    73         10
    74          6
    75         12
    76         14
    77         25
    78         14
    79         14
    80         15
    81         40
    82        398
    83        999
    84         66
    85          7
    86          5
    87          7
    88          7
    89         19
    90          5
    91         12
    92          4
    93          8
    94         30
    95         24
    96        599
    97         68
    98         31
    99          5
   100          3
   101          6
   102          8
   103         10
   104          7
   105          7
   106          7
   107          7
   108          9
   109         12
   110          9
   111          6
   112          4
   113          5
   114          7
   115         26
   116          8
   117          9
   118          5
   119          5
   120         21
   121          7
   122         11
   123          7
   124         11
   125          4
   126         39
   127         11
   128          9
   129          6
   130          5
   131          6
   132          4
   133         16
   134         16
   135         15
   136          5
   137          6
   138          3
   139          5
   140          3
   141          6
   142          3
   143          6
   144          3
   145          6
   146          6
   147          7
   148          7
   149          7
   150          3
   151          3
   152          4
   153          3
   154          3
   155          4
   156          2
   157          2
   158          2
   159          5
   160          4
   161          5
   162         21
   163          6
   164          2
   165          2
   166         11
   167          4
   168          3
   169          4
   170          2
   171          3
   172          4
   173         11
   174          9
   175          7
   176          2
   177          4
   178          2
   179          2
   180          1
   181          2
   182          2
   183          2
   184          3
   185          4
   186          2
   187          3
   188          7
   189          4
   190          4
   191          4
   192          1
   193          1
   194          1
   195          2
   196          2
   197          2
   198          2
   199          2
   200          2
   201          3
   202          4
   203          4
   204          5
   205          1
   206          0
   207          0
   208          0
   209          1
   210          1
   211          1
   212          3
   213          3
   214          3
   215          2
   216          8
   217          4
   218          1
   219          0
   220          1
   221          0
   222          0
   223          0
   224          1
   225          2
   226          3
   227          3
   228          8
   229          3
   230          1
   231          0
   232          1
   236          0
   237          0
   238          1
   239          1
   240          2
   241          2
   242          3
   243          1
   244          1
   245          0
   251          1
   252          1
   253          1
   254          9
   255          4
   256          4
   257          1
   258          0
   259          0
   262          2
   263          1
   264          1
   265          1
   266          1
   267          1
   268          0
   269          0
   270          0
   271          0
   272          1
   273          0
   280          5
   281          1
   282          0
   283          0
   284          1
   297          0
   298          3
   299         35
   300         25
   301          5
   302          0
   314          0
   316         31
   317         11
   318          2
   358          1
   359        153
   360         36
   361          6
   362          0