##TITLE=Library Entry 44022
##JCAMP-DX=Revision 4.10 
##DATA TYPE=MASS SPECTRUM
##SAMPLE DESCRIPTION=Chemical Concepts
##NAMES=HP
##CAS NAME=D-Glucitol, 6TMS derivative
##MOLFORM=C24H62O6Si6
##CAS REGISTRY NO=14199-80-5
##MP= -300
##BP= -300
##MW= 614
##$RETENTION INDEX=1980
##$CONDENSED SPECTRUM=NO
##NPOINTS= 246
##XYDATA=(XY..XY) 1 
    25          0
    28          5
    29          1
    31          1
    35          0
    41          8
    43          4
    44          3
    45         44
    46          2
    47          2
    53          1
    54          2
    55          3
    57          0
    58          4
    59         20
    60          1
    61          2
    66          0
    69          3
    70          0
    71          1
    73        999
    74         92
    75         52
    76          1
    81          0
    83          4
    85          1
    86          0
    87          4
    88          4
    89         24
    90          1
    97          3
    98          0
    99          2
   101         15
   103        221
   104         21
   105          9
   110          0
   111          1
   113          3
   114          0
   115          3
   116          6
   117        112
   118          9
   119          7
   125          0
   126          0
   127          2
   129         60
   130          7
   131         22
   132          4
   133         54
   134          7
   135          4
   139          0
   141          1
   142          1
   143         12
   144          1
   145          4
   147        350
   148         54
   149         34
   150          4
   151          1
   153          0
   154          0
   155          3
   156          0
   157         68
   158          7
   159          5
   160          0
   161          4
   162          0
   163          6
   164          1
   167          0
   168          0
   169          3
   170          0
   171          0
   173          1
   175          8
   176          1
   177          4
   178          0
   179          0
   183          9
   184          1
   185          0
   187          1
   189         51
   190         15
   191         64
   192         11
   193          5
   194          1
   195          0
   197          0
   199          0
   201          2
   202          2
   203          8
   204         68
   205        326
   206         56
   207         28
   208          4
   209          1
   211          0
   213          0
   214          0
   215          3
   217        250
   218         57
   219         26
   220          3
   221         16
   222          3
   223          1
   224          0
   225          0
   229         40
   230         12
   231         29
   232          7
   233          3
   234          0
   235          0
   237          0
   239          2
   240          0
   241          0
   243          3
   244          1
   245          0
   247          4
   248          1
   249          0
   255         15
   256          5
   257          3
   258          0
   259         11
   260          2
   261          1
   263          0
   264          0
   265          6
   266          1
   267          0
   273          0
   274          0
   275          0
   277         26
   278          9
   279          5
   280          1
   281          0
   289          0
   290          0
   291         23
   292          6
   293          4
   294          1
   303          0
   305         32
   306         17
   307        134
   308         38
   309         18
   310          4
   311          1
   312          0
   313          1
   314          0
   315          0
   316          0
   317          2
   319        611
   320        192
   321        103
   322         21
   323          6
   324          0
   329          4
   330          0
   331         47
   332         13
   333          8
   334          2
   335          0
   336          0
   344          0
   345         40
   346         15
   347          7
   348          2
   349          0
   350          0
   361          0
   377          0
   379          0
   391          0
   393          1
   394          0
   395          0
   405          0
   406          0
   407          0
   408          2
   409         11
   410          4
   411          2
   412          0
   413          0
   419         30
   420         11
   421         52
   422         19
   423          8
   424          2
   425          0
   433          0
   434          4
   435          2
   436          1
   497          1
   498          0
   499          0
   509          0
   510          0
   511          0
   512          0
   524          3
   525          1
   526          0
   527          0