##TITLE=Library Entry 42003
##JCAMP-DX=Revision 4.10 
##DATA TYPE=MASS SPECTRUM
##SAMPLE DESCRIPTION=NIST Mass Spectrometry Data Center, 2010
##NAMES=HP
##CAS NAME=Xylitol, 5TMS derivative
##MOLFORM=C20H52O5Si5
##CAS REGISTRY NO=14199-72-5
##MP= -300
##BP= -300
##MW= 512
##$RETENTION INDEX=1739
##$CONDENSED SPECTRUM=NO
##NPOINTS= 194
##XYDATA=(XY..XY) 1 
    15          1
    26          1
    27          1
    28          2
    29          3
    31          1
    39          2
    41         13
    42          1
    43          7
    44         10
    45         50
    46          3
    47          6
    49          1
    52          1
    53          3
    54          3
    55          5
    56          1
    57          3
    58          8
    59         35
    60          3
    61          4
    63          1
    65          1
    66          3
    67          2
    68          1
    69          6
    70          3
    71          3
    72         27
    73        999
    74        130
    75        103
    76          5
    77          9
    78          1
    81          7
    82          1
    83          3
    85          3
    87          5
    88          6
    89         24
    90          2
    91          1
    93          1
    95          1
    97          1
    99          3
   101         26
   102          5
   103        780
   104         77
   105         30
   106          1
   111          1
   113          7
   114          1
   115          5
   116         19
   117        155
   118         16
   119         11
   120          1
   125          1
   127          3
   128          1
   129        230
   130         28
   131         35
   132          5
   133         75
   134         10
   135          7
   136          1
   141          2
   142          2
   143         12
   144          1
   145          7
   146          2
   147        503
   148         79
   149         50
   150          5
   151          2
   153          1
   155          5
   156          1
   157         25
   158          3
   159          5
   160          1
   161          7
   162          1
   163          7
   164          1
   165          1
   169          1
   170          1
   171          4
   172          1
   173          2
   175         15
   176          3
   177         10
   178          2
   179          1
   185          1
   187          1
   189        106
   190         25
   191         76
   192         13
   193          6
   194          1
   201          3
   202          1
   203         42
   204        116
   205        489
   206        100
   207         47
   208          6
   209          2
   213          1
   214          3
   217        732
   218        172
   219         76
   220         13
   221         18
   222          5
   223          3
   229         22
   230          6
   231          4
   232          1
   233          1
   237          1
   242          2
   243         61
   244         14
   245          7
   246          1
   247          2
   249          1
   265          2
   266          1
   277         57
   278         18
   279         10
   280          2
   281          1
   291         15
   292          5
   293          3
   294          1
   303          1
   304          1
   305          8
   306         18
   307        337
   308         99
   309         49
   310         10
   311          3
   317         24
   318         10
   319        196
   320         61
   321         29
   322          5
   323          2
   331          1
   332         15
   333          8
   334          3
   335          1
   351          1
   395          6
   396          2
   397          1
   407          3
   408          1
   409          2
   410          1
   422          8
   423          3
   424          2