##TITLE=Library Entry 46762
##JCAMP-DX=Revision 4.10 
##DATA TYPE=MASS SPECTRUM
##SAMPLE DESCRIPTION=Chemical Concepts
##NAMES=HP
##CAS NAME=2,2,2-Trichloro-1-(2-nitrophenylthioamino)ethanol
##MOLFORM=C8H7Cl3N2O3S
##CAS REGISTRY NO=141975-72-6
##MP= -300
##BP= -300
##MW= 316
##$RETENTION INDEX=0
##$CONDENSED SPECTRUM=NO
##NPOINTS= 75
##XYDATA=(XY..XY) 1 
    35         48
    36        119
    37        150
    38        337
    39        635
    40        224
    41         83
    42         80
    43        312
    44        151
    45        443
    46        193
    47        179
    48        183
    49         73
    50        747
    51        587
    52        379
    53        194
    54         63
    55         56
    57         85
    58         83
    59         12
    61        145
    62        192
    63        466
    64        316
    65        237
    66         69
    67         31
    69        957
    70        581
    71        103
    73         50
    74        319
    75        177
    76        232
    77        999
    78        473
    79        597
    80        129
    81        159
    82        312
    83         66
    84         54
    85         55
    90         56
    91        124
    92         64
    93         75
    94         65
    95        317
    96        694
    97        207
    98        189
   105        106
   106        185
   107         63
   108        165
   109         15
   110         15
   112         13
   113         60
   117         18
   119         20
   121         11
   122         45
   123         10
   134         26
   135         46
   138         43
   146          7
   154         18
   198         30