##TITLE=Library Entry 43352
##JCAMP-DX=Revision 4.10 
##DATA TYPE=MASS SPECTRUM
##SAMPLE DESCRIPTION=O A MAMER, MCGILL UNIVERSITY, MONTRE
##NAMES=HP
##CAS NAME=Arabinitol, 5TMS derivative
##MOLFORM=C20H52O5Si5
##CAS REGISTRY NO=14199-73-6
##MP= -300
##BP= -300
##MW= 512
##$RETENTION INDEX=1737
##$CONDENSED SPECTRUM=NO
##NPOINTS= 94
##XYDATA=(XY..XY) 1 
    26          5
    29          5
    41          4
    43         11
    44         14
    45         57
    46          5
    47          7
    54          5
    55          7
    58          9
    59         30
    61          5
    69          5
    72         23
    73        999
    74         89
    75         49
    76          5
    81          5
    87          5
    88          5
    89         18
   101         18
   103        276
   104         27
   105         13
   113          6
   115          5
   117         84
   118          9
   119          8
   121          6
   122          6
   123          7
   124          8
   129         86
   130         13
   131         23
   133         48
   134          8
   135          5
   137         11
   138         11
   143         15
   145          5
   147        209
   148         36
   149         24
   150          6
   157         10
   161          6
   171          5
   175         13
   176         14
   177          6
   179         17
   189         34
   190         11
   191         26
   192          7
   194          5
   203         30
   204         64
   205        174
   206         40
   207         10
   211          8
   217        286
   218         63
   219         41
   220          5
   221          7
   222         16
   226         49
   229          7
   242          7
   243         24
   244          7
   249          9
   263          5
   277         19
   278          7
   291         11
   306          7
   307        103
   308         36
   309         15
   317          9
   318          5
   319         81
   320         18
   321         17
   332          6