##TITLE=Library Entry 16919
##JCAMP-DX=Revision 4.10 
##DATA TYPE=MASS SPECTRUM
##SAMPLE DESCRIPTION=A.A.Kutin, Moscow, Russia
##NAMES=HP
##CAS NAME=Carbazole-6-carboxylic acid, 1,2,3,4-tetrahydro-1-oxo-, ethyl est
er
##MOLFORM=C15H15NO3
##CAS REGISTRY NO=14192-65-5
##MP= -300
##BP= -300
##MW= 257
##$RETENTION INDEX=0
##$CONDENSED SPECTRUM=NO
##NPOINTS= 140
##XYDATA=(XY..XY) 1 
    37         12
    38         82
    39        376
    40         55
    41        401
    42        397
    43        700
    44         68
    45        999
    46         24
    47          2
    49          2
    50        125
    51        236
    52        308
    53        101
    54         35
    55        389
    56         31
    57         16
    60          1
    61         18
    62         88
    63        245
    64        105
    65         95
    66         14
    67          4
    68          3
    69          8
    71          9
    73          3
    74        184
    75        310
    76        187
    77        246
    78        151
    79         10
    80          2
    83          5
    85          8
    86         46
    87         97
    88         79
    89        140
    90         35
    91         31
    92         15
    95          1
    97          7
    98         45
    99         64
   100        136
   101        398
   102        234
   103         68
   104         95
   105         12
   106          5
   110          6
   111         11
   112         15
   113         60
   114         78
   115        149
   116         69
   117         37
   118         16
   119          0
   122          1
   123          3
   124          5
   125         21
   126        136
   127        480
   128        633
   129        366
   130         81
   131         10
   132          2
   133          8
   137          3
   138          7
   139         23
   140         66
   141         45
   142         58
   143         38
   144         15
   145          6
   146          8
   148          1
   151          4
   152         27
   153         57
   154        285
   155        183
   156        317
   157         53
   158          7
   164          1
   165          1
   166         10
   167         12
   168         11
   169          9
   170         38
   171          9
   172         33
   173        106
   174         33
   175          5
   182         27
   183         38
   184        177
   185         30
   186          8
   187         28
   188         13
   198          1
   199          3
   200         78
   201        198
   202         29
   203          3
   210          1
   212        403
   213         64
   214         23
   215         28
   216          8
   228         57
   229        102
   230         17
   242         33
   243          2
   256         20
   257        239
   258         43
   259          8