##TITLE=Library Entry 83487
##JCAMP-DX=Revision 4.10 
##DATA TYPE=MASS SPECTRUM
##SAMPLE DESCRIPTION=Exported from NIST MS Search
##NAMES=HP
##CAS NAME=Carbamodithioic acid, [(4-hydroxyphenyl)methyl]-, (4-hydroxypheny
l)methyl ester
##MOLFORM=C15H15NO2S2
##CAS REGISTRY NO=14191-94-7
##MP= -300
##BP= -300
##MW= 305
##$RETENTION INDEX=0
##$CONDENSED SPECTRUM=NO
##NPOINTS= 23
##XYDATA=(XY..XY) 1 
    49         28
    50        164
    76        444
    77        363
    78        115
    96         45
    97        146
    98         35
   106        272
   107        999
   108        244
   121         21
   122        237
   123        181
   124         28
   139         62
   140        164
   141         35
   165         48
   246        251
   247         45
   248         24
   305         21