##TITLE=Library Entry 84378
##JCAMP-DX=Revision 4.10 
##DATA TYPE=MASS SPECTRUM
##SAMPLE DESCRIPTION=NIST Mass Spectrometry Data Center
##NAMES=HP
##CAS NAME=Benzeneacetic acid, 4-hydroxy-, methyl ester
##MOLFORM=C9H10O3
##CAS REGISTRY NO=14199-15-6
##MP= -300
##BP= -300
##MW= 166
##$RETENTION INDEX=1453
##$CONDENSED SPECTRUM=NO
##NPOINTS= 63
##XYDATA=(XY..XY) 1 
    15         18
    26          4
    27         18
    29         14
    30          3
    31          5
    37          2
    38          8
    39         39
    40          3
    41          3
    42          3
    43          3
    44          1
    45          1
    49          2
    50         32
    51         73
    52         45
    53         51
    55         18
    59         24
    61          3
    62          9
    63         20
    64          4
    65          7
    66          4
    67          3
    68          1
    69          1
    74          5
    75          3
    76          4
    77        180
    78         70
    79         23
    80          2
    81          7
    86          1
    87          1
    89          4
    90          1
    91          3
    92          1
    93          1
    94          3
    95          2
   105         17
   106         18
   107        999
   108         96
   109          6
   121         12
   122          2
   123          5
   134          5
   135          3
   137          2
   151          1
   166        239
   167         23
   168          2