##TITLE=Library Entry 8258
##JCAMP-DX=Revision 4.10 
##DATA TYPE=MASS SPECTRUM
##SAMPLE DESCRIPTION=Japan AIST/NIMC Database- Spectrum MS-NW-8692
##NAMES=HP
##CAS NAME=Isopropyl palmitate
##MOLFORM=C19H38O2
##CAS REGISTRY NO=142-91-6
##MP= -300
##BP= -300
##MW= 298
##$RETENTION INDEX=2023
##$CONDENSED SPECTRUM=NO
##NPOINTS= 220
##XYDATA=(XY..XY) 1 
    14          2
    15          3
    16          2
    17          3
    18         10
    26          5
    27         68
    28         33
    29        140
    30          5
    31          6
    32          8
    34          1
    36          1
    37          2
    38          3
    39         52
    40         14
    41        421
    42        128
    43        999
    44         88
    45         23
    46          1
    48          1
    50          1
    51          2
    52          1
    53         16
    54         33
    55        402
    56        131
    57        757
    58         44
    59        198
    60        859
    61        522
    62         14
    63          3
    64          5
    65          4
    66          5
    67         76
    68         46
    69        293
    70        103
    71        490
    72         29
    73        416
    74        101
    75          7
    76          1
    77          5
    78          3
    79         18
    80          9
    81         96
    82         60
    83        287
    84        135
    85        309
    86         23
    87        169
    88         32
    89         16
    90          1
    91          5
    92          2
    93         18
    94          9
    95        102
    96         54
    97        240
    98        161
    99        105
   100         11
   101         89
   102        724
   103        118
   104          9
   105          4
   106          1
   107         16
   108          6
   109         63
   110         30
   111        121
   112         49
   113         60
   114          9
   115        127
   116         55
   117         10
   118          1
   119          2
   120          1
   121         23
   122          6
   123         40
   124         18
   125         70
   126         20
   127         40
   128          6
   129        272
   130         39
   131          7
   132          1
   133          2
   134          2
   135         22
   136          5
   137         23
   138         14
   139         41
   140         12
   141         24
   142          3
   143         85
   144         22
   145          5
   147          1
   148          2
   149         17
   150          3
   151         10
   152         11
   153         24
   154          9
   155         12
   156          2
   157        116
   158         22
   159          4
   161          1
   163         11
   164          2
   165          8
   166          6
   167         15
   168          9
   169          5
   170          1
   171        114
   172         19
   173          5
   177          6
   178          1
   179          3
   180          3
   181          9
   182          4
   183          3
   185        124
   186         18
   187          4
   191          3
   192          3
   193          2
   194         14
   195          9
   196         11
   197          6
   198          1
   199         61
   200         10
   201          4
   205          2
   207          1
   208          1
   209          3
   210          2
   211          4
   213        119
   214         18
   215          3
   218          1
   219         13
   220          7
   221          6
   222          3
   223          3
   224          2
   225          2
   227         46
   228         12
   229          4
   233          1
   235          1
   236          8
   237         19
   238          5
   239        183
   240         32
   241         25
   242          7
   243          3
   247          2
   248          1
   249          1
   251          1
   253          6
   254          2
   255         12
   256        387
   257        255
   258         40
   259          4
   264          2
   265          3
   266          1
   267         24
   268          5
   269          1
   270         18
   271         10
   272          2
   283          2
   298          6
   299          3