##TITLE=Library Entry 7537
##JCAMP-DX=Revision 4.10 
##DATA TYPE=MASS SPECTRUM
##SAMPLE DESCRIPTION=Japan AIST/NIMC Database- Spectrum MS-NW- 667
##NAMES=HP
##CAS NAME=Acetic acid, hexyl ester
##MOLFORM=C8H16O2
##CAS REGISTRY NO=142-92-7
##MP= -300
##BP= -300
##MW= 144
##$RETENTION INDEX=1011
##$CONDENSED SPECTRUM=NO
##NPOINTS= 65
##XYDATA=(XY..XY) 1 
    14          8
    15         49
    16          1
    17          4
    18         21
    26          6
    27         90
    28         17
    29         92
    30          2
    31         15
    32          1
    37          1
    38          3
    39         55
    40         12
    41        201
    42        224
    43        999
    44         35
    45          9
    50          2
    51          3
    52          1
    53         10
    54         20
    55        292
    56        573
    57         40
    58         39
    59          9
    60          3
    61        246
    62          6
    63          1
    65          1
    67         10
    68          7
    69        169
    70         17
    71         11
    72          6
    73        113
    74          9
    75          1
    77          1
    79          1
    81          2
    82         10
    83         36
    84        214
    85         16
    86          6
    87         12
    88          2
    97          5
    98          3
    99          5
   100          2
   101         13
   102          2
   111          3
   112          2
   115          1
   116          3