##TITLE=Library Entry 19605
##JCAMP-DX=Revision 4.10 
##DATA TYPE=MASS SPECTRUM
##SAMPLE DESCRIPTION=Japan AIST/NIMC Database- Spectrum MS-NW-3272
##NAMES=HP
##CAS NAME=Hexanoyl chloride
##MOLFORM=C6H11ClO
##CAS REGISTRY NO=142-61-0
##MP= -300
##BP= -300
##MW= 134
##$RETENTION INDEX=0
##$CONDENSED SPECTRUM=NO
##NPOINTS= 97
##XYDATA=(XY..XY) 1 
    13          2
    14          7
    15         37
    16          1
    25          4
    26         70
    27        587
    28         90
    29        441
    30         11
    31          9
    32          2
    33          2
    34          2
    35         11
    36         75
    37         20
    38         45
    39        356
    40         65
    41        841
    42        431
    43        965
    44         34
    45         12
    46          1
    47          1
    48          4
    49         12
    50         23
    51         31
    52          9
    53         47
    54         30
    55        999
    56        269
    57        450
    58         23
    59          4
    60        126
    61         14
    62          8
    63         46
    64          3
    65         16
    66          2
    67          9
    68          8
    69        104
    70        233
    71        401
    72         23
    73         56
    74          9
    75          4
    76          3
    77         34
    78        340
    79         52
    80        106
    81         22
    82          5
    83         40
    84          3
    85          2
    86          1
    87         16
    88          1
    89          2
    90          2
    91        120
    92         10
    93         40
    94          3
    95          1
    96          1
    97         12
    98        234
    99        836
   100         53
   101          4
   104          1
   105         61
   106         57
   107         19
   108         16
   109          1
   111          1
   115          1
   116          1
   117          2
   118          1
   119          3
   120          1
   121          1
   134          1
   135          1