##TITLE=Library Entry 30952
##JCAMP-DX=Revision 4.10 
##DATA TYPE=MASS SPECTRUM
##SAMPLE DESCRIPTION=Exported from NIST MS Search
##NAMES=HP
##CAS NAME=Hexanoic acid
##MOLFORM=C6H12O2
##CAS REGISTRY NO=142-62-1
##MP= -300
##BP= -300
##MW= 116
##$RETENTION INDEX=990
##$CONDENSED SPECTRUM=NO
##NPOINTS= 64
##XYDATA=(XY..XY) 1 
    14          1
    15          7
    16          1
    17          2
    18          7
    19          1
    25          1
    26         10
    27        124
    28         33
    29        105
    30         25
    31         13
    32          1
    37          2
    38          6
    39         75
    40         12
    41        196
    42         84
    43        155
    45        109
    46          4
    53         11
    54          7
    55        106
    56         95
    57         99
    58          6
    59         13
    60        999
    61        110
    62          7
    63          2
    64          2
    66          1
    67          8
    68          4
    69         28
    70         32
    71          7
    72          1
    73        445
    74         63
    75          5
    80          4
    81          3
    82         13
    83         20
    84          2
    85          1
    86          1
    87        134
    88          9
    89          2
    97          6
    98          6
    99         11
   100          1
   101          1
   114          2
   115          2
   116          9
   117          1