##TITLE=Library Entry 11054
##JCAMP-DX=Revision 4.10 
##DATA TYPE=MASS SPECTRUM
##SAMPLE DESCRIPTION=Japan AIST/NIMC Database- Spectrum MS-NW-2272
##NAMES=HP
##CAS NAME=3-Hexyne-2,5-diol, 2,5-dimethyl-
##MOLFORM=C8H14O2
##CAS REGISTRY NO=142-30-3
##MP= -300
##BP= -300
##MW= 142
##$RETENTION INDEX=0
##$CONDENSED SPECTRUM=NO
##NPOINTS= 88
##XYDATA=(XY..XY) 1 
    12          2
    13          5
    14         13
    15        114
    16          2
    17         13
    18         47
    24          4
    25         15
    26         79
    27         60
    28         12
    29         23
    31         22
    32          2
    36          3
    37         14
    38         24
    39        136
    40         49
    41        114
    42         30
    43        999
    44         25
    45          9
    48          2
    49          6
    50         26
    51         54
    52         12
    53         52
    54          8
    55         38
    56         14
    57          9
    58        135
    59         63
    60          2
    61          9
    62         12
    63         24
    64          7
    65         79
    66         87
    67         52
    68          9
    69        215
    70         11
    71          8
    73          1
    74          4
    75          3
    76          2
    77         20
    78         14
    79         48
    80          7
    81        282
    82         22
    83         35
    84          4
    85          4
    86          1
    87          1
    89          3
    90          1
    91         47
    92          5
    93          7
    94          4
    95          9
    96          3
    97          2
    99          8
   103          3
   105         12
   106         39
   107          9
   108          5
   109        599
   110         52
   111          9
   112          7
   123         10
   124         10
   125          5
   127        104
   128          9