##TITLE=Library Entry 5606
##JCAMP-DX=Revision 4.10 
##DATA TYPE=MASS SPECTRUM
##SAMPLE DESCRIPTION=NIST Mass Spectrometry Data Center, 2009
##NAMES=HP
##CAS NAME=Acetamide, N-(2-hydroxyethyl)-
##MOLFORM=C4H9NO2
##CAS REGISTRY NO=142-26-7
##MP= -300
##BP= -300
##MW= 103
##$RETENTION INDEX=0
##$CONDENSED SPECTRUM=NO
##NPOINTS= 46
##XYDATA=(XY..XY) 1 
    14          5
    15         38
    16          1
    18          6
    19          4
    25          1
    26          6
    27         29
    28         95
    29         62
    30        963
    31        107
    32          5
    33          1
    38          2
    39          4
    40         14
    41         27
    42        176
    43        999
    44         93
    45         72
    46          2
    52          3
    53          1
    54          9
    55         10
    56          8
    57          9
    58         26
    60        645
    61         18
    62          2
    68          1
    70         38
    72        331
    73        296
    74         12
    75          2
    85        177
    86          9
    87          1
    88          7
   102          1
   103          1
   104          1