##TITLE=Library Entry 46209
##JCAMP-DX=Revision 4.10 
##DATA TYPE=MASS SPECTRUM
##SAMPLE DESCRIPTION=Japan AIST/NIMC Database- Spectrum MS-NW-4423
##NAMES=HP
##CAS NAME=Propane, 1,3-dichloro-
##MOLFORM=C3H6Cl2
##CAS REGISTRY NO=142-28-9
##MP= -300
##BP= -300
##MW= 112
##$RETENTION INDEX=780
##$CONDENSED SPECTRUM=NO
##NPOINTS= 45
##XYDATA=(XY..XY) 1 
    12          2
    13          2
    14          6
    15         14
    24          1
    25          7
    26         42
    27        350
    28         20
    29          9
    31          4
    35         11
    36         18
    37         29
    38         43
    39        209
    40         81
    41        790
    42         34
    43         20
    47         11
    48         14
    49        150
    50          7
    51         48
    52          1
    60          5
    61         19
    62         21
    63        131
    64          9
    65         40
    66          1
    71          2
    72          2
    73          8
    74          1
    75         44
    76        999
    77         52
    78        319
    79         12
   112          9
   114          5
   116          1