##TITLE=Library Entry 39596
##JCAMP-DX=Revision 4.10 
##DATA TYPE=MASS SPECTRUM
##SAMPLE DESCRIPTION=Japan AIST/NIMC Database- Spectrum MS-NW-6371
##NAMES=HP
##CAS NAME=1-Propanamine, N-propyl-
##MOLFORM=C6H15N
##CAS REGISTRY NO=142-84-7
##MP= -300
##BP= -300
##MW= 101
##$RETENTION INDEX=746
##$CONDENSED SPECTRUM=NO
##NPOINTS= 33
##XYDATA=(XY..XY) 1 
    15         10
    26          6
    27         73
    28         55
    29         17
    30        652
    31          9
    39         37
    40          5
    41        102
    42         31
    43        167
    44         58
    45          1
    52          1
    54          5
    55          1
    56         19
    57          3
    58         58
    59          2
    68          3
    69          1
    70         15
    71          3
    72        999
    73         47
    74          1
    84          1
    86          2
   100         22
   101        162
   102         11