##TITLE=Library Entry 34407
##JCAMP-DX=Revision 4.10 
##DATA TYPE=MASS SPECTRUM
##SAMPLE DESCRIPTION=NIST Mass Spectrometry Data Center, 1994
##NAMES=HP
##CAS NAME=n-Dodecyl methacrylate
##MOLFORM=C16H30O2
##CAS REGISTRY NO=142-90-5
##MP= -300
##BP= -300
##MW= 254
##$RETENTION INDEX=1775
##$CONDENSED SPECTRUM=NO
##NPOINTS= 81
##XYDATA=(XY..XY) 1 
    15          6
    18          3
    27         93
    28         40
    29        208
    30          6
    31         10
    39        225
    41        952
    42        163
    43        478
    44         22
    45          9
    51          3
    53         32
    54         70
    55        458
    56        303
    57        315
    58         19
    59         33
    65          5
    66          9
    67         83
    68        138
    69        999
    70        394
    71        130
    72          8
    73          6
    74         13
    77          3
    79          8
    81         42
    82        124
    83        325
    84        162
    85         66
    86          3
    87        757
    88        199
    89         12
    94          3
    95         20
    96         75
    97        278
    98         94
    99         25
   100          4
   109         15
   110         44
   111        161
   112         52
   113         43
   114          5
   115          3
   123         13
   124         21
   125         59
   126         25
   127         32
   128          7
   137          8
   138         13
   139         16
   140         42
   141         18
   142          6
   143          3
   151          3
   152          4
   155          4
   156          5
   166         10
   168         59
   169         10
   181          7
   183          3
   193          2
   195          3
   211          7