##TITLE=Library Entry 18484
##JCAMP-DX=Revision 4.10 
##DATA TYPE=MASS SPECTRUM
##SAMPLE DESCRIPTION=Japan AIST/NIMC Database- Spectrum MS-NW-5043
##NAMES=HP
##CAS NAME=2-Butynedioic acid
##MOLFORM=C4H2O4
##CAS REGISTRY NO=142-45-0
##MP= -300
##BP= -300
##MW= 114
##$RETENTION INDEX=0
##$CONDENSED SPECTRUM=NO
##NPOINTS= 45
##XYDATA=(XY..XY) 1 
    12         27
    13         17
    14         16
    15          1
    16         38
    17         10
    18         16
    24         69
    25        137
    26        153
    27         11
    28         95
    29         39
    36         12
    37          3
    39          2
    40         27
    41         47
    42        139
    43         10
    44        497
    45        168
    46          7
    52        128
    53        999
    54         35
    55          5
    58          8
    68         30
    69         67
    70        611
    71         26
    72          5
    80         28
    81          3
    86         81
    87          3
    88          4
    97        237
    98         23
    99          7
   113          4
   114        157
   115          8
   116          8