##TITLE=Library Entry 55276
##JCAMP-DX=Revision 4.10 
##DATA TYPE=MASS SPECTRUM
##SAMPLE DESCRIPTION=D. LUKE UNILEVER RESEARCH LAB., PORT SUNLIGHT
##NAMES=HP
##CAS NAME=Dodecanamide, N-(2-hydroxyethyl)-
##MOLFORM=C14H29NO2
##CAS REGISTRY NO=142-78-9
##MP= -300
##BP= -300
##MW= 243
##$RETENTION INDEX=0
##$CONDENSED SPECTRUM=NO
##NPOINTS= 67
##XYDATA=(XY..XY) 1 
    15         10
    16          3
    17         31
    18        137
    26          4
    27         46
    28         73
    29         72
    30          9
    32          5
    36          3
    39         27
    40          7
    41        150
    42         42
    43         93
    44        103
    45         13
    53         11
    54         27
    55        126
    56         24
    57         41
    58          3
    67         22
    68         17
    69         34
    70          9
    71          7
    72          4
    79          4
    81          9
    82          9
    83         19
    84          6
    85        999
    86         59
    87          6
    95          5
    96         11
    97         10
    98        432
    99         88
   100          6
   110          7
   111          6
   112         69
   113          6
   124          7
   126         20
   127          4
   138          4
   140         79
   141          8
   152          4
   154         36
   155          4
   166          4
   168         19
   182         24
   183          4
   196         25
   197          4
   210          5
   224         11
   225          3
   226          4