##TITLE=Library Entry 96865
##JCAMP-DX=Revision 4.10 
##DATA TYPE=MASS SPECTRUM
##SAMPLE DESCRIPTION=Chemical Sci. & Tec. Lab., NIST, Gaithersburg, MD 20899
##NAMES=HP
##CAS NAME=1,2-Hydrazinedicarbothioamide
##MOLFORM=C2H6N4S2
##CAS REGISTRY NO=142-46-1
##MP= -300
##BP= -300
##MW= 150
##$RETENTION INDEX=0
##$CONDENSED SPECTRUM=NO
##NPOINTS= 73
##XYDATA=(XY..XY) 1 
    41         26
    42        103
    43        794
    44         90
    45         75
    46         45
    47         74
    48         57
    49         22
    50          6
    51          5
    53          1
    55          4
    56          1
    57        193
    58         70
    59        310
    60        732
    61         49
    62         28
    64         77
    65          1
    66         18
    68          4
    69          1
    70          2
    71          6
    73          4
    74        293
    75         78
    76         78
    77         33
    78          5
    79          2
    81          1
    82          1
    83          1
    84          8
    85          2
    86          8
    88          3
    89          1
    90         11
    91        163
    92         40
    93          8
    94          2
    98          1
    99          1
   100         12
   102          3
   104          1
   107          2
   108        127
   110         14
   116        170
   117        999
   118         40
   119         34
   123          1
   131          4
   132         16
   133        586
   134        115
   135         58
   136          9
   137          1
   148          1
   149          2
   150        162
   151         20
   152          5
   153          1