##TITLE=Library Entry 32652
##JCAMP-DX=Revision 4.10 
##DATA TYPE=MASS SPECTRUM
##SAMPLE DESCRIPTION=Japan AIST/NIMC Database- Spectrum MS-NW-3720
##NAMES=HP
##CAS NAME=Cyclopentene
##MOLFORM=C5H8
##CAS REGISTRY NO=142-29-0
##MP= -300
##BP= -300
##MW= 68
##$RETENTION INDEX=552
##$CONDENSED SPECTRUM=NO
##NPOINTS= 41
##XYDATA=(XY..XY) 1 
    14          1
    15          7
    25          2
    26         18
    27         80
    28         12
    29         10
    31         13
    32          5
    33          4
    36          2
    37         22
    38         45
    39        242
    40        128
    41        156
    42         79
    43          7
    44          3
    45          1
    49          4
    50         15
    51         21
    52         11
    53        221
    54         17
    55         15
    56          5
    57          9
    58          2
    60          3
    61         10
    62         14
    63         19
    64          4
    65         54
    66         60
    67        999
    68        443
    69         25
    70          1