##TITLE=Library Entry 49715
##JCAMP-DX=Revision 4.10 
##DATA TYPE=MASS SPECTRUM
##SAMPLE DESCRIPTION=Chemical Concepts
##NAMES=HP
##CAS NAME=2,4-Hexadienal, (E,E)-
##MOLFORM=C6H8O
##CAS REGISTRY NO=142-83-6
##MP= -300
##BP= -300
##MW= 96
##$RETENTION INDEX=911
##$CONDENSED SPECTRUM=NO
##NPOINTS= 50
##XYDATA=(XY..XY) 1 
    23          2
    25          4
    26         74
    27        336
    29        118
    30          8
    31         39
    33          8
    34          5
    35          2
    36          5
    37         91
    38        141
    39        794
    40        142
    41        626
    42        107
    43         13
    47          3
    49         25
    50         86
    51        101
    52         42
    53        475
    54         39
    55         59
    56          3
    57          4
    58          4
    60          7
    61         24
    62         44
    63         57
    64         16
    65        147
    66         66
    67        388
    68         76
    69         29
    75          5
    77         21
    78         12
    79         39
    80         10
    81        999
    82         63
    93          9
    95         95
    96        287
    97         12