##TITLE=Library Entry 28251
##JCAMP-DX=Revision 4.10 
##DATA TYPE=MASS SPECTRUM
##SAMPLE DESCRIPTION=Japan AIST/NIMC Database- Spectrum MS-NW-3233
##NAMES=HP
##CAS NAME=1,2-Ethanediamine, N,N,N'-trimethyl-
##MOLFORM=C5H14N2
##CAS REGISTRY NO=142-25-6
##MP= -300
##BP= -300
##MW= 102
##$RETENTION INDEX=0
##$CONDENSED SPECTRUM=NO
##NPOINTS= 36
##XYDATA=(XY..XY) 1 
    14          2
    15         28
    26          3
    27         11
    28         34
    29         17
    30         65
    31          2
    32          2
    39          2
    40          4
    41         11
    42         79
    43         29
    44        156
    45          7
    46          1
    50          1
    52          1
    54          3
    55          4
    56         28
    57         29
    58        999
    59        181
    60          6
    69          1
    70          7
    71          8
    72          7
    73          2
    83          1
    85          4
    99          3
   102         23
   103          2