##TITLE=Library Entry 4973
##JCAMP-DX=Revision 4.10 
##DATA TYPE=MASS SPECTRUM
##SAMPLE DESCRIPTION=Japan AIST/NIMC Database- Spectrum MS-NW- 631
##NAMES=HP
##CAS NAME=Iminodiacetic acid
##MOLFORM=C4H7NO4
##CAS REGISTRY NO=142-73-4
##MP= -300
##BP= -300
##MW= 133
##$RETENTION INDEX=0
##$CONDENSED SPECTRUM=NO
##NPOINTS= 50
##XYDATA=(XY..XY) 1 
    12          2
    13          3
    15         66
    16          3
    17          3
    21          2
    26          2
    27         10
    28         12
    29         22
    30        176
    31         41
    32          3
    35          2
    36          2
    38          3
    39          6
    40         16
    41         50
    42        999
    43        111
    44         73
    45         50
    46          6
    47          1
    51          1
    54          1
    55          1
    56          1
    57          2
    58         15
    59         10
    60        179
    61          5
    68          1
    69          5
    70         10
    71          1
    74          9
    81          1
    83          1
    86          8
    87          6
    88        589
    89         24
    90          3
   115         28
   116          1
   133         34
   134          2