##TITLE=Library Entry 35581
##JCAMP-DX=Revision 4.10 
##DATA TYPE=MASS SPECTRUM
##SAMPLE DESCRIPTION=NIST Mass Spectrometry Data Center
##NAMES=HP
##CAS NAME=2-Propenoic acid, 2-methyl-, hexyl ester
##MOLFORM=C10H18O2
##CAS REGISTRY NO=142-09-6
##MP= -300
##BP= -300
##MW= 170
##$RETENTION INDEX=1164
##$CONDENSED SPECTRUM=NO
##NPOINTS= 73
##XYDATA=(XY..XY) 1 
    15          2
    26          5
    27         65
    28         11
    29         83
    30          2
    31          6
    37          3
    38         13
    39        242
    40         56
    41        631
    42        159
    43        269
    44         13
    45         13
    50          2
    51          4
    52          2
    53         24
    54         24
    55        272
    56        482
    57         52
    58          8
    59         53
    60          2
    65          2
    66          1
    67         17
    68         21
    69        999
    70         80
    71         11
    72          1
    73          3
    74         17
    79          2
    81          5
    82         10
    83         39
    84        388
    85         33
    86         31
    87        843
    88         47
    89          4
    94          2
    95          6
    96          6
    97         59
    98          8
    99         15
   100          5
   101          3
   109          2
   110          7
   111          6
   112          3
   113         17
   114          4
   115          1
   123          5
   124          4
   125          2
   127         14
   128          5
   129          4
   137          2
   141          4
   142          1
   152          1
   170          1