##TITLE=Library Entry 26530
##JCAMP-DX=Revision 4.10 
##DATA TYPE=MASS SPECTRUM
##SAMPLE DESCRIPTION=NIST Mass Spectrometry Data Center, 1994
##NAMES=HP
##CAS NAME=Bis(2-ethylhexyl) maleate
##MOLFORM=C20H36O4
##CAS REGISTRY NO=142-16-5
##MP= -300
##BP= -300
##MW= 340
##$RETENTION INDEX=0
##$CONDENSED SPECTRUM=NO
##NPOINTS= 116
##XYDATA=(XY..XY) 1 
    12          1
    15          5
    16          1
    18          1
    26         34
    27        141
    28         40
    29        315
    30          7
    31         11
    32          0
    39         75
    41        576
    42        109
    43        549
    44         25
    45         10
    51          3
    52          5
    53         44
    54        144
    55        417
    56        191
    57        999
    58         43
    59          7
    65          5
    66          5
    67         27
    68         29
    69        183
    70        536
    71        624
    72         48
    73          4
    77          2
    79          6
    81         30
    82        189
    83        213
    84        125
    85         19
    86          2
    87          2
    93          1
    95          8
    97         24
    99        281
   100        457
   101         28
   102          3
   109          6
   110         33
   111         56
   112        234
   113        235
   114         21
   117        939
   118         62
   119         19
   120          1
   122          2
   123          2
   124          2
   125          2
   126          3
   127          4
   128          5
   129         11
   130          3
   131          5
   135          1
   137          3
   138          1
   139          4
   140          4
   141          4
   142          2
   143          1
   150          2
   151          2
   152          2
   153          4
   154          4
   155          4
   156          1
   159          1
   164          2
   165          3
   167          9
   168          4
   169         11
   170          3
   171         17
   172          1
   180          4
   181          8
   182          9
   183          4
   185         22
   186          2
   192          6
   193          3
   198          1
   199          8
   200          2
   210          9
   211         16
   212         18
   213          4
   227          5
   228          5
   229         25
   230          3
   297          1
   341          1