##TITLE=Library Entry 67926
##JCAMP-DX=Revision 4.10 
##DATA TYPE=MASS SPECTRUM
##SAMPLE DESCRIPTION=Japan AIST/NIMC Database- Spectrum MS-NW-4625
##NAMES=HP
##CAS NAME=2(1H)-Pyridinone
##MOLFORM=C5H5NO
##CAS REGISTRY NO=142-08-5
##MP= -300
##BP= -300
##MW= 95
##$RETENTION INDEX=1094
##$CONDENSED SPECTRUM=NO
##NPOINTS= 53
##XYDATA=(XY..XY) 1 
    12          3
    13          3
    14          7
    15          3
    16          1
    24          3
    25          9
    26         34
    27         24
    28        223
    29         22
    30          1
    32         11
    33         13
    34          1
    36         10
    37         68
    38        124
    39        387
    40        201
    41        236
    42         46
    43          5
    44          7
    47         10
    48          4
    49         17
    50         62
    51         80
    52         44
    53         11
    54          4
    55          5
    56          1
    62          4
    63          9
    64         14
    65         12
    66        100
    67        753
    68         67
    69          6
    74          2
    75          7
    76          9
    77          7
    78         37
    79          6
    93          3
    94         18
    95        999
    96         61
    97          4