##TITLE=Library Entry 19302
##JCAMP-DX=Revision 4.10 
##DATA TYPE=MASS SPECTRUM
##SAMPLE DESCRIPTION=NIST Mass Spectrometry Data Center, 1994
##NAMES=HP
##CAS NAME=Pimeloylchloride
##MOLFORM=C7H10Cl2O2
##CAS REGISTRY NO=142-79-0
##MP= -300
##BP= -300
##MW= 196
##$RETENTION INDEX=0
##$CONDENSED SPECTRUM=NO
##NPOINTS= 79
##XYDATA=(XY..XY) 1 
    12          3
    13          8
    14         40
    15        113
    16          0
    26        148
    27        606
    28        203
    29        247
    30          5
    31          7
    33          4
    34         21
    35         41
    36          7
    37         34
    38         75
    39        551
    40        127
    41        979
    42        525
    43        100
    48        121
    49         89
    50         28
    51         55
    52         22
    53        120
    54         22
    55        999
    56         62
    57          9
    60          6
    61         13
    63        324
    65        103
    66          9
    67         76
    68        183
    69        765
    70         82
    71          6
    73          0
    75         17
    76          7
    77         32
    78        114
    79         77
    80         39
    81         50
    82          0
    83        490
    84         31
    88          4
    89         11
    90          6
    91         27
    92          4
    93          7
    95          7
    97        317
    98         20
   103          5
   104         24
   105         11
   106          8
   107          4
   119          9
   125        432
   126         35
   127          3
   132        135
   133         14
   134         44
   135          4
   161        513
   162         46
   163        174
   164         10