##TITLE=Library Entry 76404
##JCAMP-DX=Revision 4.10 
##DATA TYPE=MASS SPECTRUM
##SAMPLE DESCRIPTION=Chemical Concepts
##NAMES=HP
##CAS NAME=1-Pentanethiol, 5-(9-borabicyclo[3.3.1]non-9-yloxy)-
##MOLFORM=C13H25BOS
##CAS REGISTRY NO=142039-87-0
##MP= -300
##BP= -300
##MW= 240
##$RETENTION INDEX=0
##$CONDENSED SPECTRUM=NO
##NPOINTS= 133
##XYDATA=(XY..XY) 1 
    26          1
    27         37
    28          0
    29         45
    30          1
    34          1
    35          9
    37          1
    38          2
    39         32
    40         48
    41        391
    42         42
    43         34
    44          0
    45         13
    46          4
    47        103
    48          1
    49          3
    50          2
    51          4
    52          3
    53         29
    54         31
    55        111
    56         44
    57         21
    58          1
    59         15
    60         21
    61         63
    62          4
    63          3
    64          4
    65         19
    66         12
    67        138
    68         87
    69        813
    70         57
    71          7
    72          0
    73          8
    74         17
    75          3
    76          1
    77          5
    78          3
    79         15
    80         16
    81         66
    82         54
    83         25
    84          3
    85          4
    86          0
    87        159
    88         11
    89         12
    90          3
    91         10
    92          4
    93         13
    94          7
    95         55
    96         46
    97         58
    98          2
    99          2
   100          5
   101         14
   102        237
   103        999
   104         58
   105         44
   106          2
   107          2
   108         12
   109         33
   110         68
   111          7
   112          0
   113          1
   114          0
   116          1
   117          1
   118          0
   119          2
   120          3
   121          1
   122          0
   123          4
   126          0
   127         91
   128        428
   129        189
   130         43
   131         34
   132          4
   133          2
   134          0
   135          1
   136          4
   137         11
   139          1
   141          0
   142          0
   143          0
   148          0
   149          0
   150          0
   151          1
   154          0
   157          1
   169          1
   170          1
   171          0
   183          1
   184          2
   197          1
   198          1
   205          0
   206          1
   207          0
   226          0
   230          0
   238          1
   239         47
   240        166
   241         28
   242         10
   243          0