##TITLE=Library Entry 21332
##JCAMP-DX=Revision 4.10 
##DATA TYPE=MASS SPECTRUM
##SAMPLE DESCRIPTION=Exported from NIST MS Search
##NAMES=HP
##CAS NAME=1,3-Cyclopentanedione, 2,2-dichloro-
##MOLFORM=C5H4Cl2O2
##CAS REGISTRY NO=14203-21-5
##MP= -300
##BP= -300
##MW= 166
##$RETENTION INDEX=0
##$CONDENSED SPECTRUM=NO
##NPOINTS= 71
##XYDATA=(XY..XY) 1 
    35         30
    36        260
    37         30
    38         90
    39         90
    40         30
    41         20
    42         90
    43        180
    44         30
    47        140
    48         20
    49         60
    50         10
    51         10
    52         10
    53         30
    54         40
    55        999
    56        100
    57         20
    60         10
    61        170
    62         10
    63         60
    67         10
    68         30
    69         20
    73         30
    74         10
    75        320
    76         30
    77        100
    78         10
    82        200
    83         10
    84        130
    85         10
    86         20
    89        330
    90         10
    91        100
    96         10
    98         10
   103        140
   104         20
   105         50
   108         30
   109         10
   110        900
   111         30
   112        580
   113         10
   114         90
   129         10
   130         10
   131        230
   132         60
   133         80
   134         30
   136         30
   138        200
   140        130
   141         10
   142         10
   165         10
   166        600
   167         40
   168        370
   169         30
   170         60