##TITLE=Library Entry 58334
##JCAMP-DX=Revision 4.10 
##DATA TYPE=MASS SPECTRUM
##SAMPLE DESCRIPTION=Chemical Concepts
##NAMES=HP
##CAS NAME=1-Butanethiol, 4-(9-borabicyclo[3.3.1]non-9-yl)oxy-
##MOLFORM=C12H23BOS
##CAS REGISTRY NO=142039-81-4
##MP= -300
##BP= -300
##MW= 226
##$RETENTION INDEX=0
##$CONDENSED SPECTRUM=NO
##NPOINTS= 129
##XYDATA=(XY..XY) 1 
    26          1
    27         40
    29         67
    30          1
    31          0
    34          1
    35          8
    36          0
    37          2
    38          1
    39         34
    41        107
    42         22
    43         36
    44          0
    45         23
    46         10
    47        214
    48          4
    49         10
    50          1
    51          7
    52          4
    53         33
    54         53
    55        545
    56         48
    57         11
    58          1
    59          8
    60         58
    61         22
    62          3
    63          2
    64          3
    65         15
    66         14
    67         98
    68         36
    69         60
    70         10
    71          3
    73          3
    74          0
    75          0
    76          1
    77          8
    78          3
    79         20
    80         14
    81         64
    82         64
    83         17
    84          2
    85          3
    86          0
    87         18
    88        349
    89        999
    90         60
    91         49
    92          5
    93         12
    94          9
    95         39
    96         28
    97         29
    98          2
    99          0
   100          0
   101          1
   105          1
   106          0
   107          2
   108          9
   109         19
   110        112
   111         13
   112          0
   113          1
   114          3
   115         15
   116         13
   117         28
   118          2
   119          3
   120          2
   121          3
   122          1
   123          3
   129          0
   130          1
   131          0
   132          3
   133          4
   134          0
   135          1
   136          2
   137          5
   138          6
   139          1
   140          0
   141          0
   142          2
   143          1
   144          0
   149          0
   150          0
   151          1
   154          1
   155          7
   156         10
   157          3
   158          0
   168          1
   169          5
   170          6
   171          1
   182          0
   183          3
   184          1
   192          1
   197          2
   198          0
   225         33
   226        149
   227         22
   228          8
   229          1