##TITLE=Library Entry 3589
##JCAMP-DX=Revision 4.10 
##DATA TYPE=MASS SPECTRUM
##SAMPLE DESCRIPTION=Chemical Concepts
##NAMES=HP
##CAS NAME=1-Propanethiol, 3-(9-borabicyclo[3.3.1]non-9-yloxy)-
##MOLFORM=C11H21BOS
##CAS REGISTRY NO=142039-90-5
##MP= -300
##BP= -300
##MW= 212
##$RETENTION INDEX=0
##$CONDENSED SPECTRUM=NO
##NPOINTS= 112
##XYDATA=(XY..XY) 1 
    28          1
    29        108
    30          5
    31         12
    37         11
    38          6
    39        175
    40         62
    41        999
    42        112
    43         86
    45         54
    46         57
    47        450
    48          7
    49         21
    50          8
    51         22
    52         11
    53         72
    54        144
    55        306
    56         61
    57         26
    58         12
    59         14
    60          8
    61         11
    63          7
    64         10
    65         38
    66         51
    67        395
    68        190
    69        223
    70         33
    71          9
    73         38
    74        261
    75        742
    76         42
    77         53
    78          7
    79         59
    80         54
    81        317
    82        365
    83         74
    84         11
    87          9
    91         22
    92         13
    93         27
    94         23
    95        173
    96         70
    97         74
    98          7
    99         11
   100         92
   101        198
   102         39
   103         41
   107         10
   108         27
   109         55
   110        552
   111         61
   112          5
   113         23
   114         38
   115         25
   116         63
   117         14
   118         11
   119          9
   123          5
   126         10
   127         43
   128        110
   129        122
   130         23
   131         10
   135         10
   136         21
   137         14
   138         23
   140          7
   141        152
   142        493
   143         96
   144         29
   154         46
   155        210
   156        163
   157         40
   158         11
   168         17
   169         91
   170        109
   171         18
   177          8
   178         27
   182         13
   183         64
   184         22
   185          6
   197          9
   211        103
   212        401
   213         62
   214         24