##TITLE=Library Entry 5625
##JCAMP-DX=Revision 4.10 
##DATA TYPE=MASS SPECTRUM
##SAMPLE DESCRIPTION=Chemical Concepts
##NAMES=HP
##CAS NAME=Ethanethioic acid, S-[2-(acetylamino)ethyl] ester
##MOLFORM=C6H11NO2S
##CAS REGISTRY NO=1420-88-8
##MP= -300
##BP= -300
##MW= 161
##$RETENTION INDEX=0
##$CONDENSED SPECTRUM=NO
##NPOINTS= 55
##XYDATA=(XY..XY) 1 
    26          5
    27         19
    28         30
    29          7
    30        857
    31         21
    34          2
    35          2
    39          3
    40          6
    41         16
    42         55
    43        999
    44        131
    45         32
    46         16
    47         14
    48          5
    54          2
    55          3
    56          2
    57          3
    58         14
    59         41
    60        341
    61         15
    67          1
    72        201
    73         41
    74          7
    75          8
    76        124
    77          8
    78          6
    84          6
    85         18
    86         79
    87          4
    89          3
    90          7
    95          2
   101          2
   102        108
   103          7
   104         19
   113          1
   118        213
   119        615
   120         48
   121         29
   122          2
   133          1
   144          1
   161          4
   162          8