##TITLE=Library Entry 37753
##JCAMP-DX=Revision 4.10 
##DATA TYPE=MASS SPECTRUM
##SAMPLE DESCRIPTION=R.E.Ardrey ET AL.Pharmaceutical Mass Spectra,L.,1985
##NAMES=HP
##CAS NAME=Thiethylperazine
##MOLFORM=C22H29N3S2
##CAS REGISTRY NO=1420-55-9
##MP= -300
##BP= -300
##MW= 399
##$RETENTION INDEX=3239
##$CONDENSED SPECTRUM=NO
##NPOINTS= 112
##XYDATA=(XY..XY) 1 
    26        360
    27        200
    29         60
    30         30
    39         10
    40         10
    41         70
    42        310
    43        380
    44        160
    45        300
    46         60
    52         10
    53         70
    54        160
    55        130
    56        150
    57         70
    58        130
    59         20
    63         10
    68         20
    69         30
    70        999
    71        180
    72        350
    73         10
    77         10
    82         40
    83         50
    84         60
    85         60
    86         10
    95         10
    96         40
    97         60
    98        110
    99         90
   100         10
   109         20
   111        100
   112         20
   113        940
   114         90
   115         10
   125         20
   126         10
   127        130
   128         20
   138         10
   139         50
   141        580
   142         50
   152         10
   154         10
   166         20
   167         20
   178         20
   179         30
   180         10
   184         10
   185         60
   186         20
   196         10
   197         20
   198         50
   199         20
   209         10
   210         30
   211         50
   212         60
   213         20
   223         20
   224         20
   225         20
   228         10
   229         20
   230         40
   231         10
   236         10
   237         20
   238         30
   239         30
   240         50
   241         10
   242         20
   243         20
   244         20
   258         80
   259        120
   260         30
   261         10
   270         30
   271         10
   272         70
   273         80
   274         20
   275         10
   285         30
   286         40
   287         10
   297         10
   298         50
   299         70
   300         30
   301         10
   342         10
   355         10
   399        470
   400        140
   401         60
   402         30