##TITLE=Library Entry 29084
##JCAMP-DX=Revision 4.10 
##DATA TYPE=MASS SPECTRUM
##SAMPLE DESCRIPTION=Japan AIST/NIMC Database- Spectrum MS-NW-9094
##NAMES=HP
##CAS NAME=N,N'-Decamethylenebis(trimethylammonium iodide)
##MOLFORM=C16H38I2N2
##CAS REGISTRY NO=1420-40-2
##MP= -300
##BP= -300
##MW= 512
##$RETENTION INDEX=0
##$CONDENSED SPECTRUM=NO
##NPOINTS= 67
##XYDATA=(XY..XY) 1 
    14          2
    15         66
    27          5
    28         10
    29         10
    30         39
    39          4
    40          3
    41         19
    42         41
    43         19
    44         28
    45         16
    46          7
    53          1
    54          2
    55         21
    56          9
    57         18
    58        999
    59        129
    60          4
    63          2
    67          3
    68          1
    69          9
    70          5
    71          5
    72          4
    81          2
    82          2
    83          8
    84         14
    85          1
    95          1
    96          1
    97          4
    98          2
   100          2
   110          1
   112          1
   114          2
   126          1
   127         91
   128         31
   139         11
   140         11
   141         47
   142        492
   143          5
   154          1
   156          2
   168          3
   170          6
   171          1
   180          1
   182         30
   183          9
   184         19
   185          3
   211          2
   213         19
   214          3
   225          2
   227         67
   228         29
   229          4