##TITLE=Library Entry 76914
##JCAMP-DX=Revision 4.10 
##DATA TYPE=MASS SPECTRUM
##SAMPLE DESCRIPTION=Chemical Concepts
##NAMES=HP
##CAS NAME=4-Amino-1,5-diphenyl-1H-1,2,3-triazole
##MOLFORM=C14H12N4
##CAS REGISTRY NO=14211-62-2
##MP= -300
##BP= -300
##MW= 236
##$RETENTION INDEX=0
##$CONDENSED SPECTRUM=NO
##NPOINTS= 60
##XYDATA=(XY..XY) 1 
    34         14
    36         15
    37         35
    38         93
    39        199
    40        100
    41         27
    42         13
    43         21
    44         27
    48         16
    50        353
    51        761
    52        109
    53         68
    54         11
    55          9
    61         22
    62         53
    63         93
    64         44
    65         33
    74         86
    75         86
    76        254
    77        920
    78        201
    79         50
    86          9
    87         13
    88         24
    89         58
    90         35
    91         38
   100         10
   103        337
   104        999
   105        684
   106         44
   115          9
   117          8
   119         14
   129         23
   130         26
   131        147
   132         10
   151         10
   152         19
   165         25
   178         17
   179         39
   180        181
   181         25
   205         29
   206         65
   207        133
   208        198
   209         29
   235         11
   236         43