##TITLE=Library Entry 40996
##JCAMP-DX=Revision 4.10 
##DATA TYPE=MASS SPECTRUM
##SAMPLE DESCRIPTION=Chemical Concepts
##NAMES=HP
##CAS NAME=Phosphine, bis(1,1-dimethylethyl)[3-[(1,1-dimethylethyl)(trimethy
lsilyl)phosphino]propyl]-
##MOLFORM=C18H42P2Si
##CAS REGISTRY NO=142132-76-1
##MP= -300
##BP= -300
##MW= 348
##$RETENTION INDEX=0
##$CONDENSED SPECTRUM=NO
##NPOINTS= 172
##XYDATA=(XY..XY) 1 
    26         18
    27        216
    28         73
    29        276
    30          6
    31          3
    37          8
    38         22
    39        160
    40        133
    41        692
    42        295
    43        751
    44         19
    45        127
    46          7
    47        139
    48          9
    49        131
    50         11
    51          7
    52         15
    53         14
    54          5
    55         31
    56         53
    57        972
    58         56
    59         86
    60         10
    61         23
    62         18
    63         82
    64         13
    65         99
    66         13
    67          7
    68          2
    69          6
    70          5
    71         18
    72         22
    73        999
    74         88
    75         61
    76         13
    77        877
    78         62
    79         35
    80          4
    81          6
    83          4
    84         23
    85         13
    86          1
    87          3
    88          2
    89          4
    90          2
    91          7
    92         26
    93        542
    94         40
    95        167
    96         12
    97          7
    98          5
    99         16
   100          3
   101          3
   102         35
   103         14
   104         14
   105        492
   106        326
   107        102
   108         20
   110          6
   111          2
   113          4
   115          3
   117         10
   118          0
   119         11
   120         15
   121         18
   122         11
   123          3
   125          1
   128          3
   129          7
   130          3
   131         38
   132          8
   133         11
   134          3
   135          8
   136          4
   137         12
   138          2
   139          4
   142          2
   143          1
   145          3
   146          5
   148         16
   149         20
   150          2
   151          8
   152          3
   153          1
   159          1
   160          2
   161        226
   162        195
   163         66
   164          6
   165          5
   173          1
   175          4
   176          1
   177         31
   178         23
   179        127
   180         17
   181          6
   187          1
   189          6
   190          1
   191          3
   192          1
   193          3
   194          2
   195          4
   201          2
   203          5
   204          1
   205          5
   209          4
   210          1
   211          3
   217          1
   218         72
   219         54
   220          6
   221         32
   222          8
   223          3
   225          1
   226          1
   233          2
   234          7
   235        138
   236         23
   237          7
   247          1
   249          2
   259          1
   261          2
   262          1
   263          2
   267          2
   275          7
   276          1
   277          7
   278          1
   291        202
   292         38
   293          9
   295          1
   333          4
   334          0