##TITLE=Library Entry 23291
##JCAMP-DX=Revision 4.10 
##DATA TYPE=MASS SPECTRUM
##SAMPLE DESCRIPTION=Humboldt-Universitat zu Berlin, Department of Chemistry
, Analytical Group
##NAMES=HP
##CAS NAME=5-(1-But-2-oxycarbonyl-1,4-dihydropyridin-4-ylidene)-2,2-dimethyl
-1,3-dioxan-4,6-dione
##MOLFORM=C16H19NO6
##CAS REGISTRY NO=142131-83-7
##MP= -300
##BP= -300
##MW= 321
##$RETENTION INDEX=0
##$CONDENSED SPECTRUM=NO
##NPOINTS= 115
##XYDATA=(XY..XY) 1 
    12          2
    13          1
    14          5
    15         49
    16          4
    17          8
    18         25
    19          1
    25          1
    26         17
    27        120
    28         56
    29        485
    30         13
    31          7
    37          9
    38         13
    39         96
    40         14
    41        569
    42         41
    43        263
    44         32
    45         12
    49          2
    50         13
    51         39
    52         12
    53         14
    54          5
    55         35
    56         26
    57        999
    58         56
    59         72
    60          3
    61          4
    62         39
    63        218
    64         53
    65         21
    66          5
    67          3
    68          2
    69          3
    70          2
    71          1
    73          4
    75          1
    76          3
    77         11
    78         54
    79         16
    80          6
    83          2
    87          2
    88          2
    89          5
    90        105
    91        103
    92         21
    93          4
    96          2
   103          2
   104          5
   105          4
   106         68
   107          6
   108          1
   117          1
   119        480
   120         67
   121          6
   123          1
   131          1
   132          2
   133          4
   134          7
   135          3
   145         13
   146         12
   147          3
   148          2
   162         27
   163        283
   164         88
   165          7
   166          1
   175         64
   176         11
   177          3
   179          1
   190          1
   191          1
   204          1
   205          1
   206          3
   208         32
   209          3
   218          1
   219          8
   220          6
   221         37
   222          5
   248          9
   249          1
   250          3
   265        117
   266         17
   267          2
   306          5
   307          1
   321         64
   322         12
   323          1