##TITLE=Library Entry 58804
##JCAMP-DX=Revision 4.10 
##DATA TYPE=MASS SPECTRUM
##SAMPLE DESCRIPTION=Chuck Anderson, Aldrich Chemical Co.
##NAMES=HP
##CAS NAME=(1R,2R)-(+)-1-Phenylpropylene oxide
##MOLFORM=C9H10O
##CAS REGISTRY NO=14212-54-5
##MP= -300
##BP= -300
##MW= 134
##$RETENTION INDEX=0
##$CONDENSED SPECTRUM=NO
##NPOINTS= 66
##XYDATA=(XY..XY) 1 
    14          4
    15         26
    18          0
    25          1
    26         27
    27         85
    28         23
    29         28
    31          1
    37         17
    38         64
    39        238
    40         33
    41         21
    42          5
    43        443
    44         14
    45          3
    46          7
    49          6
    50        103
    51        228
    52         46
    53         15
    55         11
    56          4
    57          4
    58          7
    61         17
    62         74
    63        225
    64         86
    65        116
    66         13
    73          4
    74         28
    75         20
    77        247
    78         64
    79         84
    80          5
    85          4
    86         10
    87         11
    89        870
    90        999
    91        536
    92        174
    93         13
   102         12
   103         52
   105        588
   106         75
   107         14
   115         36
   116         17
   117         29
   118         19
   119         54
   120          4
   131          2
   132         16
   133        370
   134        330
   135         31
   136          2