##TITLE=Library Entry 12385
##JCAMP-DX=Revision 4.10 
##DATA TYPE=MASS SPECTRUM
##SAMPLE DESCRIPTION=RADIAN CORP
##NAMES=HP
##CAS NAME=Cholesta-4,6-dien-3-ol, (3.beta.)-
##MOLFORM=C27H44O
##CAS REGISTRY NO=14214-69-8
##MP= -300
##BP= -300
##MW= 384
##$RETENTION INDEX=0
##$CONDENSED SPECTRUM=NO
##NPOINTS= 169
##XYDATA=(XY..XY) 1 
    18          2
    27         57
    29        109
    39         65
    41        542
    42         86
    43        999
    51          9
    53         77
    54         12
    55        371
    56         49
    57        391
    58         20
    65         60
    66         30
    67        231
    68         35
    69        240
    70         26
    71        203
    72          9
    73         57
    77        133
    78         45
    79        279
    80         53
    81        457
    82         54
    83        156
    85         36
    86          2
    87          2
    89         14
    91        521
    92         89
    93        289
    94         73
    95        360
    96         27
    97         91
    98          2
   102         11
   103         58
   104         48
   105        397
   106         82
   107        245
   108         68
   109        179
   110         24
   111         58
   113          4
   115        231
   116         75
   117        287
   118        192
   119        406
   120         95
   121        157
   122         58
   123         73
   124          2
   125         17
   127         86
   128        391
   129        441
   130        114
   131        270
   132         54
   133        146
   134        117
   135        626
   136        106
   137         40
   139         14
   141        425
   142        355
   143        693
   144        247
   145        280
   146         74
   147         83
   148         42
   149        245
   150         37
   151         33
   152         44
   153         80
   154         52
   155        200
   156         96
   157        245
   158        207
   159        124
   160         40
   161         70
   162         17
   163        110
   164         21
   165         73
   166         32
   167         50
   168         31
   169         57
   170         27
   171         61
   172         35
   173         25
   174          2
   175          5
   177         21
   178         42
   179         40
   180         15
   181         39
   182         16
   183         56
   184         15
   185         24
   187          2
   189         15
   191         33
   192         16
   193         18
   194         14
   195         37
   196         17
   197         45
   198         23
   199         28
   200          8
   201         10
   202          7
   203          5
   205          7
   206         36
   209          5
   210          4
   211         54
   212         18
   213         26
   214          4
   219         27
   225         11
   233         12
   237          5
   246          5
   247        226
   248         52
   251         18
   253         70
   254         14
   255         15
   256          4
   259          6
   260         11
   261          5
   268          7
   269          6
   273          3
   350          2
   351         33
   352          4
   353          8
   366        374
   367        111
   368         42
   369          7