##TITLE=Library Entry 96968
##JCAMP-DX=Revision 4.10 
##DATA TYPE=MASS SPECTRUM
##SAMPLE DESCRIPTION=Japan AIST/NIMC Database- Spectrum MS-NW-7549
##NAMES=HP
##CAS NAME=5-Chloro-1-phenyl-1H-tetrazole
##MOLFORM=C7H5ClN4
##CAS REGISTRY NO=14210-25-4
##MP= -300
##BP= -300
##MW= 180
##$RETENTION INDEX=0
##$CONDENSED SPECTRUM=NO
##NPOINTS= 74
##XYDATA=(XY..XY) 1 
    26         10
    27         20
    28         12
    31          2
    35          3
    36          5
    37         30
    38         70
    39        138
    40         11
    41         17
    42          1
    44          4
    45          6
    47         16
    48          1
    49         11
    50         82
    51        169
    52         25
    53          5
    57          3
    58          9
    60          3
    61         17
    62         29
    63         89
    64        147
    65        550
    66         34
    67          1
    69          6
    70          1
    73          8
    74         23
    75         18
    76         20
    77        205
    78         14
    79          2
    86          2
    87          3
    88          4
    89         15
    90         74
    91        181
    92         13
    98          1
    99          3
   100          5
   101          4
   102          2
   103          4
   105          1
   112          4
   114          1
   116        101
   117        999
   118         93
   119          5
   125         96
   126          7
   127         30
   128          2
   138          2
   151          2
   152        205
   153         16
   154         67
   155          7
   180         22
   181          3
   182          8
   183          2