##TITLE=Library Entry 26379
##JCAMP-DX=Revision 4.10 
##DATA TYPE=MASS SPECTRUM
##SAMPLE DESCRIPTION=Chemical Concepts
##NAMES=HP
##CAS NAME=Phosphine oxide, bis(1,1-dimethylethyl)(4-methyl-3-pentenyl)-
##MOLFORM=C14H29OP
##CAS REGISTRY NO=142132-71-6
##MP= -300
##BP= -300
##MW= 244
##$RETENTION INDEX=0
##$CONDENSED SPECTRUM=NO
##NPOINTS= 164
##XYDATA=(XY..XY) 1 
    26          1
    27         33
    28          0
    29        196
    30          4
    31          1
    38          0
    39         42
    40          6
    41        294
    42         13
    43         25
    44          0
    45          3
    46          0
    47         18
    48          4
    49          5
    50          0
    51          3
    52          1
    53         18
    54          4
    55         69
    56         10
    57        999
    58         39
    59          4
    60          0
    61          4
    62          2
    63         60
    64         43
    65         17
    66          2
    67         38
    68          7
    69         36
    70          3
    71          4
    72          4
    73          4
    74          0
    75          8
    76          3
    77         10
    78         41
    79         18
    80          3
    81         19
    82         22
    83         20
    84          1
    85          9
    86          8
    87         20
    88          3
    89          9
    90          7
    91          3
    93          1
    94          0
    95          2
    96          0
    97          4
    98          0
    99          3
   100          0
   101          3
   102          3
   103         24
   104        126
   105         36
   106        772
   107         73
   108          6
   109          5
   110          0
   111          3
   112          1
   113         33
   114          2
   115         13
   116          3
   117         30
   118          4
   119          2
   120        333
   121         20
   122          2
   123          2
   124          0
   125          1
   127          1
   128          0
   129         10
   130          6
   131         44
   132        153
   133         18
   134          2
   135          0
   136          0
   137          0
   138          0
   139          0
   141          0
   143          0
   144          0
   145          6
   146          3
   147          7
   149          1
   150          0
   151          0
   153          0
   155          0
   157          0
   158          0
   159          2
   160         31
   161          7
   162        439
   163         43
   164          4
   165          1
   167          0
   169          0
   171          5
   172          1
   173         41
   174          4
   175          0
   176         12
   177          1
   178          0
   179          0
   182          0
   185          1
   186          1
   187         23
   188         46
   189         19
   190          2
   191          0
   195          0
   201          3
   202          1
   203          3
   204          1
   205          0
   207          0
   213          0
   217          1
   219          0
   222          0
   229          5
   230          0
   242          0
   243          2
   244        139
   245         26
   246          2
   247          1