##TITLE=Library Entry 90946
##JCAMP-DX=Revision 4.10 
##DATA TYPE=MASS SPECTRUM
##SAMPLE DESCRIPTION=R.E.Ardrey ET AL.Pharmaceutical Mass Spectra,L.,1985
##NAMES=HP
##CAS NAME=Propanidid
##MOLFORM=C18H27NO5
##CAS REGISTRY NO=1421-14-3
##MP= -300
##BP= -300
##MW= 337
##$RETENTION INDEX=2438
##$CONDENSED SPECTRUM=NO
##NPOINTS= 59
##XYDATA=(XY..XY) 1 
    27         80
    29        180
    30        100
    31         10
    39         30
    41         90
    42         80
    43        540
    44        150
    46         10
    51         20
    52         10
    55         10
    56         60
    57         20
    58         60
    63         10
    65         20
    70         20
    71         30
    72        940
    73         50
    74         10
    76         10
    77         40
    78         20
    79         10
    85         10
    86        130
    87         10
    89         10
    90         40
    91         10
    92         10
   100        310
   101         20
   105         40
   106         20
   107         30
   114        999
   115        110
   121         20
   122         10
   128         10
   135         30
   136         10
   137         50
   149         10
   151         10
   167         10
   195         10
   237         40
   250         40
   251         10
   264        120
   265         20
   337        130
   338         40
   339         10