##TITLE=Library Entry 82686
##JCAMP-DX=Revision 4.10 
##DATA TYPE=MASS SPECTRUM
##SAMPLE DESCRIPTION=A.KONNECKE KARL-MARX UNIV., LEIPZIG 701, GERMANY, G.D.R
.
##NAMES=HP
##CAS NAME=Benzenamine, 4-(1H-tetrazol-1-yl)-
##MOLFORM=C7H7N5
##CAS REGISTRY NO=14213-13-9
##MP= -300
##BP= -300
##MW= 161
##$RETENTION INDEX=0
##$CONDENSED SPECTRUM=NO
##NPOINTS= 33
##XYDATA=(XY..XY) 1 
    29         37
    37         43
    38         75
    39        136
    40         44
    41         78
    42         20
    50         48
    51        126
    52        371
    53        197
    54         64
    55         17
    61         27
    62         41
    63         68
    64         44
    65        167
    66         27
    76         14
    77         34
    78         88
    79        493
    80        105
    91         17
    92         54
   105        351
   106        999
   107         72
   132         17
   133        276
   134         20
   161         43