##TITLE=Library Entry 8399
##JCAMP-DX=Revision 4.10 
##DATA TYPE=MASS SPECTRUM
##SAMPLE DESCRIPTION=L.BAUER UNIV. OF ILLINOIS, CHICAGO, ILLINOIS, USA
##NAMES=HP
##CAS NAME=4-Pyridinol, acetate (ester)
##MOLFORM=C7H7NO2
##CAS REGISTRY NO=14210-20-9
##MP= -300
##BP= -300
##MW= 137
##$RETENTION INDEX=1643
##$CONDENSED SPECTRUM=NO
##NPOINTS= 18
##XYDATA=(XY..XY) 1 
    38         90
    39        270
    40        230
    41        170
    42        160
    43        999
    52         50
    53         70
    66         50
    67        820
    68        100
    69         40
    95        720
    96        210
   108         30
   109        140
   137        620
   138         60