##TITLE=Library Entry 78758
##JCAMP-DX=Revision 4.10 
##DATA TYPE=MASS SPECTRUM
##SAMPLE DESCRIPTION=Humboldt-Universitat zu Berlin, Department of Chemistry
, Analytical Group
##NAMES=HP
##CAS NAME=2-Ethyl-2-phenyl-1,3-dioxan-4,6-dion
##MOLFORM=C12H12O4
##CAS REGISTRY NO=142131-90-6
##MP= -300
##BP= -300
##MW= 220
##$RETENTION INDEX=0
##$CONDENSED SPECTRUM=NO
##NPOINTS= 115
##XYDATA=(XY..XY) 1 
    12          1
    13          3
    14         26
    15          9
    16          1
    17          7
    18         25
    19          0
    24          0
    25          0
    26          9
    27         67
    28         24
    29         85
    30          4
    31          1
    32          0
    35          0
    36          0
    37          1
    38          6
    39         21
    40          2
    41         13
    42         91
    43          8
    44          4
    45          2
    50         45
    51        148
    52         14
    53          3
    54          0
    55          6
    56          4
    57         37
    58          2
    59          0
    61          1
    62          4
    63          9
    64          1
    65          9
    66          1
    67          0
    69         13
    70          1
    71          0
    72          0
    73          1
    74         10
    75          9
    76         22
    77        351
    78         33
    79          9
    80          0
    81          0
    82          0
    83          0
    84          0
    85          0
    86          3
    87          1
    88          0
    89          4
    90          1
    91         13
    92          1
    93          0
    94          0
    95          0
    97          0
    98          0
    99          0
   100          0
   101          0
   102          2
   103          4
   105        999
   106         81
   107          5
   108          0
   112          0
   113          0
   114          0
   115          4
   116          0
   117          2
   118          0
   119          0
   120          0
   121          0
   122          2
   123         15
   124          1
   131          0
   133          4
   134          8
   135          3
   136          0
   143          0
   147          1
   148          0
   149          0
   162          0
   171          0
   176          0
   190          5
   191         91
   192         10
   193          1
   194          0
   220          2
   221          0