##TITLE=Library Entry 26599
##JCAMP-DX=Revision 4.10 
##DATA TYPE=MASS SPECTRUM
##SAMPLE DESCRIPTION=Chemical Concepts
##NAMES=HP
##CAS NAME=Phosphetane, 1,1-bis(1,1-dimethylethyl)-1-fluoro-1,1-dihydro-
##MOLFORM=C11H24FP
##CAS REGISTRY NO=142160-11-0
##MP= -300
##BP= -300
##MW= 206
##$RETENTION INDEX=0
##$CONDENSED SPECTRUM=NO
##NPOINTS= 107
##XYDATA=(XY..XY) 1 
    25          0
    26          1
    27         20
    28          5
    29        103
    30          2
    37          0
    38          1
    39         32
    40         26
    41        145
    42         10
    43          4
    45          8
    46          1
    48          0
    50          1
    51          1
    52          0
    53          4
    54          0
    55         15
    56         15
    57        999
    58         42
    59          3
    60          1
    61          0
    62          0
    65         36
    66          4
    67          6
    68          0
    69          6
    70          0
    72          2
    73          6
    74         52
    75         24
    76          1
    77          3
    79          4
    80         13
    81          0
    83          0
    84          1
    85          0
    86          0
    88          2
    93         44
    94          4
    95          1
    97          0
    99          0
   101          0
   102          0
   104          0
   107          5
   108          8
   109          1
   112          0
   113          0
   115          1
   116          0
   117          0
   119          0
   122        224
   123         36
   124          1
   125          0
   126          0
   128          0
   129          2
   130         54
   131         13
   132          0
   135         25
   136         17
   137          1
   141          0
   143          0
   149         53
   150        119
   151         11
   152          0
   154          0
   155          0
   157          0
   159          0
   163          5
   164         15
   165          1
   169          0
   177          0
   178         11
   179          1
   183          0
   186          2
   187         14
   188          2
   191         12
   192          1
   193          0
   206          5
   207          1
   208          0
   209          0