##TITLE=Library Entry 27922
##JCAMP-DX=Revision 4.10 
##DATA TYPE=MASS SPECTRUM
##SAMPLE DESCRIPTION=Japan AIST/NIMC Database- Spectrum MS-NW-7632
##NAMES=HP
##CAS NAME=Acetic acid, 2-(dimethylamino)ethyl ester
##MOLFORM=C6H13NO2
##CAS REGISTRY NO=1421-89-2
##MP= -300
##BP= -300
##MW= 131
##$RETENTION INDEX=1409
##$CONDENSED SPECTRUM=NO
##NPOINTS= 35
##XYDATA=(XY..XY) 1 
    14          5
    15         39
    17          1
    18          5
    26          3
    27          9
    28         15
    29         12
    30         52
    31          1
    39          1
    40          3
    41          8
    42         77
    43        102
    44         42
    45          9
    54          2
    55          3
    56         24
    57         22
    58        999
    59         37
    60          3
    61          1
    70          8
    71         72
    72         23
    73          3
    74          1
    86          3
    87         13
    88         13
    89          2
   131          5