##TITLE=Library Entry 40417
##JCAMP-DX=Revision 4.10 
##DATA TYPE=MASS SPECTRUM
##SAMPLE DESCRIPTION=CATALOGUE OF MASS SPECTRA OF PESTICIDES, APRIL, 1975; J
. FREUDENTHAL & L. G. GRAMBERG, NAT'L INST. OF PUBLIC HEALTH, THE NETHERLAND
S
##NAMES=HP
##CAS NAME=Urea, N'-[4-(4-methoxyphenoxy)phenyl]-N,N-dimethyl-
##MOLFORM=C16H18N2O3
##CAS REGISTRY NO=14214-32-5
##MP= -300
##BP= -300
##MW= 286
##$RETENTION INDEX=1960
##$CONDENSED SPECTRUM=NO
##NPOINTS= 27
##XYDATA=(XY..XY) 1 
    39         57
    42         59
    43         27
    44        114
    45         43
    51         51
    52         41
    56         45
    63         62
    64         48
    65         51
    72        999
    73         58
    77        104
    90        102
    91         53
    92         98
    95         41
   123         46
   142         41
   170         52
   200         47
   226         68
   241        375
   242         57
   286        229
   287         57