##TITLE=Library Entry 72945
##JCAMP-DX=Revision 4.10 
##DATA TYPE=MASS SPECTRUM
##SAMPLE DESCRIPTION=A.A.Kutin, Moscow, Russia
##NAMES=HP
##CAS NAME=N,N-Diethyl-1-oxaspiro[4.4]nonan-2-one-4-carboxamide
##MOLFORM=C13H21NO3
##CAS REGISTRY NO=142183-72-0
##MP= -300
##BP= -300
##MW= 239
##$RETENTION INDEX=0
##$CONDENSED SPECTRUM=NO
##NPOINTS= 109
##XYDATA=(XY..XY) 1 
    38          3
    39         68
    40         26
    41        159
    42        116
    43         37
    44        233
    45          8
    53         49
    54         55
    55        693
    56        112
    57         33
    58        426
    59         14
    60          1
    65         20
    66         11
    67         46
    68         13
    69         29
    70         42
    71         57
    72        514
    73         75
    74         80
    75          3
    79         35
    80         23
    82         37
    83         50
    84         35
    85         32
    86         11
    91         19
    92          4
    93         21
    94         30
    95         29
    98         49
    99         19
   100        999
   101         70
   102          8
   103          3
   108          4
   109          9
   110         15
   111         24
   112        376
   113         38
   114          9
   115         18
   116          2
   118         16
   119          3
   121         16
   122         37
   123         14
   124         10
   125         18
   126        127
   127         55
   128        311
   129         30
   130          2
   131          0
   137          6
   138         16
   139         36
   140         10
   141          3
   142          1
   153         22
   154        469
   155        341
   156         73
   157          7
   158          1
   165          3
   166         45
   167         20
   168          8
   179          1
   180        109
   181         18
   182         56
   183          7
   184          0
   193          4
   194         15
   195         32
   196         12
   197         19
   198          5
   209          0
   210         42
   211         14
   212          2
   213          0
   221         14
   222          5
   224          8
   225          1
   237          0
   238          0
   239        197
   240         28
   241          3