##TITLE=Library Entry 36255
##JCAMP-DX=Revision 4.10 
##DATA TYPE=MASS SPECTRUM
##SAMPLE DESCRIPTION=Japan AIST/NIMC Database- Spectrum MS-IW-6207
##NAMES=HP
##CAS NAME=Methoxymaleic acid
##MOLFORM=C5H6O5
##CAS REGISTRY NO=142160-72-3
##MP= -300
##BP= -300
##MW= 146
##$RETENTION INDEX=0
##$CONDENSED SPECTRUM=NO
##NPOINTS= 90
##XYDATA=(XY..XY) 1 
    12          4
    13         15
    14         10
    15         89
    16          3
    17         31
    18        135
    19          1
    24          5
    25         27
    26         43
    27         46
    28         49
    29         54
    30          8
    31         22
    32          9
    33          6
    36          1
    37          2
    38          1
    39          5
    40         22
    41        202
    42         54
    43         65
    44        102
    45         44
    46          1
    47          4
    52         10
    53         99
    54          9
    55         12
    56         66
    57         14
    58          2
    59         23
    60          3
    61          1
    66          1
    67          3
    68         20
    69        999
    70         52
    71         21
    72         15
    73          6
    74          2
    75          1
    82          4
    83          4
    84        203
    85         16
    86          9
    87        125
    88         11
    89          1
    94          1
    95          1
    96          1
    97          8
    98         39
    99         18
   100         17
   101         17
   102         24
   103          2
   105          1
   110         32
   111          7
   112          3
   113          4
   114          2
   115         10
   116          7
   117          9
   118          1
   122          1
   125          1
   126          1
   127          5
   128        395
   129         60
   130          6
   131          1
   144          1
   145          2
   146         33
   147          6