##TITLE=Library Entry 9193
##JCAMP-DX=Revision 4.10 
##DATA TYPE=MASS SPECTRUM
##SAMPLE DESCRIPTION=NIST Mass Spectrometry Data Center, 2010
##NAMES=HP
##CAS NAME=1-Pentanol, 2,2,3,3,4,4,5,5-octafluoro-, acetate
##MOLFORM=C7H6F8O2
##CAS REGISTRY NO=1422-69-1
##MP= -300
##BP= -300
##MW= 274
##$RETENTION INDEX=0
##$CONDENSED SPECTRUM=NO
##NPOINTS= 58
##XYDATA=(XY..XY) 1 
    14          3
    15         21
    29         18
    30          4
    31         11
    33          5
    41          3
    42         43
    43        999
    44         28
    45          8
    47          1
    51        106
    52          1
    56          1
    57          3
    60          1
    61          6
    62          1
    63          3
    64         22
    65          1
    69         74
    73        122
    74          5
    75          9
    76          1
    77          3
    81          3
    82         17
    83         19
    91          1
    93          5
    94          2
    95         40
    96          1
   100         28
   101         24
   109          2
   111          2
   112          2
   113         27
   119          5
   123          9
   124          1
   126          1
   127          1
   131         25
   132          2
   133          7
   145         70
   151         11
   163          2
   173          1
   195          1
   204          2
   215          1
   255         14