##TITLE=Library Entry 21534
##JCAMP-DX=Revision 4.10 
##DATA TYPE=MASS SPECTRUM
##SAMPLE DESCRIPTION=MASS SPECTROMETRY CENTER, UNIV. OF UTAH ALDRICH 11513-4
##NAMES=HP
##CAS NAME=Pyrrolidine, 1-(cyanoacetyl)-
##MOLFORM=C7H10N2O
##CAS REGISTRY NO=14227-95-3
##MP= -300
##BP= -300
##MW= 138
##$RETENTION INDEX=0
##$CONDENSED SPECTRUM=NO
##NPOINTS= 40
##XYDATA=(XY..XY) 1 
    14         15
    15        113
    26         32
    27        155
    28        265
    29        100
    30        158
    38         32
    39        175
    40        224
    41        514
    42        448
    43        412
    44         40
    52          6
    53         25
    54         24
    55        999
    56        489
    57          8
    67         38
    68        239
    69         87
    70        619
    71         38
    82        116
    83        124
    84         13
    85          1
    95         25
    96         38
    97         16
    98        403
    99         29
   110        262
   111         84
   112          1
   137        109
   138        808
   139         81