##TITLE=Library Entry 76973
##JCAMP-DX=Revision 4.10 
##DATA TYPE=MASS SPECTRUM
##SAMPLE DESCRIPTION=Chemical Concepts
##NAMES=HP
##CAS NAME=Tricyclo[4.2.1.1(2,5)]deca-3,7-diene-9,10-dione, (1.alpha.,2.beta
.,5.beta.,6.alpha.)-
##MOLFORM=C10H8O2
##CAS REGISTRY NO=14224-65-8
##MP= -300
##BP= -300
##MW= 160
##$RETENTION INDEX=0
##$CONDENSED SPECTRUM=NO
##NPOINTS= 87
##XYDATA=(XY..XY) 1 
    24         12
    26        197
    27        122
    28         22
    29         10
    31          1
    36          2
    37         41
    38         99
    39        301
    40         93
    41          8
    42          3
    43          2
    44          3
    48          1
    49         27
    50        293
    51        632
    52        524
    53         49
    54         54
    55         27
    56          1
    57          1
    58          0
    60          2
    61         24
    62         48
    63        129
    64         25
    65         61
    66          8
    67          2
    68          1
    69          0
    73          9
    74         49
    75         40
    76         60
    77        322
    78        965
    79         69
    80         60
    81          5
    82          4
    83          0
    84          2
    85          3
    86          6
    87          7
    88          2
    89         31
    90          7
    91         65
    92         10
    93          1
    94          8
    95          8
    97          1
    98          5
    99          1
   101          5
   102         67
   103        745
   104        999
   105         99
   106         11
   107          2
   113          1
   114          3
   115         27
   116         12
   117          1
   118          6
   119          4
   131        887
   132        741
   133         71
   134          4
   143          1
   145          0
   149          4
   155          1
   160        212
   161         22
   162          2