##TITLE=Library Entry 39981
##JCAMP-DX=Revision 4.10 
##DATA TYPE=MASS SPECTRUM
##SAMPLE DESCRIPTION=Chuck Anderson, Aldrich Chemical Co.
##NAMES=HP
##CAS NAME=(1R,2R)-(-)-N-Methylpseudoephedrine
##MOLFORM=C11H17NO
##CAS REGISTRY NO=14222-20-9
##MP= -300
##BP= -300
##MW= 179
##$RETENTION INDEX=0
##$CONDENSED SPECTRUM=NO
##NPOINTS= 57
##XYDATA=(XY..XY) 1 
    15         10
    18          5
    26          5
    27         21
    28         26
    29         20
    30         10
    35         15
    36         96
    37          8
    38         36
    39         14
    40          3
    41          9
    42         74
    43         18
    44         46
    45          2
    49          1
    50         20
    51         42
    52         12
    53          4
    54          7
    55         11
    56         59
    57         17
    58         25
    62          2
    63          5
    65          3
    68          3
    70         42
    71         72
    72        999
    73         49
    74         10
    75          4
    76          5
    77        122
    78         21
    79         12
    89          2
    91         11
   102          1
   103          2
   105         91
   106         83
   107          7
   115          5
   116          1
   117          7
   118          4
   133          1
   134          2
   146          1
   148          1