##TITLE=Library Entry 65893
##JCAMP-DX=Revision 4.10 
##DATA TYPE=MASS SPECTRUM
##SAMPLE DESCRIPTION=A.A.Kutin, Moscow, Russia
##NAMES=HP
##CAS NAME=Spiro[4,4]nonane 4-carboxamide, 1-oxa-2-oxo-N-phenyl-
##MOLFORM=C15H17NO3
##CAS REGISTRY NO=142203-68-7
##MP= -300
##BP= -300
##MW= 259
##$RETENTION INDEX=0
##$CONDENSED SPECTRUM=NO
##NPOINTS= 115
##XYDATA=(XY..XY) 1 
    37          3
    38         10
    39         68
    40         27
    41        101
    42         23
    43         25
    44         13
    45          5
    50          7
    51         35
    52         11
    53         28
    54         20
    55        456
    56         31
    57         32
    58          4
    64         15
    65         78
    66         37
    67         53
    68         10
    69         21
    70         13
    71         15
    72          1
    73          9
    74          4
    75          3
    76          6
    77        131
    78         16
    79         35
    80         32
    81         19
    82         14
    83         30
    84         14
    85         30
    86          2
    91         43
    92         58
    93        999
    94        164
    95         32
    96          6
    97         13
    98         23
    99          4
   100          1
   104          6
   105          4
   106          9
   107          4
   109          8
   110          7
   111         19
   112         12
   113          4
   117          5
   118         14
   119         56
   120         42
   121         24
   122         71
   123         10
   124          7
   125         11
   126          3
   128         14
   129          4
   130          9
   131          3
   134          2
   135         15
   136          3
   138         11
   139         29
   140         28
   141          5
   145          3
   146         60
   147         39
   148        121
   149         21
   150          2
   151          2
   173          3
   174         79
   175        172
   176         26
   177          3
   178          1
   199          3
   200         43
   201          8
   202         10
   203          2
   204          1
   216          2
   217         93
   218         13
   219          0
   229          0
   230         18
   231          7
   232          1
   240          3
   241         58
   242          9
   243          1
   259        236
   260         40
   261          6