##TITLE=Library Entry 15016
##JCAMP-DX=Revision 4.10 
##DATA TYPE=MASS SPECTRUM
##SAMPLE DESCRIPTION=D.HENNEBERG, MAX-PLANCK INSTITUTE, MULHEIM, WEST GERMAN
Y
##NAMES=HP
##CAS NAME=Molybdenum, tetrakis[.mu.-(acetato-O:O')]di-, (Mo-Mo)
##MOLFORM=C8H12Mo2O8
##CAS REGISTRY NO=14221-06-8
##MP= -300
##BP= -300
##MW= 432
##$RETENTION INDEX=0
##$CONDENSED SPECTRUM=NO
##NPOINTS= 329
##XYDATA=(XY..XY) 1 
    26         13
    27          2
    28        178
    29         25
    30          1
    31          5
    36          1
    38          0
    39          2
    40          7
    41         34
    42        184
    43        999
    44         25
    45         68
    46          0
    51          0
    53          0
    54          0
    55          1
    56          0
    57          0
    58          0
    60         44
    61          1
    73          2
    77          0
    78          0
    92          0
    94          0
    95          0
    96          0
    97          0
    98          1
    99          0
   100          0
   105          0
   106          0
   107          0
   109          0
   111          0
   112          0
   113          0
   115          0
   122          0
   123          0
   124          0
   125          1
   126          1
   127          1
   128          1
   129          1
   130          0
   131          1
   132          0
   137          0
   138          0
   139          0
   140          1
   141          0
   142          1
   143          1
   144          0
   145          1
   146          1
   147          0
   148          0
   151          0
   152          0
   153          0
   154          0
   155          0
   156          0
   157          0
   159          0
   164          0
   166          0
   167          0
   168          1
   169          0
   170          1
   171          1
   172          1
   173          0
   174          0
   177          0
   179          0
   180          0
   181          0
   182          0
   183          0
   184          0
   185          0
   186          0
   187          0
   188          0
   190          0
   199          0
   201          0
   206          0
   207          0
   209          0
   210          0
   211          0
   212          0
   213          1
   214          1
   215          0
   216          0
   217          0
   218          0
   219          0
   220          0
   221          1
   222          1
   223          1
   224          1
   225          1
   226          2
   227          1
   228          1
   229          1
   230          1
   231          1
   232          1
   233          1
   234          2
   235          2
   236          3
   237          4
   238          4
   239          5
   240          6
   241          5
   242          5
   243          6
   244          5
   245          5
   246          5
   247          3
   248         10
   249         10
   250         14
   251         22
   252         27
   253         28
   254         40
   255         36
   256         39
   257         39
   258         35
   259         27
   260         24
   261         14
   262         15
   263         12
   264         11
   265         17
   266         21
   267         26
   268         34
   269         39
   270         39
   271         47
   272         44
   273         43
   274         39
   275         36
   276         28
   277         29
   278         28
   279         32
   280         36
   281         40
   282         47
   283         46
   284         52
   285         43
   286         40
   287         35
   288         29
   289         19
   290         21
   291         16
   292         19
   293         30
   294         31
   295         37
   296         53
   297         54
   298         54
   299         73
   300         56
   301         63
   302         57
   303         46
   304         37
   305         38
   306         16
   307         25
   308         13
   309         17
   310         15
   311         20
   312         17
   313         24
   314         22
   315         25
   316         21
   317         22
   318         37
   319         21
   320         38
   321         61
   322         70
   323         73
   324        131
   325         86
   326        138
   327        115
   328        113
   329         80
   330         92
   331         24
   332         47
   333          8
   334         12
   335         13
   336         13
   337         19
   338         28
   339         42
   340         38
   341         62
   342         53
   343         63
   344         58
   345         59
   346         40
   347         45
   348         22
   349         24
   350         11
   351         15
   352         12
   353         14
   354         10
   355         13
   356         10
   357         11
   358          8
   359          8
   360          7
   361         21
   362          8
   363         26
   364         44
   365         50
   366         55
   367         99
   368         68
   369        104
   370         92
   371         88
   372         68
   373         68
   374         23
   375         34
   376          4
   377         10
   378          8
   379          5
   380         14
   381         21
   382         24
   383         33
   384         43
   385         36
   386         49
   387         43
   388         38
   389         31
   390         28
   391         12
   392         12
   393          2
   394          3
   395          0
   396          0
   397          0
   399          0
   400          0
   401          0
   402          0
   403          0
   404          0
   405          0
   406          0
   408          0
   409          0
   410          0
   411          0
   412          0
   413          1
   414          0
   415          0
   416          0
   417          0
   418          1
   419          4
   420         77
   421         12
   422        100
   423        177
   424        222
   425        244
   426        468
   427        312
   428        510
   429        436
   430        439
   431        326
   432        351
   433        106
   434        171
   435         20
   436         36
   437          3
   438          0