##TITLE=Library Entry 60219
##JCAMP-DX=Revision 4.10 
##DATA TYPE=MASS SPECTRUM
##SAMPLE DESCRIPTION=Humboldt-Universitat zu Berlin, Department of Chemistry
, Analytical Group
##NAMES=HP
##CAS NAME=1,3,6,8-Tetraphenyl-1H-3a,5a,6,9a-tetrahydro-[1,2,4]-triazolo[4,3
-a]-pyrazolo[4,3-E]pyridine
##MOLFORM=C31H25N5
##CAS REGISTRY NO=142397-40-8
##MP= -300
##BP= -300
##MW= 467
##$RETENTION INDEX=0
##$CONDENSED SPECTRUM=NO
##NPOINTS= 296
##XYDATA=(XY..XY) 1 
    12          4
    13          1
    14          2
    15          4
    16          9
    17         36
    18        128
    20          1
    25          1
    26          7
    27         29
    28         37
    29         12
    30          3
    31          5
    32          3
    36          3
    37          4
    38         18
    39         82
    40         16
    41         74
    42          7
    43         11
    44         34
    45          2
    49          1
    50         20
    51        132
    52         43
    53         10
    54          3
    55          5
    56          2
    57          5
    58          1
    60          2
    61          1
    62          5
    63         51
    64        242
    65         86
    66         13
    67          4
    68          1
    69          2
    70          2
    71          2
    73          2
    74          4
    75          9
    76         31
    77        365
    78         49
    79         12
    80          5
    81          2
    82          1
    83          2
    84          1
    85          1
    86          1
    87          2
    88          5
    89         28
    91        999
    92        130
    93         18
    94          2
    95          1
    96          1
    97          2
    98          2
    99          1
   100          2
   101          6
   102         14
   103         53
   104        107
   105         15
   106          2
   107          1
   109          1
   110          2
   111          1
   112          1
   113          5
   114         11
   115         64
   116         28
   117         28
   118         14
   119         16
   120          4
   121          1
   125          2
   126          6
   127         24
   128         53
   129         29
   130         30
   131          8
   132          2
   133          1
   137          1
   138          2
   139         12
   140         26
   141         16
   142         22
   143         36
   144          7
   145          3
   146          1
   150          1
   151          6
   152         16
   153         13
   154         29
   155         18
   156         25
   157         33
   158          5
   159          1
   163          1
   164          2
   165         16
   166         13
   167         34
   168         51
   169         65
   170          8
   171          2
   173          0
   174          1
   176          1
   177          2
   178          5
   179          6
   180         17
   181         16
   182          6
   183          3
   184          1
   189          2
   190          3
   191          4
   192          9
   193         20
   194         66
   195         15
   196          4
   197          0
   200          0
   201          1
   202          4
   203          2
   204          4
   205          4
   206          4
   207          3
   208          1
   209          0
   213          0
   214          1
   215          6
   216          6
   217          7
   218         11
   219         39
   220        319
   221         63
   222        221
   223         39
   224          3
   226          1
   227          1
   228          3
   229          4
   230          5
   231          9
   233         70
   235          5
   236          1
   240          1
   241          2
   242          4
   243          7
   244         75
   245        152
   246         84
   247         44
   248          8
   249          1
   253          0
   254          0
   255          3
   256          5
   257          9
   258          7
   259         11
   260         14
   261          7
   262          1
   267          0
   268          1
   269          1
   270          8
   271          5
   272         32
   273          8
   274          1
   275          0
   276          0
   281          0
   282          0
   283          1
   284          1
   285          2
   286          0
   287          0
   295          0
   297          9
   298          2
   299          0
   300          0
   307          0
   309         66
   310         18
   311          3
   312          0
   317          0
   318          0
   319          0
   320          1
   321          1
   322          1
   323          0
   324          0
   330          0
   331          0
   332          0
   333          0
   334          0
   335          0
   336          0
   337          0
   338          0
   344          0
   345          0
   346          1
   347          0
   348          4
   349          2
   350          0
   351          0
   358          0
   359          0
   360          1
   361          4
   362          7
   363         18
   364          7
   365          1
   366          0
   371          0
   373          4
   374          2
   375         23
   376         16
   377          4
   378          0
   386          0
   388         23
   389          7
   390          6
   391          1
   392          0
   438          0
   439          0
   440          0
   441          0
   442          0
   449          0
   450          0
   451          0
   452          0
   453          0
   462          0
   464         79
   465        119
   466        177
   467        141
   468         41
   469          7
   470          0