##TITLE=Library Entry 52087
##JCAMP-DX=Revision 4.10 
##DATA TYPE=MASS SPECTRUM
##SAMPLE DESCRIPTION=V.Zaikin,Inst.Petrochem.Synth.,RAS,Moscow
##NAMES=HP
##CAS NAME=3-Methyl-2-butenoic acid, 2-chlorophenyl ester
##MOLFORM=C11H11ClO2
##CAS REGISTRY NO=142337-52-8
##MP= -300
##BP= -300
##MW= 210
##$RETENTION INDEX=0
##$CONDENSED SPECTRUM=NO
##NPOINTS= 70
##XYDATA=(XY..XY) 1 
    25          3
    26         26
    27        178
    28         13
    29        267
    30          5
    39        246
    40         42
    41         58
    42         12
    43         17
    50         35
    51         47
    52         32
    53         77
    54         39
    55        595
    56         32
    57          6
    60          4
    61          8
    62         20
    63         52
    64         34
    65         21
    66          8
    67         18
    68          4
    69          3
    71          3
    72          4
    73         42
    74          7
    75         29
    76          4
    77         14
    78          7
    79         27
    80          5
    81          4
    82         64
    83        999
    84        107
    85         12
    87          2
    91          9
    92          7
    93          4
    94         10
    95          3
    99         42
   100         13
   101         16
   103          2
   105          8
   107          6
   108         10
   110          4
   111          6
   113          3
   115          2
   119          7
   121          3
   127          7
   128         27
   129          6
   130         11
   131          3
   210         11
   212          4