##TITLE=Library Entry 60238
##JCAMP-DX=Revision 4.10 
##DATA TYPE=MASS SPECTRUM
##SAMPLE DESCRIPTION=Humboldt-Universitat zu Berlin, Department of Chemistry
, Analytical Group
##NAMES=HP
##CAS NAME=1H-6-(1-Phenyl-2-benzylidenehydrazino)-1,3-diphenylpyrazolo[3,4-b
]pyridine
##MOLFORM=C31H23N5
##CAS REGISTRY NO=142397-41-9
##MP= -300
##BP= -300
##MW= 465
##$RETENTION INDEX=0
##$CONDENSED SPECTRUM=NO
##NPOINTS= 304
##XYDATA=(XY..XY) 1 
    12          1
    13          0
    14          0
    15          0
    16          1
    17          3
    18          8
    20          0
    26          2
    27          9
    28          7
    29          2
    30          0
    31          0
    32          0
    36          0
    37          1
    38          8
    39         24
    40          8
    41         40
    42          1
    43          3
    44          1
    45          0
    49          0
    50         12
    51        103
    52         21
    53          2
    54          0
    55          2
    56          1
    57          2
    58          0
    60          0
    61          1
    62          5
    63         48
    64        268
    65         68
    66          7
    67          1
    68          0
    69          1
    70          1
    71          1
    73          0
    74          3
    75          8
    76         31
    77        417
    78         34
    79          2
    80          0
    81          0
    82          0
    83          1
    84          0
    85          1
    86          0
    87          2
    88          3
    89         13
    90         22
    91        999
    92         85
    93          7
    94          0
    95          1
    96          0
    97          1
    98          0
    99          1
   100          1
   101          5
   102          9
   103         42
   104         78
   105          7
   106          0
   107          0
   108          0
   109          0
   111          1
   112          0
   113          7
   114         14
   115         21
   116          6
   117          7
   118          7
   119          2
   121          0
   122          0
   123          0
   124          0
   125          2
   126          9
   127         13
   128         19
   129         10
   130          5
   131          1
   133          0
   137          0
   138          1
   139          8
   140         43
   141         15
   142         10
   143          3
   144          0
   149          0
   150          2
   151          5
   152          9
   153          8
   154          5
   155         11
   156          5
   157          2
   158          0
   159          0
   161          0
   163          1
   164          4
   165         14
   166         10
   167         37
   168         37
   169          5
   170          0
   171          0
   173          4
   175          0
   176          1
   177          1
   178          3
   179          7
   180         13
   181         12
   183          0
   185          0
   187          0
   188          1
   189          3
   190          2
   191          2
   192          5
   193         21
   194         73
   195         12
   196          1
   199          0
   200          0
   201          2
   202          3
   203          3
   204          4
   205          1
   206          0
   207          1
   208          1
   209          0
   212          0
   213          1
   214          2
   215         13
   216         10
   217          6
   218          6
   219          3
   220          2
   221          1
   222          1
   223          0
   224          0
   225          0
   226          2
   227          4
   228          5
   229          6
   230          3
   231          7
   233         37
   235          0
   237          0
   238          1
   239          0
   240          3
   241          5
   242         13
   244        294
   245         74
   246         22
   247          3
   248          0
   252          0
   253          2
   254          2
   255          8
   256          9
   257          7
   258         10
   259          2
   260          0
   265          0
   266          0
   267          1
   268          4
   270         49
   271         13
   272          2
   273          0
   277          0
   279          0
   280          0
   281          0
   282          1
   283          2
   284          2
   285          8
   286          2
   287          0
   289          0
   290          0
   291          0
   292          0
   293          0
   294          0
   295          0
   296          0
   297          1
   298          0
   300          0
   302          0
   303          0
   304          0
   305          0
   306          0
   307          1
   308          0
   309          0
   310          1
   311          0
   315          0
   316          0
   317          0
   318          0
   320          6
   321          2
   322          0
   323          0
   328          0
   329          0
   330          0
   331          1
   332          1
   333          0
   334          0
   335          0
   337          0
   342          0
   343          0
   344          1
   345          0
   346          1
   347          0
   348          0
   356          0
   357          0
   358          1
   359          3
   360          3
   361         11
   362          4
   363          0
   369          0
   371          0
   373         13
   374          4
   375          0
   376          0
   386          1
   388         96
   389         28
   390          4
   391          0
   434          0
   435          0
   436          0
   437          0
   438          0
   439          0
   440          0
   447          0
   462          1
   464        286
   465        408
   466        133
   467         21
   468          2
   469          0