##TITLE=Library Entry 32455
##JCAMP-DX=Revision 4.10 
##DATA TYPE=MASS SPECTRUM
##SAMPLE DESCRIPTION=NIST Mass Spectrometry Data Center, 1990.
##NAMES=HP
##CAS NAME=3-Cyclohexene-1-carboxaldehyde, 2,4,6-trimethyl-
##MOLFORM=C10H16O
##CAS REGISTRY NO=1423-46-7
##MP= -300
##BP= -300
##MW= 152
##$RETENTION INDEX=0
##$CONDENSED SPECTRUM=NO
##NPOINTS= 75
##XYDATA=(XY..XY) 1 
    15         48
    18         14
    26         34
    27        361
    28         66
    29        369
    30         12
    31         15
    32          2
    37          9
    39        673
    40        145
    41        887
    42         71
    43        304
    44         10
    45         29
    50         56
    51        163
    52         70
    53        275
    54         68
    55        297
    56         23
    57         80
    61          8
    62         23
    63         59
    64         26
    65        219
    66         88
    67        999
    68        108
    69        597
    70         41
    71         26
    74         11
    75          9
    77        315
    78         71
    79        322
    80         72
    81        754
    82        342
    83         40
    84          8
    89         14
    91        388
    92         58
    93        242
    94         75
    95        358
    96         44
    97         18
   103         28
   105        144
   106         49
   107        454
   108        111
   109        349
   110        102
   111          8
   115          8
   117          9
   119        141
   121        720
   122         86
   123        233
   124         27
   134         82
   135         11
   137        128
   138         14
   152        175
   153         18