##TITLE=Library Entry 37917
##JCAMP-DX=Revision 4.10 
##DATA TYPE=MASS SPECTRUM
##SAMPLE DESCRIPTION=Institute of Organic Chemistry, USSR, 1990
##NAMES=HP
##CAS NAME=5-Hydroxyimino-4-oxo-4,5,6,7-tetrahydrobenzofurazan
##MOLFORM=C6H5N3O3
##CAS REGISTRY NO=142328-07-2
##MP= -300
##BP= -300
##MW= 167
##$RETENTION INDEX=0
##$CONDENSED SPECTRUM=NO
##NPOINTS= 64
##XYDATA=(XY..XY) 1 
    40        124
    41         87
    42         68
    43         36
    44         47
    45         15
    50         10
    51         53
    52        196
    53        120
    54        366
    55         93
    56         97
    57         90
    58          7
    59         30
    62          5
    63         16
    64         48
    65         15
    66        107
    67         44
    68         23
    69         53
    70        999
    71         38
    78         11
    79         73
    80        136
    81        166
    82        203
    83         23
    84          9
    85         23
    91         22
    92         33
    93         16
    94         15
    95         33
    96         33
    97         46
   106          7
   107         37
   108         16
   109         63
   110          9
   111          8
   113          5
   119          8
   121         10
   122         12
   123         10
   124          7
   137         11
   138         17
   139         78
   140         83
   141          9
   149          5
   150        248
   151         21
   167        894
   168         72
   169         11