##TITLE=Library Entry 23195
##JCAMP-DX=Revision 4.10 
##DATA TYPE=MASS SPECTRUM
##SAMPLE DESCRIPTION=Exported from NIST MS Search
##NAMES=HP
##CAS NAME=p-Dioxane-2,5-dimethanol
##MOLFORM=C6H12O4
##CAS REGISTRY NO=14236-12-5
##MP= -300
##BP= -300
##MW= 148
##$RETENTION INDEX=0
##$CONDENSED SPECTRUM=NO
##NPOINTS= 99
##XYDATA=(XY..XY) 1 
    12          1
    13          1
    14         10
    15        111
    16          5
    25          1
    26         20
    27        142
    28        163
    29        349
    30        102
    31        473
    33          9
    36          1
    37          3
    38          5
    39         45
    40         44
    41        129
    42         44
    43        379
    44         86
    45        223
    46          6
    47          5
    49          1
    51          2
    53          6
    54          2
    55         29
    56         44
    57        999
    58        162
    59         55
    60        231
    61        219
    62          7
    63          1
    65          1
    67          1
    68          1
    69         29
    70         12
    71         95
    72          7
    73        189
    74         64
    75         36
    76          2
    77          1
    79          1
    81          1
    82          1
    83          2
    84          5
    85          4
    86          4
    87         49
    88          4
    89          3
    90          1
    91          2
    92          1
    93          1
    94          1
    95          1
    96          1
    97          1
    98          1
    99         24
   100         10
   101          2
   102          1
   103          4
   104          1
   105          2
   106          1
   107          1
   108          1
   109          1
   110          1
   111          1
   112          3
   113          1
   114          1
   115          1
   116         35
   117        432
   118         29
   119          4
   120          1
   121          1
   128          1
   129          1
   130         11
   131          1
   147          1
   148          8
   149          1