##TITLE=Library Entry 109176
##JCAMP-DX=Revision 4.10 
##DATA TYPE=MASS SPECTRUM
##SAMPLE DESCRIPTION=Chemical Concepts
##NAMES=HP
##CAS NAME=2-Propenenitrile, 3-(phenylsulfonyl)-
##MOLFORM=C9H7NO2S
##CAS REGISTRY NO=1424-51-7
##MP= -300
##BP= -300
##MW= 193
##$RETENTION INDEX=0
##$CONDENSED SPECTRUM=NO
##NPOINTS= 87
##XYDATA=(XY..XY) 1 
    27         36
    29          2
    31          0
    33          1
    34          1
    36          0
    37          7
    38         13
    39         50
    40          8
    44          1
    45         13
    46          3
    47          0
    48          4
    49          7
    50        126
    51        449
    52         61
    53         15
    54          1
    55          0
    56          0
    57          2
    58          2
    59          1
    61          2
    62          3
    63         15
    64          3
    65         87
    66          3
    68          0
    69         11
    70          2
    72          0
    73          5
    74         37
    75         24
    76         29
    77        720
    78         63
    79          2
    80          0
    81         15
    82          3
    84          2
    86          1
    88          0
    89          2
    90          0
    91          0
    92          0
    93         21
    94          3
    95          1
    96          0
    97        115
    98          6
   100          1
   101          6
   102         15
   103         15
   104          2
   108          2
   109          6
   110          1
   116          1
   117          0
   118          0
   124          0
   125        999
   126         65
   127         47
   128         13
   129         42
   130          5
   134          1
   141         40
   142          2
   143          2
   144          1
   160          1
   161          0
   193        108
   194         15
   195          7