##TITLE=Library Entry 77879
##JCAMP-DX=Revision 4.10 
##DATA TYPE=MASS SPECTRUM
##SAMPLE DESCRIPTION=Chemical Concepts
##NAMES=HP
##CAS NAME=Butane, 1,4-bis(4,6-diphenyl-1,3,5-triazin-2-yl)-
##MOLFORM=C34H28N6
##CAS REGISTRY NO=142406-96-0
##MP= -300
##BP= -300
##MW= 520
##$RETENTION INDEX=0
##$CONDENSED SPECTRUM=NO
##NPOINTS= 150
##XYDATA=(XY..XY) 1 
    26          1
    27          4
    28          3
    29          2
    35          0
    36          2
    37          0
    38          0
    39          9
    40         19
    41         76
    42          6
    43          0
    44          1
    50          7
    51         15
    52          7
    53          7
    54         29
    55         13
    56          0
    63          2
    64          0
    65          0
    66          4
    67         33
    68         33
    69          1
    74          0
    75          5
    76         56
    77        105
    78          8
    79          2
    80          9
    81          1
    82          3
    88          0
    89          1
    90          0
    91          0
    92          0
   101          0
   102          8
   103        167
   104        999
   105         78
   106          4
   107          8
   108          0
   109          0
   114          0
   115          1
   116          6
   117          2
   118          0
   128          0
   129         23
   130          6
   131          0
   141          0
   142          1
   143         15
   144          1
   145          0
   151          0
   155          0
   156          0
   157          2
   168          1
   169         15
   170         13
   171          2
   177          0
   178          0
   180          0
   181          1
   182          0
   183          1
   192          0
   193          6
   194          2
   195          0
   196          0
   205          7
   206          1
   207          0
   208          1
   209          0
   210          2
   211          0
   232          1
   233          1
   234          0
   246          0
   247        248
   248        206
   249         32
   250          2
   259          0
   260         38
   261         61
   262         11
   263          0
   271          0
   272         29
   273         61
   274        234
   275         46
   276          4
   277          0
   281          2
   282          0
   283          1
   284          1
   285          1
   286          1
   287          0
   288          2
   289          0
   295          0
   296          4
   297          1
   307          0
   308          0
   309          0
   310          0
   311          1
   312          1
   313         15
   314          3
   315          0
   400          1
   414          0
   416          1
   417          0
   418          0
   491          2
   492          7
   493          2
   494          0
   503          0
   516          0
   517          4
   518          7
   519         10
   520         51
   521         20
   522          3
   523          0