##TITLE=Library Entry 2470
##JCAMP-DX=Revision 4.10 
##DATA TYPE=MASS SPECTRUM
##SAMPLE DESCRIPTION=F. TURECEK,HEYROVSKY INST PHYS CHEM & ELECTROCHEM,PRAGU
E,CZECH
##NAMES=HP
##CAS NAME=1,6-Anhydro-2,4-dideoxy-.beta.-D-arabo-hexopyranose
##MOLFORM=C6H10O3
##CAS REGISTRY NO=14241-58-8
##MP= -300
##BP= -300
##MW= 130
##$RETENTION INDEX=0
##$CONDENSED SPECTRUM=NO
##NPOINTS= 57
##XYDATA=(XY..XY) 1 
    38         26
    39        242
    40        127
    41        999
    42        125
    43        915
    44        700
    45        251
    47         29
    50         18
    51         31
    52         11
    53         58
    54         46
    55        283
    56        163
    57        915
    58        434
    59         50
    60         15
    61        184
    62          9
    63         11
    65         42
    66         61
    67        149
    68         25
    69        172
    70         25
    71         57
    72         26
    73         55
    79         10
    81         48
    82         29
    83        225
    84        485
    85         36
    86        133
    87         60
    88          8
    89        202
    94          8
    95         20
    96         19
    97          9
    98         16
   100         32
   101          5
   109         10
   111         10
   112         16
   113         25
   129          9
   130         44
   131         11
   132          3