##TITLE=Library Entry 98739
##JCAMP-DX=Revision 4.10 
##DATA TYPE=MASS SPECTRUM
##SAMPLE DESCRIPTION=Chemical Concepts
##NAMES=HP
##CAS NAME=2,2'-(1,4-Butanediyl)bis[4,6-bis(p-tolyl)-1,3,5-triazine]
##MOLFORM=C38H36N6
##CAS REGISTRY NO=142406-99-3
##MP= -300
##BP= -300
##MW= 576
##$RETENTION INDEX=0
##$CONDENSED SPECTRUM=NO
##NPOINTS= 152
##XYDATA=(XY..XY) 1 
    25          0
    26          1
    27          1
    37          1
    39          4
    41         42
    42          4
    44          2
    50          1
    51          1
    52          2
    53          3
    54         17
    55          4
    59          0
    63          3
    64          2
    65         16
    66          1
    67         28
    68         21
    73          1
    76          0
    77          1
    78          1
    80          5
    82          1
    88          1
    89         21
    90         48
    91         73
    92          4
    93          0
    97          0
   102          2
   103          2
   104          3
   107          7
   108          1
   109          3
   110          1
   111          0
   112          0
   114          1
   115          2
   116         56
   117        104
   118        999
   119         95
   120          4
   128          0
   129          2
   130          3
   131          1
   132          1
   138          1
   140          0
   142          1
   143         22
   144          7
   151          1
   152          0
   155          0
   156          2
   157         15
   158          2
   159          1
   165          0
   167          0
   169          1
   170          1
   171          2
   181          0
   182          1
   183         17
   184         19
   185          1
   191          0
   195          1
   197          1
   199          0
   206          0
   207          4
   208          3
   209          2
   210          0
   218          0
   219          0
   224          4
   229          0
   230          1
   232          1
   233          8
   234          1
   235          1
   236          1
   246          0
   260          1
   261          2
   262          1
   273          1
   274          3
   275        276
   276        298
   277         66
   278          6
   279          0
   281          1
   286          2
   287          1
   288         57
   289         88
   290         20
   291          2
   299          0
   300         24
   301         82
   302        315
   303         74
   304          8
   305          0
   309          0
   312          0
   313          1
   314          1
   315          0
   316          2
   317          1
   324          1
   325          0
   336          0
   340          0
   341         14
   342          4
   343          1
   442          2
   458          1
   459          0
   519          0
   547          5
   548          9
   549          4
   550          0
   559          1
   562          1
   573          0
   574          1
   575          4
   576         61
   577         28
   578          7
   579          1