##TITLE=Library Entry 98728
##JCAMP-DX=Revision 4.10 
##DATA TYPE=MASS SPECTRUM
##SAMPLE DESCRIPTION=Chemical Concepts
##NAMES=HP
##CAS NAME=2,2'-(1,3-Propanediyl)bis[4,6-bis(p-tolyl)-1,3,5-triazine]
##MOLFORM=C37H34N6
##CAS REGISTRY NO=142406-98-2
##MP= -300
##BP= -300
##MW= 562
##$RETENTION INDEX=0
##$CONDENSED SPECTRUM=NO
##NPOINTS= 169
##XYDATA=(XY..XY) 1 
    26          2
    27          6
    29          1
    36          1
    37          0
    38          1
    39         11
    40          0
    41         55
    42          3
    43          3
    44          3
    45          0
    48          0
    50          1
    51          3
    52          2
    53          2
    54         42
    55          3
    56          1
    57          1
    60          0
    62          2
    63          8
    64          4
    65         26
    66         13
    67          7
    68          6
    69          0
    70          0
    71          1
    74          1
    75          2
    76          2
    77          4
    78          2
    79          1
    80          0
    81          0
    82          0
    83          1
    85          1
    86          0
    87          0
    88          3
    89         42
    90         81
    91         87
    92          9
    93         13
    94          2
    95          1
    96          0
    97          1
    99          0
   102          2
   103          3
   104          3
   105          1
   106          0
   109          0
   111          0
   114          2
   115          4
   116         89
   117        142
   118        999
   119         85
   120          4
   121          0
   128          0
   129          1
   130          2
   131          1
   132          1
   135          0
   141          0
   142          1
   143         19
   144          5
   145          0
   152          0
   154          0
   155          0
   156          1
   157          5
   158          0
   164          6
   165          0
   168          0
   169          6
   170          0
   172          0
   179          0
   181          0
   182          2
   183          3
   184          0
   185          0
   190          0
   191          0
   193          0
   194          0
   195          0
   203          0
   204          0
   206          0
   207          0
   208          0
   209          0
   210          5
   211          0
   217          0
   218          1
   219          0
   221          0
   223          2
   224          0
   231          1
   232          0
   233          7
   234          1
   235          0
   236          0
   246          0
   247          0
   249          0
   250          0
   260          0
   261          1
   262          0
   274          4
   275        371
   276         83
   277          7
   281         11
   282          0
   286          1
   288        422
   289         93
   290         11
   291          0
   300          1
   301          1
   302          2
   303          0
   309          0
   311          0
   322          0
   325          0
   326          1
   327         18
   328          5
   329          0
   332          0
   391          0
   403          0
   444          0
   445          0
   534          0
   548          0
   549          0
   560          0
   561          2
   562         30
   563         13
   564          2