##TITLE=Library Entry 85205
##JCAMP-DX=Revision 4.10 
##DATA TYPE=MASS SPECTRUM
##SAMPLE DESCRIPTION=G. Lange, Inst. Org. Chem., Univ. Wurzburg, Germany
##NAMES=HP
##CAS NAME=Cyclohexanecarbonitrile, 3,3,5,5-tetramethyl-1-(phenylsulfinyl)-
##MOLFORM=C17H23NOS
##CAS REGISTRY NO=142484-09-1
##MP= -300
##BP= -300
##MW= 289
##$RETENTION INDEX=0
##$CONDENSED SPECTRUM=NO
##NPOINTS= 114
##XYDATA=(XY..XY) 1 
    37         18
    38         36
    39        338
    40         49
    41        567
    42         68
    43        248
    44         19
    45         63
    47          3
    48         19
    49         15
    50        108
    51        289
    52         58
    53        257
    54         52
    55        250
    56        293
    57        356
    58         42
    59         14
    60          4
    61         18
    62         19
    63         55
    64         25
    65        266
    66        127
    67        167
    68         31
    69        187
    70         38
    71         30
    72          6
    73         10
    74         36
    75         29
    76         28
    77        499
    78        572
    79        218
    80        203
    81        308
    82         54
    83        294
    84         37
    85          3
    89         16
    90         11
    91        127
    92        102
    93        117
    94        130
    95        125
    96         28
    97        159
    98         13
    99          9
   102          6
   103         15
   104         21
   105         55
   106        263
   107        432
   108        999
   109        352
   110        843
   111         75
   112         37
   115          5
   116         25
   117         15
   118         24
   119         21
   120         58
   121        105
   122        142
   123         36
   124          5
   125        236
   126        785
   127         70
   128         40
   129          6
   130         10
   131         12
   132         31
   133         27
   134         46
   135         18
   136          8
   137         27
   138          5
   139          4
   146          7
   147         24
   148        336
   149         83
   150         72
   151          9
   154          3
   162         14
   163        108
   164        688
   165         93
   166          6
   218          5
   258          4
   273        158
   274         33
   275          9
   289          7
   290          3