##TITLE=Library Entry 98754
##JCAMP-DX=Revision 4.10 
##DATA TYPE=MASS SPECTRUM
##SAMPLE DESCRIPTION=Chemical Concepts
##NAMES=HP
##CAS NAME=2,2'-(1,2-Ethanediyl)bis[4,6-bis(p-tolyl)-1,3,5-triazine]
##MOLFORM=C36H32N6
##CAS REGISTRY NO=142406-97-1
##MP= -300
##BP= -300
##MW= 548
##$RETENTION INDEX=0
##$CONDENSED SPECTRUM=NO
##NPOINTS= 297
##XYDATA=(XY..XY) 1 
    25          0
    26          1
    27          9
    28         33
    29          6
    30          8
    31          1
    36          1
    38          2
    39         13
    40        103
    41         11
    42         14
    43          5
    44         21
    45          1
    50          2
    51          6
    52          6
    53         11
    54         34
    55          4
    56          1
    57          3
    58          2
    59          0
    60          3
    61          0
    62          2
    63         11
    64          6
    65         35
    66          5
    67          3
    68          0
    69          2
    70          0
    71          1
    72          2
    73         20
    74          1
    75          2
    76          2
    77          5
    78          2
    79         21
    80         49
    81         13
    82          1
    83          1
    84          0
    85          0
    86          0
    87          1
    88          3
    89         62
    90        104
    91        114
    92          9
    93          0
    95          0
    97          0
    98          1
    99          0
   101          0
   102          4
   103          4
   104         11
   105          2
   106          2
   107          0
   108          0
   109          0
   111          0
   112          0
   113          0
   114          3
   115          8
   116        140
   117        280
   118        999
   119        378
   120         30
   121          1
   126          0
   127          0
   128          1
   129          2
   130          3
   131          2
   132          0
   135          0
   136          0
   137          0
   139          0
   140          0
   141          0
   142          3
   143         31
   144         34
   145          4
   146          1
   148          0
   149          2
   150          1
   151          0
   152          1
   153          0
   154          1
   155          4
   156          4
   157        133
   158          3
   162          0
   166          0
   167          1
   168          1
   169         16
   170          2
   171          1
   172          1
   173          0
   174          0
   175          0
   176          0
   177          0
   178          0
   179          1
   180          2
   181          1
   182          5
   183          2
   184          1
   185          0
   187          0
   190          1
   191          1
   192          0
   193          1
   194          7
   195          9
   196         24
   197         68
   198          7
   199          1
   203          0
   204          0
   205          0
   206          4
   207          3
   208          1
   209          1
   210          0
   214          0
   215          1
   216         12
   217          2
   218          2
   219          3
   220          0
   221         24
   222          6
   223          1
   229          1
   230          0
   231          2
   232          2
   233         32
   234          7
   235          4
   236         87
   237         15
   238          1
   245          0
   246          5
   247          2
   248          0
   249          0
   250          0
   257          0
   258          0
   259          0
   260          4
   261         18
   262          4
   263          0
   269          0
   270          0
   271          0
   272          1
   273          2
   274          5
   275          8
   276          1
   281          0
   283          0
   284          0
   285          0
   286          9
   287          7
   288        285
   289         67
   290          6
   291          0
   295          0
   297          7
   298          5
   299         29
   300          7
   301          6
   302          4
   303          0
   304          0
   309          0
   310          0
   311          7
   312         37
   313         88
   314         89
   315         20
   316          2
   317          0
   320          0
   322          0
   323          2
   324          0
   325          0
   326          2
   327          0
   328          0
   331          1
   332          0
   333          0
   334          0
   335          0
   336          0
   337          0
   338          0
   339          0
   345          1
   346          1
   347          0
   348          1
   349          0
   350          0
   351          8
   352          3
   353          0
   362          0
   363          0
   364          2
   365          0
   366          0
   377          0
   389          1
   390          2
   391          1
   392          1
   393          0
   403          0
   405          0
   414          1
   415          1
   416          0
   417          0
   419          0
   428          2
   429          6
   430          7
   431          6
   432          2
   433          0
   441          0
   443          0
   444          0
   457          0
   463          0
   471          0
   481          0
   482          0
   520          1
   521          0
   531          1
   532          4
   533          4
   534         15
   535          7
   536          2
   537          0
   545          4
   546         51
   547         46
   548        769
   549        310
   550         65
   551          7
   552          1