##TITLE=Library Entry 61129
##JCAMP-DX=Revision 4.10 
##DATA TYPE=MASS SPECTRUM
##SAMPLE DESCRIPTION=MASS SPECTROMETRY CENTER, UNIV. OF UTAH ALDRICH D03675-
5
##NAMES=HP
##CAS NAME=Thiourea, N,N'-bis(phenylmethyl)-
##MOLFORM=C15H16N2S
##CAS REGISTRY NO=1424-14-2
##MP= -300
##BP= -300
##MW= 256
##$RETENTION INDEX=0
##$CONDENSED SPECTRUM=NO
##NPOINTS= 125
##XYDATA=(XY..XY) 1 
    12          0
    15          4
    16          3
    26         17
    27         44
    28         12
    29         22
    30         75
    31          0
    32         12
    33         25
    34         62
    35          1
    36          3
    37         11
    38         30
    39        161
    40         21
    41         51
    42         12
    43         14
    44         11
    45         54
    47          0
    49          1
    50         63
    51        146
    52         47
    53         27
    54          3
    55         35
    56          3
    57         10
    58          0
    59          6
    60         83
    61         13
    62         30
    63         90
    64         33
    65        349
    66         24
    67          5
    68          0
    69          8
    70          1
    71          4
    72          8
    73          6
    74         19
    75         19
    76         32
    77        153
    78         59
    79        250
    80         20
    81          2
    82          0
    83          2
    84          0
    85          1
    86          0
    87          1
    88          0
    89         68
    90         39
    91        999
    92        157
    93         14
    95          2
    96          0
    97          2
   102          1
   103         22
   104         80
   105         27
   106        913
   107        127
   108          8
   109         12
   111          0
   112          0
   113          0
   116         13
   117         16
   118         14
   119          8
   120          2
   121         21
   122          5
   123         25
   124          0
   127          7
   129          8
   130          6
   131         56
   132         10
   133          6
   135          3
   136         12
   138          9
   147          9
   148         10
   149         41
   150         16
   151          0
   164          1
   165        141
   166         20
   167         33
   168          2
   178          2
   181          1
   182         14
   183          0
   221          0
   222         52
   223         29
   224          6
   254          5
   255          1
   256        389
   257         71
   258         25
   259          0