##TITLE=Library Entry 85308
##JCAMP-DX=Revision 4.10 
##DATA TYPE=MASS SPECTRUM
##SAMPLE DESCRIPTION=G. Lange, Inst. Org. Chem., Univ. Wurzburg, Germany
##NAMES=HP
##CAS NAME=Cyclohexanecarbonitrile, 1-[(4-chlorophenyl)thio]-3,3,5,5-tetrame
thyl-
##MOLFORM=C17H22ClNS
##CAS REGISTRY NO=142484-08-0
##MP= -300
##BP= -300
##MW= 307
##$RETENTION INDEX=0
##$CONDENSED SPECTRUM=NO
##NPOINTS= 87
##XYDATA=(XY..XY) 1 
    36          6
    38          5
    39         99
    40         20
    41        365
    42         43
    43        156
    44          9
    45         20
    50          9
    51         18
    52          9
    53        162
    54         25
    55        177
    56         77
    57        345
    58         26
    63         27
    64          6
    65         64
    66         46
    67        134
    68         18
    69         91
    70         11
    71         16
    73         14
    75         21
    77         60
    78         12
    79        104
    80        137
    81        256
    82         37
    83         45
    84          6
    91         99
    92         27
    93         72
    94         66
    95        103
    96         20
    97         74
    99         37
   100         13
   101         11
   102          5
   104          5
   105         30
   106         70
   107         68
   108        999
   109        146
   110         26
   111         11
   112          7
   116          5
   118          7
   119         13
   120         19
   121         38
   122        167
   123         29
   125          5
   132          7
   133          8
   134         11
   137         17
   143        137
   144        954
   145        120
   146        346
   147         66
   148        152
   149         23
   150         11
   157          9
   160          6
   163          5
   164        531
   165         64
   292          5
   307        222
   308         42
   309         81
   310         14