##TITLE=Library Entry 49695
##JCAMP-DX=Revision 4.10 
##DATA TYPE=MASS SPECTRUM
##SAMPLE DESCRIPTION=Chemical Concepts
##NAMES=HP
##CAS NAME=Cyclopropanecarboxaldehyde, methylene-
##MOLFORM=C5H6O
##CAS REGISTRY NO=142423-24-3
##MP= -300
##BP= -300
##MW= 82
##$RETENTION INDEX=0
##$CONDENSED SPECTRUM=NO
##NPOINTS= 42
##XYDATA=(XY..XY) 1 
    24          0
    26         92
    27        716
    28        102
    29         95
    30          2
    31          6
    35          0
    36          8
    37         47
    38         74
    39        489
    40         29
    41          4
    42         23
    43          8
    44          0
    48          6
    49         36
    50        147
    51        179
    52         60
    53        495
    54        445
    55         76
    56         17
    57          1
    60          2
    61          7
    62          6
    63         11
    64          2
    65          1
    66          1
    67          4
    68          0
    77          0
    79          1
    80          0
    81        999
    82         64
    83          4