##TITLE=Library Entry 11748
##JCAMP-DX=Revision 4.10 
##DATA TYPE=MASS SPECTRUM
##SAMPLE DESCRIPTION=DENNIS H SMITH DEPT OF CHEM STANFORD UNIV STANFORD CALI
F 9430
##NAMES=HP
##CAS NAME=Pregn-4-ene-3,20-dione, 16-methyl-, (16.beta.)-
##MOLFORM=C22H32O2
##CAS REGISTRY NO=1424-09-5
##MP= -300
##BP= -300
##MW= 328
##$RETENTION INDEX=0
##$CONDENSED SPECTRUM=NO
##NPOINTS= 130
##XYDATA=(XY..XY) 1 
    40          9
    41        254
    43        999
    45         24
    51         12
    53         70
    54         11
    55        261
    57         18
    65         43
    66         16
    67        232
    68         20
    69        105
    71         15
    77        138
    78         27
    79        247
    80         30
    81        148
    82         19
    83         67
    85        206
    91        259
    92         31
    93        203
    94         45
    95        184
    96         13
    97         51
    98         38
    99         36
   103         17
   104         14
   105        196
   106         44
   107        238
   108         60
   109        198
   110         16
   111         52
   115         31
   117         54
   118         13
   119        139
   120         61
   121        183
   122        124
   123        160
   124        708
   125         83
   128         17
   129         31
   130         12
   131         56
   132         18
   133        132
   134         86
   135        108
   136         58
   137         64
   138         30
   141         15
   143         32
   144         12
   145         70
   146         39
   147        144
   148         68
   149        113
   150         17
   151         15
   155         12
   157         41
   159         82
   160         27
   161        170
   162         42
   163         81
   171         35
   173         46
   174         29
   175         25
   177         19
   183         12
   185         32
   186         24
   187         96
   188         36
   189         24
   191         11
   192         11
   197         11
   199         21
   200         11
   201         31
   202         35
   203         12
   204         92
   205        226
   208          9
   211         30
   213         11
   215         12
   216          9
   217          9
   225         12
   226         12
   227          9
   229         67
   230         26
   231         20
   241         28
   242         13
   243        241
   244        226
   245         42
   267         35
   268         10
   270         24
   271         34
   281          8
   283          8
   284         11
   285         50
   286        335
   295         12
   310         30
   313         76
   328        665