##TITLE=Library Entry 47380
##JCAMP-DX=Revision 4.10 
##DATA TYPE=MASS SPECTRUM
##SAMPLE DESCRIPTION=Chemical Concepts
##NAMES=HP
##CAS NAME=Propanenitrile, 2-chloro-3-(phenylsulfonyl)-
##MOLFORM=C9H8ClNO2S
##CAS REGISTRY NO=1424-50-6
##MP= -300
##BP= -300
##MW= 229
##$RETENTION INDEX=0
##$CONDENSED SPECTRUM=NO
##NPOINTS= 101
##XYDATA=(XY..XY) 1 
    27         41
    28          1
    29          3
    30          0
    31          1
    33          0
    34          0
    35          3
    36         12
    37          3
    38         11
    39         61
    40          1
    44          0
    45         11
    46          0
    47          1
    48          5
    49          4
    50         98
    51        337
    52         67
    53         18
    54          0
    57          1
    58          1
    59          0
    60          1
    61         10
    62          6
    63          8
    64          3
    65         24
    66          3
    69          5
    70          0
    71          0
    72          0
    73          3
    74         24
    75         20
    76         24
    77        999
    78         79
    79          2
    82          0
    84          0
    88          5
    89          0
    90          1
    91          1
    92          0
    93          4
    94          3
    97         13
    98          1
    99          0
   100          0
   101          0
   107          0
   108          0
   109          1
   111          0
   112          1
   113          0
   114          0
   116          0
   121          0
   122          0
   123          0
   125         30
   126          3
   127          1
   128          0
   129          1
   130          2
   131          0
   140          0
   141        500
   142         34
   143         25
   144          1
   145          0
   153          0
   162          0
   163          0
   165          0
   176          1
   178          0
   180          0
   186          0
   193          1
   194         61
   195          7
   196          3
   197          0
   229         40
   230          4
   231         14
   232          2
   233          1