##TITLE=Library Entry 45358
##JCAMP-DX=Revision 4.10 
##DATA TYPE=MASS SPECTRUM
##SAMPLE DESCRIPTION=S. MARKEY UNIV. OF COLO. MED. CTR., DENVER, COLORADO, U
SA
##NAMES=HP
##CAS NAME=Hexanoic acid, TMS derivative
##MOLFORM=C9H20O2Si
##CAS REGISTRY NO=14246-15-2
##MP= -300
##BP= -300
##MW= 188
##$RETENTION INDEX=1074
##$CONDENSED SPECTRUM=NO
##NPOINTS= 55
##XYDATA=(XY..XY) 1 
    39         65
    40          8
    41        129
    42         50
    43        170
    44         31
    45        210
    46         14
    47         89
    49          4
    53         10
    55         84
    56         11
    57         13
    58         37
    59         52
    60         21
    61         81
    69         28
    70         16
    71         12
    72         53
    73        823
    74         95
    75        999
    76         70
    77         38
    81         20
    86          2
    87          2
    88         10
    89          7
    99         19
   101         22
   103         33
   104          2
   116         71
   117        243
   118         26
   119         11
   129         55
   130          7
   131         84
   132        138
   133         16
   134          5
   143          4
   145         44
   146          4
   159         11
   173        578
   174         83
   175         26
   188         17
   189          1