##TITLE=Library Entry 58401
##JCAMP-DX=Revision 4.10 
##DATA TYPE=MASS SPECTRUM
##SAMPLE DESCRIPTION=Exported from NIST MS Search
##NAMES=HP
##CAS NAME=Ethane, 1,1-bis(ethylthio)-
##MOLFORM=C6H14S2
##CAS REGISTRY NO=14252-42-7
##MP= -300
##BP= -300
##MW= 150
##$RETENTION INDEX=1087
##$CONDENSED SPECTRUM=NO
##NPOINTS= 58
##XYDATA=(XY..XY) 1 
    15          4
    16          2
    26         15
    29        116
    30          3
    32          6
    33          5
    34         13
    35         58
    37          3
    39          3
    41          5
    43          5
    44         35
    45         83
    46         14
    47         30
    53          3
    54          4
    55         43
    56          3
    57          8
    58         30
    59        144
    60         75
    61        494
    62         30
    63         24
    64          7
    65          5
    66          5
    73         12
    75          7
    76         11
    77          3
    78          2
    79          2
    87          2
    88         23
    89        999
    90         54
    91         48
    92          5
    93         24
    94          3
    95          2
   103          5
   107          3
   118          1
   122          9
   123          4
   124          1
   136          3
   150        187
   151         15
   152         17
   153          1
   154          1