##TITLE=Library Entry 43923
##JCAMP-DX=Revision 4.10 
##DATA TYPE=MASS SPECTRUM
##SAMPLE DESCRIPTION=W. SHERMAN WASHINGTON UNIVERSITY, ST. LOUIS, USA
##NAMES=HP
##CAS NAME=Inosose-2, 1,3,4,5,6-pentakis-O-(trimethylsilyl)-, myo-
##MOLFORM=C21H50O6Si5
##CAS REGISTRY NO=14251-19-5
##MP= -300
##BP= -300
##MW= 538
##$RETENTION INDEX=0
##$CONDENSED SPECTRUM=NO
##NPOINTS= 159
##XYDATA=(XY..XY) 1 
    15          6
    17         60
    18         21
    26          6
    27          5
    28         35
    29          6
    39          6
    41         12
    42         21
    43          7
    44         49
    45         94
    46          6
    47         15
    50          4
    52          5
    53         11
    55         22
    57          5
    58          4
    59         27
    60          4
    61          6
    62          7
    67          5
    68          5
    69         12
    70          4
    72         23
    73        999
    74        121
    75        200
    76         11
    77         11
    79          7
    81          9
    93          6
    99          6
   101         11
   102          5
   103         28
   105          5
   113          5
   115          5
   116          7
   117         16
   118          5
   119          9
   127          8
   129         73
   130         11
   131         25
   132          7
   133        105
   134         14
   135         14
   138          5
   141          5
   142          9
   143         67
   144          8
   145          5
   147         34
   148         33
   149         57
   150          8
   151          5
   153          8
   156          5
   157         10
   159          5
   161          7
   169          9
   173          5
   175          9
   177         12
   187          5
   189         22
   190         75
   191        259
   192         58
   193         39
   194          6
   201         14
   202          9
   203         16
   204        508
   205        104
   206         46
   207         22
   208          5
   215         22
   216         52
   217        371
   218         87
   219         38
   220          6
   221         16
   222          5
   229          4
   230         21
   231         18
   232          9
   233        155
   234         35
   235         15
   243         10
   244         16
   245         12
   257          4
   265          7
   271          4
   291         51
   292         16
   293         29
   294          7
   295          4
   304         12
   305        847
   306        336
   307        238
   308         44
   309         12
   315         22
   316          8
   317          8
   318         57
   319         46
   320         16
   321          5
   322         16
   330          8
   331         16
   332          6
   333          5
   334         19
   335          5
   343         33
   344         11
   345         26
   346          7
   347          5
   359          7
   380         15
   405         12
   406          7
   407          4
   420         34
   421         15
   422          8
   433         64
   434         25
   435         17
   436          5
   538         37
   539         19
   540         10
   541          4