##TITLE=Library Entry 82539
##JCAMP-DX=Revision 4.10 
##DATA TYPE=MASS SPECTRUM
##SAMPLE DESCRIPTION=Japan AIST/NIMC Database- Spectrum MS-IW-3737
##NAMES=HP
##CAS NAME=Isonicotinoyl chloride
##MOLFORM=C6H4ClNO
##CAS REGISTRY NO=14254-57-0
##MP= -300
##BP= -300
##MW= 141
##$RETENTION INDEX=0
##$CONDENSED SPECTRUM=NO
##NPOINTS= 51
##XYDATA=(XY..XY) 1 
    16          1
    17          1
    18          2
    24          1
    25          6
    26         16
    27          5
    28         23
    29          1
    39         62
    40          5
    41          1
    47          1
    48          6
    49         42
    50        213
    51        438
    52         33
    53         47
    56          1
    60          3
    61          7
    62          7
    63          9
    64          1
    65          2
    72          1
    73          1
    74          3
    75         18
    76         21
    77         13
    78        619
    79         37
    80          1
    84          1
    85          5
    86          3
    87          2
    88          1
   105          2
   106        999
   107         71
   108          4
   112          1
   113          1
   123         10
   141        422
   142         29
   143        137
   144          9