##TITLE=Library Entry 57738
##JCAMP-DX=Revision 4.10 
##DATA TYPE=MASS SPECTRUM
##SAMPLE DESCRIPTION=Exported from NIST MS Search
##NAMES=HP
##CAS NAME=Hexanoic acid, 2,4-dimethyl-, methyl ester, [S-(R*,R*)]-
##MOLFORM=C9H18O2
##CAS REGISTRY NO=14251-45-7
##MP= -300
##BP= -300
##MW= 158
##$RETENTION INDEX=0
##$CONDENSED SPECTRUM=NO
##NPOINTS= 57
##XYDATA=(XY..XY) 1 
    15         15
    27         68
    28         51
    29        142
    31         11
    32          9
    33          3
    39         68
    40         11
    41        216
    42         31
    43        116
    44          5
    45         16
    50          1
    51          1
    53         18
    54          3
    55        149
    56         68
    57        351
    58         16
    59        135
    60          7
    61          1
    66          1
    67         12
    68          1
    69        189
    70         18
    71         32
    72          1
    73        122
    74         19
    81          1
    83         41
    84         27
    85          1
    87        149
    88        999
    89         34
    90          4
    97         19
    98          5
    99         27
   101        284
   102         30
   103          3
   111         11
   113          3
   115          7
   116         11
   127         54
   128          4
   129         68
   130          4
   143         11