##TITLE=Library Entry 11127
##JCAMP-DX=Revision 4.10 
##DATA TYPE=MASS SPECTRUM
##SAMPLE DESCRIPTION=Organic Synthesis Lab, MSU, Moscow.TRC 861
##NAMES=HP
##CAS NAME=Estr-4-en-3-one, 17-(acetyloxy)-, (17.beta.)-
##MOLFORM=C20H28O3
##CAS REGISTRY NO=1425-10-1
##MP= -300
##BP= -300
##MW= 316
##$RETENTION INDEX=0
##$CONDENSED SPECTRUM=NO
##NPOINTS= 167
##XYDATA=(XY..XY) 1 
    27         31
    29         60
    39         51
    40         10
    41        226
    42         13
    43        999
    44         21
    45          2
    51          9
    52          7
    53         78
    54          9
    55        181
    56          5
    57         25
    60          1
    65         48
    66         17
    67        139
    68         18
    69         33
    71         11
    77        156
    78         42
    79        228
    80         46
    81        169
    82         12
    83         33
    84          2
    85          1
    91        299
    92         57
    93        197
    94         82
    95        111
    96         16
    97         70
    98          2
   103         20
   104         31
   105        215
   106         66
   107        132
   108         53
   109        119
   110        842
   111         92
   112          1
   115         31
   116         13
   117         84
   118         52
   119        147
   120         99
   121         87
   122         74
   123        112
   124         34
   127          2
   128         21
   129         46
   130         23
   131        142
   132         53
   133        151
   134         70
   135         94
   136         17
   137          6
   141         12
   142         13
   143         41
   144         53
   145        116
   146        215
   147        331
   148        120
   149         56
   150         11
   151         12
   155         12
   156         10
   157         40
   158         29
   159         71
   160        102
   161         73
   162         82
   163         51
   164         15
   165         28
   167          2
   169         10
   170         10
   171         39
   172         40
   173         57
   174         56
   175         36
   176          6
   181          6
   182          3
   183         18
   184         15
   185         64
   186         45
   187         38
   188         19
   189         13
   195         13
   196          6
   197         40
   198         22
   199         75
   200         49
   201         32
   202         24
   203         10
   206         11
   207          4
   209          3
   210         11
   211          7
   212         30
   213         54
   214        140
   215        127
   216         52
   217         39
   218         13
   223         13
   227         17
   228         65
   229         33
   230         30
   231         95
   232         51
   233          3
   237          5
   238         50
   239         15
   241        101
   242         15
   245          9
   246         31
   247          1
   254          5
   255         26
   256        666
   257        132
   258         14
   259         17
   260          4
   272          9
   273         35
   274        483
   275         89
   276          6
   288         71
   289         10
   298          7
   314          1
   316        493
   317        106
   318         10