##TITLE=Library Entry 76458
##JCAMP-DX=Revision 4.10 
##DATA TYPE=MASS SPECTRUM
##SAMPLE DESCRIPTION=Exported from NIST MS Search
##NAMES=HP
##CAS NAME=Propane, 2,2-bis(ethylthio)-
##MOLFORM=C7H16S2
##CAS REGISTRY NO=14252-45-0
##MP= -300
##BP= -300
##MW= 164
##$RETENTION INDEX=1110
##$CONDENSED SPECTRUM=NO
##NPOINTS= 66
##XYDATA=(XY..XY) 1 
    15          5
    16          2
    26         14
    27         79
    29         92
    30          3
    32          6
    33          5
    34         16
    35         28
    37          3
    38          4
    39         44
    40          7
    41        185
    42          9
    43         14
    44         31
    45         79
    46         17
    47         88
    48          3
    49          4
    53          5
    55          3
    56          2
    57         96
    58         25
    59        172
    60         17
    61         70
    62         45
    63         32
    64          4
    65          3
    66          4
    67          4
    69         16
    71          5
    73         62
    74        108
    75        283
    76         23
    77         14
    78          1
    85          2
    87          9
    89          8
    93          2
   101          1
   102         43
   103        999
   104         65
   105         47
   106          3
   107          1
   117          1
   121          1
   122          2
   135          4
   136          1
   149          2
   164         33
   165          3
   166          3
   167          1