##TITLE=Library Entry 6281
##JCAMP-DX=Revision 4.10 
##DATA TYPE=MASS SPECTRUM
##SAMPLE DESCRIPTION=CARL DJERASSI DEPT OF CHEM STANFORD UNIV STANFORD CALIF
 94305
##NAMES=HP
##CAS NAME=Pentanal, 2,2-dimethyl-
##MOLFORM=C7H14O
##CAS REGISTRY NO=14250-88-5
##MP= -300
##BP= -300
##MW= 114
##$RETENTION INDEX=0
##$CONDENSED SPECTRUM=NO
##NPOINTS= 18
##XYDATA=(XY..XY) 1 
    27        150
    28         10
    29        120
    39        120
    40         10
    41        260
    42         20
    43        999
    44         20
    53         10
    55         40
    56         10
    57        150
    59         10
    69         10
    72        140
    85        240
    86         10