##TITLE=Library Entry 32985
##JCAMP-DX=Revision 4.10 
##DATA TYPE=MASS SPECTRUM
##SAMPLE DESCRIPTION=D.G.I.KINGSTON POLYTECH. INST., BLACKSBURG, VIRGINIA, U
SA
##NAMES=HP
##CAS NAME=Bicyclo[4.2.1]nonan-9-one
##MOLFORM=C9H14O
##CAS REGISTRY NO=14252-11-0
##MP= -300
##BP= -300
##MW= 138
##$RETENTION INDEX=0
##$CONDENSED SPECTRUM=NO
##NPOINTS= 15
##XYDATA=(XY..XY) 1 
    39        250
    41        590
    54        600
    55        150
    67        999
    68        290
    69         70
    70         20
    81        330
    82        840
    95        100
   110        170
   120        140
   138        790
   139         60