##TITLE=Library Entry 63216
##JCAMP-DX=Revision 4.10 
##DATA TYPE=MASS SPECTRUM
##SAMPLE DESCRIPTION=Chemical Concepts
##NAMES=HP
##CAS NAME=Benzeneacetic acid, 3,5-di(benzyloxy)-, ethyl ester
##MOLFORM=C24H24O4
##CAS REGISTRY NO=142588-33-8
##MP= -300
##BP= -300
##MW= 376
##$RETENTION INDEX=0
##$CONDENSED SPECTRUM=NO
##NPOINTS= 147
##XYDATA=(XY..XY) 1 
    27          4
    28          1
    29         13
    38          0
    39         15
    40          1
    41         17
    42          2
    43         18
    44          1
    45          2
    50          1
    51          9
    52          2
    53          1
    54          1
    55         13
    56          4
    57         18
    58          1
    60          2
    62          0
    63          5
    64          2
    65         51
    66          3
    67          4
    68          2
    69         13
    70          3
    71          9
    73          0
    76          1
    77          4
    78          1
    79          1
    80          0
    81          6
    82          2
    83          6
    84          2
    85          5
    89          6
    90          4
    91        999
    92         89
    93          4
    94          1
    95          5
    96          2
    97          6
    98          1
    99          2
   103          0
   104          0
   105          3
   106          0
   107          1
   108          0
   109          3
   110          1
   111          3
   112          1
   113          1
   115          1
   117          0
   119          1
   121          1
   122          1
   123          3
   124          1
   125          2
   126          1
   127          4
   128          1
   129          2
   131          3
   132          1
   133          0
   135          1
   136          0
   137          2
   138          0
   139          1
   140          0
   141          3
   142          1
   143          1
   145          0
   150          0
   151          1
   152          1
   153          2
   154          1
   155          3
   156          0
   163          0
   165          2
   166          1
   167          3
   168          1
   169          1
   171          1
   178          1
   179          4
   180         31
   181        100
   182         15
   183          5
   184          1
   193          0
   195          1
   196          7
   197          2
   201          0
   208          0
   209          1
   210          1
   211         16
   212          4
   213          1
   215          1
   216          0
   217          0
   239          3
   240          0
   243          1
   255          0
   256          1
   257          2
   283          0
   284          1
   285         16
   286          3
   287          0
   289          2
   290          0
   301          0
   302          2
   303         22
   304          5
   305          0
   348          0
   375          3
   376         93
   377         24
   378          3