##TITLE=Library Entry 89079
##JCAMP-DX=Revision 4.10 
##DATA TYPE=MASS SPECTRUM
##SAMPLE DESCRIPTION=J. Daly, M. Garraffo, T. Spande, LBC-NIDDK-NIH, Bethesd
a, MD
##NAMES=HP
##CAS NAME=((2S,3S,3aS,7S,9aR,10S,10aR)-3,7,10-Trimethyldodecahydrocyclopent
a[b]quinolizin-2-yl)methanol
##MOLFORM=C16H29NO
##CAS REGISTRY NO=142543-01-9
##MP= -300
##BP= -300
##MW= 251
##$RETENTION INDEX=0
##$CONDENSED SPECTRUM=NO
##NPOINTS= 124
##XYDATA=(XY..XY) 1 
    52          3
    53         37
    54         25
    55        189
    56         44
    57         21
    58         16
    65         18
    66          8
    67         62
    68         63
    69         83
    70         52
    71         14
    72          4
    77         41
    78         10
    79         77
    80         38
    81         91
    82        127
    83         31
    84         26
    85          4
    91         55
    92         12
    93         63
    94         81
    95         44
    96        161
    97         74
    98        332
    99         28
   100          6
   101          2
   102          1
   103          4
   104          2
   105         23
   106         18
   107         42
   108         55
   109         39
   110         98
   111        999
   112        391
   113         29
   114          2
   115          3
   117          8
   118          6
   119         13
   120         17
   121         22
   122         33
   123         19
   124         62
   125         29
   126         13
   127          3
   128          2
   130          3
   131          4
   132          7
   133          5
   134         18
   135          9
   136         49
   138         64
   139         35
   140         58
   141         10
   144          2
   145          2
   146          6
   148         33
   150        130
   152        257
   153         33
   154          6
   160          3
   162         26
   164        132
   165         67
   166         90
   167         12
   168          5
   176         12
   178         38
   179         18
   180         44
   181         48
   182         23
   183          3
   186          1
   188          2
   190          7
   192         81
   194        459
   195        118
   196         46
   197          6
   204         11
   206         16
   208         42
   209         13
   210          2
   218          7
   220        485
   221        205
   222        222
   223         47
   224          4
   232          2
   234         45
   236        214
   237         35
   238          4
   248          8
   250        521
   251        356
   252         57
   253          6
   254          1