##TITLE=Library Entry 57145
##JCAMP-DX=Revision 4.10 
##DATA TYPE=MASS SPECTRUM
##SAMPLE DESCRIPTION=James Little,Eastman Chem.Co.,Kingsport,TN
##NAMES=HP
##CAS NAME=4,4-(Ethylenedioxy)-2-pentanone
##MOLFORM=C7H12O3
##CAS REGISTRY NO=14255-36-8
##MP= -300
##BP= -300
##MW= 144
##$RETENTION INDEX=0
##$CONDENSED SPECTRUM=NO
##NPOINTS= 35
##XYDATA=(XY..XY) 1 
    27        124
    29        152
    31        166
    39        135
    41        205
    42        212
    43        981
    44        155
    45        105
    53         16
    55         21
    57         31
    58         35
    59         32
    61         74
    69         92
    71         47
    72         25
    73         99
    74        147
    84         68
    85         78
    86         77
    87        999
    88        170
    89         21
    99         31
   100         20
   101         25
   105          9
   113          7
   125          9
   129        282
   130         22
   131          4