##TITLE=Library Entry 52188
##JCAMP-DX=Revision 4.10 
##DATA TYPE=MASS SPECTRUM
##SAMPLE DESCRIPTION=Chemical Concepts
##NAMES=HP
##CAS NAME=2-Hexene, 2,4-dimethyl-
##MOLFORM=C8H16
##CAS REGISTRY NO=14255-23-3
##MP= -300
##BP= -300
##MW= 112
##$RETENTION INDEX=734
##$CONDENSED SPECTRUM=NO
##NPOINTS= 29
##XYDATA=(XY..XY) 1 
    27        138
    29        126
    39        165
    40         27
    41        399
    42         27
    43        110
    50          7
    51         23
    52         11
    53         63
    54         11
    55        972
    56        126
    57         51
    65         19
    67         59
    68         11
    69         98
    70         27
    77         15
    79         15
    81         23
    82         23
    83        999
    84         67
    97         90
   112        213
   113         19