##TITLE=Library Entry 57725
##JCAMP-DX=Revision 4.10 
##DATA TYPE=MASS SPECTRUM
##SAMPLE DESCRIPTION=Chemical Concepts
##NAMES=HP
##CAS NAME=Hexanoic acid, 2,4-dimethyl-, methyl ester, (2DL,4L)-
##MOLFORM=C9H18O2
##CAS REGISTRY NO=14251-44-6
##MP= -300
##BP= -300
##MW= 158
##$RETENTION INDEX=0
##$CONDENSED SPECTRUM=NO
##NPOINTS= 85
##XYDATA=(XY..XY) 1 
    27        157
    28         28
    29        245
    30          6
    31         15
    32          0
    33          4
    36          0
    37          3
    38          4
    39        116
    40         19
    41        360
    42         68
    43        164
    44          4
    45         26
    46          0
    47          0
    49          0
    50          3
    51          7
    52          3
    53         28
    54          7
    55        175
    56         96
    57        461
    58         21
    59        192
    60          7
    61          4
    62          0
    63          1
    65          4
    66          1
    67         13
    68          4
    69        221
    70         30
    71         40
    72          2
    73        125
    74         23
    75          1
    77          2
    78          0
    79          2
    81          3
    82          2
    83         50
    84         29
    85          4
    86          0
    87        159
    88        999
    89         43
    90          4
    93          0
    95          1
    96          0
    97         31
    98          6
    99         31
   100          2
   101        266
   102         31
   103          5
   108          1
   109          1
   111         10
   112          0
   113          2
   115         59
   116          4
   125          2
   126          1
   127         47
   128          4
   129         59
   130          4
   143          7
   144          0
   158          0
   159          1