##TITLE=Library Entry 2209
##JCAMP-DX=Revision 4.10 
##DATA TYPE=MASS SPECTRUM
##SAMPLE DESCRIPTION=D.HENNEBERG, MAX-PLANCK INSTITUTE, MULHEIM, WEST GERMAN
Y
##NAMES=HP
##CAS NAME=2,5,10-Undecatrienoic acid, methyl ester
##MOLFORM=C12H18O2
##CAS REGISTRY NO=14261-55-3
##MP= -300
##BP= -300
##MW= 194
##$RETENTION INDEX=0
##$CONDENSED SPECTRUM=NO
##NPOINTS= 123
##XYDATA=(XY..XY) 1 
    25          0
    26         69
    27        687
    28        173
    29        473
    30         17
    31         25
    32          5
    33          9
    37         26
    38         48
    39        826
    40        136
    41        999
    42         73
    43         80
    44          4
    45         66
    46          1
    49          2
    50         62
    51        166
    52        111
    53        411
    54        484
    55        621
    56         34
    57         20
    58          6
    59        391
    60         11
    61         14
    62         11
    63         46
    64         16
    65        157
    66        199
    67        611
    68        163
    69         74
    70          5
    71        138
    72          7
    73          1
    74         69
    75         15
    76          6
    77        349
    78        133
    79        752
    80        231
    81        451
    82        126
    83         35
    84         39
    85         42
    86          4
    87         54
    88          3
    89          8
    90          7
    91        224
    92        185
    93        479
    94        104
    95        409
    96         38
    97         76
    98         76
    99         19
   100        210
   101         13
   102          1
   103         13
   104         13
   105         57
   106         35
   107        105
   108         46
   109         24
   110         11
   111        267
   112         32
   113        142
   114         16
   115          4
   116          1
   117          5
   118          9
   119         51
   120        133
   121         67
   122          5
   123          9
   124          9
   125         26
   126         36
   127         36
   128          3
   129          1
   131          1
   133         23
   134         81
   135         91
   136          9
   138         15
   139         40
   140         16
   141          1
   144          1
   145          1
   147          4
   151         10
   152        110
   153         14
   161          1
   162         11
   163         37
   164          4
   165          4
   166          1
   179          1
   194          5