##TITLE=Library Entry 82292
##JCAMP-DX=Revision 4.10 
##DATA TYPE=MASS SPECTRUM
##SAMPLE DESCRIPTION=Chemical Concepts
##NAMES=HP
##CAS NAME=Arabinopyranose, cyclic 1,2-(methyl orthobenzoate) 3,4-dibenzoate
, .beta.-l-
##MOLFORM=C27H24O8
##CAS REGISTRY NO=14260-03-8
##MP= -300
##BP= -300
##MW= 476
##$RETENTION INDEX=0
##$CONDENSED SPECTRUM=NO
##NPOINTS= 72
##XYDATA=(XY..XY) 1 
    27          3
    28          2
    30         11
    31         28
    32         14
    35          1
    39          3
    41          5
    43          7
    45          3
    47          4
    49          2
    50          5
    51         29
    55          3
    57          5
    59          3
    65          1
    68          6
    69          8
    71          3
    73          5
    75          3
    77        409
    78         19
    79          3
    81          9
    83         13
    84         16
    85          5
    86         12
    91         13
    97          5
   104          7
   105        999
   106        174
   107          7
   113          2
   122          4
   123          2
   137          2
   147          4
   149          8
   152          1
   153          1
   177          4
   181          2
   189          2
   190          2
   201        282
   202         40
   203          5
   205          3
   218         23
   219          4
   222          2
   224          2
   229          1
   257          2
   265          3
   275          7
   294         19
   295          7
   311          1
   322         26
   323         14
   324          2
   340          1
   445        544
   446        154
   447         22
   448          3