##TITLE=Library Entry 90831
##JCAMP-DX=Revision 4.10 
##DATA TYPE=MASS SPECTRUM
##SAMPLE DESCRIPTION=Philip Morris R&D
##NAMES=HP
##CAS NAME=R(+)-6-Methyl-3-isopropyltetrahydro-2H-pyran-2-one
##MOLFORM=C9H16O2
##CAS REGISTRY NO=142636-30-4
##MP= -300
##BP= -300
##MW= 156
##$RETENTION INDEX=0
##$CONDENSED SPECTRUM=NO
##NPOINTS= 88
##XYDATA=(XY..XY) 1 
    35          1
    36         13
    37          5
    38         16
    39        248
    40         54
    41        588
    42        359
    43        418
    44         22
    45         31
    46          2
    47          0
    48          0
    49          2
    50         10
    51         16
    52          8
    53         63
    54         37
    55        763
    56        615
    57        155
    58         20
    59         76
    60         36
    61          2
    62          0
    63          2
    64          0
    65         12
    66          3
    67         55
    68        108
    69        743
    70        262
    71         33
    72          4
    73        762
    74         28
    75          0
    77          6
    78          1
    79         10
    80          1
    81         20
    82         41
    83         72
    84        318
    85         56
    86         16
    87         19
    88         18
    89          4
    91          5
    93          7
    94         35
    95        150
    96         59
    97         29
    98          1
    99         72
   100         69
   101        253
   102         24
   103          1
   106          0
   108          1
   109         13
   110          6
   111          4
   112         23
   113         83
   114        999
   115         72
   116          6
   117          0
   123         13
   124          0
   132          1
   138          2
   139          2
   141        136
   142          8
   143          0
   155          3
   156         50
   157          5