##TITLE=Library Entry 33963
##JCAMP-DX=Revision 4.10 
##DATA TYPE=MASS SPECTRUM
##SAMPLE DESCRIPTION=A.Pleshkova, Nesmeyanov Inst.Org.Elem.Cpds, Moscow
##NAMES=HP
##CAS NAME=Bis(trifluoromethyl)fluorophosphine
##MOLFORM=C2F7P
##CAS REGISTRY NO=1426-40-0
##MP= -300
##BP= -300
##MW= 188
##$RETENTION INDEX=0
##$CONDENSED SPECTRUM=NO
##NPOINTS= 15
##XYDATA=(XY..XY) 1 
    31        146
    32          2
    50         77
    51          1
    69        999
    70         12
    81         24
   100        130
   101          4
   119         82
   120          4
   169         21
   170          1
   188        128
   189          3