##TITLE=Library Entry 2643
##JCAMP-DX=Revision 4.10 
##DATA TYPE=MASS SPECTRUM
##SAMPLE DESCRIPTION=Chemical Concepts
##NAMES=HP
##CAS NAME=Longipinene epoxide
##MOLFORM=C15H24O
##CAS REGISTRY NO=142792-93-6
##MP= -300
##BP= -300
##MW= 220
##$RETENTION INDEX=0
##$CONDENSED SPECTRUM=NO
##NPOINTS= 122
##XYDATA=(XY..XY) 1 
    27        421
    28        187
    29        433
    30          9
    31          8
    33          1
    34          4
    36          3
    37          5
    38         12
    39        395
    40         71
    41        999
    42         67
    43        258
    44         18
    45          3
    47          1
    49          2
    50         20
    51         79
    52         45
    53        247
    54         44
    55        464
    56         85
    57         46
    58          4
    59          3
    60          2
    61          1
    62          5
    63         28
    64         11
    65        114
    66         33
    67        267
    68         56
    69        212
    70         21
    71          7
    72          2
    73          1
    74          1
    75          4
    76          3
    77        127
    78         28
    79        122
    80         26
    81        153
    82        119
    83         48
    84          4
    85         12
    86          1
    89          3
    90          1
    91         99
    92         20
    93         86
    94         75
    95        121
    96         28
    97          7
    98          1
   103          6
   104          3
   105         42
   106         15
   107        114
   108         40
   109         82
   110         13
   111          4
   115          6
   116          2
   117          9
   118          3
   119         21
   120         13
   121         37
   122         14
   123         23
   124         54
   125          7
   127          1
   128          2
   129          3
   131          8
   132          4
   133         13
   134          5
   135         28
   136         14
   137         21
   138          7
   143          1
   145          3
   146          2
   147          2
   148          3
   149         18
   150          4
   151          1
   159          3
   161         28
   162          4
   163          9
   164          2
   176         11
   177         18
   178         12
   179          2
   187          1
   191         17
   192          3
   202          1
   205          6
   206          1
   220         15
   221          2