##TITLE=Library Entry 25048
##JCAMP-DX=Revision 4.10 
##DATA TYPE=MASS SPECTRUM
##SAMPLE DESCRIPTION=NIST Mass Spectrometry Data Center, 1990.
##NAMES=HP
##CAS NAME=3-Ethylheptanoic acid
##MOLFORM=C9H18O2
##CAS REGISTRY NO=14272-47-0
##MP= -300
##BP= -300
##MW= 158
##$RETENTION INDEX=2048
##$CONDENSED SPECTRUM=NO
##NPOINTS= 47
##XYDATA=(XY..XY) 1 
    14          0
    15         17
    16          6
    18         12
    26         39
    27        355
    28         57
    29        424
    30         15
    31         41
    39        269
    40         66
    41        660
    42        137
    43        375
    44         37
    45        170
    51         24
    53         93
    54         69
    55        639
    56        344
    57        999
    58         48
    59         82
    60        813
    61        243
    65         22
    67         40
    68         53
    69        293
    70        219
    71         46
    73        211
    74         15
    81         25
    82         13
    83        173
    84         17
    87         74
    88         16
    98        346
    99         53
   101        255
   102         18
   111         13
   129        146