##TITLE=Library Entry 30361
##JCAMP-DX=Revision 4.10 
##DATA TYPE=MASS SPECTRUM
##SAMPLE DESCRIPTION=CARL DJERASSI DEPT OF CHEM STANFORD UNIV STANFORD CALIF
 94305
##NAMES=HP
##CAS NAME=Butanoic acid, 4-iodo-, methyl ester
##MOLFORM=C5H9IO2
##CAS REGISTRY NO=14273-85-9
##MP= -300
##BP= -300
##MW= 228
##$RETENTION INDEX=0
##$CONDENSED SPECTRUM=NO
##NPOINTS= 21
##XYDATA=(XY..XY) 1 
    41        520
    42        190
    43        490
    44        170
    45         10
    58        150
    59        999
    60         20
    69         50
    74         90
   101        610
   102         30
   127         40
   128         30
   141         30
   142         30
   154         10
   155         50
   169         80
   197        180
   228          7