##TITLE=Library Entry 86520
##JCAMP-DX=Revision 4.10 
##DATA TYPE=MASS SPECTRUM
##SAMPLE DESCRIPTION=Japan AIST/NIMC Database- Spectrum MS-IW-3077
##NAMES=HP
##CAS NAME=Benzene, 2-fluoro-1-methyl-4-nitro-
##MOLFORM=C7H6FNO2
##CAS REGISTRY NO=1427-07-2
##MP= -300
##BP= -300
##MW= 155
##$RETENTION INDEX=0
##$CONDENSED SPECTRUM=NO
##NPOINTS= 100
##XYDATA=(XY..XY) 1 
    20          1
    26          4
    27         13
    28         31
    29          1
    30         98
    31         26
    32          6
    33          8
    36          1
    37         11
    38         23
    39        102
    40          6
    41          3
    43          9
    44          5
    45          4
    46          5
    47          1
    48          1
    49          9
    50         63
    51         89
    52         13
    53          5
    55          2
    56         15
    57        184
    58          9
    59         72
    60          4
    61         25
    62         59
    63        156
    64         15
    65          9
    68         17
    69         17
    70         21
    71         12
    72          1
    73          7
    74         24
    75         26
    76          9
    77        106
    78          9
    79          2
    80         12
    81         88
    82         29
    83        709
    84         41
    85         11
    86         16
    87         15
    88          8
    89         84
    90          9
    91          1
    92          3
    93          6
    94          9
    95         65
    96         39
    97        189
    98         12
    99          3
   100          1
   101          1
   102          1
   103          1
   104          2
   105         13
   106          6
   107        175
   108         61
   109        999
   110         82
   111          3
   112         23
   113          3
   114          8
   115          1
   122          3
   123          2
   124          9
   125        198
   126         14
   127          3
   136          1
   138          2
   139         17
   140          1
   153          4
   154          1
   155        893
   156         71
   157          6