##TITLE=Library Entry 20942
##JCAMP-DX=Revision 4.10 
##DATA TYPE=MASS SPECTRUM
##SAMPLE DESCRIPTION=Zaikin V.G., TIPS RAS, Moscow, Russia
##NAMES=HP
##CAS NAME=ClCH2(CH2)3C(O)OCH3
##MOLFORM=C6H11ClO2
##CAS REGISTRY NO=14273-86-0
##MP= -300
##BP= -300
##MW= 150
##$RETENTION INDEX=1062
##$CONDENSED SPECTRUM=NO
##NPOINTS= 74
##XYDATA=(XY..XY) 1 
    26         35
    27        211
    28          1
    29        177
    30         11
    31         24
    33          3
    35          5
    36         27
    37          4
    38         17
    39        160
    40         23
    41        217
    42        160
    43        131
    44         25
    45         39
    49         52
    50         14
    51         38
    52         13
    53         71
    54        115
    55        999
    56         97
    57         49
    58          5
    59        511
    60         18
    61         12
    62         25
    63         61
    64          9
    65         18
    69         11
    70          7
    71         20
    72        104
    73        210
    74        251
    75         23
    76          2
    77          5
    79         12
    81          7
    82        134
    83        178
    84         10
    85          4
    86          3
    87        592
    88         81
    89         11
    90         11
    91        274
    92         16
    93         90
    94          3
    99         19
   100         13
   101        108
   102          5
   113          8
   114        198
   115        497
   116         34
   117          5
   118          9
   119        415
   120         25
   121        148
   122          7
   150          3