##TITLE=Library Entry 39685
##JCAMP-DX=Revision 4.10 
##DATA TYPE=MASS SPECTRUM
##SAMPLE DESCRIPTION=TNO Volatile Compounds in Food - Chemical Concepts
##NAMES=HP
##CAS NAME=1-Propyne, 3-[(1-methylethyl)thio]-
##MOLFORM=C6H10S
##CAS REGISTRY NO=14272-25-4
##MP= -300
##BP= -300
##MW= 114
##$RETENTION INDEX=833
##$CONDENSED SPECTRUM=NO
##NPOINTS= 66
##XYDATA=(XY..XY) 1 
    25          6
    26         20
    27        410
    33          5
    34          3
    35          5
    36          4
    37         63
    38        143
    39        834
    41        881
    42        130
    43        920
    44          8
    45        500
    46         49
    47        135
    48          4
    49         21
    50          7
    51          8
    52          4
    53         60
    54          5
    55         52
    56          6
    57          6
    58         94
    59        599
    60         49
    61         41
    62          2
    63          4
    64          2
    65        229
    66         31
    67         10
    68         14
    69        114
    70         41
    71        707
    72        999
    73        131
    74        287
    75        112
    76         17
    77         14
    78          2
    79         61
    80          8
    81         59
    82          6
    84         22
    85         18
    86          4
    87          2
    97         29
    98          6
    99        560
   100         37
   101         22
   113         21
   114        746
   115         63
   116         36
   117          2