##TITLE=Library Entry 98039
##JCAMP-DX=Revision 4.10 
##DATA TYPE=MASS SPECTRUM
##SAMPLE DESCRIPTION=Exported from NIST MS Search
##NAMES=HP
##CAS NAME=Benzene, (3-propoxypropyl)-
##MOLFORM=C12H18O
##CAS REGISTRY NO=14289-73-7
##MP= -300
##BP= -300
##MW= 178
##$RETENTION INDEX=0
##$CONDENSED SPECTRUM=NO
##NPOINTS= 60
##XYDATA=(XY..XY) 1 
    15          3
    18          3
    27         40
    29         15
    31         10
    38          3
    39         40
    40          4
    41         82
    42          7
    43        170
    44         12
    45         26
    50          8
    51         30
    52          8
    53          5
    55          7
    57         17
    58         14
    59          5
    62          3
    63         14
    64          4
    65         61
    66          4
    69          3
    71          3
    73          6
    74          3
    75          4
    76          3
    77         49
    78         31
    79         34
    80          3
    89         14
    90          8
    91        503
    92        190
    93         14
   102          4
   103         30
   104         23
   105         76
   106          8
   107         49
   108          4
   115         24
   116          7
   117        493
   118        999
   119        137
   120         10
   133          3
   134          4
   149         21
   150          3
   163          2
   178          3