##TITLE=Library Entry 65986
##JCAMP-DX=Revision 4.10 
##DATA TYPE=MASS SPECTRUM
##SAMPLE DESCRIPTION=NIST Mass Spectrometry Data Center
##NAMES=HP
##CAS NAME=(3S,3aS,8aR)-6,8a-Dimethyl-3-(prop-1-en-2-yl)-1,2,3,3a,4,5,8,8a-o
ctahydroazulene
##MOLFORM=C15H24
##CAS REGISTRY NO=142878-08-8
##MP= -300
##BP= -300
##MW= 204
##$RETENTION INDEX=1503
##$CONDENSED SPECTRUM=NO
##NPOINTS= 100
##XYDATA=(XY..XY) 1 
    26          1
    27         33
    28          3
    29         46
    30          1
    38          3
    39        150
    40         53
    41        324
    42         38
    49          1
    50          9
    51         48
    52         30
    53        283
    54         26
    55        249
    56         27
    57         14
    58          4
    62          2
    63         18
    64          9
    65        131
    66         49
    67        574
    68        726
    69        139
    70         13
    74          1
    75          3
    76          4
    77        322
    78         73
    79        519
    80        160
    81        275
    82         52
    83         16
    87          1
    88          1
    89          7
    90          2
    91        395
    92        230
    93        999
    94        340
    95        213
    96         17
   101          1
   102          6
   103         35
   104         15
   105        358
   106        109
   107        555
   108        162
   109        119
   115         45
   116         14
   117         46
   118         11
   119        402
   120         92
   121        717
   122        109
   123         38
   127          6
   128         21
   129         17
   130          7
   131         22
   133        421
   134        427
   135        130
   136        119
   141          5
   142          2
   143          3
   145         12
   146          5
   147        245
   148         83
   160          6
   161        138
   162         33
   163         79
   164         10
   173          1
   174          1
   175         44
   176         22
   188          1
   189        347
   190         52
   191          3
   203          1
   204        242
   205         36
   206          3