##TITLE=Library Entry 347
##JCAMP-DX=Revision 4.10 
##DATA TYPE=MASS SPECTRUM
##SAMPLE DESCRIPTION=Chemical Concepts
##NAMES=HP
##CAS NAME=Dirhenium decacarbonyl
##MOLFORM=C10O10Re2
##CAS REGISTRY NO=14285-68-8
##MP= -300
##BP= -300
##MW= 654
##$RETENTION INDEX=0
##$CONDENSED SPECTRUM=NO
##NPOINTS= 185
##XYDATA=(XY..XY) 1 
    28        999
    29          9
   107          0
   120          0
   134          0
   135          0
   148          0
   149          0
   162          0
   185         17
   186          5
   187         29
   191          0
   192          3
   193          2
   197          3
   198          0
   199          6
   200          5
   201          6
   203          1
   205          0
   206          1
   207          1
   208          0
   209          0
   211          0
   212          0
   213          4
   214          8
   215         10
   216          0
   219          0
   220          0
   221          0
   225          0
   227          2
   228          6
   229          4
   230          0
   231          0
   233          0
   234          0
   235          0
   241          3
   242          5
   243          9
   244          0
   248          0
   249          0
   253          0
   255          0
   256          0
   257          0
   262          0
   269          6
   270          0
   271         10
   272          0
   273          0
   281          0
   283          0
   297          6
   298          0
   299         10
   300          0
   309          0
   325          3
   326          0
   327          6
   328          0
   353          0
   355          0
   370          9
   372         28
   374         27
   375          0
   382          2
   384          8
   385          0
   386          7
   387          0
   388          0
   390          0
   394          0
   396          0
   398          5
   399          0
   400         16
   401          0
   402         12
   403          0
   410          0
   412          1
   414          1
   415          0
   416          0
   418          0
   426          6
   427          0
   428         22
   429          0
   430         17
   431          0
   432          0
   438          0
   440          1
   442          1
   454          6
   455          0
   456         17
   457          0
   458         17
   459          0
   460          0
   466          0
   468          0
   469          0
   470          0
   474          0
   482          9
   483          0
   484         28
   485          1
   486         26
   487          1
   488          0
   494          0
   496          0
   498          0
   502          0
   510          8
   511          0
   512         27
   513          1
   514         25
   515          1
   516          0
   517          0
   524          0
   526          0
   538         10
   539          0
   540         36
   541          2
   542         28
   543          2
   544          0
   545          0
   552          0
   554          0
   566         21
   567          1
   568         71
   569          6
   570         68
   571          5
   572          1
   573          0
   574          0
   575          0
   586          0
   594          2
   595          0
   596          6
   597          0
   598          6
   599          0
   600          0
   622          1
   623          0
   624          6
   625          0
   626          5
   627          0
   628          0
   650         10
   651          1
   652         34
   653          3
   654         28
   655          3
   656          1
   657          0
   658          0