##TITLE=Library Entry 64575
##JCAMP-DX=Revision 4.10 
##DATA TYPE=MASS SPECTRUM
##SAMPLE DESCRIPTION=A.A.Kutin, Moscow, Russia
##NAMES=HP
##CAS NAME=1,4-Diazepane-5,7-dione, 1,4-dibenzyl-
##MOLFORM=C19H20N2O2
##CAS REGISTRY NO=14288-16-5
##MP= -300
##BP= -300
##MW= 308
##$RETENTION INDEX=0
##$CONDENSED SPECTRUM=NO
##NPOINTS= 190
##XYDATA=(XY..XY) 1 
    33          3
    34          0
    36          0
    39         53
    40         11
    41         37
    42         95
    43         55
    44         20
    46          0
    50         12
    51         35
    52          8
    53          3
    54          6
    56         28
    57          3
    58          2
    59          0
    60          0
    61          0
    63         29
    65        168
    66          5
    69         21
    70         26
    71          3
    72          1
    73          0
    74          1
    75          2
    77         59
    78         21
    79         20
    80          1
    81          0
    82          0
    83          1
    84          3
    86         22
    89         46
    91        999
    92         62
    93          3
    94          0
    95          0
    96          0
    97          1
    98          2
    99          3
   100          0
   101          0
   104        128
   105         58
   106         71
   107          9
   108          0
   112         16
   113          2
   114          0
   115          2
   116          4
   117         19
   118         66
   119         38
   120        103
   121          7
   122          0
   125          0
   126          0
   127          0
   128          2
   131        197
   132        110
   133         97
   134         43
   135          4
   136          0
   139          0
   141          0
   143          0
   144          1
   145          4
   146         15
   147          8
   148          5
   149          3
   150         16
   151          1
   152          0
   153          0
   154          0
   155          0
   156          0
   157          0
   158          1
   159          3
   160          7
   161          9
   162          9
   163          2
   164          0
   165          1
   166          0
   167          2
   168          0
   170          0
   171          1
   172          1
   174         22
   175         42
   176          8
   177          4
   178          2
   179          4
   180          6
   181          2
   182          0
   185          0
   186          0
   188         11
   189         13
   190          6
   191          0
   192          0
   194          1
   195          0
   196          1
   197          0
   198          0
   199          1
   200          0
   201          1
   202          4
   203          3
   204          8
   205          1
   206          0
   207          0
   208          2
   209          0
   210          0
   214          0
   215          0
   217         13
   218          2
   219          0
   220          0
   221          0
   222          0
   223          0
   224          0
   230          0
   231          0
   233          0
   234          0
   237         59
   238          9
   239          0
   246          0
   248          0
   249          0
   251          1
   252          0
   260          0
   261          1
   262          2
   263          3
   264          2
   265          5
   266          1
   267          0
   276          0
   278          0
   279          7
   280          9
   281          1
   282          0
   290          1
   291          0
   292          0
   293          0
   302          0
   303          0
   304          2
   305          4
   308        430
   309         84
   310         10
   311          0