##TITLE=Library Entry 70575
##JCAMP-DX=Revision 4.10 
##DATA TYPE=MASS SPECTRUM
##SAMPLE DESCRIPTION=NIST Mass Spectrometry Data Center
##NAMES=HP
##CAS NAME=Thiophene, 2-bromo-3-methyl-
##MOLFORM=C5H5BrS
##CAS REGISTRY NO=14282-76-9
##MP= -300
##BP= -300
##MW= 176
##$RETENTION INDEX=0
##$CONDENSED SPECTRUM=NO
##NPOINTS= 87
##XYDATA=(XY..XY) 1 
    12          3
    13          1
    14          1
    15          7
    18          2
    24          1
    25          6
    26         34
    27         69
    32         12
    33          2
    34          1
    36          8
    37         46
    38         56
    39         58
    40          3
    44         17
    45        310
    46         11
    47         31
    48         18
    49         25
    50         72
    51         91
    52         24
    53        218
    54          9
    56          6
    57         38
    58         26
    59          6
    60          6
    61         16
    62         18
    63         22
    64          2
    65          1
    68         27
    69        191
    70         80
    71         42
    72          5
    73          1
    79         12
    80          7
    81         42
    82         27
    83          3
    88          8
    89          7
    91          3
    92          6
    93         20
    94          4
    95         34
    96         88
    97        999
    98         69
    99         47
   100          2
   105          2
   106          1
   107          1
   111          1
   116          3
   117          9
   118          4
   119          8
   123         18
   125         20
   128          1
   130          1
   131          5
   133          5
   135          1
   136          1
   137          1
   138          1
   149          2
   151          1
   175        135
   176        466
   177        175
   178        508
   179         38
   180         19