##TITLE=Library Entry 40094
##JCAMP-DX=Revision 4.10 
##DATA TYPE=MASS SPECTRUM
##SAMPLE DESCRIPTION=Chemical Concepts
##NAMES=HP
##CAS NAME=Ethanediamide, tetraethyl-
##MOLFORM=C10H20N2O2
##CAS REGISTRY NO=14288-05-2
##MP= -300
##BP= -300
##MW= 200
##$RETENTION INDEX=0
##$CONDENSED SPECTRUM=NO
##NPOINTS= 71
##XYDATA=(XY..XY) 1 
    24          0
    26         10
    27        117
    28         45
    29        488
    30         25
    31          0
    38          0
    39          2
    40          4
    41         14
    42        109
    43          9
    44        237
    45          4
    46          0
    50          0
    51          0
    52          4
    53          0
    54          4
    55          5
    56         61
    57         10
    58         25
    59          1
    67          0
    68          1
    69          1
    70         19
    71          9
    72        999
    73         40
    74          2
    82          0
    83          0
    84          3
    85          4
    86          7
    87          0
    95          0
    97          0
    98          1
    99          1
   100        959
   101         55
   102          4
   112          0
   113          0
   114          0
   115          0
   127          0
   128          0
   129          6
   130          0
   141          1
   143          0
   147          0
   148          0
   155          0
   156          0
   157          0
   171         10
   172          5
   173          0
   185          2
   198          0
   199          0
   200         69
   201         10
   202          0