##TITLE=Library Entry 60139
##JCAMP-DX=Revision 4.10 
##DATA TYPE=MASS SPECTRUM
##SAMPLE DESCRIPTION=Chemical Concepts
##NAMES=HP
##CAS NAME=4-Bromobenzene, 2-benzyloxy-3,5-dibromobenzylidenamino-
##MOLFORM=C20H14Br3NO
##CAS REGISTRY NO=142821-57-6
##MP= -300
##BP= -300
##MW= 521
##$RETENTION INDEX=0
##$CONDENSED SPECTRUM=NO
##NPOINTS= 107
##XYDATA=(XY..XY) 1 
    37          9
    38         27
    39         56
    40         13
    41         13
    43          2
    49         18
    50         60
    51         32
    52         13
    53          6
    61         21
    62         58
    63         58
    64         65
    65        102
    66          6
    73         17
    74         72
    75        109
    76         80
    77         14
    78          4
    79          3
    80          3
    81          5
    82          5
    85          3
    86          5
    87          9
    88         24
    89         29
    91        999
    92         38
    93          2
    99          2
   100          3
   101          4
   102          4
   105          2
   112          2
   114          5
   115          3
   116          3
   117          4
   119          5
   128          2
   129          4
   130          3
   137         10
   139         10
   140          6
   141          9
   142          8
   143          7
   144          2
   150          3
   151          3
   152          5
   153          4
   154         38
   155         48
   156         40
   157         45
   158          3
   163          3
   164         23
   165         20
   166          4
   168          3
   169          2
   171         59
   172         78
   173         38
   174          3
   177          2
   181          6
   182          4
   183          5
   184          3
   193         11
   195          3
   196          2
   198          2
   217          2
   219          2
   221          2
   223          3
   244          6
   245          5
   246          7
   247          4
   258          3
   260          2
   272         20
   273          4
   274         14
   275          3
   325          2
   350          6
   351         13
   352         13
   353         29
   354         10
   355         15
   356          2
   523          2