##TITLE=Library Entry 56771
##JCAMP-DX=Revision 4.10 
##DATA TYPE=MASS SPECTRUM
##SAMPLE DESCRIPTION=Zaikin V.G., TIPS RAS, Moscow, Russia
##NAMES=HP
##CAS NAME=Butanamide, N,N-dibutyl-
##MOLFORM=C12H25NO
##CAS REGISTRY NO=14287-95-7
##MP= -300
##BP= -300
##MW= 199
##$RETENTION INDEX=1437
##$CONDENSED SPECTRUM=NO
##NPOINTS= 71
##XYDATA=(XY..XY) 1 
    26          9
    27         41
    28         18
    29         45
    30         31
    36         16
    37          3
    38         10
    39         34
    40          8
    41        115
    42         51
    43        180
    44        125
    45          5
    50          4
    51          4
    52          5
    53          6
    54          8
    55         37
    56         24
    57         65
    58         13
    59          3
    60          6
    68          6
    69         13
    70         23
    71        139
    72         36
    73         30
    77          3
    79          7
    82          6
    83         11
    84         35
    85          6
    86        999
    87         82
    88          6
    91          7
    96          5
    98          9
    99          4
   100        136
   101         25
   110          6
   111        125
   112         22
   113          3
   114         68
   115         57
   116          4
   122          3
   126          4
   127          5
   128         64
   129          9
   138          4
   140          4
   142         22
   143          3
   144          5
   156        210
   157         29
   168          3
   170         15
   184         23
   199         40
   200          7