##TITLE=Library Entry 60140
##JCAMP-DX=Revision 4.10 
##DATA TYPE=MASS SPECTRUM
##SAMPLE DESCRIPTION=Chemical Concepts
##NAMES=HP
##CAS NAME=4-Chlorobenzene, 2-benzyloxy-3,5-dibromobenzylidenamino-
##MOLFORM=C20H14Br2ClNO
##CAS REGISTRY NO=142821-58-7
##MP= -300
##BP= -300
##MW= 477
##$RETENTION INDEX=0
##$CONDENSED SPECTRUM=NO
##NPOINTS= 133
##XYDATA=(XY..XY) 1 
    35          1
    36          3
    38         48
    39         66
    40          9
    41         23
    42          1
    43          1
    44          2
    49         14
    50         59
    51         47
    52         14
    53          9
    61         25
    62         48
    63         95
    64         76
    65        154
    66          9
    73          9
    74         67
    75        164
    76         26
    77         17
    78          3
    79          5
    80          2
    82          5
    84          1
    85         17
    86          6
    87         15
    88         17
    89         42
    91        999
    92         60
    93          2
    98          2
    99          7
   100          3
   101          3
   102          4
   105          1
   110         61
   111        118
   112         29
   113         35
   114          6
   115          1
   116          1
   117          3
   118          1
   119          3
   123          2
   125          1
   127        117
   128          9
   129         32
   130          2
   135          2
   137          9
   138         21
   139          6
   140          8
   141         11
   143         16
   144          2
   149          1
   150          5
   151          4
   152          4
   153          4
   154          4
   155          3
   156          3
   162          1
   163          9
   165         28
   166          3
   167          1
   168          2
   170          6
   171          1
   172          3
   173          7
   174          1
   175          3
   177          2
   178          1
   179          1
   193          3
   194          2
   196          1
   197          2
   198          2
   199          4
   200          7
   201          7
   202          2
   214          2
   215          1
   216          1
   221          1
   223          3
   227          1
   228          4
   244          2
   246          2
   247          1
   251          1
   272          9
   273          2
   274          8
   275          2
   277          2
   279          2
   281          1
   282          1
   307          4
   308          1
   309          5
   311          1
   350          2
   351          5
   352          8
   353          9
   354          5
   355          5
   386          1
   388          2
   479          1
   481          1