##TITLE=Library Entry 26665
##JCAMP-DX=Revision 4.10 
##DATA TYPE=MASS SPECTRUM
##SAMPLE DESCRIPTION=V.G.Zaikin, TIPS RAS, Moscow, Russia
##NAMES=HP
##CAS NAME=Octanoic acid, 3-phenyl-2-propenyl ester
##MOLFORM=C17H24O2
##CAS REGISTRY NO=142960-30-3
##MP= -300
##BP= -300
##MW= 260
##$RETENTION INDEX=0
##$CONDENSED SPECTRUM=NO
##NPOINTS= 77
##XYDATA=(XY..XY) 1 
    26         21
    27         91
    28         13
    29        121
    38         12
    39         96
    40         17
    41        206
    42         69
    43        285
    44         95
    45         15
    50         15
    51         45
    52         15
    53         17
    54          9
    55        163
    56         39
    57        999
    58         53
    59          9
    60         53
    61          9
    62          9
    63         29
    65         29
    67         38
    68         12
    69         38
    70         21
    71         29
    73         39
    74          9
    75          9
    76          9
    77         58
    78         43
    79         21
    81          6
    82         12
    83         35
    84         23
    85         19
    89         24
    91        142
    92         49
    93          6
    97         21
    98         49
    99          6
   101         15
   102         19
   103         41
   104         46
   105         49
   106          8
   109         48
   112          9
   113         15
   114         17
   115        353
   116        245
   117        511
   118         82
   119          9
   125          9
   127        828
   128         75
   129         12
   131         18
   132          7
   133        145
   134        109
   135          9
   260         94
   261         18