##TITLE=Library Entry 12763
##JCAMP-DX=Revision 4.10 
##DATA TYPE=MASS SPECTRUM
##SAMPLE DESCRIPTION=R.T.HOLMAN,UNIVERSITY OF MINNESOTA
##NAMES=HP
##CAS NAME=Myristin, 1,3-diaceto-2-
##MOLFORM=C21H38O6
##CAS REGISTRY NO=14290-23-4
##MP= -300
##BP= -300
##MW= 386
##$RETENTION INDEX=2562
##$CONDENSED SPECTRUM=NO
##NPOINTS= 196
##XYDATA=(XY..XY) 1 
    26          3
    27         46
    28         16
    29        110
    30          2
    31          6
    39         36
    40          8
    41        240
    42         69
    43        999
    44         29
    45         56
    46          1
    50          1
    51          2
    52          1
    53         16
    54         25
    55        240
    56         65
    57        280
    58         23
    59          6
    60         12
    61         28
    65          3
    66          3
    67         47
    68         28
    69        140
    70         45
    71        160
    72         11
    73         96
    74         19
    75          5
    76          1
    77          4
    78          1
    79         14
    80          8
    81         47
    82         25
    83         90
    84        220
    85        100
    86         14
    87          6
    88          2
    89          1
    91          3
    92          1
    93         12
    94          8
    95         60
    96         20
    97         81
    98        320
    99         65
   100          8
   101          5
   102          2
   103         22
   104          2
   105          2
   106          1
   107          7
   108          5
   109         35
   110         11
   111         58
   112        120
   113         17
   114          3
   115         87
   116         82
   117        120
   118          7
   119          2
   120          1
   121         12
   122          3
   123         18
   124          6
   125         19
   126         32
   127          9
   128          2
   129          6
   130          2
   131          1
   133          1
   135         11
   136          2
   137          9
   138          5
   139          7
   140         13
   141          4
   142          5
   143          6
   145          1
   146          1
   147          1
   149         15
   150          3
   151          4
   152          2
   153          5
   154         10
   155          3
   156          1
   157          2
   158        250
   159        500
   160         40
   161          6
   162          1
   163          3
   164          3
   165          2
   166          5
   167          5
   168          5
   169          3
   170          1
   171         71
   172          8
   173          2
   176          2
   177         61
   178          6
   179          2
   180          1
   181          4
   182          4
   183          2
   184          1
   185          8
   186          2
   191          2
   192          3
   193          3
   194          1
   195          2
   196          1
   197          1
   199          3
   200          1
   205          2
   206          2
   207          1
   208          2
   209          3
   210         25
   211        430
   212         65
   213         13
   214          3
   215          1
   218         16
   219          3
   220          1
   221          1
   222          1
   223          2
   224          2
   225          1
   227         19
   228          5
   229          3
   241          5
   242          6
   243          2
   255          3
   256          2
   269          4
   270          2
   271          2
   283         13
   284          5
   285          2
   297          5
   298          5
   299          2
   311          2
   312          1
   313         25
   314          6
   315          2
   325          2
   326         22
   327         11
   328          3
   329          1