##TITLE=Library Entry 23344
##JCAMP-DX=Revision 4.10 
##DATA TYPE=MASS SPECTRUM
##SAMPLE DESCRIPTION=Exported from NIST MS Search
##NAMES=HP
##CAS NAME=Propane, 2-(ethylthio)-2-methyl-
##MOLFORM=C6H14S
##CAS REGISTRY NO=14290-92-7
##MP= -300
##BP= -300
##MW= 118
##$RETENTION INDEX=792
##$CONDENSED SPECTRUM=NO
##NPOINTS= 71
##XYDATA=(XY..XY) 1 
    15         52
    16          2
    24          1
    25          3
    26         43
    27        269
    28         52
    29        365
    30          8
    32          6
    33          7
    34         10
    35         47
    36          1
    37          9
    38         15
    39        161
    40         23
    41        474
    42         22
    43          5
    44          2
    45         74
    46         29
    47         48
    48          3
    49         12
    50          7
    51          9
    52          2
    53         15
    54          4
    55         52
    56        203
    57        999
    58         75
    59         81
    60         14
    61         33
    62         36
    63         25
    64          2
    65          1
    66          1
    67          1
    68          1
    69          3
    70          1
    71          4
    72          1
    73          4
    74          7
    75         61
    76          5
    77          2
    85          1
    87          1
    88          1
    89          3
    90          1
    91          1
   100          1
   101          1
   102          1
   103         70
   104          4
   105          3
   118        226
   119         10
   120          8
   121          1