##TITLE=Library Entry 80901
##JCAMP-DX=Revision 4.10 
##DATA TYPE=MASS SPECTRUM
##SAMPLE DESCRIPTION=D.HENNEBERG, MAX-PLANCK INSTITUTE, MULHEIM, WEST GERMAN
Y
##NAMES=HP
##CAS NAME=Cyclohexane, 1,2,4-tris(methylene)-
##MOLFORM=C9H12
##CAS REGISTRY NO=14296-81-2
##MP= -300
##BP= -300
##MW= 120
##$RETENTION INDEX=1297
##$CONDENSED SPECTRUM=NO
##NPOINTS= 87
##XYDATA=(XY..XY) 1 
    25          0
    26         13
    27        163
    28          4
    29         18
    32          0
    33          1
    34          1
    35          1
    36          0
    37         11
    38         29
    39        308
    40         67
    41        163
    42          8
    43          1
    44         10
    45          3
    46          1
    47          1
    48          1
    49          5
    50         59
    51        169
    52         90
    53        119
    54         15
    55         26
    56          6
    58         34
    59         18
    60          4
    61          6
    62         21
    63         63
    64         17
    65        133
    66         50
    67         36
    68          8
    69          4
    70          2
    71          3
    72          1
    73          2
    74         10
    75         23
    76          8
    77        370
    78        155
    79        471
    80         60
    81          9
    82          0
    85          1
    86          4
    87          5
    88          2
    89         18
    90         19
    91        693
    92        285
    93         56
    94          6
    96          1
    97          1
    98          2
   100          1
   101         12
   102         14
   103        147
   104         57
   105        999
   106        103
   107          3
   111          1
   113          3
   114          2
   115         44
   116         13
   117         53
   118         22
   119        120
   120        788
   121         88
   122          4