##TITLE=Library Entry 53497
##JCAMP-DX=Revision 4.10 
##DATA TYPE=MASS SPECTRUM
##SAMPLE DESCRIPTION=CARL DJERASSI DEPT OF CHEM STANFORD UNIV STANFORD CALIF
 94305
##NAMES=HP
##CAS NAME=2-Pyrrolidinone, 5-(cyclohexylmethyl)-
##MOLFORM=C11H19NO
##CAS REGISTRY NO=14293-08-4
##MP= -300
##BP= -300
##MW= 181
##$RETENTION INDEX=1477
##$CONDENSED SPECTRUM=NO
##NPOINTS= 14
##XYDATA=(XY..XY) 1 
    41        128
    42         19
    43         19
    44          9
    53         19
    54         19
    55         69
    56         49
    57          9
    67         19
    81          9
    83         19
    84        999
    85         49