##TITLE=Library Entry 8483
##JCAMP-DX=Revision 4.10 
##DATA TYPE=MASS SPECTRUM
##SAMPLE DESCRIPTION=L.Konopski ET AL.,Org.Mass Spectrom.,27,741 (1992)
##NAMES=HP
##CAS NAME=6-Methyl-6-nitroheptan-2-one
##MOLFORM=C8H15NO3
##CAS REGISTRY NO=142963-25-5
##MP= -300
##BP= -300
##MW= 173
##$RETENTION INDEX=0
##$CONDENSED SPECTRUM=NO
##NPOINTS= 46
##XYDATA=(XY..XY) 1 
    15         20
    27         49
    28         51
    29         34
    30         39
    39         69
    40         22
    41        343
    42         41
    43        999
    44         39
    45         10
    51          6
    53         26
    54          8
    55        154
    56        308
    57         34
    58         47
    59         12
    60          6
    67         41
    68         41
    69        788
    70         53
    71        141
    72          8
    73          6
    81         12
    82         26
    83         61
    84         10
    85         12
    90          8
    93         22
    94         10
    97         10
   108        156
   109        298
   110         39
   111         37
   126        121
   127        104
   128         22
   131          4
   157          4