##TITLE=Library Entry 87671
##JCAMP-DX=Revision 4.10 
##DATA TYPE=MASS SPECTRUM
##SAMPLE DESCRIPTION=Japan AIST/NIMC Database- Spectrum MS-IW-3830
##NAMES=HP
##CAS NAME=Pyrocatechol dipentyl ether
##MOLFORM=C16H26O2
##CAS REGISTRY NO=142947-21-5
##MP= -300
##BP= -300
##MW= 250
##$RETENTION INDEX=0
##$CONDENSED SPECTRUM=NO
##NPOINTS= 57
##XYDATA=(XY..XY) 1 
    27         14
    28          2
    29         25
    39         11
    40          2
    41         50
    42          8
    43        135
    44          4
    50          1
    51          4
    52         10
    53          8
    54          1
    55         20
    56          1
    57          1
    63          4
    64          8
    65         11
    66          2
    67          2
    69         15
    70          2
    71         30
    72          1
    77          7
    78          1
    79          1
    80          5
    81         21
    82          4
    91          1
    92          4
    93          7
    94          4
    95          9
   107          2
   109         29
   110        999
   111         69
   112          6
   121         21
   122          3
   123          6
   124          1
   136          1
   137          1
   151          2
   179          1
   180         87
   181          9
   182          1
   193          1
   250        144
   251         25
   252          2