##TITLE=Library Entry 24717
##JCAMP-DX=Revision 4.10 
##DATA TYPE=MASS SPECTRUM
##SAMPLE DESCRIPTION=Chemical Concepts
##NAMES=HP
##CAS NAME=Eicosane, 1,20-dibromo-
##MOLFORM=C20H40Br2
##CAS REGISTRY NO=14296-16-3
##MP= -300
##BP= -300
##MW= 438
##$RETENTION INDEX=0
##$CONDENSED SPECTRUM=NO
##NPOINTS= 274
##XYDATA=(XY..XY) 1 
    26          1
    27         61
    28         13
    29        168
    30          4
    31          0
    35          0
    36          0
    38          0
    39         41
    40         10
    41        490
    42        103
    43        678
    44         20
    45          5
    46          0
    48          0
    50          0
    51          1
    52          1
    53         26
    54         45
    55        787
    56        136
    57        999
    58         42
    59          1
    60          0
    63          0
    64          0
    65          2
    66          3
    67         65
    68         42
    69        612
    70         84
    71        667
    72         37
    73          0
    76          0
    77          3
    78          0
    79          6
    80          2
    81         34
    82         37
    83        370
    84         43
    85        443
    86         30
    87          1
    88          0
    89          0
    90          0
    91          3
    92          0
    93          2
    94          0
    95         19
    96         15
    97        246
    98         27
    99        199
   100         15
   101          1
   103          0
   104          0
   105          1
   106          1
   107         22
   108          1
   109         21
   110          4
   111        106
   112         17
   113        131
   114         10
   115          0
   118          0
   119          1
   120          1
   121         14
   122          2
   123         13
   124          3
   125         37
   126          6
   127         99
   128          8
   129          0
   132          0
   133          1
   134          2
   135        218
   136         12
   137        214
   138         10
   139         13
   140          3
   141         82
   142          8
   143          0
   147          0
   148         21
   149         65
   150         18
   151         60
   152          3
   153          7
   154          2
   155         57
   156          7
   157          0
   160          0
   161          1
   162          8
   163         41
   164         11
   165         40
   166          2
   167          3
   168          1
   169         43
   170          5
   171          0
   175          2
   176          1
   177         41
   178          4
   179         40
   180          3
   181          3
   182          0
   183         33
   184          4
   185          0
   186          0
   189          1
   190          1
   191         39
   192          6
   193         38
   194          3
   195          1
   196          0
   197         21
   198          3
   201          0
   202          0
   203          1
   204          1
   205         37
   206          3
   207         35
   208          3
   209          0
   210          0
   211         10
   212          1
   213          0
   216          0
   217          1
   218          0
   219         32
   220          3
   221         32
   222          3
   223          0
   224          0
   225          2
   226          0
   231          1
   232          0
   233         31
   234          3
   235         30
   236          3
   237          0
   239          0
   244          0
   245          0
   246          0
   247         28
   248          3
   249         27
   250          3
   252          0
   258          0
   259          0
   260          0
   261         25
   262          4
   263         27
   264          4
   265          0
   267          0
   273          0
   274          0
   275         28
   276          6
   277         25
   278          4
   279          0
   280          0
   281          0
   286          0
   287          0
   288          0
   289         23
   290          5
   291         21
   292          3
   293          0
   295          0
   302          0
   303         16
   304          3
   305         14
   306          3
   307          0
   309          0
   311          0
   313          0
   314          0
   315          4
   316          2
   317          9
   318          2
   319          8
   320          1
   321          0
   328          0
   329          0
   330          1
   331          0
   332          1
   333          0
   341          0
   345          0
   346          0
   347          0
   357          0
   358          5
   359        294
   360         67
   361        286
   362         61
   363          6
   364          0
   371          0
   372          0
   386          0
   388          0
   389          0
   390          0
   392          0
   393          0
   394          0
   396          0
   398          0
   410          0
   411          0
   413          0
   415          0
   430          0
   438          9
   439          2
   440         18
   441          3
   442         10
   443          1
   444          0
   445          0