##TITLE=Library Entry 2449
##JCAMP-DX=Revision 4.10 
##DATA TYPE=MASS SPECTRUM
##SAMPLE DESCRIPTION=U.S. BUREAU OF MINES, LARAMIE, WYO, USA
##NAMES=HP
##CAS NAME=1-Decanethiol
##MOLFORM=C10H22S
##CAS REGISTRY NO=143-10-2
##MP= -300
##BP= -300
##MW= 174
##$RETENTION INDEX=1334
##$CONDENSED SPECTRUM=NO
##NPOINTS= 94
##XYDATA=(XY..XY) 1 
    15         14
    16          2
    25          0
    26         12
    27        304
    28         67
    29        410
    30         10
    32          7
    33          7
    34         17
    35         39
    36          3
    37          4
    38          7
    39        270
    40         48
    41        999
    42        357
    43        931
    44         31
    45        100
    46         38
    47        364
    48         15
    49         18
    50          4
    51         11
    52          6
    53         73
    54        104
    55        918
    56        713
    57        442
    58         25
    59         30
    60         54
    61        177
    62         14
    63         10
    64          1
    65         10
    66          7
    67         84
    68        244
    69        601
    70        735
    71        149
    72          7
    73         12
    74          5
    75          9
    76          2
    77          5
    78          1
    79          6
    80          1
    81         21
    82        161
    83        506
    84        370
    85         79
    86          5
    87         17
    88         17
    89        160
    90          9
    91          8
    95          4
    96         57
    97        284
    98        164
    99         15
   100          0
   101          5
   102          1
   103         17
   104          1
   110         20
   111        155
   112        175
   113         17
   114          1
   115          1
   117          6
   126          3
   140        156
   141         18
   142          1
   173         19
   174        287
   175         36
   176         15
   177          1