##TITLE=Library Entry 22328
##JCAMP-DX=Revision 4.10 
##DATA TYPE=MASS SPECTRUM
##SAMPLE DESCRIPTION=Japan AIST/NIMC Database- Spectrum MS-NW-3672
##NAMES=HP
##CAS NAME=1-Nonanol
##MOLFORM=C9H20O
##CAS REGISTRY NO=143-08-8
##MP= -300
##BP= -300
##MW= 144
##$RETENTION INDEX=1173
##$CONDENSED SPECTRUM=NO
##NPOINTS= 67
##XYDATA=(XY..XY) 1 
    14          1
    15         10
    17          1
    18          6
    19          7
    26          9
    27        187
    28         43
    29        306
    30          8
    31        212
    32          6
    33          1
    37          1
    38          5
    39        121
    40         25
    41        657
    42        371
    43        766
    44         30
    45         28
    46          1
    50          4
    51          7
    52          4
    53         32
    54         64
    55        844
    56        999
    57        342
    58         15
    59          5
    63          2
    65          4
    66          3
    67         51
    68        180
    69        583
    70        677
    71        118
    72          7
    73         22
    74          1
    77          3
    78          1
    79          3
    80          1
    81         12
    82         74
    83        293
    84        244
    85         39
    86          2
    87          2
    91          2
    95          4
    96         15
    97        175
    98        255
    99         21
   105          1
   106          1
   111          7
   112          1
   126         14
   127          2