##TITLE=Library Entry 20602
##JCAMP-DX=Revision 4.10 
##DATA TYPE=MASS SPECTRUM
##SAMPLE DESCRIPTION=NIST Mass Spectrometry Data Center
##NAMES=HP
##CAS NAME=9-Octadecen-1-ol, (Z)-
##MOLFORM=C18H36O
##CAS REGISTRY NO=143-28-2
##MP= -300
##BP= -300
##MW= 268
##$RETENTION INDEX=2063
##$CONDENSED SPECTRUM=NO
##NPOINTS= 121
##XYDATA=(XY..XY) 1 
    15          1
    19          1
    26          2
    27         42
    28         10
    29        111
    30          5
    31        136
    37          1
    38          2
    39         81
    40         18
    41        528
    42         90
    43        361
    44         23
    45         14
    46          1
    50          2
    51          6
    52          6
    53         85
    54        371
    55        999
    56        227
    57        318
    58         18
    59          3
    63          1
    65         29
    66         70
    67        691
    68        463
    69        563
    70        166
    71        119
    72         12
    73          5
    75          1
    77         26
    78          7
    79         99
    80         67
    81        709
    82        984
    83        483
    84         88
    85         77
    86          9
    87          2
    91         15
    92          2
    93         31
    94         35
    95        609
    96        763
    97        317
    98         55
    99         20
   100          3
   101          1
   103          1
   105          2
   106          1
   107         10
   108         15
   109        321
   110        292
   111        109
   112         25
   113          7
   114          1
   115          1
   121          9
   122         14
   123        175
   124        172
   125         41
   126         12
   127          3
   128          1
   135          5
   136          8
   137         89
   138         91
   139         15
   140          7
   141          2
   149          1
   150          1
   151         29
   152         39
   153          6
   154          4
   155          1
   165         13
   166         22
   167          3
   168          5
   169          1
   179          7
   180         13
   181          2
   182          2
   183          1
   193          9
   194         14
   195          2
   196          1
   207          4
   208          6
   209          1
   221          2
   222         13
   223          2
   224          1
   235          1
   250         50
   251         10
   252          1
   268          1