##TITLE=Library Entry 7534
##JCAMP-DX=Revision 4.10 
##DATA TYPE=MASS SPECTRUM
##SAMPLE DESCRIPTION=Japan AIST/NIMC Database- Spectrum MS-NW-5168
##NAMES=HP
##CAS NAME=Acetic acid, nonyl ester
##MOLFORM=C11H22O2
##CAS REGISTRY NO=143-13-5
##MP= -300
##BP= -300
##MW= 186
##$RETENTION INDEX=1308
##$CONDENSED SPECTRUM=NO
##NPOINTS= 90
##XYDATA=(XY..XY) 1 
    14          1
    15         48
    17          1
    18          3
    26          5
    27        100
    28         23
    29        168
    30          5
    31         11
    32          1
    38          2
    39         70
    40         13
    41        341
    42        192
    43        999
    44         31
    45          8
    50          1
    51          4
    52          2
    53         20
    54         48
    55        458
    56        580
    57        192
    58         39
    59         10
    60          4
    61        332
    62          8
    63          2
    65          3
    66          3
    67         37
    68        112
    69        372
    70        437
    71         93
    72          7
    73         81
    74          5
    75          1
    77          2
    79          3
    80          1
    81         16
    82         89
    83        266
    84        260
    85         44
    86          4
    87         14
    88          3
    91          1
    93          1
    94          1
    95          9
    96         30
    97        210
    98        242
    99         20
   100          4
   101         17
   102          6
   104          2
   105          1
   109          1
   110          2
   111         14
   112          9
   113          2
   114          5
   115          3
   116         39
   117          3
   122          1
   124          3
   125          3
   126         81
   127          9
   128          3
   129          3
   130          3
   140          2
   141          2
   142          1
   143          1
   171          1