##TITLE=Library Entry 41109
##JCAMP-DX=Revision 4.10 
##DATA TYPE=MASS SPECTRUM
##SAMPLE DESCRIPTION=Chemical Concepts
##NAMES=HP
##CAS NAME=Dodecanoic acid
##MOLFORM=C12H24O2
##CAS REGISTRY NO=143-07-7
##MP= -300
##BP= -300
##MW= 200
##$RETENTION INDEX=1568
##$CONDENSED SPECTRUM=NO
##NPOINTS= 94
##XYDATA=(XY..XY) 1 
    26         19
    27        174
    28         42
    29        320
    31         16
    38          3
    39        104
    40         22
    41        567
    42        124
    43        693
    44         22
    45         72
    50          4
    51          5
    52          4
    53         33
    54         38
    55        463
    56        128
    57        550
    58         26
    59         38
    60        987
    61        186
    62          8
    65          6
    66          5
    67         43
    68         39
    69        249
    70         89
    71        320
    72         18
    73        999
    74         91
    75          7
    77          4
    78          3
    79         12
    80          5
    81         29
    82         38
    83        141
    84         87
    85        295
    86         21
    87        170
    88         30
    89          4
    93          8
    94          5
    95         16
    96         34
    97        107
    98         86
    99         69
   100          7
   101        136
   102         27
   103          3
   107          5
   109          8
   110         18
   111         54
   112         30
   115        164
   116         19
   121          7
   123          3
   125          9
   126          4
   129        323
   130         29
   131          3
   135          4
   138         42
   139          9
   140         48
   141         25
   142          3
   143         78
   144          9
   157        228
   158         24
   163          3
   164          8
   171         77
   172         11
   183          7
   185          4
   200        235
   201         34
   202          3