##TITLE=Library Entry 30035
##JCAMP-DX=Revision 4.10 
##DATA TYPE=MASS SPECTRUM
##SAMPLE DESCRIPTION=Japan AIST/NIMC Database- Spectrum MS-NW-3830
##NAMES=HP
##CAS NAME=Tetraglyme
##MOLFORM=C10H22O5
##CAS REGISTRY NO=143-24-8
##MP= -300
##BP= -300
##MW= 222
##$RETENTION INDEX=0
##$CONDENSED SPECTRUM=NO
##NPOINTS= 51
##XYDATA=(XY..XY) 1 
    14          1
    15         56
    16          1
    18          2
    26          4
    27         21
    28         43
    29        127
    30          7
    31        134
    32          4
    33          5
    41         10
    42          8
    43         61
    44         25
    45        152
    46          4
    56          1
    57          9
    58        284
    59        999
    60         33
    61          3
    70          9
    71          5
    72         15
    73         18
    74          2
    75          6
    77          2
    86          3
    87         56
    88         10
    89         57
    90          3
    91          2
   100          1
   101         11
   102         26
   103        162
   104          9
   105          1
   115          3
   117          3
   119          2
   131          6
   133         24
   134          2
   147          4
   177          5