##TITLE=Library Entry 1014
##JCAMP-DX=Revision 4.10 
##DATA TYPE=MASS SPECTRUM
##SAMPLE DESCRIPTION=NIST Mass Spectrometry Data Center, 1998.
##NAMES=HP
##CAS NAME=1-Hexadecanamine
##MOLFORM=C16H35N
##CAS REGISTRY NO=143-27-1
##MP= -300
##BP= -300
##MW= 241
##$RETENTION INDEX=1843
##$CONDENSED SPECTRUM=NO
##NPOINTS= 100
##XYDATA=(XY..XY) 1 
    26          1
    27         27
    28         12
    29         74
    30        999
    31         21
    32          3
    38          1
    39         35
    40          8
    41        265
    42         64
    43        282
    44        319
    45        168
    46          5
    51          2
    52          1
    53         20
    54         23
    55        249
    56        124
    57        137
    58         19
    59         72
    60          3
    65          4
    66          2
    67         27
    68         18
    69        115
    70         44
    71         34
    72         63
    73         31
    74          1
    77          2
    78          1
    79          5
    80          1
    81         11
    82         18
    83         66
    84         25
    85         16
    86        147
    87         23
    88          1
    91          1
    93          1
    95          4
    96          9
    97         45
    98         14
    99          3
   100         83
   101         10
   109          1
   110          5
   111         22
   112         10
   113          1
   114         40
   115          6
   123          1
   124          2
   125          9
   126          6
   127          1
   128         32
   129          4
   138          1
   139          2
   140          4
   141          1
   142         38
   143          5
   152          1
   153          1
   154          2
   156         32
   157          4
   168          1
   170         25
   171          3
   182          1
   184         20
   185          3
   196          2
   198         19
   199          3
   212         20
   213          3
   224          1
   226         10
   227          2
   240         15
   241         21
   242          7
   243          1