##TITLE=Library Entry 24523
##JCAMP-DX=Revision 4.10 
##DATA TYPE=MASS SPECTRUM
##SAMPLE DESCRIPTION=Japan AIST/NIMC Database- Spectrum MS-NW-8346
##NAMES=HP
##CAS NAME=Dodecane, 1-bromo-
##MOLFORM=C12H25Br
##CAS REGISTRY NO=143-15-7
##MP= -300
##BP= -300
##MW= 248
##$RETENTION INDEX=1549
##$CONDENSED SPECTRUM=NO
##NPOINTS= 83
##XYDATA=(XY..XY) 1 
    15          2
    26          4
    27         97
    28         24
    29        184
    30          4
    38          1
    39         64
    40         12
    41        420
    42        108
    43        889
    44         29
    51          3
    52          2
    53         23
    54         22
    55        495
    56        155
    57        999
    58         44
    65          3
    66          2
    67         25
    68         19
    69        411
    70        104
    71        487
    72         26
    77          2
    79          3
    80          5
    81          9
    82         14
    83        175
    84         45
    85        260
    86         16
    91          1
    93          2
    95          3
    96          4
    97         79
    98         20
    99         61
   100          4
   107         14
   108          1
   109         14
   110          1
   111         20
   112          7
   113         39
   114          3
   121         10
   122          1
   123          9
   125          4
   126          2
   127         15
   128          1
   134          2
   135        600
   136         27
   137        583
   138         25
   139          1
   140          2
   148          4
   149        101
   150          9
   151         99
   152          5
   162          1
   163         10
   164          2
   165         10
   168          1
   169          3
   177          2
   179          1
   248          1
   250          1