##TITLE=Library Entry 90803
##JCAMP-DX=Revision 4.10 
##DATA TYPE=MASS SPECTRUM
##SAMPLE DESCRIPTION=NIST Mass Spectrometry Data Center, 1998.
##NAMES=HP
##CAS NAME=1-Hexanamine, N-hexyl-
##MOLFORM=C12H27N
##CAS REGISTRY NO=143-16-8
##MP= -300
##BP= -300
##MW= 185
##$RETENTION INDEX=1345
##$CONDENSED SPECTRUM=NO
##NPOINTS= 67
##XYDATA=(XY..XY) 1 
    15          1
    26          1
    27         30
    28         14
    29         62
    30         89
    31          2
    32          1
    38          1
    39         24
    40          4
    41        109
    42         35
    43        210
    44        526
    45         17
    51          1
    52          1
    53          8
    54          6
    55         59
    56         50
    57         46
    58          9
    59          2
    65          1
    66          1
    67          4
    68          6
    69          5
    70         33
    71          5
    72         13
    73          1
    77          1
    79          1
    80          1
    81          1
    82          3
    83          6
    84         35
    85          8
    86          6
    96          1
    98          4
   100         27
   101          5
   102          2
   112         13
   114        999
   115         90
   116          3
   126          1
   127          1
   128          5
   129          1
   140          3
   142          2
   154          1
   156         11
   157          1
   170          6
   171          1
   184         11
   185         55
   186         10
   187          1