##TITLE=Library Entry 17050
##JCAMP-DX=Revision 4.10 
##DATA TYPE=MASS SPECTRUM
##SAMPLE DESCRIPTION=NIST Mass Spectrometry Data Center, 2007
##NAMES=HP
##CAS NAME=Ethanol, 2-[2-(2-butoxyethoxy)ethoxy]-
##MOLFORM=C10H22O4
##CAS REGISTRY NO=143-22-6
##MP= -300
##BP= -300
##MW= 206
##$RETENTION INDEX=1470
##$CONDENSED SPECTRUM=NO
##NPOINTS= 84
##XYDATA=(XY..XY) 1 
    15          8
    16          1
    19         12
    26          6
    27         65
    28         70
    29        184
    30         15
    31         74
    32          3
    33          3
    38          1
    39         28
    40          5
    41        226
    42         27
    43        117
    44        143
    45        999
    46         24
    47          5
    51          7
    52          1
    53          5
    54          2
    55         52
    56        171
    57        572
    58         84
    59        162
    60         15
    61         12
    62          4
    63          7
    67          2
    68          1
    69         15
    70          8
    71         36
    72         77
    73         71
    74          5
    75        215
    76         42
    77         10
    78          1
    81          1
    82          3
    83         10
    85        157
    86         13
    87        154
    88         98
    89        325
    90         21
    91          3
    98          7
    99          9
   100        153
   101        158
   102         18
   103         52
   104          5
   105          2
   106          5
   107          4
   115         10
   116          7
   117         40
   118          3
   119         36
   120          2
   121          1
   129          5
   130          1
   131         38
   132          4
   133          8
   134          2
   144         15
   145          5
   151          1
   163          1
   176          1