##TITLE=Library Entry 47569
##JCAMP-DX=Revision 4.10 
##DATA TYPE=MASS SPECTRUM
##SAMPLE DESCRIPTION=NIST Mass Spectrometry Data Center, 1994
##NAMES=HP
##CAS NAME=Tritylazide
##MOLFORM=C19H15N3
##CAS REGISTRY NO=14309-25-2
##MP= -300
##BP= -300
##MW= 285
##$RETENTION INDEX=0
##$CONDENSED SPECTRUM=NO
##NPOINTS= 93
##XYDATA=(XY..XY) 1 
    15          1
    26          4
    27         42
    28          8
    37          4
    38         14
    39         59
    40          5
    41          2
    50         77
    51        515
    52         32
    53          3
    61          2
    62         12
    63         34
    64         16
    65          9
    70          2
    74         21
    75         25
    77        999
    78         71
    79          3
    82          3
    85          1
    86          5
    87         11
    88          8
    89         10
    90          4
    91          4
    95          1
    98          3
    99          5
   100          3
   101          7
   102         10
   103         14
   104         14
   105         79
   106          6
   107          2
   109          6
   110          2
   111          3
   112          3
   113         11
   114          6
   115         15
   116          2
   119          2
   121         10
   122          1
   126         20
   127         31
   137          3
   138          3
   139         19
   140          5
   149          2
   150          8
   151         25
   152         48
   153         23
   154         26
   155         11
   163         19
   165        396
   166         58
   167          4
   176          0
   177          9
   178         24
   179          0
   180        694
   181        108
   182         13
   183         35
   184          5
   189          0
   190          3
   200          1
   215          1
   229          0
   230          3
   239          2
   252          0
   256        175
   257        414
   258         85
   259          6
   260          9