##TITLE=Library Entry 97398
##JCAMP-DX=Revision 4.10 
##DATA TYPE=MASS SPECTRUM
##SAMPLE DESCRIPTION=Humboldt-Universitat zu Berlin, Department of Chemistry
, Analytical Group
##NAMES=HP
##CAS NAME=5-(3-Phenylallyl)-cyclopenta-1,3-dien-1,2,3,4,5-pentacarboxylic a
cid, pentamethyl ester
##MOLFORM=C24H24O10
##CAS REGISTRY NO=143024-47-9
##MP= -300
##BP= -300
##MW= 472
##$RETENTION INDEX=0
##$CONDENSED SPECTRUM=NO
##NPOINTS= 307
##XYDATA=(XY..XY) 1 
    12          1
    13          0
    15        136
    16          3
    17          8
    18         30
    26          0
    27          3
    28         12
    29         12
    30          3
    31          5
    32          3
    33          2
    36          0
    37          0
    38          0
    39         19
    40          1
    41          4
    42          1
    43          3
    44          5
    45          7
    46          0
    47          0
    50          2
    51          9
    52          2
    53          2
    54          0
    55          2
    56          0
    57          2
    59         72
    60          2
    61          1
    62          2
    63          8
    64          2
    65         14
    66          1
    67          1
    68          0
    69          2
    70          1
    71          1
    73          0
    74          2
    75          6
    76          7
    77         19
    78          7
    79          1
    80          0
    81          1
    82          1
    83          2
    84          0
    85          0
    86          0
    87          2
    88         12
    89         13
    90          6
    91         98
    92         10
    93          2
    95          2
    96          2
    97          1
    98          0
    99          1
   100          1
   101          4
   102         12
   103          8
   104         20
   105          7
   106          2
   107          2
   108          1
   109          1
   110          1
   111          2
   112          1
   113          2
   115        258
   116         65
   117        999
   118        130
   119         10
   120          1
   121          3
   122          1
   123          3
   124          2
   125          3
   126          4
   127          3
   128          5
   129         15
   130         10
   131          4
   132          3
   133          3
   134          4
   135          4
   136          2
   137          3
   138          3
   139          7
   140          1
   141          1
   143          7
   144          5
   145          3
   146          5
   147         11
   148          2
   149          3
   150          9
   151         14
   152         13
   153          5
   154          2
   155          0
   156          1
   157          2
   159         11
   161          4
   162          5
   163         17
   164         13
   165         14
   166          6
   167          3
   168          1
   169          1
   171          2
   172          0
   173          1
   174          7
   175         32
   176         42
   177         21
   178         16
   179          5
   180          2
   181          3
   182          3
   185          1
   187          2
   188          2
   189         12
   190          8
   191         11
   192          8
   193          4
   194          1
   195          1
   197          0
   199          1
   201          1
   202          4
   203         20
   204         23
   205         27
   206          6
   207          4
   208          2
   209          1
   213          0
   215          1
   216          1
   217          5
   218          6
   219          7
   220          7
   221          6
   222          1
   223          1
   224          0
   225          1
   229          2
   230         10
   231         20
   232         18
   233         18
   234          4
   235         11
   236          5
   237          1
   241          0
   243          0
   244          0
   245          3
   246          3
   247          6
   248          3
   249          3
   250          2
   251          1
   252          0
   253          1
   257          2
   258          7
   259         16
   260          5
   261          3
   262          4
   263         29
   264          5
   265          1
   266          2
   267          0
   268          0
   269          0
   271          3
   272          1
   273          2
   274          2
   275          2
   276          2
   277          3
   278          1
   279          3
   280          0
   281          1
   283          0
   286          1
   287          3
   288          1
   289          6
   290          5
   291          5
   293        120
   294         23
   295          5
   296          0
   299          2
   300          0
   301          1
   302          1
   303          2
   304          1
   305          2
   306          1
   307          1
   308          0
   309          4
   310          1
   316        100
   317        147
   318         38
   319          6
   320          4
   321         28
   322          7
   324         21
   325          6
   326          1
   327          1
   333          4
   334          1
   335          0
   337          7
   338          1
   339          0
   345          1
   348        101
   349        106
   350         23
   352         56
   353         16
   354          3
   355          0
   361          1
   362          0
   363          0
   364          1
   365          1
   366          0
   368          4
   369          1
   376          5
   377          1
   378          0
   380        217
   381         73
   382         14
   383          2
   384          0
   394          0
   408          5
   409          1
   410          0
   412          3
   413          1
   414          0
   440         56
   441         16
   442          3
   443          0
   472         18
   473          5
   474          1