##TITLE=Library Entry 40515
##JCAMP-DX=Revision 4.10 
##DATA TYPE=MASS SPECTRUM
##SAMPLE DESCRIPTION=NIST Mass Spectrometry Data Center, 2010
##NAMES=HP
##CAS NAME=N-Pentadecylacetamide
##MOLFORM=C17H35NO
##CAS REGISTRY NO=14303-95-8
##MP= -300
##BP= -300
##MW= 269
##$RETENTION INDEX=0
##$CONDENSED SPECTRUM=NO
##NPOINTS= 51
##XYDATA=(XY..XY) 1 
    27         46
    28         66
    29        143
    30        689
    31         21
    39         60
    41        318
    42         75
    43        640
    44        194
    45         33
    54         40
    55        315
    56        116
    57        157
    58         71
    59         16
    60        312
    67         60
    69        160
    70         44
    71         66
    72        672
    73        999
    74         53
    83         58
    86        436
    87        206
    97         40
   100        389
   101        148
   114        457
   115         67
   128        193
   129         42
   142        132
   143         30
   156        134
   157         38
   170        101
   171         19
   184         67
   198         49
   212         49
   226         60
   227         17
   240         29
   254        110
   255         16
   269        102
   270         21