##TITLE=Library Entry 2219
##JCAMP-DX=Revision 4.10 
##DATA TYPE=MASS SPECTRUM
##SAMPLE DESCRIPTION=NIST Mass Spectrometry Data Center, 1994
##NAMES=HP
##CAS NAME=Dicyclopropyl carbinol
##MOLFORM=C7H12O
##CAS REGISTRY NO=14300-33-5
##MP= -300
##BP= -300
##MW= 112
##$RETENTION INDEX=0
##$CONDENSED SPECTRUM=NO
##NPOINTS= 63
##XYDATA=(XY..XY) 1 
    13          7
    14         32
    15        132
    16          3
    17          2
    18          8
    19         17
    25          5
    26         94
    27        623
    28        134
    29        352
    30         14
    31        128
    32          0
    37         47
    38        127
    39        927
    40        155
    41        999
    42        284
    43        672
    44         47
    45         14
    49          6
    50         50
    51         87
    52         32
    53        201
    54         44
    55        686
    56        422
    57        111
    58         21
    61          5
    62         14
    63         24
    64          5
    65         64
    66         82
    67        136
    68        171
    69        540
    70         41
    71        140
    72          7
    76          2
    77         44
    78         11
    79         57
    80          6
    81         18
    82          2
    83        801
    84        709
    85         40
    86          2
    93          4
    94          2
    95          7
    97          4
   111          4
   112          0