##TITLE=Library Entry 21465
##JCAMP-DX=Revision 4.10 
##DATA TYPE=MASS SPECTRUM
##SAMPLE DESCRIPTION=Chemical Concepts
##NAMES=HP
##CAS NAME=3-Nonen-2-one
##MOLFORM=C9H16O
##CAS REGISTRY NO=14309-57-0
##MP= -300
##BP= -300
##MW= 140
##$RETENTION INDEX=1142
##$CONDENSED SPECTRUM=NO
##NPOINTS= 87
##XYDATA=(XY..XY) 1 
    26         10
    27        167
    28         18
    29        162
    30          4
    31          2
    37          1
    38          7
    39        131
    40         30
    41        252
    42         40
    43        587
    44         16
    45          6
    50          5
    51         16
    52         10
    53         71
    54         28
    55        999
    56         49
    57         50
    58         23
    59         30
    60         14
    61          2
    62          2
    63          6
    64          1
    65         23
    66         13
    67        113
    68         77
    69        206
    70         34
    71        323
    72         64
    73          8
    74          1
    75          0
    77         19
    78          3
    79         71
    80         13
    81         80
    82        217
    83         83
    84         73
    85         82
    86          9
    87          1
    91         11
    92          3
    93         30
    94          5
    95         26
    96         14
    97        323
    98         48
    99         21
   100          2
   105          3
   106          1
   107         20
   108          3
   109          3
   110          1
   111        101
   112         13
   113          2
   114          0
   119          1
   121          5
   122         22
   123          7
   125        634
   126         57
   127          6
   135          1
   136          1
   137          1
   138          1
   139         11
   140         43
   141         10
   142          1