##TITLE=Library Entry 37867
##JCAMP-DX=Revision 4.10 
##DATA TYPE=MASS SPECTRUM
##SAMPLE DESCRIPTION=V.Zaikin,Topchiev Inst.Petrochem.Synth.,Moscow
##NAMES=HP
##CAS NAME=Benzoic acid, 4-nitro-, pentyl ester
##MOLFORM=C12H15NO4
##CAS REGISTRY NO=14309-42-3
##MP= -300
##BP= -300
##MW= 237
##$RETENTION INDEX=1811
##$CONDENSED SPECTRUM=NO
##NPOINTS= 115
##XYDATA=(XY..XY) 1 
    27        112
    28         46
    29        192
    30        107
    31         12
    35          3
    36          7
    37         36
    38         62
    39        212
    40         26
    41        289
    42        416
    43        203
    44         27
    45         41
    46         29
    49         14
    50        321
    51        126
    52         20
    53         67
    54         12
    55        384
    56         33
    57         22
    58          4
    59          3
    61         14
    62         23
    63         59
    64         58
    65        406
    66         32
    67         16
    68         15
    69        297
    70        999
    71         72
    72          3
    73         37
    74        157
    75        240
    76        458
    77         64
    78         14
    79          3
    81         53
    82          4
    83          5
    84          3
    85          5
    87          6
    88          3
    89          3
    90          7
    91          6
    92        182
    93         39
    94          5
    95          4
    96          6
    97          5
   101          3
   102          5
   103         66
   104        404
   105         43
   106          4
   107          3
   108          3
   109         50
   110          4
   111          4
   115          3
   117          2
   119          4
   120         69
   121        166
   122         36
   123          6
   125          2
   134         31
   135         11
   136          2
   137         49
   138          8
   145          6
   148          4
   149         17
   150        685
   151        135
   152         38
   153          4
   164          2
   165          5
   166          3
   167        179
   168        255
   169         72
   170          6
   173         10
   178          2
   179          3
   180          2
   190          2
   191          5
   193          2
   194          4
   207          5
   208          3
   209          5
   221          3
   237          5
   238          4