##TITLE=Library Entry 82838
##JCAMP-DX=Revision 4.10 
##DATA TYPE=MASS SPECTRUM
##SAMPLE DESCRIPTION=Exported from NIST MS Search
##NAMES=HP
##CAS NAME=Acetamide, N-[2-(2-oxopropyl)phenyl]-
##MOLFORM=C11H13NO2
##CAS REGISTRY NO=14300-15-3
##MP= -300
##BP= -300
##MW= 191
##$RETENTION INDEX=0
##$CONDENSED SPECTRUM=NO
##NPOINTS= 45
##XYDATA=(XY..XY) 1 
    41         24
    42         24
    43        597
    44         17
    45         12
    50         24
    51         68
    52         43
    53         24
    55         24
    57         24
    58         12
    63         12
    65         12
    67         12
    69         19
    71         12
    75         12
    76         12
    77        146
    78         97
    79         73
    80         12
    83         12
    85         12
    89          7
    90          7
    91         24
   103          7
   104         48
   105         19
   106        999
   107        804
   108         73
   130         29
   131         73
   132         24
   133         12
   134         29
   148         85
   149        414
   150         43
   173         48
   191        353
   192         43