##TITLE=Library Entry 31169
##JCAMP-DX=Revision 4.10 
##DATA TYPE=MASS SPECTRUM
##SAMPLE DESCRIPTION=V.G. Zaikin, R.S.Borisov, TIPS RAS, Moscow, Russia
##NAMES=HP
##CAS NAME=Tetradecanoic acid, propyl ester
##MOLFORM=C17H34O2
##CAS REGISTRY NO=14303-70-9
##MP= -300
##BP= -300
##MW= 270
##$RETENTION INDEX=1896
##$CONDENSED SPECTRUM=NO
##NPOINTS= 152
##XYDATA=(XY..XY) 1 
    15          3
    26          5
    27        103
    28         60
    29        151
    30          6
    31         23
    38          4
    39         49
    40         16
    41        406
    42        176
    43        671
    44         26
    45         15
    51          1
    52          1
    53         18
    54         29
    55        314
    56         82
    57        312
    58         28
    59         43
    60        409
    61        999
    62         24
    63          4
    65          4
    66          3
    67         50
    68         33
    69        195
    70         52
    71        171
    72         17
    73        459
    74         43
    75         13
    77          3
    78          1
    79         16
    80          5
    81         48
    82         24
    83        149
    84         76
    85         97
    86         11
    87        111
    88          8
    89         10
    91          2
    93         12
    94          5
    95         49
    96         20
    97        112
    98         69
    99         22
   100          6
   101         43
   102        368
   103        123
   104          7
   105          1
   107          9
   108          2
   109         25
   110         11
   111         55
   112         17
   113         10
   114          4
   115        302
   116         28
   117          7
   119          1
   121         11
   122          1
   123         11
   124          6
   125         25
   126          5
   127          5
   128          1
   129        136
   130         13
   131          3
   133          1
   135         10
   136          1
   137          6
   138          3
   139         10
   140          2
   141          1
   143         33
   144          7
   145          2
   147          2
   148          1
   149          7
   150          1
   151          2
   152          1
   153          6
   154          1
   155          1
   157         30
   158          6
   159          1
   163          2
   164          2
   166          6
   167          4
   168          1
   169          1
   171         93
   172         12
   173          2
   177          1
   181          1
   184          1
   185         78
   186          9
   187          2
   190          1
   191          7
   192          2
   193          1
   195          1
   199         19
   200          3
   207          5
   208          8
   209          9
   210          3
   211        228
   212         31
   213         13
   214          2
   223          1
   226          1
   227         38
   228         39
   229        213
   230         30
   231          3
   241          5
   270         41
   271          7