##TITLE=Library Entry 22538
##JCAMP-DX=Revision 4.10 
##DATA TYPE=MASS SPECTRUM
##SAMPLE DESCRIPTION=V.Zaikin,Topchiev Inst.Petrochem.Synth.,Moscow
##NAMES=HP
##CAS NAME=4-Nitrobenzoic acid, heptyl ester
##MOLFORM=C14H19NO4
##CAS REGISTRY NO=14309-44-5
##MP= -300
##BP= -300
##MW= 265
##$RETENTION INDEX=2016
##$CONDENSED SPECTRUM=NO
##NPOINTS= 115
##XYDATA=(XY..XY) 1 
    27        201
    28         53
    29        313
    30        101
    31         12
    36         11
    37         16
    38         36
    39        221
    40         51
    41        685
    42        318
    43        418
    44         44
    45         14
    46         12
    49          9
    50        266
    51         75
    52         17
    53         70
    54         85
    55        680
    56        999
    57        302
    58         11
    61          8
    62         17
    63         44
    64         55
    65        188
    66         25
    67         38
    68        142
    69        520
    70        870
    71         60
    72          5
    73         15
    74         86
    75        170
    76        457
    77         69
    78         23
    79          8
    80          3
    81         32
    82          8
    83         97
    84          9
    85          5
    87          3
    89          2
    90          6
    91         16
    92        182
    93         35
    94         11
    95          5
    96         27
    97        217
    98        557
    99         49
   100          2
   103         60
   104        521
   105         72
   106          3
   107          4
   109         15
   110          2
   115          4
   116          2
   117          2
   119          3
   120         89
   121         88
   122         34
   123         10
   127          2
   131          2
   134         58
   135         16
   136          3
   137         33
   138          7
   145          5
   147          3
   148          3
   149         12
   150        868
   151        190
   152         42
   153          5
   165         15
   166          4
   167         45
   168        250
   169        125
   170         14
   171          2
   173          9
   178          5
   194          9
   195          3
   205          3
   206          4
   207          5
   208          6
   209          4
   223          3
   235          2
   249          7
   265          3
   266          5