##TITLE=Library Entry 35141
##JCAMP-DX=Revision 4.10 
##DATA TYPE=MASS SPECTRUM
##SAMPLE DESCRIPTION=Chemical Concepts
##NAMES=HP
##CAS NAME=Boron, (2,6-dimethyl-5-hepten-2-amine)tris(trifluoromethyl)-, (t-
4)-
##MOLFORM=C12H19BF9N
##CAS REGISTRY NO=143089-66-1
##MP= -300
##BP= -300
##MW= 359
##$RETENTION INDEX=0
##$CONDENSED SPECTRUM=NO
##NPOINTS= 199
##XYDATA=(XY..XY) 1 
    26          2
    27         59
    28          2
    29         46
    30         12
    31          4
    37          0
    38          1
    39         61
    41        275
    42         39
    43         59
    44          5
    45          4
    46         10
    47          1
    48          1
    49          2
    50          3
    51          6
    52          3
    53         33
    54          7
    55        118
    56        156
    57         51
    58        613
    59         24
    60          0
    61         64
    62          2
    63          1
    64          0
    65         11
    66          9
    67         58
    68         26
    69        999
    70         68
    71          8
    72          7
    73         13
    74          3
    75          2
    76          3
    77         14
    78         23
    79         13
    80          3
    81         39
    82         14
    83         88
    84         12
    85          3
    86         20
    87         13
    88          1
    89          3
    90         14
    91         11
    92          7
    93          8
    94          3
    95         21
    96         11
    97          3
    98         14
    99          7
   100          1
   101          7
   102          1
   103          2
   104          5
   105         23
   106         68
   107         11
   108          3
   109        114
   110         15
   111          4
   112          1
   113         12
   114          1
   115          3
   116          1
   117          3
   118          7
   119         19
   120         11
   121          2
   122          3
   123         96
   124         97
   125         67
   126         40
   127          4
   128          1
   129          2
   130          2
   131          3
   132          2
   133          4
   134          1
   135         16
   136          3
   137          1
   138          1
   139         18
   140         11
   141          4
   142          2
   143          4
   144          2
   145          3
   146         19
   147          2
   148          0
   149          4
   150          1
   151          1
   152          4
   153          3
   154          6
   155         18
   156          3
   157          1
   158          1
   159          9
   160         10
   161          2
   162          1
   163          2
   164          1
   165          1
   166          6
   167          1
   168          0
   169          1
   170          1
   171          0
   172          1
   173          2
   174          1
   175         30
   176          4
   177          0
   178          0
   179          0
   180          0
   181          1
   182          0
   183          1
   185          0
   186          1
   187          0
   188          0
   189          5
   190         17
   191          2
   192          0
   193          0
   195          0
   196          0
   199          2
   200          7
   201          0
   205          0
   209          1
   210          6
   211          1
   214          0
   218          0
   219          2
   220          9
   221          1
   228          0
   230          0
   240          0
   241          0
   250          1
   260          0
   277          1
   278          3
   279          7
   280          0
   288          1
   300          0
   303          0
   319          1
   320          0
   324          0
   339          2
   340          3
   341          0
   344          0
   358         20
   359         78
   360         11
   361          0