##TITLE=Library Entry 92823
##JCAMP-DX=Revision 4.10 
##DATA TYPE=MASS SPECTRUM
##SAMPLE DESCRIPTION=NIST Mass Spectrometry Data Center
##NAMES=HP
##CAS NAME=Disulfide, 1-(1-propenylthio)propyl propyl
##MOLFORM=C9H18S3
##CAS REGISTRY NO=143193-11-7
##MP= -300
##BP= -300
##MW= 222
##$RETENTION INDEX=1592
##$CONDENSED SPECTRUM=NO
##NPOINTS= 78
##XYDATA=(XY..XY) 1 
    26          1
    27         13
    28          1
    29          6
    32          1
    37          1
    38          2
    39         52
    40          4
    41        126
    42          7
    43         58
    44          3
    45        147
    46         12
    47         42
    48          1
    49          2
    53         13
    54          1
    55         38
    56          1
    57          2
    58         13
    59        143
    60          7
    61         62
    62          2
    63          3
    64          8
    65          6
    66          3
    67          5
    69         29
    70          2
    71         29
    72         15
    73        272
    74         32
    75         23
    76          2
    77          3
    78          2
    79         44
    80          3
    81        220
    82         13
    83          1
    85         16
    86          1
    87         23
    88          1
    89          1
    92          1
    97          1
    99          9
   100          2
   101         10
   102          1
   103          5
   105         34
   106          5
   107         13
   108          2
   113          6
   114          4
   115        999
   116         70
   117         48
   118          3
   119          1
   147          1
   149          8
   150          1
   192          1
   222          4
   223          1
   224          1