##TITLE=Library Entry 45117
##JCAMP-DX=Revision 4.10 
##DATA TYPE=MASS SPECTRUM
##SAMPLE DESCRIPTION=NIST Mass Spectrometry Data Center, 1990.
##NAMES=HP
##CAS NAME=1,1,3-Trimethoxypropane
##MOLFORM=C6H14O3
##CAS REGISTRY NO=14315-97-0
##MP= -300
##BP= -300
##MW= 134
##$RETENTION INDEX=0
##$CONDENSED SPECTRUM=NO
##NPOINTS= 60
##XYDATA=(XY..XY) 1 
    12          0
    13          2
    14         14
    15        157
    16          4
    17          2
    18          1
    19          1
    26         18
    27         78
    28         62
    29        229
    30         19
    31        173
    32          6
    33         29
    37          1
    38          4
    39         30
    40          6
    41         77
    42         29
    43         70
    44          1
    45        920
    46         28
    47        223
    48          6
    49          0
    51          1
    53          3
    54          2
    55         18
    56          9
    57         36
    58         36
    59         49
    60          2
    61          2
    69          2
    71        202
    72         44
    73         76
    74          2
    75        999
    76         36
    77          4
    85          4
    87         21
    88          1
    89          0
   101         35
   102         58
   103        177
   104          9
   105          1
   117          0
   119         14
   120          1
   133          2