##TITLE=Library Entry 42760
##JCAMP-DX=Revision 4.10 
##DATA TYPE=MASS SPECTRUM
##SAMPLE DESCRIPTION=NIST Mass Spectrometry Data Center, 2010
##NAMES=HP
##CAS NAME=D-Mannitol, 6TMS derivative
##MOLFORM=C24H62O6Si6
##CAS REGISTRY NO=14317-07-8
##MP= -300
##BP= -300
##MW= 614
##$RETENTION INDEX=1958
##$CONDENSED SPECTRUM=NO
##NPOINTS= 187
##XYDATA=(XY..XY) 1 
    15          1
    29          1
    31          1
    39          1
    41          9
    42          1
    43          6
    44          7
    45         37
    46          3
    47          4
    53          2
    54          3
    55          6
    56          1
    57          2
    58          5
    59         23
    60          2
    61          3
    66          1
    67          1
    69          4
    70          2
    71          2
    72         16
    73        999
    74         83
    75         59
    76          3
    77          2
    81          2
    83          3
    85          2
    87          4
    88          5
    89         22
    90          2
    91          1
    97          2
    99          3
   101         21
   102          4
   103        319
   104         30
   105         13
   106          1
   111          2
   113          6
   114          1
   115          5
   116          8
   117        149
   118         15
   119         11
   120          1
   125          1
   127          3
   128          1
   129         73
   130          9
   131         32
   132          5
   133         79
   134         11
   135          7
   136          1
   141          2
   142          2
   143         15
   144          2
   145          5
   146          2
   147        488
   148         77
   149         48
   150          5
   151          2
   153          1
   155          3
   156          1
   157         52
   158          6
   159          6
   160          1
   161          5
   162          1
   163          9
   164          1
   165          1
   167          1
   169          3
   170          1
   173          2
   175         10
   176          2
   177          6
   178          1
   179          1
   183          6
   184          1
   185          1
   187          1
   189         62
   190         15
   191         51
   192          9
   193          4
   194          1
   201          2
   202          1
   203          7
   204         79
   205        410
   206         80
   207         40
   208          5
   209          2
   215          2
   216          2
   217        255
   218         54
   219         24
   220          3
   221         15
   222          3
   223          2
   229         29
   230         10
   231         21
   232          4
   233          2
   239          1
   243          2
   244          1
   247          1
   255          9
   256          2
   257          2
   259          3
   260          1
   265          2
   266          1
   273          1
   277         21
   278          8
   279          4
   280          1
   291         22
   292          7
   293          4
   294          1
   303          1
   305         23
   306         12
   307         77
   308         22
   309         11
   310          2
   317          2
   318          2
   319        453
   320        134
   321         64
   322         13
   323          3
   329          2
   330          1
   331         17
   332          5
   333          3
   334          1
   345         20
   346          6
   347          3
   348          1
   393          1
   408          1
   409          2
   410          1
   419          8
   420          3
   421         14
   422          5
   423          3
   424          1
   434          1