##TITLE=Library Entry 83550
##JCAMP-DX=Revision 4.10 
##DATA TYPE=MASS SPECTRUM
##SAMPLE DESCRIPTION=Japan AIST/NIMC Database- Spectrum MS-NW-6023
##NAMES=HP
##CAS NAME=Phenoxyacetic anhydride
##MOLFORM=C16H14O5
##CAS REGISTRY NO=14316-61-1
##MP= -300
##BP= -300
##MW= 286
##$RETENTION INDEX=0
##$CONDENSED SPECTRUM=NO
##NPOINTS= 85
##XYDATA=(XY..XY) 1 
    14          3
    17          1
    18          3
    26          2
    27         10
    28         15
    29          7
    30          2
    31          3
    37          3
    38         11
    39         57
    40          5
    41          2
    42         27
    43          3
    44          5
    45          1
    49          1
    50         31
    51        131
    52         10
    53          3
    55          4
    57          1
    61          1
    62          5
    63         14
    64          7
    65         57
    66         10
    67          1
    71          1
    73          1
    74          7
    75          7
    76         13
    77        548
    78         53
    79        143
    80          9
    81          1
    90          1
    91         10
    92          4
    93         23
    94         49
    95          4
   103          3
   105         25
   106          6
   107        999
   108         86
   109          6
   111          1
   113          1
   115          2
   119          3
   120         59
   121         93
   122          9
   123          1
   128          1
   134         10
   135          9
   136          1
   137          6
   141          3
   143          4
   149          2
   152         69
   153          8
   154          1
   192          1
   193         14
   194          2
   200          6
   201          1
   221          4
   228          1
   242          1
   286        277
   287         50
   288          8
   289          1