##TITLE=Library Entry 20178
##JCAMP-DX=Revision 4.10 
##DATA TYPE=MASS SPECTRUM
##SAMPLE DESCRIPTION=D.HENNEBERG, MAX-PLANCK INSTITUTE, MULHEIM, WEST GERMAN
Y
##NAMES=HP
##CAS NAME=5-Undecene, 4-methyl-
##MOLFORM=C12H24
##CAS REGISTRY NO=143185-91-5
##MP= -300
##BP= -300
##MW= 168
##$RETENTION INDEX=0
##$CONDENSED SPECTRUM=NO
##NPOINTS= 79
##XYDATA=(XY..XY) 1 
    25          2
    26          9
    27        112
    28         37
    29        158
    30          5
    31          0
    34          0
    36          0
    37          1
    38          1
    39         73
    40         15
    41        353
    42         56
    43        249
    44         19
    45          2
    49          2
    50          3
    51          8
    52          4
    53         50
    54         35
    55        999
    56        407
    57        146
    58          4
    59          0
    63          1
    64          1
    65         10
    66          7
    67         67
    68         43
    69        817
    70        206
    71         68
    72          2
    73          1
    75          2
    76          1
    77          7
    78          4
    79         12
    80          2
    81         33
    82         14
    83        259
    84        209
    85         58
    86          0
    91          3
    92          0
    93          2
    95         12
    96          6
    97        182
    98         34
    99          1
   107          0
   109          2
   111          7
   112          7
   113          0
   123          1
   124          9
   125         55
   126         13
   127          1
   130          0
   133          0
   134          0
   140          0
   141          0
   153          0
   166          1
   168         44
   169          5