##TITLE=Library Entry 64740
##JCAMP-DX=Revision 4.10 
##DATA TYPE=MASS SPECTRUM
##SAMPLE DESCRIPTION=Chemical Concepts
##NAMES=HP
##CAS NAME=Benzylamine, N,N-bis(9-borabicyclo[3.3.1]non-9-yl)-
##MOLFORM=C23H35B2N
##CAS REGISTRY NO=143122-95-6
##MP= -300
##BP= -300
##MW= 347
##$RETENTION INDEX=0
##$CONDENSED SPECTRUM=NO
##NPOINTS= 208
##XYDATA=(XY..XY) 1 
    27         21
    29         26
    36          9
    37         60
    38        115
    39         36
    40         34
    41        110
    42         27
    43         15
    50         37
    51        130
    52        169
    53         48
    54         35
    55         69
    56         13
    57          6
    61          6
    62         19
    63         83
    64        160
    65        133
    66         94
    67        182
    68         34
    69         46
    70          5
    75         14
    76         52
    77        159
    78        221
    79        102
    80        105
    81         84
    82         28
    83         15
    87          5
    88         16
    89         66
    90         79
    91        999
    92        190
    93         59
    94         36
    95         41
    96         10
    97         10
   101          8
   102         23
   103         51
   104         91
   105         49
   106         59
   107         48
   108         89
   109         80
   110         21
   111          8
   113         14
   114         28
   115         34
   116         84
   117         87
   118        134
   119         47
   120         55
   121         19
   122          7
   123          6
   126         16
   127         51
   128         85
   129         48
   130         51
   131         62
   132         53
   133         16
   134         16
   135          6
   136         11
   137          7
   138         11
   139          8
   140         24
   141         55
   142         67
   143         39
   144         62
   145        128
   146        233
   147         44
   148         32
   149         11
   151          6
   152         13
   153         24
   154         48
   155         40
   156         51
   157         23
   158         41
   159         34
   160         40
   161         13
   162          9
   163          4
   164         10
   165         26
   166         55
   167         84
   168        147
   169        119
   170         80
   171         21
   172         22
   173         20
   174         26
   175          5
   178          9
   179         31
   180         63
   181         42
   182         43
   183         16
   184         16
   185         12
   186         29
   187         59
   188        106
   189         19
   190          7
   192          8
   193         26
   194         61
   195         38
   196         43
   197         12
   198         13
   199         11
   200         15
   201          5
   205          5
   206         17
   207         35
   208         69
   209         44
   210         14
   211          7
   212         11
   213          9
   214         15
   217          6
   219          7
   220         17
   221         20
   222         39
   223         15
   224          7
   225         13
   226         39
   227         55
   228         24
   233         15
   234         58
   235        179
   236        375
   237        185
   238         68
   239         18
   240          8
   247          7
   248         15
   249         18
   250         29
   251         34
   252          7
   253          8
   254         52
   255        140
   256        151
   257         39
   258         26
   259          4
   261          9
   262         18
   263         12
   264         10
   268          6
   269          8
   274          6
   275          4
   276          9
   277          7
   278          6
   290          7
   303          8
   304         21
   305         21
   306         35
   307          7
   317          7
   318         11
   319         11
   346        317
   347        711
   348        168
   349         21