##TITLE=Library Entry 96804
##JCAMP-DX=Revision 4.10 
##DATA TYPE=MASS SPECTRUM
##SAMPLE DESCRIPTION=Chemical Concepts
##NAMES=HP
##CAS NAME=Benzaldimine, N-(9-borabicyclo[3.3.1]non-9-yl)-
##MOLFORM=C15H20BN
##CAS REGISTRY NO=143122-91-2
##MP= -300
##BP= -300
##MW= 225
##$RETENTION INDEX=0
##$CONDENSED SPECTRUM=NO
##NPOINTS= 161
##XYDATA=(XY..XY) 1 
    25         13
    26         88
    27        233
    29         31
    36         29
    37        144
    38         79
    39        324
    40         19
    41        292
    42         32
    43          8
    49         24
    50        113
    51        255
    52        186
    53        368
    54         87
    55         53
    56          8
    60          5
    61         33
    62         32
    63        108
    64        127
    65        276
    66        305
    67        173
    68         28
    69          9
    73          2
    74         20
    75         31
    76         73
    77        204
    78        217
    79        267
    80        223
    81        152
    82         10
    85          1
    86         21
    87         90
    88        165
    89        610
    90         80
    91        229
    92        140
    93        250
    94        488
    95         49
    96         15
    97          8
    99          8
   100         23
   101         70
   102        158
   103         56
   104        138
   105        104
   106         35
   107         52
   108         43
   109         33
   110         17
   111          2
   112          9
   113         42
   114         62
   115        310
   116        999
   117        138
   118         57
   119         32
   120         37
   121        106
   122        317
   123         30
   124          2
   126          6
   127         32
   128        206
   129        644
   130        199
   131         67
   132         25
   133         11
   134         20
   135          4
   136          6
   137          6
   138         27
   139         20
   140         59
   141        110
   142        280
   143        139
   144         55
   145         17
   146          4
   147         10
   148         22
   149         11
   150          4
   151          4
   152          8
   153         25
   154         99
   155        112
   156        156
   157         45
   158         19
   159          4
   161          3
   162          3
   163          4
   164          2
   165          9
   166         34
   167         88
   168        342
   169        232
   170        118
   171         46
   172          5
   173          2
   174          3
   177          1
   178          6
   179         16
   180         29
   181        148
   182        550
   183        156
   184         67
   185          6
   186          3
   188          4
   189          5
   192          4
   193          4
   194         14
   195        197
   196        742
   197        124
   198         12
   200          1
   207          3
   208          8
   209         22
   210         63
   211          8
   216          3
   217          6
   221          3
   222         16
   223         71
   224        474
   225        862
   226        154
   227         36