##TITLE=Library Entry 10761
##JCAMP-DX=Revision 4.10 
##DATA TYPE=MASS SPECTRUM
##SAMPLE DESCRIPTION=Japan AIST/NIMC Database- Spectrum MS-IW-2549
##NAMES=HP
##CAS NAME=3-Acetyl-2-oxo-1,3-oxazolidine
##MOLFORM=C5H7NO3
##CAS REGISTRY NO=1432-43-5
##MP= -300
##BP= -300
##MW= 129
##$RETENTION INDEX=0
##$CONDENSED SPECTRUM=NO
##NPOINTS= 72
##XYDATA=(XY..XY) 1 
    12          1
    13          3
    14         20
    15        133
    16          2
    25          1
    26         13
    27         39
    28        106
    29         66
    30         33
    31         33
    32          1
    37          2
    38          6
    39         20
    40         15
    41         42
    42        201
    43        999
    44         74
    45         10
    49          1
    50         13
    51         20
    52         23
    53          3
    54          3
    55         22
    56         56
    57         93
    58          9
    59         11
    60          2
    61          1
    63          3
    65          1
    67          1
    68          3
    69         15
    70         36
    71         10
    72          1
    73         10
    74          8
    75          2
    76          5
    77          2
    78         13
    79          1
    82          1
    83         10
    84          5
    85          7
    86         67
    87         47
    88        260
    89          9
    90          1
    91          5
    92          3
    97          3
    98          6
    99          2
   100          1
   101        460
   102         21
   103          2
   112          1
   129        243
   130         14
   131          2