##TITLE=Library Entry 26633
##JCAMP-DX=Revision 4.10 
##DATA TYPE=MASS SPECTRUM
##SAMPLE DESCRIPTION=Exported from NIST MS Search
##NAMES=HP
##CAS NAME=2-Propanamine, N-(2,2-dimethylpropylidene)-2-methyl-
##MOLFORM=C9H19N
##CAS REGISTRY NO=1432-48-0
##MP= -300
##BP= -300
##MW= 141
##$RETENTION INDEX=0
##$CONDENSED SPECTRUM=NO
##NPOINTS= 49
##XYDATA=(XY..XY) 1 
    37         10
    38         20
    39        110
    40         20
    41        250
    42         90
    43         30
    44         10
    50         20
    51         20
    52         20
    53         20
    54         20
    55         40
    56         80
    57        999
    58        110
    59         10
    63         10
    65         10
    67          5
    68         20
    69         30
    70        120
    71         20
    72         10
    74         10
    76         10
    77         20
    78         70
    79         10
    82         10
    83         10
    84        110
    85         20
    86        110
    87         20
    91         30
    92         30
    94         10
    96         30
    99         20
   110         10
   111         10
   126        260
   127         30
   140         10
   141        140
   142         20