##TITLE=Library Entry 243
##JCAMP-DX=Revision 4.10 
##DATA TYPE=MASS SPECTRUM
##SAMPLE DESCRIPTION=Chemical Concepts
##NAMES=HP
##CAS NAME=Molybdenum, pentacarbonyl(pyridine-N-)-, (oc-6-22)-
##MOLFORM=C10H5MoNO5
##CAS REGISTRY NO=14324-76-6
##MP= -300
##BP= -300
##MW= 317
##$RETENTION INDEX=0
##$CONDENSED SPECTRUM=NO
##NPOINTS= 167
##XYDATA=(XY..XY) 1 
    26        118
    27         32
    28        999
    29          9
    37         10
    38         19
    39         50
    40          8
    41          5
    42          2
    43          1
    48          3
    49         20
    50         98
    51        167
    52        315
    53         32
    57          1
    62          4
    63          2
    68          2
    74          4
    75          8
    76          5
    77          3
    78         49
    79        423
    80         19
    87         22
    88         15
    89          3
    90          3
    91          2
    92        116
    94         65
    95        121
    96        121
    97         67
    98        197
    99          3
   100         71
   101         13
   102         10
   104          7
   105          3
   106         13
   107          8
   108         17
   109         14
   110         24
   111         11
   112         18
   114          6
   115          3
   116          3
   117         18
   118         26
   119         25
   120         60
   121         52
   122         71
   123         80
   124         77
   125         45
   126         52
   127         10
   128         15
   129          3
   130          8
   131          4
   132          6
   133         12
   134         14
   135         14
   136         15
   137          6
   138          6
   139          2
   140          3
   141          4
   142          4
   143         22
   144         50
   145         21
   146         47
   147         81
   148         88
   149         67
   150        100
   151         39
   152         44
   153         15
   154         24
   156         13
   157          2
   159          4
   160          3
   161          5
   162          5
   163          2
   170          4
   171        199
   172         14
   173        128
   174        220
   175        247
   176        149
   177        347
   178         24
   179        138
   180         24
   181         12
   182         33
   184         11
   199        166
   200         10
   201         97
   202        167
   203        196
   204        116
   205        278
   206         16
   207        100
   208          9
   210          6
   214          2
   227        121
   228          8
   229         75
   230        146
   231        138
   232         93
   233        198
   234         14
   235         78
   236          7
   238          4
   255         64
   256          6
   257         46
   258         77
   259         78
   260         54
   261        118
   262         15
   263         53
   264         14
   265          5
   266         17
   268          6
   283         13
   285          8
   286         17
   287         15
   288         10
   289         23
   291          8
   311         67
   312          8
   313         36
   314         80
   315         91
   316         54
   317        121
   318         13
   319         48
   320          5