##TITLE=Library Entry 96839
##JCAMP-DX=Revision 4.10 
##DATA TYPE=MASS SPECTRUM
##SAMPLE DESCRIPTION=Japan AIST/NIMC Database- Spectrum MS-NW-8129
##NAMES=HP
##CAS NAME=Zinc, bis(diethylcarbamodithioato-S,S')-, (T-4)-
##MOLFORM=C10H20N2S4Zn
##CAS REGISTRY NO=14324-55-1
##MP= -300
##BP= -300
##MW= 360
##$RETENTION INDEX=0
##$CONDENSED SPECTRUM=NO
##NPOINTS= 244
##XYDATA=(XY..XY) 1 
    15          4
    17          3
    18         19
    26          8
    27         59
    28         60
    29        124
    30         15
    32          6
    33          2
    34          5
    35          2
    38          1
    39          2
    40          2
    41          8
    42         38
    43          4
    44        144
    45         13
    46          2
    47          2
    52          1
    54          9
    55          6
    56         69
    57          9
    58         20
    59         52
    60        232
    61         22
    62         10
    64         10
    65          1
    66          3
    67          1
    68          2
    69          1
    70         46
    71         13
    72        189
    73         13
    74          2
    76         38
    77         19
    78          4
    79          2
    82          4
    83          1
    84         11
    85          3
    86        213
    87         70
    88        399
    89         21
    90         18
    91          6
    92          3
    93          3
    94          1
    95          1
    96          4
    97          9
    98         10
    99          6
   100          3
   101          4
   102          1
   104          1
   106          1
   108          1
   110          1
   111          1
   112          1
   113         11
   114        142
   115         64
   116        999
   117        112
   118         49
   119          8
   120          3
   121          2
   122          2
   123          5
   124          6
   125          5
   126          3
   127          3
   128          6
   129          6
   130          3
   131          1
   132          2
   135          2
   136          4
   137          1
   138          2
   139          2
   140          4
   141          1
   142          2
   143          1
   144          2
   145          2
   146          5
   147         20
   148        161
   149         55
   150         17
   151         13
   152          5
   153          6
   154          4
   155          8
   156          8
   157          6
   158          5
   159          4
   160          4
   161          1
   166          1
   168         12
   169          1
   170          8
   171          2
   172          6
   173          3
   174          2
   175          2
   176          1
   177          3
   178          1
   179          1
   180          8
   181          2
   182          3
   183          1
   184         19
   185          2
   186         12
   187          5
   188          9
   189          2
   190          1
   191          1
   200          3
   203          5
   204          2
   205          4
   207          2
   209          1
   210          1
   211          6
   212        165
   213         36
   214        117
   215         43
   216         78
   217         20
   218         12
   219          5
   220          1
   232          4
   239          1
   241          1
   243          2
   244        183
   245         20
   246        130
   247         29
   248         85
   249         10
   250         12
   251          1
   255          6
   256          1
   257          4
   258          1
   259          3
   260          2
   262          1
   264          4
   266          2
   267         23
   268          4
   269         27
   270          6
   271         34
   272         29
   273         20
   274         19
   275         12
   276         12
   277          4
   278          2
   283         42
   284          5
   285         27
   286          7
   287         18
   288          5
   289          2
   290          2
   291          3
   292          2
   293          3
   295          2
   297          2
   299         32
   300          8
   301         24
   302          8
   303         15
   304          4
   305          3
   327          9
   328          1
   329          8
   330          2
   331         95
   332         11
   333         68
   334         15
   335         45
   336          6
   337          8
   338          1
   348          1
   351          1
   352          7
   353          1
   354          1
   358          1
   359         41
   360        756
   361        142
   362        566
   363        161
   364        378
   365         67
   366         69
   367          9
   368          6