##TITLE=Library Entry 30754
##JCAMP-DX=Revision 4.10 
##DATA TYPE=MASS SPECTRUM
##SAMPLE DESCRIPTION=D.HENNEBERG, MAX-PLANCK INSTITUTE, MULHEIM, WEST GERMAN
Y
##NAMES=HP
##CAS NAME=2-Propanol, 2-methyl-, lithium salt
##MOLFORM=C4H9LiO
##CAS REGISTRY NO=14322-83-9
##MP= -300
##BP= -300
##MW= 80
##$RETENTION INDEX=0
##$CONDENSED SPECTRUM=NO
##NPOINTS= 220
##XYDATA=(XY..XY) 1 
    26         34
    27         24
    28         16
    29         53
    30          2
    31        340
    32          3
    33          1
    38          7
    39         29
    40          0
    41        149
    45          2
    49          0
    50          2
    51          2
    53          2
    55         17
    57         24
    58          8
    59        999
    60         34
    61          2
    65          9
    67          0
    68          0
    69          0
    73          1
    75          3
    76          0
    77          0
    81          0
    82          1
    83          1
    84          1
    85          1
    88          1
    91          0
    97          0
   105          1
   108          0
   109          4
   110          0
   111          2
   113          0
   115          1
   117          0
   119          0
   123          3
   130          0
   137          0
   139          0
   141          0
   147          0
   149          4
   154          0
   155          0
   161          4
   162          0
   163          0
   165          1
   166          9
   167         46
   168          4
   169          0
   183          0
   187          1
   188          1
   189          3
   190          5
   191         18
   192          1
   193          1
   195          0
   196          1
   197          4
   202          0
   203          0
   204          0
   205          0
   207          0
   219          0
   224          0
   225          1
   228          0
   229          1
   230          8
   231         23
   232         21
   233          4
   234          0
   239          1
   240          1
   243          1
   244          4
   245         30
   246        240
   247        933
   248        128
   249         17
   250          1
   251          0
   259          0
   260          1
   261          2
   270          0
   271          0
   275          0
   276          1
   277          3
   278          0
   279          2
   287          0
   288          0
   289          0
   290          0
   291          0
   301          0
   302          2
   303          9
   304         10
   305         36
   306          8
   307          2
   308          0
   310          0
   311          1
   312          1
   317          1
   318          1
   319          4
   320          6
   321         18
   322          3
   323          1
   324          0
   325          2
   326          9
   327         31
   328          6
   329          1
   333          0
   334          3
   335          7
   336          1
   337          0
   349          0
   350          3
   351          8
   352          1
   353          0
   359          0
   360          0
   361          0
   362          1
   363          3
   364          0
   368          0
   369          0
   374          0
   375          0
   376          1
   377          2
   378          1
   379          1
   380          0
   384          1
   385          2
   386          0
   387          0
   388          1
   389          2
   390         14
   391         33
   392         16
   393          5
   394          0
   395          0
   400          1
   401          1
   403          1
   404          5
   405         59
   406        322
   407        829
   408        184
   409         29
   410          3
   411          0
   412          0
   419          0
   420          1
   421          0
   433          0
   434          0
   435          1
   436          0
   447          0
   448          2
   449          5
   450          2
   451          0
   460          0
   461          1
   462          6
   463         19
   464         32
   465         83
   466         24
   467          7
   468          0
   476          0
   477          0
   478          0
   479          1
   480          1
   481          8
   482          2
   483          0
   487          1