##TITLE=Library Entry 13665
##JCAMP-DX=Revision 4.10 
##DATA TYPE=MASS SPECTRUM
##SAMPLE DESCRIPTION=Japan AIST/NIMC Database- Spectrum MS-NW-3083
##NAMES=HP
##CAS NAME=Nickel,bis(1,1,1-trifluoro-2,4-pentanedionato-O,O')-
##MOLFORM=C10H8F6NiO4
##CAS REGISTRY NO=14324-83-5
##MP= -300
##BP= -300
##MW= 364
##$RETENTION INDEX=0
##$CONDENSED SPECTRUM=NO
##NPOINTS= 149
##XYDATA=(XY..XY) 1 
    12          4
    13          3
    14         11
    15         42
    16          2
    19          2
    20          7
    25          4
    26         13
    27         50
    28        156
    29         12
    31         11
    36          3
    37          9
    38         18
    39         49
    40         29
    41         15
    42         27
    43        999
    44         26
    45          5
    47          4
    50          5
    51          5
    53         12
    54          4
    55         63
    56          5
    57          6
    58         75
    59          6
    60         26
    62          4
    63          6
    66          6
    67         29
    68          7
    69        139
    70          4
    71         14
    72          5
    73          8
    74          3
    75          9
    76          2
    77          4
    78          3
    79          2
    80          1
    82          3
    83          5
    84         22
    85         71
    86         46
    87          8
    88         16
    89          3
    90          4
    91         23
    95          3
    96          2
    97          5
    98          1
    99         18
   100         18
   101          9
   102          9
   103          2
   104          1
   105          2
   108          3
   110          3
   112          1
   113          4
   114          8
   115          6
   116          3
   117          2
   119          7
   120         22
   123          1
   126          3
   127          2
   128          2
   131          2
   133          2
   134          7
   135          2
   139          8
   140          3
   141         15
   142         29
   143          7
   144         11
   145          2
   146          1
   148          2
   149          8
   154          9
   155          9
   157          5
   159          7
   161        219
   162         11
   163         73
   164          8
   165         12
   167          5
   182          1
   183          7
   185          3
   195          2
   196          8
   198          3
   199          2
   209          3
   211        224
   212         20
   213         97
   214         11
   215         14
   217          5
   218          2
   225          5
   227          2
   253         26
   254          1
   255          9
   257          2
   283          3
   295        186
   296         17
   297         70
   298         10
   299         11
   301          3
   317          2
   349         16
   350          2
   351          8
   352          1
   362          2
   364         74
   365          9
   366         27
   367          4
   368          6