##TITLE=Library Entry 18946
##JCAMP-DX=Revision 4.10 
##DATA TYPE=MASS SPECTRUM
##SAMPLE DESCRIPTION=Chemical Concepts
##NAMES=HP
##CAS NAME=Hexahydro-1,4-dioxa-cyclopropa[a]pentalen-3-one
##MOLFORM=C7H8O3
##CAS REGISTRY NO=143393-90-2
##MP= -300
##BP= -300
##MW= 140
##$RETENTION INDEX=0
##$CONDENSED SPECTRUM=NO
##NPOINTS= 72
##XYDATA=(XY..XY) 1 
    25         11
    26        168
    27        804
    28        378
    29        514
    30         10
    31         86
    36          3
    37         50
    38        134
    39        870
    40        250
    41        707
    42        397
    43        380
    44         87
    45         33
    50         46
    51         75
    52         40
    53        230
    54        389
    55        999
    56        525
    57        502
    58         20
    59          1
    60          3
    61          8
    62         13
    63         25
    64          6
    65         75
    66        120
    67        415
    68        387
    69        444
    70        582
    71        276
    72         14
    73          5
    74          3
    75          7
    77         19
    78         19
    79         19
    81        168
    82         27
    83        377
    84        515
    85         73
    86          6
    91          9
    92          4
    93          4
    94         20
    95        166
    96        343
    97        701
    98        334
    99         61
   100          5
   110         10
   111         50
   112        100
   113         10
   121          2
   122          8
   139          6
   140        633
   141         54
   142          6