##TITLE=Library Entry 11439
##JCAMP-DX=Revision 4.10 
##DATA TYPE=MASS SPECTRUM
##SAMPLE DESCRIPTION=V.G.Zaikin, TIPS RAS, Moscow, Russia
##NAMES=HP
##CAS NAME=Hexanoic acid, hexadecyl ester
##MOLFORM=C22H44O2
##CAS REGISTRY NO=14331-11-4
##MP= -300
##BP= -300
##MW= 340
##$RETENTION INDEX=2366
##$CONDENSED SPECTRUM=NO
##NPOINTS= 96
##XYDATA=(XY..XY) 1 
    25          5
    26         45
    27        209
    28         30
    29        322
    30         11
    31          8
    36          6
    37         11
    38         19
    39        175
    40         45
    41        665
    42        232
    43        999
    44         42
    45         31
    50          8
    51         16
    52          7
    53         49
    54         99
    55        648
    56        291
    57        501
    58         29
    59          7
    60        103
    61         59
    65          8
    66         11
    67         99
    68        122
    69        386
    70        238
    71        339
    72         19
    73         88
    74         15
    79         15
    80          7
    81         59
    82        138
    83        345
    84        146
    85        116
    86          8
    87         38
    89         15
    90          6
    95         32
    96         61
    97        248
    98        101
    99        375
   100         34
   101         15
   109          9
   110         19
   111        118
   112         59
   113         15
   114          6
   115         17
   116        115
   117        961
   118         73
   119          7
   124         12
   125         49
   126         36
   127         13
   129          5
   130          5
   138          9
   139         19
   140         27
   141          3
   143          4
   153          9
   154         21
   157          3
   167          7
   168         13
   169          3
   171         15
   179          4
   181          3
   182          9
   183          3
   196         39
   197          8
   224         79
   225         19
   269         19
   270          4