##TITLE=Library Entry 47858
##JCAMP-DX=Revision 4.10 
##DATA TYPE=MASS SPECTRUM
##SAMPLE DESCRIPTION=Japan AIST/NIMC Database- Spectrum MS-IW-5787
##NAMES=HP
##CAS NAME=2-Bromo-4-methylazobenzene
##MOLFORM=C13H11BrN2
##CAS REGISTRY NO=14336-14-2
##MP= -300
##BP= -300
##MW= 274
##$RETENTION INDEX=0
##$CONDENSED SPECTRUM=NO
##NPOINTS= 102
##XYDATA=(XY..XY) 1 
    26          2
    27         12
    28          4
    37          3
    38         11
    39         47
    40          8
    41          5
    49          1
    50         37
    51        168
    52         17
    53          3
    61          3
    62         17
    63         84
    64         46
    65         18
    66          2
    74          8
    75         15
    76         24
    77        999
    78         80
    79          2
    80          2
    82          2
    86          2
    87          5
    88          6
    89        199
    90        306
    91         45
    92          3
    93          3
   101          1
   102          4
   103          5
   104          7
   105        492
   106         36
   107          1
   114          1
   115          9
   116          1
   117          4
   119          5
   126          3
   127          3
   128          9
   129          1
   131          1
   137          1
   138          1
   139          7
   140          2
   141          5
   142          1
   143          6
   145          6
   150          2
   151         10
   152         94
   153         12
   156          9
   157          1
   158          9
   163          4
   164          8
   165        113
   166         42
   167         27
   168          5
   169        519
   170         44
   171        506
   172         40
   173          1
   179          1
   180          1
   184          2
   185          2
   186          2
   187          1
   193          2
   194          3
   195          3
   196          1
   197        276
   198         22
   199        269
   200         21
   201          1
   245          3
   246          5
   247          4
   248          5
   274        545
   275         83
   276        538
   277         82
   278          7