##TITLE=Library Entry 96698
##JCAMP-DX=Revision 4.10 
##DATA TYPE=MASS SPECTRUM
##SAMPLE DESCRIPTION=Richard Turcotte. Direction des laboratoires d'expertis
es et d'analyses alimentaires, Quebec, Canada.
##NAMES=HP
##CAS NAME=Kresoxim-methyl
##MOLFORM=C18H19NO4
##CAS REGISTRY NO=143390-89-0
##MP= -300
##BP= -300
##MW= 313
##$RETENTION INDEX=2202
##$CONDENSED SPECTRUM=NO
##NPOINTS= 90
##XYDATA=(XY..XY) 1 
    50          9
    51         25
    52         15
    53         15
    54          2
    59        209
    60          5
    61          2
    62          6
    63         31
    64         10
    65         34
    66          4
    74          3
    75          6
    76         13
    77        131
    78         38
    79         39
    80          5
    87          2
    88          7
    89        166
    90         65
    91        105
    92         13
   102         13
   103         19
   104         17
   105         48
   106          8
   107         83
   108         28
   109          2
   114          7
   115         33
   116        999
   117        167
   118         93
   119         43
   120          4
   121         11
   122         12
   127          4
   128          4
   130         80
   131        533
   132        218
   133         24
   134          2
   143         35
   144         11
   145          2
   146         92
   147         21
   148          3
   152          4
   153          2
   162         19
   163          3
   165          6
   166          2
   167          2
   168          4
   175         20
   176          9
   177          3
   178          4
   179          2
   180          5
   181          2
   190          4
   191          2
   192          2
   193          3
   194         12
   195          5
   204          2
   206        516
   207         66
   208         11
   220          2
   222          9
   223         20
   224          4
   254          5
   282         32
   283          6
   313         28
   314          5