##TITLE=Library Entry 14007
##JCAMP-DX=Revision 4.10 
##DATA TYPE=MASS SPECTRUM
##SAMPLE DESCRIPTION=Chemical Concepts
##NAMES=HP
##CAS NAME=2-(4'-Methoxymethylbiphenyl-4-yl)propan-2-ol
##MOLFORM=C17H20O2
##CAS REGISTRY NO=143355-45-7
##MP= -300
##BP= -300
##MW= 256
##$RETENTION INDEX=0
##$CONDENSED SPECTRUM=NO
##NPOINTS= 111
##XYDATA=(XY..XY) 1 
    31         45
    32          4
    38          9
    39         61
    40          2
    41         31
    42          4
    43        999
    44         25
    45        224
    46          2
    50         29
    51         43
    52         10
    53          5
    55          3
    57          3
    59         49
    61          2
    62         16
    63         44
    64          7
    65         18
    69          1
    74         17
    75         22
    76         27
    77         37
    78          5
    82         26
    83          6
    86          9
    87          9
    88          7
    89         33
    90         12
    91         21
    94          0
    97          6
    98          7
    99          8
   101          6
   102          8
   103          0
   104          1
   105         51
   106          0
   112          7
   113         12
   114          1
   115         43
   116          2
   120         59
   121         46
   122          0
   125          0
   126         10
   127         14
   128         17
   129          4
   139         26
   140          4
   141          5
   150          8
   151         22
   152        100
   153         47
   154         14
   155         13
   163         12
   164         16
   165        158
   166         66
   167        726
   168         93
   169          9
   176          6
   178         20
   179         10
   180          8
   181         40
   182         11
   183          7
   189          4
   190          2
   191         10
   193         11
   195          8
   196          7
   197         37
   198          2
   207         38
   208          7
   209         20
   210         37
   211         10
   213          6
   222          2
   223          5
   225         55
   226         10
   237          5
   238         31
   239         22
   240         13
   241        934
   242        150
   243         17
   255         14
   256        361
   257         67