##TITLE=Library Entry 25348
##JCAMP-DX=Revision 4.10 
##DATA TYPE=MASS SPECTRUM
##SAMPLE DESCRIPTION=Chemical Concepts
##NAMES=HP
##CAS NAME=Hexacosane, 1,26-dibromo-
##MOLFORM=C26H52Br2
##CAS REGISTRY NO=143389-26-8
##MP= -300
##BP= -300
##MW= 522
##$RETENTION INDEX=0
##$CONDENSED SPECTRUM=NO
##NPOINTS= 315
##XYDATA=(XY..XY) 1 
    24          0
    25          0
    26          1
    27         30
    29         98
    30          2
    31          0
    38          0
    39         20
    40         12
    41        316
    42         63
    43        610
    44         20
    45          0
    47          0
    50          0
    51          0
    52          0
    53         13
    54         32
    55        583
    56        126
    57        999
    58         40
    59          8
    60          0
    63          0
    65          1
    66          2
    67         47
    68         38
    69        489
    70         82
    71        631
    72         34
    73          1
    74          0
    76          0
    77          1
    78          0
    79          4
    80          2
    81         37
    82         39
    83        340
    84         43
    85        443
    86         28
    87          0
    88          0
    91          1
    92          0
    93          1
    94          1
    95         21
    96         21
    97        241
    98         29
    99        175
   100         15
   101          0
   102          0
   103          0
   105          0
   106          0
   107          9
   108          0
   109         11
   110          6
   111        101
   112         16
   113        126
   114         12
   115          0
   118          0
   119          0
   120          0
   121         10
   122          1
   123         10
   124          3
   125         38
   126          6
   127         96
   128          8
   129          0
   133          0
   134          1
   135        142
   136          8
   137        137
   138          5
   139         13
   140          3
   141         77
   142          8
   143          0
   147          0
   148         13
   149         47
   150         18
   151         47
   152          2
   153          6
   154          1
   155         62
   156          7
   157          0
   161          1
   162          7
   163         31
   164          8
   165         28
   166          2
   167          3
   168          1
   169         48
   170          6
   171          0
   174          0
   175          1
   176          1
   177         27
   178          2
   179         26
   180          2
   181          2
   182          0
   183         41
   184          5
   185          0
   187          0
   188          0
   189          1
   190          1
   191         25
   192          3
   193         24
   194          2
   195          1
   196          0
   197         32
   198          4
   199          0
   202          0
   203          2
   204          1
   205         24
   206          3
   207         20
   208          2
   209          0
   210          0
   211         25
   212          4
   213          0
   217          1
   218          0
   219         22
   220          3
   221         21
   222          1
   223          1
   225         22
   226          3
   227          0
   230          0
   231          0
   232          1
   233         18
   234          2
   235         18
   236          2
   237          0
   238          0
   239         15
   240          2
   241          0
   245          0
   246          0
   247         18
   248          3
   249         18
   250          1
   251          0
   253         13
   254          1
   255          0
   258          0
   259          0
   260          1
   261         17
   262          2
   263         15
   264          2
   265          0
   266          0
   267          8
   268          1
   272          0
   273          0
   274          0
   275         16
   276          2
   277         14
   278          1
   279          0
   281          4
   282          0
   285          0
   286          0
   287          0
   288          0
   289         14
   290          2
   291         13
   292          2
   295          1
   296          0
   302          0
   303         14
   304          2
   305         14
   306          2
   307          0
   308          0
   309          0
   310          0
   315          0
   316          0
   317         11
   318          1
   319         12
   320          2
   321          0
   329          0
   330          0
   331         11
   332          2
   333         11
   334          2
   335          0
   344          0
   345         11
   346          2
   347         10
   348          2
   349          0
   352          0
   356          0
   357          0
   358          0
   359          9
   360          2
   361         11
   362          1
   363          0
   364          0
   365          0
   366          0
   372          0
   373          7
   374          3
   375          7
   376          2
   377          0
   379          0
   385          0
   386          0
   387          5
   388          1
   389          4
   390          1
   391          0
   398          0
   399          0
   400          1
   401          3
   402          0
   403          2
   404          0
   413          0
   414          0
   415          0
   416          0
   417          0
   427          0
   429          0
   431          0
   432          0
   433          0
   438          0
   439          0
   440          0
   441          0
   442          2
   443        213
   444         66
   445        224
   446         61
   447          9
   448          0
   456          0
   457          2
   458          2
   459          2
   460          1
   461          0
   522          3
   523          1
   524          7
   525          2
   526          3
   527          0