##TITLE=Library Entry 23870
##JCAMP-DX=Revision 4.10 
##DATA TYPE=MASS SPECTRUM
##SAMPLE DESCRIPTION=H. Luftmann, Org. Chem. Inst., Westfalisch-Wilhelms Uni
v., Munster, Germany
##NAMES=HP
##CAS NAME=4,5-Imidazolidinedione, 1,3-dibutyl-2-thioxo-
##MOLFORM=C11H18N2O2S
##CAS REGISTRY NO=143413-73-4
##MP= -300
##BP= -300
##MW= 242
##$RETENTION INDEX=0
##$CONDENSED SPECTRUM=NO
##NPOINTS= 102
##XYDATA=(XY..XY) 1 
    39        222
    40         54
    41        799
    42        124
    43        155
    44        115
    45        132
    46         21
    47         30
    48         11
    51         21
    53         80
    54         93
    55        587
    56        496
    57        999
    58        143
    59        105
    60        406
    61         34
    62         42
    68         45
    69        213
    70        204
    71         82
    72        370
    73        100
    74         81
    75         26
    80         21
    81         19
    82        200
    83         99
    84         96
    85         31
    86        388
    87         50
    89         47
    95         24
    97        189
    98         88
    99        114
   100        123
   101         52
   102         31
   103         30
   109         10
   110         18
   111         33
   112         31
   113         14
   114         60
   115        137
   116        294
   117         31
   118         26
   125        423
   126         51
   127         30
   128         12
   129        101
   130         59
   131        345
   132         45
   133         24
   139         68
   140         24
   142         20
   143        173
   144         73
   145         63
   146         17
   153        164
   154         26
   155         30
   157         77
   158         81
   159         53
   167         18
   171         82
   172         60
   173         21
   181        198
   182         19
   185        161
   186         62
   187        229
   188         38
   189         16
   199         15
   200         33
   201         12
   209        219
   210         37
   213         25
   214         19
   225         10
   227         15
   241         38
   242        655
   243         87
   244         45