##TITLE=Library Entry 2791
##JCAMP-DX=Revision 4.10 
##DATA TYPE=MASS SPECTRUM
##SAMPLE DESCRIPTION=CARL DJERASSI DEPT OF CHEM STANFORD UNIV STANFORD CALIF
 94305
##NAMES=HP
##CAS NAME=Estran-3-one, 17-hydroxy-, (5.alpha.,17.beta.)-
##MOLFORM=C18H28O2
##CAS REGISTRY NO=1434-85-1
##MP= -300
##BP= -300
##MW= 276
##$RETENTION INDEX=2395
##$CONDENSED SPECTRUM=NO
##NPOINTS= 166
##XYDATA=(XY..XY) 1 
    41        999
    42        126
    43        465
    44        121
    45         42
    50         15
    51         52
    52         37
    53        370
    54        132
    55        999
    56         84
    57        253
    58         52
    59         15
    60         10
    61          5
    63         15
    64         10
    65        148
    66         84
    67        793
    68        555
    69        259
    70         37
    71        105
    72         21
    73         15
    74         26
    75         10
    76          5
    77        306
    78        100
    79        634
    80        148
    81        682
    82        132
    83        185
    84         47
    85         31
    86          5
    87          5
    88         10
    89          5
    91        428
    92         95
    93        439
    94        179
    95        338
    96         84
    97         95
    98         15
    99         10
   101          5
   102          5
   103         21
   104         37
   105        285
   106        105
   107        338
   108        164
   109        195
   110        164
   111         58
   112         10
   115         26
   116         15
   117         74
   118         63
   119        169
   120        142
   121        153
   122        111
   123        132
   124         26
   125         10
   127          5
   128         15
   129         31
   130         15
   131        100
   132         47
   133        132
   134         58
   135        126
   136         47
   137         37
   138         10
   139          5
   141          5
   143         26
   144         15
   145         79
   146         31
   147        105
   148         58
   149        105
   150         21
   151         15
   152          5
   155          5
   157         26
   158         37
   159        132
   160         42
   161        116
   162        238
   163         63
   164         15
   165         26
   166         10
   167          5
   171         21
   172         15
   173         52
   174         68
   175        164
   176         74
   177         26
   178         15
   179         10
   183          5
   185         31
   186         10
   187         21
   188         10
   189         42
   190         95
   191         26
   197         10
   198          5
   199        132
   200         68
   201        174
   202         37
   203        111
   204         52
   205         10
   206          5
   207         15
   213          5
   214         15
   215         26
   216         26
   217        529
   218        195
   219        179
   220         52
   221         10
   225         10
   229         10
   230         21
   231          5
   232        216
   233        111
   234         21
   240          5
   243         47
   244          5
   247         15
   258        100
   259         15
   261         21
   276        386
   277         79
   278          5