##TITLE=Library Entry 64278
##JCAMP-DX=Revision 4.10 
##DATA TYPE=MASS SPECTRUM
##SAMPLE DESCRIPTION=Chemical Concepts
##NAMES=HP
##CAS NAME=Pentanal, 2-[bis(phenylmethyl)amino]-4-methyl-
##MOLFORM=C20H25NO
##CAS REGISTRY NO=143503-66-6
##MP= -300
##BP= -300
##MW= 295
##$RETENTION INDEX=0
##$CONDENSED SPECTRUM=NO
##NPOINTS= 137
##XYDATA=(XY..XY) 1 
    26          0
    27         14
    28         12
    29          9
    30          6
    31          0
    36          0
    37          0
    38          1
    39         23
    40         33
    41         29
    42         55
    43         13
    44          1
    50          2
    51          8
    52          2
    53          2
    54          3
    55          4
    56          3
    57          3
    58          0
    62          1
    63          7
    64          2
    65         95
    66          5
    67          1
    68          0
    69          2
    70          2
    71          0
    74          0
    75          0
    76          0
    77          8
    78          2
    79          4
    80          0
    81          0
    82          0
    83          0
    84          0
    85          0
    86          2
    87          0
    89         12
    90          8
    91        999
    92         75
    93          3
    94          0
    95          0
    96          0
    97          0
    98          6
    99          0
   102          0
   103          3
   104          5
   105         12
   106          5
   107          0
   108          0
   111          0
   115          1
   116          1
   117          4
   118          8
   119          1
   120          0
   127          0
   128          0
   129          0
   130          2
   131          1
   132         13
   133          8
   134          1
   135          0
   141          0
   143          0
   144          0
   145          3
   146          1
   147          0
   148          0
   152          0
   153          0
   158          0
   159          0
   160          1
   161          0
   165          3
   166          5
   167          1
   168          0
   172          0
   173          0
   174         12
   175          2
   176          1
   178          0
   179          1
   180          0
   181         65
   182          9
   183          0
   188          0
   190          0
   194          0
   196          0
   202          0
   204          1
   208          0
   210         11
   211          1
   218          1
   222          0
   223          0
   224          0
   236          0
   238          9
   239          1
   250          0
   264          0
   265          1
   266        497
   267         99
   268         10
   269          0
   280          0
   294          0
   295          0
   296          0