##TITLE=Library Entry 80792
##JCAMP-DX=Revision 4.10 
##DATA TYPE=MASS SPECTRUM
##SAMPLE DESCRIPTION=Chemical Concepts
##NAMES=HP
##CAS NAME=Tungsten, tris[(O,1,2,3-.eta.)-1-phenyl-2-propen-1-one]-
##MOLFORM=C27H24O3W
##CAS REGISTRY NO=143517-77-5
##MP= -300
##BP= -300
##MW= 580
##$RETENTION INDEX=0
##$CONDENSED SPECTRUM=NO
##NPOINTS= 383
##XYDATA=(XY..XY) 1 
    26         23
    27        150
    28         42
    29         76
    30          8
    31         95
    37          2
    38         10
    39        100
    41         76
    42         17
    43         52
    44         16
    45         35
    50         64
    51        208
    52         24
    53         14
    54          4
    55        135
    56         12
    57         49
    58         28
    59         32
    60          6
    61          1
    62          7
    63         54
    64          3
    65         74
    66         18
    67         20
    68          4
    69         30
    70         12
    71         23
    73         30
    74         22
    75         25
    76         34
    77        668
    78         77
    79         29
    80          5
    81         24
    82          7
    83         19
    84         15
    85          9
    87          9
    88          3
    89         82
    90         12
    91        820
    92         67
    93         11
    94          4
    95         13
    96          3
    97         15
    98          6
    99          3
   101          8
   102         37
   103         59
   104         32
   105        999
   106         71
   107         19
   108          8
   109          8
   110          2
   111         10
   113         12
   114         13
   115        946
   116        164
   117        315
   118         49
   119         12
   120         21
   121          5
   122          5
   125          4
   126          3
   127         23
   128        102
   129         74
   130         17
   131         33
   132         41
   133         65
   134         94
   135         11
   139          9
   141         55
   142         34
   143         38
   144         14
   145         12
   146          6
   147         15
   148          0
   149         23
   150          2
   151          7
   152         34
   153         31
   154         25
   155         79
   156         20
   157         17
   158          4
   159         21
   160         13
   161          6
   165         31
   166          4
   167         12
   168          1
   169          4
   170          1
   171         11
   172          5
   178         15
   179         11
   181          3
   183         15
   184          3
   185          6
   189         16
   190          8
   191         31
   192          6
   199          2
   200          2
   201          8
   202         51
   203         34
   204         16
   205         20
   206          1
   207          8
   209          1
   213          4
   214          3
   215         80
   216         46
   217         55
   218         17
   219         13
   220         18
   221         19
   222          3
   223          9
   224          9
   226         15
   227         14
   228         46
   229         71
   230         85
   231        135
   232        186
   233         68
   234         18
   235          5
   236          4
   237          4
   238          1
   239          2
   241         10
   242          3
   243          2
   244         10
   245         17
   246         11
   247         14
   248         19
   249         11
   250         10
   251         11
   252         12
   253          5
   255          5
   256          3
   257         15
   258          9
   259         16
   260         16
   261         17
   262         27
   263         18
   264         18
   265         13
   266         12
   267          4
   269          5
   273         10
   274         18
   275         20
   276         24
   277         28
   278         28
   279          5
   280          5
   281          9
   282          2
   283          3
   284          2
   285          9
   286         17
   287         16
   288         41
   289         24
   290         41
   291         26
   292         64
   293         29
   294         37
   295         14
   296         28
   297          1
   299          6
   300         21
   301         29
   302         26
   303         18
   304         18
   305         12
   308          1
   310          1
   311         19
   312         31
   313         45
   314         44
   315         42
   316         97
   317         66
   318        100
   319         28
   320         80
   321         21
   322         12
   324         13
   325         11
   326         21
   327         12
   328         30
   329         25
   330         83
   331         58
   332         76
   333         26
   334         62
   335         11
   336          1
   337          6
   338         25
   339         18
   340         34
   341         33
   342         82
   343         61
   344        155
   345         99
   346        180
   347         40
   348        114
   349         28
   350         32
   351         10
   352         29
   353          4
   354         19
   355         18
   356         11
   357         13
   358          2
   359         17
   360         11
   361         18
   362         16
   363         19
   364         12
   365          9
   366         14
   367          6
   368         23
   369         15
   370         24
   371          5
   372         19
   373          2
   374          1
   376          4
   378          7
   380         11
   385          1
   386          1
   387          2
   388         14
   389         11
   390         17
   391          9
   392         22
   393          8
   394         16
   395          2
   396          7
   398          4
   399          4
   400         16
   401          5
   402         22
   403          4
   404          9
   405          2
   406         12
   407          5
   408          5
   410          4
   411          2
   412          2
   413          5
   414         10
   415         11
   416         17
   417         13
   418         32
   419         20
   420         34
   421          5
   422         29
   423          4
   424         30
   425         27
   426        132
   427         80
   428        194
   429         83
   430        162
   431         51
   432         65
   433         30
   434          8
   435         16
   436          4
   442          5
   443         12
   444         70
   445         63
   446        259
   447        150
   448        289
   449         63
   450        197
   451         36
   452          4
   460         16
   461         95
   462         89
   463        120
   464         41
   465         99
   466         26
   472          3
   474          4
   476          6
   478          2
   480          1
   489          2
   550          2
   552          1
   564          1
   576          5
   577          1
   578        138
   579        111
   580        179
   581         48
   582        135
   583         42
   584          2