##TITLE=Library Entry 57540
##JCAMP-DX=Revision 4.10 
##DATA TYPE=MASS SPECTRUM
##SAMPLE DESCRIPTION=Chemical Concepts
##NAMES=HP
##CAS NAME=Triethyl phenethylsilane
##MOLFORM=C14H24Si
##CAS REGISTRY NO=14355-62-5
##MP= -300
##BP= -300
##MW= 220
##$RETENTION INDEX=0
##$CONDENSED SPECTRUM=NO
##NPOINTS= 92
##XYDATA=(XY..XY) 1 
    26          2
    27         12
    29         17
    30          2
    31         54
    39         10
    40          2
    41          6
    42          2
    43         43
    44         23
    45         33
    46          2
    47          2
    49         21
    50          2
    51         12
    52          3
    53         12
    54          3
    55         22
    56         12
    57         60
    58         50
    59        477
    60         38
    61         17
    63          3
    65         18
    66          3
    67          7
    69          3
    70          3
    71          5
    72         12
    73         31
    74          3
    75          2
    77         19
    78         11
    79          8
    80          7
    82          9
    83          3
    84         16
    85         10
    86         13
    87        999
    88         95
    89         40
    90          2
    91         42
    92          4
    93          4
    95          2
    96          2
   102          2
   103         11
   104         12
   105         45
   106         11
   107         90
   108         12
   109          3
   114          2
   115        115
   116         14
   117          6
   119          5
   120          2
   121         10
   129          2
   130          2
   131         39
   132          8
   133         53
   134         10
   135        131
   136         19
   137          5
   145          2
   159          2
   161         20
   162          5
   163        312
   164         50
   165         14
   191        854
   192        164
   193         44
   194          5
   220          2