##TITLE=Library Entry 38210
##JCAMP-DX=Revision 4.10 
##DATA TYPE=MASS SPECTRUM
##SAMPLE DESCRIPTION=Chemical Concepts
##NAMES=HP
##CAS NAME=5-Methoxy-pent-4-enoic acid, methyl ester
##MOLFORM=C7H12O3
##CAS REGISTRY NO=143538-29-8
##MP= -300
##BP= -300
##MW= 144
##$RETENTION INDEX=0
##$CONDENSED SPECTRUM=NO
##NPOINTS= 106
##XYDATA=(XY..XY) 1 
    25          0
    26          8
    27         56
    28         12
    29         28
    30          2
    31         13
    33          4
    34          0
    35          0
    36          0
    37          1
    38          5
    39         66
    40          7
    41        379
    42         22
    43         24
    44          2
    45         33
    46          0
    47          1
    48          0
    49          0
    50          4
    51          7
    52          3
    53         41
    54          8
    55         43
    56         18
    57          6
    58         34
    59         37
    60          1
    61          1
    62          0
    63          0
    64          0
    65          0
    66          0
    67          1
    68          4
    69         52
    70          6
    71        999
    72         32
    73          2
    74          1
    75          2
    76          0
    77          0
    78          0
    79          0
    80          0
    81          5
    82          2
    83          2
    84        227
    85         74
    86          4
    87         18
    88          1
    89          0
    90          0
    91          0
    92          0
    93          0
    95          0
    96          0
    97         29
    98          1
    99          0
   100          0
   101          7
   102          0
   103          0
   104          0
   105          0
   106          0
   107          0
   108          0
   109          0
   110          0
   111          5
   112          1
   113         38
   114          2
   115          0
   116          0
   117          0
   119          0
   121          0
   123          0
   126          0
   127          0
   128          0
   129          3
   130          0
   131          0
   141          0
   142          0
   143          0
   144        116
   145          9
   146          1