##TITLE=Library Entry 55712
##JCAMP-DX=Revision 4.10 
##DATA TYPE=MASS SPECTRUM
##SAMPLE DESCRIPTION=MASS SPECTROMETRY CENTER, UNIV. OF UTAH EPA-PTSEL 0066
##NAMES=HP
##CAS NAME=Propanal, 2-methyl-2-(methylsulfonyl)-, oxime
##MOLFORM=C5H11NO3S
##CAS REGISTRY NO=14357-44-9
##MP= -300
##BP= -300
##MW= 165
##$RETENTION INDEX=0
##$CONDENSED SPECTRUM=NO
##NPOINTS= 52
##XYDATA=(XY..XY) 1 
    14         12
    15        227
    16         13
    19          1
    26         27
    27        171
    28        361
    29        125
    30        113
    31        109
    32          7
    33          7
    34         11
    37         14
    38         28
    39        262
    40         61
    41        811
    42        182
    43        158
    44         84
    45         44
    46         42
    47         21
    48         31
    50          6
    51         16
    52         29
    53         27
    54         42
    55         39
    56         32
    57         41
    58         35
    59         21
    63         64
    64         43
    65         32
    66          9
    67         12
    68        112
    69        168
    70         30
    76          2
    79         24
    80         15
    81         28
    84          6
    85         12
    86        999
    87         64
    88          1