##TITLE=Library Entry 44687
##JCAMP-DX=Revision 4.10 
##DATA TYPE=MASS SPECTRUM
##SAMPLE DESCRIPTION=Japan AIST/NIMC Database- Spectrum MS-NW-7609
##NAMES=HP
##CAS NAME=Methylcyclohexylacetate
##MOLFORM=C9H16O2
##CAS REGISTRY NO=14352-61-5
##MP= -300
##BP= -300
##MW= 156
##$RETENTION INDEX=0
##$CONDENSED SPECTRUM=NO
##NPOINTS= 81
##XYDATA=(XY..XY) 1 
    14          1
    15         35
    26          3
    27         42
    28          8
    29         35
    30          2
    31         16
    32          3
    33          1
    38          3
    39         58
    40         10
    41        111
    42         10
    43        248
    44         10
    45          6
    46          1
    47          1
    48          1
    50          2
    51          6
    52          4
    53         30
    54         37
    55        166
    56         10
    57          3
    58          1
    59         26
    60          1
    61          1
    63          1
    65          5
    66          4
    67         55
    68         14
    69          9
    70          1
    71          5
    72          1
    73          1
    74        999
    75        298
    76         13
    77          8
    78          3
    79         14
    80         26
    81         54
    82         37
    83         34
    84          2
    85          2
    87          6
    88          1
    91          4
    92          1
    93          2
    94          2
    95         12
    96          6
    97         40
    98          3
    99          3
   100          2
   101          1
   102          1
   106          1
   109          1
   113         19
   114          2
   123          2
   124         10
   125         50
   126          5
   127          1
   155          1
   156          6
   157          1