##TITLE=Library Entry 87283
##JCAMP-DX=Revision 4.10 
##DATA TYPE=MASS SPECTRUM
##SAMPLE DESCRIPTION=NIST Mass Spectrometry Data Center, 1994
##NAMES=HP
##CAS NAME=2-Hexanoylfuran
##MOLFORM=C10H14O2
##CAS REGISTRY NO=14360-50-0
##MP= -300
##BP= -300
##MW= 166
##$RETENTION INDEX=1239
##$CONDENSED SPECTRUM=NO
##NPOINTS= 98
##XYDATA=(XY..XY) 1 
     6          0
     8          0
    10          0
    11          0
    13          0
    14          3
    15         11
    16          0
    18          1
    19          0
    20          0
    22          0
    24          0
    26         21
    27        176
    28         34
    29        126
    30          3
    31          1
    32          0
    37         19
    38         74
    39        408
    40         36
    41        132
    42         45
    43         77
    44          3
    46          0
    47          0
    50         11
    51         34
    52         13
    53         72
    54         49
    55         93
    56          7
    57          2
    58          1
    59          0
    61          0
    62          3
    63          7
    64          4
    65         13
    66         19
    67         77
    68         58
    69         10
    70          9
    71          5
    74          1
    75          1
    77         12
    78          3
    79          6
    80          1
    81         73
    82         22
    83          4
    84          1
    89          1
    90          0
    91          2
    92          1
    93          6
    94          0
    95        840
    96         52
    97         14
    98          2
    99          1
   103          0
   104          0
   105          1
   107          3
   110        999
   111         69
   112          5
   113          1
   115          1
   119          1
   120          0
   121          1
   123        101
   124         10
   125          1
   133          1
   134          0
   135          2
   137          7
   138          9
   139          1
   148          0
   149          1
   151          2
   166          7
   167          1