##TITLE=Library Entry 57076
##JCAMP-DX=Revision 4.10 
##DATA TYPE=MASS SPECTRUM
##SAMPLE DESCRIPTION=Exported from NIST MS Search
##NAMES=HP
##CAS NAME=Butanoic acid, 4,4'-diselenobis-
##MOLFORM=C8H14O4Se2
##CAS REGISTRY NO=14362-48-2
##MP= -300
##BP= -300
##MW= 334
##$RETENTION INDEX=0
##$CONDENSED SPECTRUM=NO
##NPOINTS= 126
##XYDATA=(XY..XY) 1 
    26         10
    27        161
    28         27
    29         36
    31         43
    37          4
    38          9
    39        163
    40         21
    41        400
    42         66
    43        635
    44         23
    45        523
    46         12
    53          3
    55         46
    56          6
    57         20
    58          3
    59         15
    60         30
    61          3
    67          3
    68         12
    69         83
    70          7
    71          4
    73         10
    77          6
    78          6
    79          6
    80         15
    81         10
    82          6
    83         13
    84          3
    85         23
    86          4
    87        999
    88         46
    89          9
    90         12
    91         24
    92         12
    93         46
    94         24
    95         21
    96          7
    97          4
   101         21
   103          4
   104          6
   105         12
   106          9
   107         13
   108         10
   109          7
   111          4
   116          3
   117         12
   118         12
   119         24
   120         13
   121         43
   122         15
   123         12
   124          4
   125          4
   136          4
   146          9
   147          9
   148         13
   149          7
   150         23
   151          4
   152          6
   153          1
   154          4
   155          3
   156         15
   157         10
   158         29
   159          6
   160         32
   161          7
   162         12
   163          4
   164          6
   165          6
   166          3
   167          9
   168          4
   169          4
   171          4
   172          4
   173          4
   175          4
   196          4
   197          4
   198         12
   199          9
   200         18
   201          3
   202         18
   203          1
   204          6
   224          7
   225          4
   226         12
   227          7
   228         21
   229          3
   230         24
   232          9
   316          3
   318          6
   330          7
   331          3
   332         15
   333          9
   334         26
   335          3
   336         27
   337          3
   338          9