##TITLE=Library Entry 38159
##JCAMP-DX=Revision 4.10 
##DATA TYPE=MASS SPECTRUM
##SAMPLE DESCRIPTION=NIST Mass Spectrometry Data Center, 1990.
##NAMES=HP
##CAS NAME=Oxirane, butyl-
##MOLFORM=C6H12O
##CAS REGISTRY NO=1436-34-6
##MP= -300
##BP= -300
##MW= 100
##$RETENTION INDEX=768
##$CONDENSED SPECTRUM=NO
##NPOINTS= 47
##XYDATA=(XY..XY) 1 
    13          1
    14         23
    15         61
    16          3
    18          5
    26         61
    27        418
    28        143
    29        449
    30         26
    31        161
    32         11
    37         14
    38         46
    39        394
    40         90
    41        685
    42        596
    43        222
    44         43
    45         30
    49          3
    50         19
    51         24
    52          8
    53         58
    54         40
    55        411
    56         55
    57        142
    58        339
    59         18
    62          3
    65          6
    67         51
    68         31
    69         36
    70          3
    71        999
    72         58
    73          6
    79          3
    81          5
    82          4
    85         55
    86          3
    99          3