##TITLE=Library Entry 11590
##JCAMP-DX=Revision 4.10 
##DATA TYPE=MASS SPECTRUM
##SAMPLE DESCRIPTION=Chemical Concepts
##NAMES=HP
##CAS NAME=Butyronitrile, 3-hydroxy-3-phenyl-
##MOLFORM=C10H11NO
##CAS REGISTRY NO=14368-31-1
##MP= -300
##BP= -300
##MW= 161
##$RETENTION INDEX=0
##$CONDENSED SPECTRUM=NO
##NPOINTS= 130
##XYDATA=(XY..XY) 1 
    25          0
    26          3
    27         22
    28          4
    29          5
    30          0
    31          2
    35         10
    36          0
    37          3
    38          8
    39         43
    40         16
    41         22
    42         19
    43        999
    44         20
    45          4
    46          0
    47         32
    48          0
    49         20
    50         42
    51        116
    52         23
    53          6
    54          4
    55          5
    56          2
    57          5
    58          2
    59          1
    60          2
    61          2
    62          7
    63         18
    64          4
    65         19
    66          3
    67          9
    68         13
    69          3
    70          1
    71          4
    72          2
    73          1
    74         12
    75         12
    76         15
    77        191
    78         48
    79          8
    80          0
    81          2
    82         12
    83          2
    84        125
    85          1
    86         85
    87          2
    88         13
    89          8
    90          4
    91         28
    92          3
    93          2
    94          0
    95          2
    96          0
    97          1
    98          1
    99          0
   100          1
   101          2
   102          8
   103         14
   104          4
   105        210
   106         18
   107          2
   108          0
   109          1
   110          0
   111          4
   112          1
   113          0
   114          0
   115          9
   116          6
   117          5
   118          3
   119          5
   120         16
   121        695
   122         59
   123          4
   124          1
   125          0
   126          0
   127          1
   128          2
   129          0
   130          0
   131          1
   132          1
   133          0
   134          0
   135          0
   137          0
   138          0
   139          0
   140          1
   141          0
   142          1
   143          8
   144          4
   145          1
   146          3
   147          0
   149          0
   151          0
   154          0
   155          0
   156          0
   158          0
   160          0
   161         31
   162          3
   163          2
   164          0