##TITLE=Library Entry 98917
##JCAMP-DX=Revision 4.10 
##DATA TYPE=MASS SPECTRUM
##SAMPLE DESCRIPTION=A.A.Kutin, Moscow, Russia
##NAMES=HP
##CAS NAME=Benzenamine, 3-azido-N,N-dimethyl-4-nitro-
##MOLFORM=C8H9N5O2
##CAS REGISTRY NO=1437-65-6
##MP= -300
##BP= -300
##MW= 207
##$RETENTION INDEX=0
##$CONDENSED SPECTRUM=NO
##NPOINTS= 124
##XYDATA=(XY..XY) 1 
    36          0
    37         51
    38         99
    39        168
    40         57
    41        264
    42        578
    43        181
    44        354
    45         18
    46         33
    48          0
    49         10
    50         98
    51        162
    52        132
    53         97
    54         57
    55        121
    56         40
    57         57
    58          0
    59          0
    60         28
    61         52
    62         90
    63        319
    64        122
    65        172
    66        175
    67        125
    68        212
    69        876
    70         67
    71         32
    72        119
    73         38
    74         81
    75        112
    76        125
    77        195
    78        300
    79        194
    80        126
    81        181
    82         90
    83         91
    84         16
    85         19
    86          4
    87         19
    88         31
    89         20
    90         92
    91        146
    92        126
    93        188
    94        117
    95         59
    96         23
    97         23
    98          7
    99          2
   100          0
   101          5
   102          6
   103         27
   104         48
   105         49
   106        302
   107        108
   108          9
   109         64
   110          8
   111         13
   112          2
   113          0
   115          1
   116         14
   117        104
   118        273
   119        999
   120        105
   121         62
   122         23
   123         18
   124          3
   125          2
   127          1
   129          4
   130          7
   131         12
   132         19
   133         60
   134         48
   135         15
   136         24
   137         28
   145          0
   146          0
   147          7
   148          0
   149         57
   150          6
   151          1
   152          0
   161          0
   162          0
   163          4
   164          4
   165          0
   167          0
   172          0
   177          0
   179        359
   180         38
   181          5
   185          0
   191          0
   192          0
   206          0
   207        285
   208         25
   209          0