##TITLE=Library Entry 68390
##JCAMP-DX=Revision 4.10 
##DATA TYPE=MASS SPECTRUM
##SAMPLE DESCRIPTION=Chemical Concepts
##NAMES=HP
##CAS NAME=9,10-Benzo(7,12-diselenaspiro[4.8]tridecane
##MOLFORM=C15H20Se2
##CAS REGISTRY NO=143770-46-1
##MP= -300
##BP= -300
##MW= 360
##$RETENTION INDEX=0
##$CONDENSED SPECTRUM=NO
##NPOINTS= 157
##XYDATA=(XY..XY) 1 
    26          1
    27         18
    28          4
    29         14
    30          0
    31          0
    32          1
    38          1
    39         42
    40          7
    41         65
    42          4
    43          5
    44          2
    45          0
    50          5
    51         19
    52         11
    53         39
    54         13
    55         44
    56          3
    57          4
    59          0
    61          0
    62          1
    63          8
    64          2
    65         17
    66          8
    67         91
    68         13
    69          4
    70          1
    71          2
    72          0
    74          1
    75          2
    76          6
    77         63
    78         90
    79         39
    80         11
    81         43
    82          4
    83          2
    84          0
    85          2
    87          0
    89          6
    90          2
    91         38
    92          7
    93         35
    94         15
    95        999
    96         83
    97          5
    98          0
    99          0
   101          1
   102         24
   103         95
   104        307
   105         39
   106          4
   107          2
   108          0
   109          2
   111          1
   112          0
   115          2
   116          1
   117          2
   118          1
   119          2
   120          0
   121          1
   123          0
   125          1
   127          1
   128          0
   129          1
   130          1
   131          1
   132          1
   133          2
   134          0
   135          1
   139          0
   141          1
   143          0
   145          1
   147          1
   148          0
   149          1
   155          1
   156          1
   157          1
   158          1
   159          0
   160          2
   162          0
   167          0
   169          1
   170          0
   171          1
   172          2
   173          3
   174          2
   175          4
   176          3
   177          2
   178          3
   179         11
   180         14
   181         27
   182         16
   183         53
   184         11
   185         11
   186          1
   197          0
   199          0
   240          0
   242          0
   246          1
   247          1
   248          8
   249          9
   250         35
   251         23
   252         91
   253         52
   254        158
   255         19
   256        181
   257         14
   258         56
   259          5
   260          8
   261          3
   262          6
   263          1
   264          7
   265          0
   266          2
   352          2
   353          3
   355          9
   356         30
   357         20
   358         53
   360         58
   361          9
   363          2
   364          2