##TITLE=Library Entry 76990
##JCAMP-DX=Revision 4.10 
##DATA TYPE=MASS SPECTRUM
##SAMPLE DESCRIPTION=Chemical Concepts
##NAMES=HP
##CAS NAME=Spiro(5,6-benzo-3,8-diselenacyclononene)-1,3'-oxetane
##MOLFORM=C13H16OSe2
##CAS REGISTRY NO=143770-45-0
##MP= -300
##BP= -300
##MW= 348
##$RETENTION INDEX=0
##$CONDENSED SPECTRUM=NO
##NPOINTS= 165
##XYDATA=(XY..XY) 1 
    26          2
    27         30
    28         10
    29         11
    30          1
    31          1
    32          0
    37          0
    38          2
    39         60
    40          5
    41         14
    42          2
    43          4
    44          1
    45          1
    50         10
    51         30
    52         16
    53         61
    54         22
    55         44
    56          4
    57          3
    59          0
    62          2
    63         12
    64          2
    65          9
    66          0
    67          1
    68          0
    69          3
    70          1
    71          2
    74          1
    75          3
    76          7
    77         46
    78         96
    79          8
    80          1
    81          2
    82          1
    83        191
    84         13
    85          1
    87          0
    89          6
    90          2
    91         29
    92          5
    93         10
    94          6
    95          4
    96          1
    97          1
   101          1
   102         26
   103         99
   104        999
   105         90
   106          9
   107          1
   108          1
   109          1
   111          0
   115          3
   116          1
   117          4
   118          0
   119          1
   120          0
   121          1
   123          0
   127          0
   128          2
   129          4
   130          3
   131          5
   132          2
   133         11
   134          3
   135          2
   136          0
   141          1
   142          1
   143          3
   144          0
   153          0
   154          1
   155          2
   156          3
   157         13
   158          8
   159          1
   160          7
   161          0
   162          2
   163          0
   164          2
   166          0
   169          1
   170          0
   172          0
   174          0
   177          1
   178          2
   179         12
   180         19
   181         31
   182         24
   183         56
   184         27
   185         11
   186          4
   187          1
   195          1
   196          0
   197          1
   199          1
   201          0
   206          1
   207          1
   208          5
   209          4
   210         11
   211          8
   212         19
   213          4
   214         22
   215          1
   216          6
   218          0
   236          3
   237          3
   238         12
   239          9
   240         35
   241         19
   242         59
   243          6
   244         66
   245          3
   246         20
   247          1
   248          1
   260          1
   261          1
   262          1
   264          1
   266          0
   340          2
   341          3
   342         12
   343          9
   344         32
   345         20
   346         54
   347         10
   348         60
   349          8
   350         18
   351          2
   352          1