##TITLE=Library Entry 93751
##JCAMP-DX=Revision 4.10 
##DATA TYPE=MASS SPECTRUM
##SAMPLE DESCRIPTION=NIST Mass Spectrometry Data Center, 1990.
##NAMES=HP
##CAS NAME=1-Phenyl-1-heptyne
##MOLFORM=C13H16
##CAS REGISTRY NO=14374-45-9
##MP= -300
##BP= -300
##MW= 172
##$RETENTION INDEX=0
##$CONDENSED SPECTRUM=NO
##NPOINTS= 85
##XYDATA=(XY..XY) 1 
    15         10
    26         22
    27        173
    28         27
    29        221
    30          5
    37          5
    38         25
    39        181
    40         25
    41        168
    42         15
    43         13
    50         57
    51        116
    52         29
    53         23
    54          3
    55         31
    56          3
    57         16
    61         10
    62         64
    63        192
    64         32
    65        128
    66          9
    67          8
    68          6
    70          2
    73          6
    74         46
    75         60
    76         56
    77         94
    78         32
    79         50
    80         10
    81         58
    82          4
    85          5
    86         27
    87         41
    88         47
    89        195
    90         24
    91        175
    92         17
    93          5
    94         11
    95          5
    98          8
    99          6
   100          5
   101         24
   102        189
   103         42
   104         49
   105         11
   110          4
   113         42
   115        999
   116        163
   117        489
   118         52
   126         28
   127        131
   128        469
   129        441
   130        196
   131         44
   132          4
   139         12
   141         55
   142         64
   143        423
   144         72
   145          6
   152          4
   153          5
   155          6
   157         49
   158          5
   172        172
   173         21