##TITLE=Library Entry 35984
##JCAMP-DX=Revision 4.10 
##DATA TYPE=MASS SPECTRUM
##SAMPLE DESCRIPTION=Exported from NIST MS Search
##NAMES=HP
##CAS NAME=1-Naphthalenepropanol, .alpha.-ethenyldecahydro-4-hydroxy-.alpha.
,5,5,8a-tetramethyl-2-methylene-, [1S-[1.alpha.(R*),4.beta.,4a.beta.,8a.alph
a.]]-
##MOLFORM=C20H34O2
##CAS REGISTRY NO=1438-66-0
##MP= -300
##BP= -300
##MW= 306
##$RETENTION INDEX=2264
##$CONDENSED SPECTRUM=NO
##NPOINTS= 194
##XYDATA=(XY..XY) 1 
    18         27
    27         47
    28         20
    29         72
    31         11
    39         59
    40         13
    41        364
    42         32
    43        376
    44         16
    45         13
    51         13
    52         10
    53        108
    54         20
    55        415
    56         55
    57        140
    58         20
    59         50
    65         47
    66         25
    67        233
    68        237
    69        999
    70         84
    71        469
    72         94
    73          6
    75          1
    77        122
    78         33
    79        257
    80        193
    81        508
    82        135
    83        250
    84        271
    85        294
    86         10
    91        233
    92        127
    93        479
    94        245
    95        555
    96        128
    97        230
    98         37
    99         23
   103         40
   104         22
   105        257
   106        111
   107        383
   108        159
   109        762
   110        100
   111        125
   112         22
   113         15
   115         22
   116         10
   117         71
   118         57
   119        264
   120        210
   121        367
   122        142
   123        266
   124        179
   125        240
   126         27
   127         10
   128         13
   129         25
   130         25
   131        157
   132         81
   133        200
   134        110
   135        328
   136        149
   137        201
   138         49
   139         61
   140          8
   141         10
   142          3
   143         28
   144         16
   145        122
   146         83
   147        137
   148         40
   149        128
   150         98
   151        242
   152         67
   153        532
   154         64
   155         11
   157         33
   158         15
   159        127
   160         40
   161         98
   162         54
   163        115
   164         86
   165         33
   166          6
   167          6
   169          1
   171         28
   172         11
   173         71
   174         32
   175        125
   176         62
   177        110
   178         33
   179         33
   180         13
   181          5
   182         11
   183          8
   185         78
   186         30
   187        147
   188         67
   189        128
   190        110
   191         84
   192         33
   193        144
   194         59
   195         11
   199         57
   200         39
   201         96
   202        122
   203         81
   204         30
   205         78
   206         94
   207         78
   208         13
   210          1
   213         23
   214         27
   215         40
   216         13
   217         64
   218         47
   219        106
   220         55
   221         11
   227         54
   228         25
   229         27
   230         27
   231         33
   232         28
   233         13
   234          1
   235          1
   241         23
   242         37
   243         27
   244         23
   245         59
   246         27
   247         11
   253          6
   254          3
   255        279
   256         57
   257         10
   259         28
   260        118
   261         30
   262          1
   263         13
   270        166
   271         40
   272          5
   273        196
   274         40
   275          1
   288        198
   289         47
   290          6
   291         22