##TITLE=Library Entry 49945
##JCAMP-DX=Revision 4.10 
##DATA TYPE=MASS SPECTRUM
##SAMPLE DESCRIPTION=Japan AIST/NIMC Database- Spectrum MS-NW-8595
##NAMES=HP
##CAS NAME=Furan, 2-[(methylthio)methyl]-
##MOLFORM=C6H8OS
##CAS REGISTRY NO=1438-91-1
##MP= -300
##BP= -300
##MW= 128
##$RETENTION INDEX=995
##$CONDENSED SPECTRUM=NO
##NPOINTS= 70
##XYDATA=(XY..XY) 1 
    14          2
    15          4
    26         10
    27         99
    28          9
    29         14
    31          1
    32          2
    33          1
    34          1
    35          5
    37          6
    38         12
    39         34
    40          2
    41          8
    42          5
    43          5
    44          5
    45         80
    46         15
    47         28
    48          6
    49          6
    50         28
    51         57
    52         40
    53        390
    54         19
    55          5
    57          4
    58         12
    59          9
    60          1
    61         14
    62          1
    63          2
    64          4
    65          9
    66          2
    68          2
    69          9
    70          1
    71          2
    73          1
    76          2
    79          4
    80          4
    81        999
    82         59
    83          8
    84         11
    85         15
    86          1
    87          1
    91          2
    94          2
    95          2
    96          1
    97          2
    98          1
    99          3
   111          4
   112          3
   113          7
   127         10
   128        390
   129         29
   130         18
   131          2