##TITLE=Library Entry 18523
##JCAMP-DX=Revision 4.10 
##DATA TYPE=MASS SPECTRUM
##SAMPLE DESCRIPTION=Chemical Concepts
##NAMES=HP
##CAS NAME=Oxazolidin-2-one, N-propanoyl-
##MOLFORM=C6H5NO3
##CAS REGISTRY NO=143800-42-4
##MP= -300
##BP= -300
##MW= 139
##$RETENTION INDEX=0
##$CONDENSED SPECTRUM=NO
##NPOINTS= 57
##XYDATA=(XY..XY) 1 
    25         31
    27         35
    28         62
    29         30
    30          7
    31          6
    36          1
    37          6
    38          7
    39         15
    40         18
    41         65
    42         37
    43          8
    44          4
    45          1
    47          0
    49          0
    50          1
    51          7
    52        138
    53        999
    54         43
    55         13
    56         54
    57          7
    58          1
    59          0
    63          0
    64          1
    65          2
    66         34
    67        377
    68         21
    69          4
    70         10
    71          1
    74          0
    78          0
    80          0
    81          2
    82          0
    83          9
    84          0
    86          3
    87          1
    88          0
    94          1
    95          0
    96          0
   101          0
   110          0
   111        468
   112         26
   113          3
   139          0
   140          0