##TITLE=Library Entry 15898
##JCAMP-DX=Revision 4.10 
##DATA TYPE=MASS SPECTRUM
##SAMPLE DESCRIPTION=Virginia Division of Forensic Science
##NAMES=HP
##CAS NAME=Acetamide, N-(.alpha.-methylphenethyl)-
##MOLFORM=C11H15NO
##CAS REGISTRY NO=14383-60-9
##MP= -300
##BP= -300
##MW= 177
##$RETENTION INDEX=1505
##$CONDENSED SPECTRUM=NO
##NPOINTS= 77
##XYDATA=(XY..XY) 1 
    15         14
    16          1
    17          1
    18          5
    26          1
    27          9
    28         12
    29          2
    30          2
    38          4
    39         42
    40          5
    41         21
    42         48
    43        207
    44        999
    45         25
    50         12
    51         31
    52          8
    53          3
    54          2
    56          5
    57          8
    58          4
    60         31
    61          2
    62          8
    63         28
    64         10
    65        102
    66          6
    67          1
    70          1
    73          1
    74          3
    75          3
    76          4
    77         28
    78         13
    79          5
    80          1
    82          1
    83          1
    84          1
    86        632
    87         28
    89         31
    91        273
    92         35
    93          4
    94          1
   101          1
   102          4
   103         15
   104          2
   105          1
   106          2
   107          1
   113          1
   115         41
   117        152
   118        400
   119         49
   120         41
   121          3
   129          1
   130          1
   131          1
   132          3
   133          4
   134         11
   135          1
   160          1
   162          1
   177         13
   178          1