##TITLE=Library Entry 23377
##JCAMP-DX=Revision 4.10 
##DATA TYPE=MASS SPECTRUM
##SAMPLE DESCRIPTION=Exported from NIST MS Search
##NAMES=HP
##CAS NAME=Aziridinone, 1,3-bis(1,1-dimethylethyl)-
##MOLFORM=C10H19NO
##CAS REGISTRY NO=14387-89-4
##MP= -300
##BP= -300
##MW= 169
##$RETENTION INDEX=0
##$CONDENSED SPECTRUM=NO
##NPOINTS= 47
##XYDATA=(XY..XY) 1 
    37         10
    38         20
    39        150
    40         30
    41        470
    42        120
    43         50
    50          5
    51         20
    52         30
    53         30
    54         20
    55        120
    56         80
    57        999
    58        100
    59          5
    60          5
    66         10
    67         20
    68        100
    69         60
    70        120
    71         20
    72         20
    73          5
    74         10
    82         10
    83         10
    84         50
    85         10
    86         80
    87         10
    96         10
    97          5
    98         10
    99         10
   112         10
   113          3
   114          3
   126         43
   127          7
   141         40
   142          5
   154          1
   169          6
   170          2