##TITLE=Library Entry 50830
##JCAMP-DX=Revision 4.10 
##DATA TYPE=MASS SPECTRUM
##SAMPLE DESCRIPTION=Japan AIST/NIMC Database- Spectrum MS-NW-7404
##NAMES=HP
##CAS NAME=1H-Pyrrole, 1-(2-furanylmethyl)-
##MOLFORM=C9H9NO
##CAS REGISTRY NO=1438-94-4
##MP= -300
##BP= -300
##MW= 147
##$RETENTION INDEX=1187
##$CONDENSED SPECTRUM=NO
##NPOINTS= 57
##XYDATA=(XY..XY) 1 
    18          1
    26          6
    27         50
    28          8
    29          8
    37          7
    38         14
    39         43
    40         10
    41         11
    42          2
    43          1
    49          2
    50         17
    51         42
    52         23
    53        209
    54          9
    55          1
    58         19
    59          5
    60          1
    62          2
    63          7
    64          4
    65         10
    66          6
    67         13
    68          2
    73          7
    74          1
    75          1
    76          1
    77          2
    78          7
    79          4
    80         11
    81        999
    82         57
    83          3
    89          5
    90          6
    91         11
    92          3
    93          1
    94          1
    96          1
   104          2
   116          2
   117         20
   118          9
   119          1
   145          1
   146          3
   147        445
   148         48
   149          3