##TITLE=Library Entry 4454
##JCAMP-DX=Revision 4.10 
##DATA TYPE=MASS SPECTRUM
##SAMPLE DESCRIPTION=A.A.Kutin, Moscow, Russia
##NAMES=HP
##CAS NAME=Tetrazolo[1,5-b]pyridazine, 6-(1-piperidyl)-
##MOLFORM=C9H12N6
##CAS REGISTRY NO=14393-73-8
##MP= -300
##BP= -300
##MW= 204
##$RETENTION INDEX=0
##$CONDENSED SPECTRUM=NO
##NPOINTS= 130
##XYDATA=(XY..XY) 1 
    34          1
    36          3
    37         46
    38         55
    39        224
    40        119
    41        494
    42        999
    43         53
    44         13
    45          2
    47          0
    50         10
    51         35
    52         77
    53         54
    54         41
    55        331
    56         32
    57         11
    58          0
    59          0
    60          1
    62          4
    63         17
    64         39
    65         42
    66         29
    67         29
    68         41
    69         39
    70         62
    71          7
    72          1
    73          1
    74          1
    75          1
    76          3
    77         15
    78         18
    79        235
    80         57
    81         21
    82         43
    83          7
    84         18
    85          9
    86          0
    87          1
    89          0
    90          2
    91         12
    92        134
    93         50
    94         18
    95         12
    96          6
    97          3
    98          0
    99          1
   101          1
   102          0
   103          9
   105        245
   106         60
   107         20
   108         39
   109          3
   110          1
   111          1
   112          1
   113          0
   115          0
   116          1
   118         14
   119        136
   120        197
   121         24
   122         18
   123          3
   124          0
   125          1
   126          0
   127          0
   128          0
   129          0
   130          2
   131          2
   132          5
   133        115
   134         12
   135          1
   136          1
   139          0
   141          0
   145          2
   146          1
   147        152
   148        111
   149         14
   150          2
   151          0
   152          1
   153          0
   154          0
   156          0
   157          0
   162          0
   165          0
   167          0
   169          0
   171          4
   172          0
   174          0
   175          2
   178          0
   183          0
   184          0
   185          0
   187          1
   189          0
   193          0
   194          0
   195          0
   198          0
   202          1
   204        113
   205         15
   206          1
   207          0