##TITLE=Library Entry 82587
##JCAMP-DX=Revision 4.10 
##DATA TYPE=MASS SPECTRUM
##SAMPLE DESCRIPTION=Japan AIST/NIMC Database- Spectrum MS-IW-1623
##NAMES=HP
##CAS NAME=1-Isonicotinoyl(thiosemicarbazide)
##MOLFORM=C7H8N4OS
##CAS REGISTRY NO=14397-24-1
##MP= -300
##BP= -300
##MW= 196
##$RETENTION INDEX=0
##$CONDENSED SPECTRUM=NO
##NPOINTS= 121
##XYDATA=(XY..XY) 1 
    15          1
    16         16
    17         29
    18          4
    25          1
    26         16
    27         15
    28         59
    29          7
    30          3
    31         32
    32         52
    33          9
    34         16
    35          1
    36          2
    37          9
    38         17
    39         15
    40          6
    41         25
    42         19
    43         57
    44         28
    45          5
    46          3
    47          5
    48          7
    49         11
    50        106
    51        375
    52         69
    53         18
    54          3
    55          3
    56          1
    57          5
    58         16
    59        170
    60        179
    61         17
    62         18
    63         23
    64         28
    65         25
    66         14
    67         10
    68          2
    69          2
    70          1
    71          2
    74         17
    75         16
    76         30
    77         52
    78        856
    79        170
    80         15
    81          4
    82          1
    83          2
    84          1
    85          2
    89         11
    90          8
    91         12
    92         57
    93          8
    94          2
    95          2
    96          1
    97          2
    99          1
   101          1
   103          5
   104         60
   105         21
   106        999
   107        103
   108          7
   109          2
   110          1
   111          2
   112          1
   113          1
   118          5
   119        325
   120         58
   121          6
   122         55
   123         31
   124          3
   125          1
   134          1
   135          2
   136          5
   137        624
   138         55
   139          4
   140          1
   146          9
   147          7
   148          1
   149          2
   150          1
   153          1
   162        128
   163        333
   164         31
   165          5
   178         33
   179        540
   180         58
   181         27
   182          3
   184          1
   195          1
   196        504
   197         64
   198         27
   199          3