##TITLE=Library Entry 29222
##JCAMP-DX=Revision 4.10 
##DATA TYPE=MASS SPECTRUM
##SAMPLE DESCRIPTION=NIST Mass Spectrometry Data Center
##NAMES=HP
##CAS NAME=Iodoacetamide
##MOLFORM=C2H4INO
##CAS REGISTRY NO=144-48-9
##MP= -300
##BP= -300
##MW= 185
##$RETENTION INDEX=0
##$CONDENSED SPECTRUM=NO
##NPOINTS= 37
##XYDATA=(XY..XY) 1 
    12         27
    13         24
    14         85
    15         44
    16         50
    18         22
    21          1
    25          2
    26         15
    27         50
    28        244
    29          8
    30        368
    38         24
    39         32
    40         60
    41        128
    42        538
    43         81
    44        511
    45          2
    58        999
    59         65
    93          8
   127        511
   128         88
   137         15
   139         59
   140         71
   141        293
   142        329
   143         26
   167          1
   168         41
   169         47
   185        720
   186         18