##TITLE=Library Entry 22193
##JCAMP-DX=Revision 4.10 
##DATA TYPE=MASS SPECTRUM
##SAMPLE DESCRIPTION=Exported from NIST MS Search
##NAMES=HP
##CAS NAME=1,3-Pentanediol, 2,2,4-trimethyl-
##MOLFORM=C8H18O2
##CAS REGISTRY NO=144-19-4
##MP= -300
##BP= -300
##MW= 146
##$RETENTION INDEX=1157
##$CONDENSED SPECTRUM=NO
##NPOINTS= 82
##XYDATA=(XY..XY) 1 
    15          6
    17          2
    18          7
    19          1
    26          2
    27         67
    28         28
    29        112
    30          4
    31         65
    32          3
    33          1
    38          2
    39         53
    40         14
    41        267
    42         18
    43        406
    44         16
    45        104
    46          3
    47         10
    50          1
    51          3
    52          1
    53         18
    54          6
    55        284
    56        999
    57        318
    58         16
    59        129
    60          5
    61         12
    65          3
    66          1
    67         17
    68          4
    69         20
    70         15
    71        218
    72         50
    73        266
    74         16
    75          3
    77          2
    79          2
    81          4
    82          1
    83         46
    84          6
    85        176
    86         11
    87          3
    89         12
    91         10
    92          1
    95          5
    96          1
    97         10
    98         11
    99          6
   100          1
   101          3
   102          1
   103        155
   104          9
   105          1
   109          1
   111          8
   112          1
   113          3
   114          2
   115          5
   116          1
   117          1
   127          1
   128          3
   129         10
   130          1
   131          1
   145          1