##TITLE=Library Entry 65454
##JCAMP-DX=Revision 4.10 
##DATA TYPE=MASS SPECTRUM
##SAMPLE DESCRIPTION=Japan AIST/NIMC Database- Spectrum MS-IW-6837
##NAMES=HP
##CAS NAME=Sulfacetamide
##MOLFORM=C8H10N2O3S
##CAS REGISTRY NO=144-80-9
##MP= -300
##BP= -300
##MW= 214
##$RETENTION INDEX=0
##$CONDENSED SPECTRUM=NO
##NPOINTS= 128
##XYDATA=(XY..XY) 1 
    15         31
    16          1
    17          9
    18         12
    25          1
    26          5
    27         23
    28         27
    29          4
    30          3
    32          4
    33          2
    34          8
    37          6
    38         27
    39        156
    40         29
    41         81
    42         71
    43        243
    44         12
    45          9
    46         15
    47          1
    48         12
    49          2
    50         16
    51         22
    52         53
    53         37
    54         21
    55          2
    57          1
    58          2
    59          4
    60          8
    61          7
    62         22
    63         73
    64         78
    65        583
    66         83
    67          7
    68          2
    69          7
    70          4
    71          2
    73          1
    74          7
    75          9
    76          9
    77         13
    78         15
    79         15
    80         80
    81         21
    82          3
    83          1
    84          2
    85          2
    86          1
    87          1
    88          2
    89          4
    90         17
    91         49
    92        999
    93        127
    94          7
    95          2
    96          5
    97          8
    98          4
    99          1
   102          1
   103          1
   104         14
   105          9
   106         20
   107         55
   108        666
   109        937
   110         68
   111          4
   112          3
   118          2
   119          1
   120          9
   121         23
   122          4
   123          9
   124         20
   125         53
   126          5
   127          3
   131          2
   132          2
   134          1
   135          1
   136          1
   139          1
   140         41
   141          4
   142          1
   149          1
   150         24
   151          3
   154         12
   155          4
   156        813
   157         64
   158         41
   159          3
   162          1
   168          7
   169          1
   172        236
   173         80
   174         16
   175          4
   183          1
   184          3
   198          4
   199          1
   214        390
   215         46
   216         22
   217          2