##TITLE=Library Entry 65901
##JCAMP-DX=Revision 4.10 
##DATA TYPE=MASS SPECTRUM
##SAMPLE DESCRIPTION=Philip Morris R&D
##NAMES=HP
##CAS NAME=1,6-Octadien-3-ol, 3,7-dimethyl-, propanoate
##MOLFORM=C13H22O2
##CAS REGISTRY NO=144-39-8
##MP= -300
##BP= -300
##MW= 210
##$RETENTION INDEX=1336
##$CONDENSED SPECTRUM=NO
##NPOINTS= 83
##XYDATA=(XY..XY) 1 
    36          0
    37          0
    38          3
    39         48
    40         18
    41        238
    42         17
    43        126
    44          8
    45          9
    46          3
    50          3
    51          9
    52          5
    53         40
    54          5
    55        145
    56         14
    57        595
    58         22
    59          3
    63          2
    65         13
    66          7
    67         86
    68         92
    69        235
    70         18
    71         45
    72         13
    73          4
    74          2
    75          2
    77         42
    78          6
    79        105
    80        487
    81        137
    82         27
    83         42
    84         10
    85          9
    86          2
    89          2
    91        102
    92        161
    93        999
    94        128
    95         32
    96          3
    97          3
    98          2
    99          3
   100          1
   103          3
   105         58
   106          9
   107         76
   108         15
   109         16
   110          3
   111          8
   112          0
   117          0
   119          9
   120          2
   121        249
   122         26
   123          3
   124          0
   125          1
   127          6
   128          2
   135          3
   136        103
   137         25
   138          2
   139          9
   140          1
   153          0
   154         13
   155          3
   210          5