##TITLE=Library Entry 71696
##JCAMP-DX=Revision 4.10 
##DATA TYPE=MASS SPECTRUM
##SAMPLE DESCRIPTION=Japan AIST/NIMC Database- Spectrum MS-IW-5139
##NAMES=HP
##CAS NAME=Trihexyphenidyl
##MOLFORM=C20H31NO
##CAS REGISTRY NO=144-11-6
##MP= -300
##BP= -300
##MW= 301
##$RETENTION INDEX=2238
##$CONDENSED SPECTRUM=NO
##NPOINTS= 109
##XYDATA=(XY..XY) 1 
    17          6
    18         14
    27          4
    28          5
    29          9
    30          9
    32          2
    39          6
    40          1
    41         34
    42         25
    43         10
    44         18
    50          1
    51          5
    52          2
    53          4
    54          4
    55         42
    56         14
    57          9
    58          2
    63          1
    65          3
    67          9
    68          4
    69         13
    70         13
    71          2
    76          2
    77         22
    78          6
    79         10
    80          3
    81          6
    82          6
    83          9
    84         37
    85         33
    86          5
    89          1
    91         23
    92          3
    93          3
    94          3
    95          9
    96         16
    97         14
    98        999
    99         78
   100          3
   102          3
   103          9
   104         29
   105         37
   106          5
   107          7
   108          1
   109          1
   110          7
   111          4
   112         17
   113          6
   114          8
   115         11
   116          3
   117         14
   118         30
   119          4
   120          1
   125          1
   127          3
   128          9
   129         24
   130          8
   131         23
   132          4
   133          3
   141          3
   142          4
   143         13
   144         10
   145          5
   155          1
   157          3
   158          2
   165          1
   167          1
   171         19
   172          3
   186         29
   187          5
   188          2
   189          1
   190          2
   198          3
   200          3
   216          6
   217          1
   218         92
   219         52
   220          6
   224          1
   228          1
   282          1
   283          4
   284          2
   300          1
   301          3