##TITLE=Library Entry 27604
##JCAMP-DX=Revision 4.10 
##DATA TYPE=MASS SPECTRUM
##SAMPLE DESCRIPTION=H. Fales, LC, NHLBI, NIH, Bethesda, MD 20892
##NAMES=HP
##CAS NAME=1,2,3-Propanetricarboxylic acid, 2-(acetyloxy)-, tris(2-ethylhexy
l) ester
##MOLFORM=C32H58O8
##CAS REGISTRY NO=144-15-0
##MP= -300
##BP= -300
##MW= 570
##$RETENTION INDEX=0
##$CONDENSED SPECTRUM=NO
##NPOINTS= 232
##XYDATA=(XY..XY) 1 
    41        274
    42         28
    43        798
    44         31
    45          9
    51          1
    53         13
    54         15
    55        225
    56        127
    57        999
    58         40
    59          4
    60          8
    61         26
    65          2
    67         23
    68         22
    69        142
    70        249
    71        630
    72         37
    73          4
    74          1
    76         21
    77          4
    79          4
    81         12
    82         23
    83        105
    84         65
    85         28
    86          7
    87         10
    88          0
    89          3
    93          1
    95          8
    96          4
    97         17
    98          7
    99          6
   100          3
   101         19
   102         63
   103         31
   104          0
   105         16
   107          0
   108          1
   109          0
   110         23
   111         52
   112        251
   113        818
   114         66
   115          7
   116          4
   117          0
   119          1
   123          0
   124          0
   125          5
   126          7
   127         20
   129        305
   130         31
   131         23
   132         24
   133          5
   134          0
   136          1
   139         40
   140         17
   141         12
   142         12
   143          8
   144         12
   145          4
   147        866
   148         49
   149         11
   150          0
   151          0
   153          0
   154         18
   155          5
   157        106
   158         32
   159         22
   160         14
   161         10
   162          2
   167          0
   169          3
   170          2
   171         12
   172         13
   173         16
   174         18
   175        219
   176         15
   177         12
   178          0
   181          0
   183          2
   184          0
   185         16
   186          1
   187          0
   188         12
   189          9
   190         42
   191         12
   193         77
   194          4
   195          1
   196          0
   197          2
   199          8
   200          0
   201          1
   206          4
   207          5
   211          2
   212          0
   213          1
   214         17
   215          6
   217        394
   218         30
   219          6
   222          0
   224          0
   225          1
   227          1
   228          1
   229          3
   230          8
   231          5
   232          0
   235         22
   236          0
   239          0
   241        152
   242         22
   243          7
   245          4
   257          3
   259        338
   260         46
   261          6
   263          2
   268          7
   269         12
   270          9
   271          5
   272          2
   273          4
   284          1
   285          3
   286         13
   287         52
   288          8
   289          6
   299          0
   301          3
   302         43
   303         15
   304          2
   305         25
   306          3
   315          0
   329        127
   330         22
   331          4
   341          1
   343          1
   347         35
   348          5
   349          0
   353          0
   354          3
   355          3
   356          1
   357          3
   361          1
   369          1
   371        986
   372        247
   373         39
   374          4
   380          0
   382          4
   383          1
   385          3
   398          9
   399         26
   400          7
   401         11
   402          2
   413         28
   414        292
   415         78
   416         15
   417         55
   418         13
   419          1
   441         16
   442          7
   443          2
   457          0
   459        380
   460        103
   461         20
   462          2
   473          0
   481          0
   487          5
   488          0
   510          9
   511         16
   512          5
   513          3
   528          4
   529          5
   530          0
   568          1
   569          6
   570         44
   571         15
   572          3