##TITLE=Library Entry 16723
##JCAMP-DX=Revision 4.10 
##DATA TYPE=MASS SPECTRUM
##SAMPLE DESCRIPTION=B.Kimball ET AL.J.Chromatogr.,634,289(1993)
##NAMES=HP
##CAS NAME=Fluoroacetic acid
##MOLFORM=C2H3FO2
##CAS REGISTRY NO=144-49-0
##MP= -300
##BP= -300
##MW= 78
##$RETENTION INDEX=0
##$CONDENSED SPECTRUM=NO
##NPOINTS= 36
##XYDATA=(XY..XY) 1 
    12         21
    13         54
    14        132
    15          4
    16          8
    17         29
    18          6
    19          2
    24          2
    25          6
    26          2
    28         79
    29        202
    30         23
    31        275
    32        130
    33        829
    34        138
    35          2
    36         21
    38          6
    40          4
    41         21
    42         83
    43          2
    44         50
    45        999
    46          4
    47         10
    49         31
    58         25
    60         33
    61        403
    62          4
    78        457
    79          4