##TITLE=Library Entry 17754
##JCAMP-DX=Revision 4.10 
##DATA TYPE=MASS SPECTRUM
##SAMPLE DESCRIPTION=Chemical Concepts
##NAMES=HP
##CAS NAME=Anthracene, 9,10-bis[2,2-bis(methoxymethyl)propyl]-
##MOLFORM=C28H38O4
##CAS REGISTRY NO=144000-82-8
##MP= -300
##BP= -300
##MW= 438
##$RETENTION INDEX=0
##$CONDENSED SPECTRUM=NO
##NPOINTS= 247
##XYDATA=(XY..XY) 1 
    26          1
    27         13
    28          2
    29         43
    30          2
    31          7
    33          5
    36          0
    38          1
    39         14
    40          0
    41         39
    42          7
    43         11
    44          2
    45        999
    46         24
    47          6
    50          1
    51          2
    52          0
    53          7
    54          2
    55         57
    56          4
    57         13
    58          2
    59         21
    60          0
    63          2
    65          2
    67          2
    68          0
    69          3
    70          2
    71         62
    72          9
    73          4
    74          1
    75         13
    76          2
    77          4
    78          1
    79          0
    83          2
    84          2
    85        192
    86         14
    87        154
    88          9
    89          6
    91         12
    92          2
    95          0
    97          2
    98          0
    99          6
   100          1
   101          6
   102          1
   103          7
   104          1
   105          2
   107          0
   108          2
   113          2
   114          2
   115         12
   116          2
   117        168
   118         11
   119          2
   120          2
   121          1
   126          2
   127          4
   128          3
   129          4
   130          2
   131          2
   139          2
   141          2
   144          0
   150          2
   151          2
   152          6
   153          2
   155          0
   163          3
   164          2
   165         10
   166          2
   167          2
   174          0
   175          1
   176          5
   177          3
   178         13
   179          6
   180          1
   187          3
   188          3
   189         34
   190         15
   191        642
   192        109
   193         12
   194          2
   197          0
   199          0
   200          6
   201          7
   202         97
   203         72
   204        139
   205        105
   206         15
   207          2
   208          0
   209          0
   212          0
   213          7
   214          4
   215        110
   216         62
   217        278
   218         43
   219          7
   220          2
   221          2
   222          1
   223          0
   224          2
   225          2
   226         16
   227         22
   228         95
   229        171
   230         54
   231         43
   232         10
   233          2
   234          2
   235          3
   236          1
   237          1
   238          0
   239         12
   240          7
   241         15
   242         26
   243         83
   244         23
   245         63
   246         13
   247          3
   248          1
   249          2
   250          2
   251          0
   252          5
   253          6
   254          3
   255          7
   256          4
   257        234
   258         49
   259         13
   260          3
   261          2
   262          1
   263          2
   264          0
   265          1
   266          2
   267          2
   268          2
   269          5
   270          2
   271          4
   272          2
   273          2
   274          1
   275          7
   276          3
   277          3
   278          1
   279          0
   280          0
   281          2
   282          2
   283          3
   284          2
   285          2
   286          0
   287          3
   288          1
   289         92
   290         22
   291          3
   292          0
   295          1
   296          0
   297         13
   298          3
   299          1
   301          0
   305          2
   306          0
   307          0
   308          8
   309          3
   310          1
   311          2
   313          0
   316          0
   319          0
   321        180
   322         56
   323          8
   324          2
   327          1
   329          3
   330          2
   334          0
   341          0
   351          0
   360          0
   361          2
   362          2
   363          0
   366          0
   374          1
   392          2
   393          1
   394          2
   395          0
   406          2
   407          1
   408          2
   422          0
   436          0
   438        400
   439        109
   440         23
   441          3
   442          1