##TITLE=Library Entry 85123
##JCAMP-DX=Revision 4.10 
##DATA TYPE=MASS SPECTRUM
##SAMPLE DESCRIPTION=V.Zaikin,Inst.Petrochem.Synth.,RAS,Moscow
##NAMES=HP
##CAS NAME=2-Bromopropionic acid, 2-methylphenyl ester
##MOLFORM=C10H11BrO2
##CAS REGISTRY NO=1440-64-8
##MP= -300
##BP= -300
##MW= 242
##$RETENTION INDEX=0
##$CONDENSED SPECTRUM=NO
##NPOINTS= 70
##XYDATA=(XY..XY) 1 
    25          6
    26         54
    27        225
    28          2
    29         16
    39         98
    40         16
    41         22
    42          3
    43          7
    50         55
    51         97
    52         87
    53         62
    54          8
    55         75
    56         79
    57          6
    58          2
    61          5
    62         14
    63         42
    64         12
    65         47
    66          9
    68          2
    69          2
    73          3
    74          8
    75         11
    76          8
    77        173
    78         94
    79        117
    80         37
    81          7
    82          9
    83          2
    87          2
    89         18
    90         58
    91        115
    92         14
    93          2
    94         39
    95          5
   103          3
   104          2
   105          5
   106         24
   107        361
   108        999
   109        294
   110         13
   117          6
   118          5
   119          9
   128         19
   129          2
   130          8
   134         18
   135         57
   136         18
   137         37
   138          2
   161          3
   242         53
   243          5
   244         52
   245          5