##TITLE=Library Entry 8828
##JCAMP-DX=Revision 4.10 
##DATA TYPE=MASS SPECTRUM
##SAMPLE DESCRIPTION=D.HENNEBERG, MAX-PLANCK INSTITUTE, MULHEIM, WEST GERMAN
Y
##NAMES=HP
##CAS NAME=Zinc, dipentyl-
##MOLFORM=C10H22Zn
##CAS REGISTRY NO=14402-93-8
##MP= -300
##BP= -300
##MW= 206
##$RETENTION INDEX=0
##$CONDENSED SPECTRUM=NO
##NPOINTS= 121
##XYDATA=(XY..XY) 1 
    26          3
    27        133
    28         33
    29        196
    30          4
    37          1
    38          3
    39         79
    40         22
    41        269
    42        337
    43        999
    44         32
    45          1
    50          0
    51          2
    52          1
    53         15
    54          6
    55        173
    56         22
    57         29
    58          1
    63          0
    64         34
    65          4
    66         19
    67          9
    68         12
    69         53
    70         89
    71        732
    72         52
    73          2
    78          1
    79          3
    80          0
    81          1
    82          0
    83          1
    84          1
    85          2
    91          2
    92          9
    93         24
    94          5
    95         14
    96          5
    97          8
    98          0
    99          0
   103          0
   104          0
   105          1
   106          1
   107         17
   108          5
   109         10
   110          5
   111          6
   112          2
   113          0
   114          0
   119          1
   121          2
   122          1
   123          1
   124          0
   125          0
   126          0
   127          2
   129          2
   130          0
   131          1
   132          0
   133          3
   134          5
   135        276
   136         21
   137        156
   138         36
   139        105
   140          6
   141          3
   142          0
   149          1
   150         13
   151          1
   152          7
   153          2
   154          5
   155          0
   156          0
   163         54
   164          5
   165         33
   166          7
   167         20
   168          1
   169          0
   177         14
   178         21
   179         10
   180         13
   181          8
   182          8
   183          0
   191          2
   192          0
   193          1
   194          0
   195          0
   204          0
   205          0
   206         86
   207          9
   208         49
   209         12
   210         33
   211          3
   212          1