##TITLE=Library Entry 16548
##JCAMP-DX=Revision 4.10 
##DATA TYPE=MASS SPECTRUM
##SAMPLE DESCRIPTION=Drug Lab
##NAMES=HP
##CAS NAME=Desmethylcitalopram
##MOLFORM=C19H19FN2O
##CAS REGISTRY NO=144010-85-5
##MP= -300
##BP= -300
##MW= 310
##$RETENTION INDEX=2435
##$CONDENSED SPECTRUM=NO
##NPOINTS= 118
##XYDATA=(XY..XY) 1 
    42         26
    44        999
    45         26
    50          3
    51          4
    55          2
    56         14
    57        144
    58         13
    59         51
    60          2
    62          3
    63          7
    64          2
    68          2
    69          2
    70         24
    71          4
    72         16
    73          2
    74          2
    75         13
    76          2
    77          3
    81          2
    83          6
    87          2
    88          6
    89          5
    95         31
    96          4
   101          4
   102          2
   103          2
   107          3
   109         24
   110          2
   113          2
   114          9
   115         14
   116          9
   120          2
   122          4
   123         18
   125          2
   127          4
   128          4
   129          3
   133          8
   138         94
   139         10
   140          8
   141          2
   143          2
   144          3
   145          2
   146          2
   150          2
   151          5
   154          2
   155          2
   156          3
   157         25
   158          6
   163          6
   164          3
   168          2
   169          2
   170          7
   171          2
   175          2
   177          3
   181          9
   182         12
   183         40
   184         10
   188          3
   189          4
   190         44
   191          7
   193          2
   194          9
   195         10
   196          2
   200          5
   201          3
   206          3
   207          6
   208         75
   209         20
   210         11
   211          3
   214          3
   218         34
   219         11
   220         43
   221         36
   222          9
   232          2
   233          2
   234          9
   235          4
   236          5
   237         33
   238        277
   239         47
   240          7
   245          2
   246          3
   248          2
   250          3
   251          2
   258          2
   260          3
   281          5
   282          2
   310         53
   311         11