##TITLE=Library Entry 16344
##JCAMP-DX=Revision 4.10 
##DATA TYPE=MASS SPECTRUM
##SAMPLE DESCRIPTION=Japan AIST/NIMC Database- Spectrum MS-NW-2015
##NAMES=HP
##CAS NAME=N-(2,4-Dinitrophenyl)-dl-threonine
##MOLFORM=C10H11N3O7
##CAS REGISTRY NO=14401-07-1
##MP= -300
##BP= -300
##MW= 285
##$RETENTION INDEX=0
##$CONDENSED SPECTRUM=NO
##NPOINTS= 175
##XYDATA=(XY..XY) 1 
    12         21
    13         13
    14         54
    15        181
    16         44
    17         10
    18         37
    24          4
    25         13
    26         50
    27         81
    28        213
    29        519
    30        154
    31          6
    32          3
    36          5
    37         45
    38         82
    39        113
    40         29
    41         45
    42         62
    43        306
    44        999
    45         68
    46         20
    48          3
    49         11
    50         66
    51        124
    52        175
    53         48
    54         17
    55         14
    56          4
    57          8
    58          2
    59          1
    60          6
    61         45
    62        140
    63        302
    64        113
    65         51
    66         82
    67         17
    68          9
    69          3
    70          2
    71          1
    72          9
    73          5
    74         32
    75         78
    76         82
    77        111
    78        215
    79         55
    80         59
    81          6
    82          2
    83          2
    84          1
    85          1
    86          4
    87         13
    88         37
    89         69
    90        404
    91        144
    92         34
    93         39
    94         21
    95          8
    96          2
    97          1
    99          1
   100          2
   101          4
   102         15
   103         47
   104         49
   105        243
   106         53
   107         33
   108          8
   109          2
   110          1
   111          1
   114          1
   115          5
   116        107
   117        411
   118         47
   119         40
   120         17
   121         42
   122          9
   123          6
   124          1
   128          2
   129          3
   130          7
   131         15
   132          9
   133        360
   134         64
   135          8
   136          2
   137         64
   138         11
   139          1
   142          6
   143         12
   144          6
   145          4
   146          7
   147         44
   148         11
   149         80
   150         18
   151          6
   152          2
   153         43
   154          6
   158          2
   159         12
   160          3
   161          3
   162          5
   163        701
   164         73
   165         20
   166          9
   167        142
   168         16
   169          2
   173          2
   175          7
   176          3
   177         14
   178         11
   179        494
   180         50
   181          9
   182          1
   183         24
   184          3
   187          3
   188          3
   189         21
   190          8
   191          8
   192          9
   193          4
   194          3
   195         16
   196         26
   197          3
   203          1
   204          1
   205         43
   206          6
   207          9
   208          1
   211          1
   221          2
   222          1
   223          7
   224          1
   233          1
   239          3
   240          1
   241          6