##TITLE=Library Entry 72325
##JCAMP-DX=Revision 4.10 
##DATA TYPE=MASS SPECTRUM
##SAMPLE DESCRIPTION=Chemical Concepts
##NAMES=HP
##CAS NAME=Anthracene, 9-[4-(diethylamino)butyl]-
##MOLFORM=C22H27N
##CAS REGISTRY NO=144000-77-1
##MP= -300
##BP= -300
##MW= 305
##$RETENTION INDEX=0
##$CONDENSED SPECTRUM=NO
##NPOINTS= 162
##XYDATA=(XY..XY) 1 
    25          0
    26          1
    27          7
    28          5
    29         40
    30        142
    31          1
    39          1
    41         10
    42         28
    43         14
    44         16
    45          0
    46          0
    50          0
    51          0
    53          0
    54          2
    55          8
    56         40
    57         13
    58        123
    59          4
    63          0
    64          0
    65          0
    66          0
    67          1
    68          2
    69          2
    70         25
    71         91
    72         33
    73          9
    74          0
    75          0
    76          1
    77          1
    80          0
    81          1
    82          2
    83          1
    84         38
    85         10
    86        894
    87         48
    88          1
    89          1
    91          1
    93          0
    94          0
    95          1
    96          2
    97          2
    98         38
    99        999
   100         63
   101          3
   102          0
   103          0
   105          1
   107          0
   108          0
   109          0
   110          2
   111          1
   112        107
   113         23
   114          1
   115          1
   117          0
   119          0
   123          0
   124          1
   125          2
   126         17
   127         60
   128          5
   129          0
   131          0
   134          0
   135          0
   137          0
   138          0
   139          1
   140          0
   141          0
   145         22
   146          0
   147          0
   149          0
   150          1
   151          2
   152          5
   153          2
   154          0
   155          1
   161          0
   162          0
   163          3
   164          1
   165         14
   166          1
   167          0
   174          0
   175          1
   176          7
   177          3
   178         31
   179         12
   180          1
   181          0
   187          1
   188          2
   189         40
   190         19
   191        109
   192         19
   193          2
   194          0
   200          2
   201          3
   202         24
   203         36
   204         21
   205         10
   206          1
   207          0
   209          0
   212          0
   213          1
   214          0
   215         12
   216          6
   217          4
   218          4
   219          1
   226          0
   227          0
   228          0
   229          1
   230          0
   231          3
   232          2
   233         16
   234          3
   235          0
   245          0
   260          0
   275          0
   276          2
   277          2
   278          0
   288          0
   290         13
   291          3
   292          0
   303          0
   304          8
   305        308
   306         75
   307          9