##TITLE=Library Entry 16547
##JCAMP-DX=Revision 4.10 
##DATA TYPE=MASS SPECTRUM
##SAMPLE DESCRIPTION=NIST Mass Spectrometry Data Center, 2013
##NAMES=HP
##CAS NAME=(S)?-??N-?Desmethylcitalopram
##MOLFORM=C19H19FN2O
##CAS REGISTRY NO=144025-14-9
##MP= -300
##BP= -300
##MW= 310
##$RETENTION INDEX=2508
##$CONDENSED SPECTRUM=NO
##NPOINTS= 213
##XYDATA=(XY..XY) 1 
    15          3
    18          6
    26          1
    27          5
    28         20
    29          7
    30         19
    31         11
    32          1
    38          1
    39          8
    40          1
    41          9
    42         32
    43         18
    44        999
    45         28
    50          3
    51          5
    52          1
    53          1
    54          2
    55          3
    56         16
    57        114
    58          9
    59         42
    60          2
    61          1
    62          3
    63          6
    64          2
    65          1
    68          3
    69          2
    70         21
    71          3
    72         13
    73          2
    74          2
    75         14
    76          3
    77          3
    78          1
    81          2
    83          5
    84          1
    86          1
    87          3
    88          7
    89          6
    90          1
    91          2
    93          1
    94          3
    95         33
    96          4
    97          1
    98          1
    99          1
   100          2
   101          6
   102          3
   103          3
   104          1
   105          1
   106          1
   107          4
   108          1
   109         23
   110          2
   111          1
   112          1
   113          2
   114         11
   115         19
   116         11
   117          1
   120          3
   121          1
   122          4
   123         21
   124          2
   125          3
   126          2
   127          5
   128          6
   129          4
   130          1
   131          2
   132          1
   133          9
   134          1
   135          1
   136          1
   137          1
   138         72
   139          8
   140         10
   141          2
   142          2
   143          3
   144          3
   145          2
   146          3
   147          1
   149          1
   150          3
   151          7
   152          2
   153          2
   154          3
   155          2
   156          6
   157         18
   158          6
   159          1
   161          1
   162          1
   163          6
   164          4
   165          1
   166          1
   167          1
   168          2
   169          3
   170          8
   171          3
   172          1
   173          1
   174          1
   175          2
   176          2
   177          3
   178          1
   179          1
   180          1
   181          9
   182         11
   183         33
   184          8
   185          1
   187          1
   188          4
   189          4
   190         43
   191          7
   192          1
   193          2
   194          6
   195          8
   196          2
   197          1
   200          4
   201          2
   202          1
   203          1
   204          1
   205          1
   206          3
   207          5
   208         61
   209         17
   210          7
   211          2
   212          1
   213          1
   214          3
   215          1
   218         21
   219          8
   220         27
   221         24
   222          6
   223          1
   227          1
   228          1
   232          2
   233          1
   234          5
   235          3
   236          4
   237         25
   238        153
   239         26
   240          4
   241          1
   245          2
   246          2
   247          1
   248          1
   249          1
   250          2
   251          2
   252          1
   258          1
   259          1
   260          2
   261          1
   262          1
   263          1
   267          1
   277          1
   279          1
   281          3
   282          2
   291          1
   292          1
   295          1
   309          2
   310         38
   311          8
   312          1