##TITLE=Library Entry 29497
##JCAMP-DX=Revision 4.10 
##DATA TYPE=MASS SPECTRUM
##SAMPLE DESCRIPTION=Div. of Experiment Therapeutics WRAIR, WRAMC, Washingto
n DC 20307
##NAMES=HP
##CAS NAME=7-Chloro-1-([-3-(dimethylamino)propyl]imino)-3-[4-(methylsulfanyl
)phenyl]-1,3,4,10-tetrahydro-9(2H)-acridinone
##MOLFORM=C25H28ClN3OS
##CAS REGISTRY NO=144155-48-6
##MP= -300
##BP= -300
##MW= 453
##$RETENTION INDEX=0
##$CONDENSED SPECTRUM=NO
##NPOINTS= 126
##XYDATA=(XY..XY) 1 
    42        115
    43         33
    44         61
    45         13
    47          5
    56         48
    58        999
    59         16
    69          5
    70         42
    71         14
    72        279
    77          5
    78          4
    84         79
    85         32
    86          6
    89          4
    91         21
    99          4
   102          6
   115          7
   121          6
   122          9
   123          4
   127          4
   134          8
   135         40
   137        174
   138         16
   139          8
   140          5
   149          5
   150         48
   151          6
   152          9
   153          5
   154          5
   164         14
   166         12
   167          4
   174          4
   190          4
   204          4
   211          4
   216         21
   217          8
   218         20
   219         12
   220          4
   227         16
   228          5
   229          5
   230          9
   231         23
   232         21
   233          5
   240         12
   241         20
   242          6
   243          7
   244          7
   245        104
   246         23
   247         35
   257          7
   258         13
   259         50
   260          7
   261         21
   269         17
   270         22
   271         19
   273         11
   292          4
   303          6
   304         74
   305         54
   306         42
   307         21
   308          5
   318          6
   319          6
   320          4
   326          6
   335         11
   336         22
   337         12
   338         17
   339          4
   340          5
   347         10
   348         46
   349         12
   350         10
   351         18
   352         30
   353         24
   354         25
   355          9
   361         32
   365         37
   366         12
   367         58
   368         24
   369         56
   370         24
   371         20
   379          9
   381         87
   382        741
   383        220
   384        312
   385         75
   386         21
   394         77
   395        405
   396        129
   397        163
   398         40
   399          5
   453        110
   454         33
   455         46
   456         12
   457          3