##TITLE=Library Entry 29473
##JCAMP-DX=Revision 4.10 
##DATA TYPE=MASS SPECTRUM
##SAMPLE DESCRIPTION=Div. of Experiment Therapeutics WRAIR, WRAMC, Washingto
n DC 20307
##NAMES=HP
##CAS NAME=7-Chloro-1-[[3-[dimethylamino]propyl]imino]-3-(2-pyridyl)-1,3,4,1
0-tetrahydro-acridin-9(2H)-one
##MOLFORM=C23H25ClN4O
##CAS REGISTRY NO=144155-50-0
##MP= -300
##BP= -300
##MW= 408
##$RETENTION INDEX=0
##$CONDENSED SPECTRUM=NO
##NPOINTS= 98
##XYDATA=(XY..XY) 1 
    41         16
    42        148
    43         44
    44         77
    51         16
    52         21
    53         11
    56         46
    58        999
    59         25
    65          7
    70         40
    71         25
    72        159
    73          6
    77         14
    78         35
    79         53
    80         61
    84         51
    85         18
    86         16
    93         16
   104         13
   106         19
   117          9
   118          5
   128          7
   154          7
   156          7
   164          7
   166          8
   167          7
   195          9
   216          6
   217          6
   218         16
   219          5
   225          6
   228          6
   229         11
   230         51
   231         16
   232         18
   242          9
   243         12
   244         27
   245         40
   246         13
   247         11
   253         27
   254          6
   255          9
   256          6
   257         41
   258         18
   259        220
   260         39
   261         69
   262          8
   269          6
   271         54
   272         11
   273         15
   281          7
   283          6
   285         11
   286          9
   287          9
   295          8
   303          8
   305         12
   306         11
   307         36
   308         14
   309         11
   310          6
   316          7
   320         10
   321          8
   322        101
   323         16
   324         52
   325          8
   336         35
   337        351
   338         93
   339        136
   340         20
   350        338
   351         86
   352        121
   353         31
   363          6
   364          5
   408         48
   409         13
   410         17