##TITLE=Library Entry 28457
##JCAMP-DX=Revision 4.10 
##DATA TYPE=MASS SPECTRUM
##SAMPLE DESCRIPTION=Div. of Experiment Therapeutics WRAIR, WRAMC, Washingto
n DC 20307
##NAMES=HP
##CAS NAME=6-Chloro-3-[2,4-dichlorophenyl]-1-[[3-[dimethylamino]propyl]imino
]-1,3,4,10-tetrahydro-9(2H)-acridinone
##MOLFORM=C24H24Cl3N3O
##CAS REGISTRY NO=144155-53-3
##MP= -300
##BP= -300
##MW= 475
##$RETENTION INDEX=0
##$CONDENSED SPECTRUM=NO
##NPOINTS= 231
##XYDATA=(XY..XY) 1 
    42        113
    43         39
    44         79
    45         15
    46          4
    47          3
    49         24
    50          3
    51         14
    52          3
    53          3
    54          5
    55          5
    56         38
    58        999
    59         38
    60          3
    63          8
    64          2
    65          4
    66          2
    67          4
    68          6
    69          6
    70         41
    72        428
    73         17
    75         15
    76          4
    77          8
    78          9
    80          2
    82          7
    84         90
    85         44
    86         24
    87          4
    89          6
    95          2
    97          5
    99         15
   100          7
   101         11
   102          9
   103          2
   106          6
   109          3
   110          8
   111         10
   112          5
   113          8
   114          7
   115          7
   116          2
   120          2
   121          4
   123          8
   124          7
   125          9
   126         10
   127         11
   128          6
   129          3
   135          7
   136         13
   137         16
   138         11
   139         12
   140          8
   141          5
   145          5
   147          5
   148          5
   149         10
   150          7
   151          7
   152         11
   153          7
   154          7
   155          6
   159         49
   161         37
   162          7
   163         10
   164         24
   165          5
   166         11
   167          4
   168          3
   169          2
   171          3
   172          8
   173          6
   174         10
   175          4
   176          5
   177          4
   178          4
   179          4
   180          2
   181          3
   182          3
   183          4
   185          3
   186          6
   187          4
   188          9
   189          6
   190          4
   191          3
   193          3
   195          4
   197          3
   200          5
   201          4
   202          5
   203          3
   204          4
   210          3
   213          4
   214          5
   216         16
   217          9
   218         16
   219          9
   220          4
   221          3
   224          3
   227          4
   229          6
   230          7
   231         14
   232         12
   233          5
   234          4
   238          6
   239          4
   240          7
   241          8
   242          3
   243          7
   244          7
   245         65
   246          7
   247         25
   248          3
   253          2
   255          3
   257          6
   258          6
   259         33
   260          6
   261         12
   262          3
   269          4
   271          4
   273          4
   274          4
   275          6
   276          3
   278          3
   279          2
   281          3
   289          2
   290          2
   303          7
   304         10
   305          6
   306          4
   314          6
   316          4
   317          3
   318          5
   319          2
   326          2
   338         12
   339         11
   340         14
   341          7
   342          6
   352          4
   353          8
   354          5
   355          7
   356          4
   357          3
   367          3
   369         24
   370          8
   371         16
   372          4
   373          4
   374          4
   375          3
   376          3
   383          3
   386          2
   387          7
   388          5
   389         12
   390          9
   391         12
   392          7
   393          6
   394          3
   403          8
   404         89
   405         25
   406         86
   407         20
   408         27
   409          6
   410          3
   416          4
   417         55
   418         16
   419         55
   420         14
   421         18
   422          4
   423          2
   428          3
   430          2
   433          6
   435          5
   449          2
   475         10
   476          3
   477         10
   478          3
   479          3