##TITLE=Library Entry 29504
##JCAMP-DX=Revision 4.10 
##DATA TYPE=MASS SPECTRUM
##SAMPLE DESCRIPTION=Div. of Experiment Therapeutics WRAIR, WRAMC, Washingto
n DC 20307
##NAMES=HP
##CAS NAME=1-[[3-[Dimethylamino]propyl]imino]-7-methoxy-1,3,4,10-tetrahydro-
9(2H)-acridone
##MOLFORM=C26H28F3N3O2
##CAS REGISTRY NO=144155-38-4
##MP= -300
##BP= -300
##MW= 471
##$RETENTION INDEX=0
##$CONDENSED SPECTRUM=NO
##NPOINTS= 232
##XYDATA=(XY..XY) 1 
    42        105
    43         39
    44         44
    45          6
    50          5
    51          6
    52          4
    53          5
    54          3
    56         40
    58        999
    59         31
    63         16
    64          3
    65          4
    67          3
    68          5
    69         16
    70         27
    71         18
    72         76
    73          8
    75         10
    76          8
    77         16
    78          8
    79          6
    80          7
    82          4
    84         56
    85         17
    86         10
    88          3
    89         11
    90          4
    91          6
    92          8
    95          6
    96          4
    99          5
   100          3
   101          7
   102         12
   103         17
   104          6
   106         21
   107          7
   109          9
   111          3
   114         11
   115         16
   116         17
   117          9
   118          8
   119          6
   120          3
   121          4
   122          4
   123          4
   125          4
   126          6
   127         23
   128          9
   129          9
   130          7
   131          3
   132          9
   133         10
   134          5
   135          3
   139          5
   140         12
   141          9
   142         13
   143          9
   144         10
   145         13
   146          9
   147          6
   148          4
   149          4
   150          3
   151         21
   152          8
   153         17
   154         12
   155          8
   156          6
   157          7
   158          8
   159         57
   160         46
   161          5
   163          3
   164          4
   165          5
   166          4
   167          6
   168          5
   169         12
   170         26
   171         14
   172         35
   173          6
   174          4
   175          5
   177          3
   178          5
   179          3
   180          3
   181          5
   182          9
   183         21
   184         11
   185          9
   186          6
   187         18
   188          4
   189          5
   190          3
   193          4
   194          4
   195          5
   196          9
   197         10
   198         13
   199         11
   200         18
   201          6
   202          5
   203          4
   204          4
   206          3
   207          3
   208          3
   209          5
   210          8
   211         26
   212         26
   213         34
   214         15
   215         29
   216          5
   217          3
   220          3
   221          3
   223          3
   224          9
   225         19
   226         19
   227         14
   228         17
   229          5
   230          3
   236         19
   237          4
   238          4
   239         18
   240         12
   241         76
   242         20
   243          4
   251          3
   252          3
   253         18
   254         16
   255         37
   256          7
   257          5
   258          7
   259          4
   267          6
   268          3
   269          6
   270          3
   272          4
   273          3
   281          3
   283          3
   284          3
   285          4
   286          4
   298          7
   299          4
   300         10
   301         10
   302          4
   309          3
   313          3
   314          3
   315          4
   325          4
   326         12
   327         24
   328          9
   329          3
   339          3
   340          5
   341          4
   342          9
   343          3
   344         10
   354          4
   355          3
   356          5
   357          3
   358         11
   368         12
   369          9
   370         23
   371         16
   372         12
   382          3
   383         24
   384          9
   385         68
   386         25
   387        117
   388         24
   397          8
   398          3
   399         29
   400        358
   401         89
   402         11
   411          3
   412         59
   413        253
   414         62
   415          9
   471         65
   472         21