##TITLE=Library Entry 28447
##JCAMP-DX=Revision 4.10 
##DATA TYPE=MASS SPECTRUM
##SAMPLE DESCRIPTION=Div. of Experiment Therapeutics WRAIR, WRAMC, Washingto
n DC 20307
##NAMES=HP
##CAS NAME=1-[[3-[Dimethylamino]propyl]imino]-1,3,4,10-tetrahydro-7-[trifluo
romethyl]-9(2H)-acridinone
##MOLFORM=C26H25F6N3O
##CAS REGISTRY NO=144155-44-2
##MP= -300
##BP= -300
##MW= 509
##$RETENTION INDEX=0
##$CONDENSED SPECTRUM=NO
##NPOINTS= 107
##XYDATA=(XY..XY) 1 
    41        106
    42          5
    43         74
    45          5
    46          1
    50          1
    52          1
    53          1
    54          2
    55         10
    56         21
    58        999
    59         30
    63          1
    65          2
    66          1
    68          4
    69          1
    70         31
    72        287
    73          9
    75          1
    77          2
    78          0
    80          0
    82          1
    84         44
    85         19
    86          6
    89          1
    91          1
    99          1
   101          1
   102          1
   103          5
   109          2
   115          1
   119          1
   125          1
   127          6
   133          1
   140          2
   141          1
   144          1
   145          3
   146          1
   151          5
   152          1
   153          2
   154          1
   159         11
   160          1
   164          1
   166          0
   167          1
   169          1
   170          3
   171          1
   172          2
   176          1
   177          0
   182          1
   183          1
   184          1
   188          1
   190          1
   195          1
   196          1
   197          1
   198          3
   199          1
   208          1
   210          1
   222          2
   223          1
   226          1
   241          1
   250          2
   251          1
   252          1
   253          1
   263          1
   264          1
   265          2
   266          1
   270          1
   277          1
   278          1
   279         17
   280          1
   287          1
   291          1
   292          1
   293          7
   294          1
   305          1
   310          1
   319          1
   338          1
   339          1
   408          1
   421          1
   437          1
   438         15
   439          3
   451          4
   509          2