##TITLE=Library Entry 28532
##JCAMP-DX=Revision 4.10 
##DATA TYPE=MASS SPECTRUM
##SAMPLE DESCRIPTION=Div. of Experiment Therapeutics WRAIR, WRAMC, Washingto
n DC 20307
##NAMES=HP
##CAS NAME=5,7-Dibromo-1-[[3-[dimethylamino]propyl]imino]-1,3,4,10-tetrahydr
o-3-(p-trifluoromethylphenyl)-9(2H)-acridinone
##MOLFORM=C25H24Br2F3N3O
##CAS REGISTRY NO=144155-35-1
##MP= -300
##BP= -300
##MW= 597
##$RETENTION INDEX=0
##$CONDENSED SPECTRUM=NO
##NPOINTS= 19
##XYDATA=(XY..XY) 1 
    44         15
    58        999
    59         17
    70         13
    71         52
    72        367
    84         70
    85         48
   367         28
   369         54
   526        140
   527         41
   528        258
   529         56
   530        125
   531         14
   539         14
   541         42
   543         12