##TITLE=Library Entry 56107
##JCAMP-DX=Revision 4.10 
##DATA TYPE=MASS SPECTRUM
##SAMPLE DESCRIPTION=Div. of Experiment Therapeutics WRAIR, WRAMC, Washingto
n DC 20307
##NAMES=HP
##CAS NAME=7-Chloro-3-[3,4-dichlorophenyl]-3,4-dihydro-10-hydroxy-1,9(2H,10H
)-acridinedione, 1-[O-(diethylaminoethyl)oxime]
##MOLFORM=C25H26Cl3N3O3
##CAS REGISTRY NO=144128-30-3
##MP= -300
##BP= -300
##MW= 521
##$RETENTION INDEX=0
##$CONDENSED SPECTRUM=NO
##NPOINTS= 231
##XYDATA=(XY..XY) 1 
    41         15
    42         66
    43         30
    44         54
    45          7
    47          1
    49          3
    50          3
    51          5
    52          4
    53          3
    54          6
    55          5
    56         56
    57         27
    58        192
    59          6
    60          1
    61          0
    62          1
    63          5
    64          2
    65          3
    66          1
    67          2
    68          3
    69          2
    70         18
    71         28
    72         32
    73         21
    74          3
    75         10
    76          2
    77          3
    78          3
    79          0
    80          5
    81          0
    82          0
    83          0
    84         24
    85         21
    86        999
    87         77
    88          6
    89          4
    90          1
    91          0
    92          0
    93          0
    94          1
    95          4
    96          1
    97          2
    98          5
    99         67
   100         50
   101          8
   102         15
   103          1
   106          2
   107          1
   108          0
   109          2
   110          3
   111          5
   112          2
   113          4
   114         11
   115          5
   116         11
   117          4
   118          1
   120          2
   121          1
   122          1
   123          3
   124          3
   125          3
   126          5
   127          5
   128          3
   129          1
   130          1
   131          1
   132          1
   133          1
   135          3
   136          7
   137          7
   138          5
   139          3
   140          2
   141          1
   142          2
   145          3
   146          3
   147          1
   148          3
   149          2
   150          3
   151          2
   152          2
   153          2
   154          2
   155          2
   156          1
   159         16
   160          3
   161         11
   162          3
   163          4
   164         10
   165          2
   166          3
   167          1
   168          1
   170          1
   171          1
   172          6
   173          2
   174          4
   175          1
   176          2
   177          2
   178          2
   179          2
   180          1
   181          1
   182          1
   183          1
   184          1
   185          1
   187          1
   188          2
   189          2
   190          2
   191          1
   194          1
   195          2
   196          1
   200          1
   201          1
   202          1
   203          1
   210          1
   212          0
   213          1
   214          1
   215          1
   216          3
   217          3
   218          9
   219          3
   220          2
   227          1
   228          0
   229          1
   230          1
   231          3
   232          1
   233          1
   243          1
   244          1
   245          5
   246          2
   247          2
   253          1
   280          0
   281          3
   282          1
   283          1
   289          1
   290          1
   291          1
   317          0
   318          1
   319          1
   326          1
   348          1
   350          1
   352          1
   353          2
   354          2
   355          2
   356          2
   357          1
   358          1
   360          1
   362          1
   374          1
   375          1
   376          1
   387          2
   388         16
   389         12
   390         34
   391         16
   392         24
   393          9
   394          7
   395          2
   396          1
   401          0
   402          1
   403          1
   404          1
   405          1
   406          2
   407          1
   408          2
   409          1
   418          0
   424          4
   425          2
   426         11
   427          4
   428          9
   429          2
   430          2
   431          0
   440          1
   442          1
   505          6
   506          1
   507          6
   508          1
   509          2
   521          1
   523          1