##TITLE=Library Entry 42846
##JCAMP-DX=Revision 4.10 
##DATA TYPE=MASS SPECTRUM
##SAMPLE DESCRIPTION=Chemical Concepts
##NAMES=HP
##CAS NAME=1-Penten-3-one, 4(R)-t-butyldimethylsilyloxy-
##MOLFORM=C11H22O2Si
##CAS REGISTRY NO=144193-95-3
##MP= -300
##BP= -300
##MW= 214
##$RETENTION INDEX=0
##$CONDENSED SPECTRUM=NO
##NPOINTS= 129
##XYDATA=(XY..XY) 1 
    25          1
    26          7
    27         49
    28         24
    29         45
    30          1
    31         16
    32          4
    36          0
    37          0
    38          1
    39         21
    40          5
    41         53
    42          7
    43        175
    44         16
    45        105
    46          6
    47         49
    48          2
    49          2
    50          1
    51          2
    52          1
    53          8
    54          2
    55         65
    56         10
    57         39
    58         75
    59        223
    60         23
    61         36
    62          2
    63          1
    64          1
    65          5
    66          2
    67          4
    68          1
    69          6
    70          3
    71         12
    72         12
    73        999
    74         88
    75        445
    76         31
    77         42
    78          2
    79          3
    80          0
    81          6
    82          2
    83         17
    84          3
    85        141
    86         15
    87         41
    88          3
    89          2
    91          2
    92          0
    93          2
    95          2
    96          0
    97          6
    98          2
    99         47
   100          8
   101         39
   102         16
   103        109
   104         10
   105          5
   106          0
   107          1
   109          1
   111         10
   112          3
   113         79
   114         10
   115        228
   116         25
   117         10
   118          0
   119          1
   121          0
   123          1
   124          2
   125          5
   126          1
   127         19
   128          4
   129         13
   130          4
   131          1
   133          0
   137          0
   139          4
   140          0
   141         11
   142         37
   143         18
   144          3
   145          1
   147          1
   149          0
   151          0
   153          0
   155          6
   156          3
   157        861
   158        110
   159        242
   160         32
   161          9
   162          0
   171          0
   183          0
   184          0
   185          2
   195          0
   197          0
   199         32
   200          5
   201          1
   214          1