##TITLE=Library Entry 29489
##JCAMP-DX=Revision 4.10 
##DATA TYPE=MASS SPECTRUM
##SAMPLE DESCRIPTION=Div. of Experiment Therapeutics WRAIR, WRAMC, Washingto
n DC 20307
##NAMES=HP
##CAS NAME=(1E)-7-Chloro-1-([(E)-3-(dimethylamino)propyl]imino)-3-(4-methoxy
phenyl)-1,3,4,10-tetrahydro-9(2H)-acridinone
##MOLFORM=C25H28ClN3O2
##CAS REGISTRY NO=144155-45-3
##MP= -300
##BP= -300
##MW= 437
##$RETENTION INDEX=0
##$CONDENSED SPECTRUM=NO
##NPOINTS= 81
##XYDATA=(XY..XY) 1 
    42        129
    43         39
    44         61
    45          5
    51          3
    56         45
    57          5
    58        999
    59         26
    63          3
    65         11
    70         35
    71         35
    72        160
    77         16
    78          4
    84         51
    85         17
    86         17
    89          4
    91         26
   115          5
   119         20
   121         81
   122          7
   134         20
   136          3
   164          9
   166          3
   216          3
   217          3
   218          4
   229          5
   230          4
   231          8
   232          3
   245         38
   246          3
   247         14
   257          7
   258          4
   259         20
   261          3
   292         16
   293         12
   294          3
   304         13
   305          3
   306          7
   307          3
   310         15
   320         14
   321          3
   322         13
   324          3
   334          7
   335         20
   336         30
   337         20
   338         18
   349         29
   350         12
   351         62
   352         19
   353         24
   363          7
   365         66
   366        536
   367        143
   368        184
   369         41
   378         64
   379        326
   380         97
   381        112
   382         27
   437        133
   438         39
   439         49
   440         13
   441          2