##TITLE=Library Entry 48065
##JCAMP-DX=Revision 4.10 
##DATA TYPE=MASS SPECTRUM
##SAMPLE DESCRIPTION=Div. of Experiment Therapeutics WRAIR, WRAMC, Washingto
n DC 20307
##NAMES=HP
##CAS NAME=7-Chloro-1,3,4,10-tetrahydro-10-hydroxy-1-imino-3-[3-[trifluorome
thyl]phenyl]-9(2H)-acridinone
##MOLFORM=C20H14ClF3N2O2
##CAS REGISTRY NO=144128-44-9
##MP= -300
##BP= -300
##MW= 406
##$RETENTION INDEX=0
##$CONDENSED SPECTRUM=NO
##NPOINTS= 93
##XYDATA=(XY..XY) 1 
    41        176
    42         94
    43        243
    44        207
    45        212
    46         11
    47         43
    49        354
    50         81
    51        148
    52         70
    53         57
    54         52
    55        123
    56         78
    57        137
    58         11
    59         27
    60         45
    61         10
    62          9
    63         95
    64         18
    65         68
    66         35
    67         49
    68         46
    69        121
    70         68
    71         95
    72         11
    73         52
    74         11
    75         80
    76         44
    77        283
    78        999
    79         91
    81         51
    82         33
    83         70
    84         62
    85         81
    86         15
    87         11
    89         25
    91        107
    92         18
    94          9
    95         63
    96         36
    97         63
    98         12
    99         34
   101         20
   102         23
   103         24
   104         12
   105         42
   106        290
   107        128
   108         12
   109         44
   110         32
   111         60
   113         12
   114         35
   115         20
   121         22
   122         20
   123         16
   124        164
   125         34
   126          9
   127         50
   128         11
   145         31
   146          9
   149          9
   151         30
   153          9
   154         12
   155         43
   159         30
   164          9
   231         19
   245         64
   369         10
   388         14
   389         12
   390        128
   391         26
   392         43