##TITLE=Library Entry 14449
##JCAMP-DX=Revision 4.10 
##DATA TYPE=MASS SPECTRUM
##SAMPLE DESCRIPTION=Div. of Experiment Therapeutics WRAIR, WRAMC, Washingto
n DC 20307
##NAMES=HP
##CAS NAME=4-[Acetyloxy]-7-chloro1,2,3,4,9,10-hexahydro-3,3-dimethyl-1,9-acr
idinedione
##MOLFORM=C17H16ClNO4
##CAS REGISTRY NO=144155-82-8
##MP= -300
##BP= -300
##MW= 333
##$RETENTION INDEX=0
##$CONDENSED SPECTRUM=NO
##NPOINTS= 209
##XYDATA=(XY..XY) 1 
    41        150
    42         44
    43        999
    44         27
    45         11
    47         16
    48          7
    49         71
    50         20
    51         52
    52         18
    53         45
    54          8
    55         42
    56         18
    57         13
    59          2
    60          3
    61          8
    62         15
    63         37
    64         11
    65         14
    66          8
    67          8
    68         14
    69         23
    70          7
    71          5
    72          1
    73         13
    74         14
    75         44
    76         15
    77         23
    78         12
    79          4
    80          1
    81          2
    84         45
    85          5
    86         17
    87         17
    88         15
    89         22
    90          7
    91          5
    92          2
    93          2
    94          1
    95          2
    96          1
    97          6
    98          8
    99         10
   100          7
   101          7
   102          7
   103          3
   104          3
   105          2
   106          2
   107          1
   108          1
   109          2
   110         10
   111         17
   112          7
   113         10
   114         27
   115         15
   116          8
   117          3
   118          1
   121          2
   122          7
   123         45
   124         11
   125         18
   126         10
   127          6
   128          5
   129          3
   130          3
   135          1
   136          7
   137          6
   138         15
   139         25
   140         11
   141          9
   142          2
   143          2
   144          2
   145          1
   147          1
   148          3
   149          5
   150         22
   151         11
   152         10
   153          6
   154          7
   155          2
   156          1
   160          0
   161          1
   162          3
   163          2
   164         19
   165          3
   166         11
   167         11
   168          3
   169          1
   170          1
   171          1
   172          0
   173          0
   174          1
   175          0
   176          1
   177          2
   178          9
   179         30
   180          7
   181         10
   182          2
   183          1
   187          1
   188          3
   189          1
   190          1
   191          1
   192          1
   193          2
   194          1
   195          3
   196          1
   200          0
   201          2
   202          1
   203          1
   204          4
   205          2
   206         14
   207          6
   208          6
   209          3
   210          1
   211          0
   212          1
   214          0
   216          1
   217          1
   218          4
   219          3
   220          2
   221          2
   222          1
   223          1
   224          0
   228          0
   229          1
   230         19
   231          5
   232         11
   233          2
   234          5
   235          3
   236          2
   237          1
   238          1
   244          6
   245          3
   246          8
   247         12
   248          7
   249          4
   250          1
   256          1
   257          1
   258         41
   259         10
   260         19
   261          4
   262          9
   263          1
   264          2
   272         12
   273          6
   274         14
   275          5
   276         24
   277          3
   278          6
   279          1
   289          2
   290        249
   291         29
   292         83
   293          9
   294          1
   318          6
   319          0
   320          1
   333         18
   334          1
   335          6