##TITLE=Library Entry 29496
##JCAMP-DX=Revision 4.10 
##DATA TYPE=MASS SPECTRUM
##SAMPLE DESCRIPTION=Div. of Experiment Therapeutics WRAIR, WRAMC, Washingto
n DC 20307
##NAMES=HP
##CAS NAME=7-Chloro-1-([-3-(dimethylamino)propyl]imino)-3-(4-nitrophenyl)-1,
3,4,10-tetrahydro-9(2H)-acridinone
##MOLFORM=C24H25ClN4O3
##CAS REGISTRY NO=144155-49-7
##MP= -300
##BP= -300
##MW= 452
##$RETENTION INDEX=0
##$CONDENSED SPECTRUM=NO
##NPOINTS= 40
##XYDATA=(XY..XY) 1 
    42        110
    43         40
    44         44
    45          6
    55         21
    56         33
    58        999
    59         35
    60         10
    70         29
    71          6
    72        168
    77          6
    84         32
    85         10
   245         37
   247         10
   259         21
   304          5
   305          5
   320          5
   336         15
   349         15
   364         23
   366         12
   368          8
   380         26
   381        268
   382         58
   383         92
   384         21
   394         81
   395         18
   396         30
   407          8
   435          5
   452         15
   453          4
   454          6
   455          1