##TITLE=Library Entry 71488
##JCAMP-DX=Revision 4.10 
##DATA TYPE=MASS SPECTRUM
##SAMPLE DESCRIPTION=Div. of Experiment Therapeutics WRAIR, WRAMC, Washingto
n DC 20307
##NAMES=HP
##CAS NAME=7-Chloro-1,3,4,10-tetrahydro-10-hydroxy-1-[[3-[1-piperidinyl]prop
yl]imino]-3-[4-(trifluoromethyl)phenyl]-9(2H)-acridinone
##MOLFORM=C28H29ClF3N3O2
##CAS REGISTRY NO=144128-53-0
##MP= -300
##BP= -300
##MW= 531
##$RETENTION INDEX=0
##$CONDENSED SPECTRUM=NO
##NPOINTS= 72
##XYDATA=(XY..XY) 1 
    41         72
    42         80
    43         36
    44         39
    54         15
    55         83
    56         40
    57         23
    67          4
    68         20
    69         56
    70         39
    82         21
    83         74
    84         77
    85         16
    86         20
    95          4
    96         89
    97        116
    98        999
    99         71
   110         70
   111         32
   112        264
   113         26
   123          4
   124        232
   125         92
   126         38
   127         16
   139         19
   140         15
   151          9
   159         29
   164         18
   217          4
   231          4
   243          5
   245         29
   247          4
   257         22
   258          8
   259         20
   260          4
   273          4
   304          5
   372          4
   373         14
   374         27
   375         14
   376         13
   387         17
   388         19
   389         21
   390         22
   391         26
   401         17
   402         16
   403         27
   404        101
   405         30
   406         35
   407          4
   417         27
   515         31
   516          8
   517          5
   531         33
   532         11
   533         12
   534          4