##TITLE=Library Entry 29506
##JCAMP-DX=Revision 4.10 
##DATA TYPE=MASS SPECTRUM
##SAMPLE DESCRIPTION=Div. of Experiment Therapeutics WRAIR, WRAMC, Washingto
n DC 20307
##NAMES=HP
##CAS NAME=1-[[3-[Dimethylamino]propyl]imino]-1,3,4,10-tetrahydro-7-nitro-3-
[4-(trifluoromethyl)phenyl[-9(2H)-acridinone
##MOLFORM=C25H25F3N4O3
##CAS REGISTRY NO=144155-32-8
##MP= -300
##BP= -300
##MW= 486
##$RETENTION INDEX=0
##$CONDENSED SPECTRUM=NO
##NPOINTS= 43
##XYDATA=(XY..XY) 1 
    42         62
    43          8
    44         41
    56          9
    58        999
    59         33
    70         17
    72        348
    85         26
   159         23
   210          8
   224          9
   227         10
   240          7
   241         22
   243         38
   256        329
   257         48
   269         23
   270        177
   271         30
   284          8
   338         28
   339         34
   340         20
   341          8
   352          9
   354         20
   368         10
   369          8
   382         20
   385         25
   398         69
   399         25
   400         29
   414         81
   415        676
   416        162
   417         19
   428         87
   429         21
   486         38
   487         11