##TITLE=Library Entry 54135
##JCAMP-DX=Revision 4.10 
##DATA TYPE=MASS SPECTRUM
##SAMPLE DESCRIPTION=Div. of Experiment Therapeutics WRAIR, WRAMC, Washingto
n DC 20307
##NAMES=HP
##CAS NAME=7-Chloro-3-[2,4-dichlorophenyl]-1,3,4,10-tetrahydro-1-[[3-(pyrrol
idino)propyliminoacridin-9(2H)-one
##MOLFORM=C26H26Cl3N3O
##CAS REGISTRY NO=144155-58-8
##MP= -300
##BP= -300
##MW= 501
##$RETENTION INDEX=0
##$CONDENSED SPECTRUM=NO
##NPOINTS= 117
##XYDATA=(XY..XY) 1 
    42        194
    43         37
    44         23
    47          5
    54         17
    55        111
    56         39
    57         27
    67          4
    68         28
    69         33
    70         45
    71          5
    75         18
    78          4
    80          5
    81         11
    82         46
    83        351
    84        999
    85         72
    86         35
    96         95
    97         13
    98        540
    99         39
   101          5
   106          4
   109         35
   110        163
   111        123
   112         27
   123         11
   124          5
   125         25
   126         21
   127          5
   128          5
   133          4
   136         16
   137         16
   138          4
   146          5
   147         23
   152          6
   153          5
   159         59
   161         49
   163         21
   164         28
   166         12
   168          5
   172         11
   174          6
   178          5
   187         18
   195          5
   214          5
   216         24
   217         19
   218         18
   219         20
   230         16
   231         21
   232         17
   240         10
   243          8
   245         63
   246         20
   247         24
   250         11
   252          5
   257          5
   259         40
   261          9
   269          6
   271          6
   273         16
   275          5
   281          5
   303          9
   304         20
   305          4
   338         24
   339         16
   340         27
   341          5
   353          4
   355          4
   369         28
   370         15
   371         12
   389         19
   390         29
   391         41
   392         29
   393         32
   403          5
   404        128
   405         43
   406        132
   407         38
   408         46
   409          5
   417         39
   418          9
   419         39
   421          9
   426         19
   428         25
   430         19
   501         20
   502          5
   503         19
   504          5
   505          7
   506          2