##TITLE=Library Entry 28446
##JCAMP-DX=Revision 4.10 
##DATA TYPE=MASS SPECTRUM
##SAMPLE DESCRIPTION=Div. of Experiment Therapeutics WRAIR, WRAMC, Washingto
n DC 20307
##NAMES=HP
##CAS NAME=5,7-Dichloro-1-[[3-[dimethylamino]propyl]imino]-1,3,4,10-tetrahyd
ro-9(2H)-acridinone
##MOLFORM=C25H24Cl2F3N3O
##CAS REGISTRY NO=144180-25-6
##MP= -300
##BP= -300
##MW= 509
##$RETENTION INDEX=0
##$CONDENSED SPECTRUM=NO
##NPOINTS= 232
##XYDATA=(XY..XY) 1 
    41        108
    42         34
    43         57
    45          7
    46          1
    48          3
    50          5
    51          3
    52          4
    53          2
    54          4
    55         13
    56         22
    58        999
    59         41
    60          1
    63          2
    65          4
    67          2
    68          4
    69          5
    70         33
    72        408
    73         16
    75          4
    77          4
    78          1
    80          2
    82          3
    84         65
    85         34
    86         10
    87          2
    95          2
    97          2
    99          8
   100          2
   102          3
   103          6
   107          1
   109          8
   111          3
   113          3
   114          2
   115          3
   119          2
   124          2
   125          2
   126          3
   127          9
   128          2
   133          4
   137          1
   138          2
   139          3
   140          3
   141          1
   144          2
   145          5
   146          3
   147          2
   148          2
   149          3
   150          2
   151         13
   152          5
   153          6
   154          3
   157          2
   159         29
   160          6
   162          3
   163          2
   164          6
   165          3
   166          2
   167          1
   170          8
   171          3
   172         10
   173          3
   174          5
   175          3
   176          2
   177          3
   178          3
   179          2
   181          3
   182          2
   183          3
   184          2
   185          2
   186          2
   187          4
   188          5
   189          4
   190          2
   191          1
   195          2
   196          2
   197          3
   198         12
   199          3
   200         10
   201          3
   202          3
   203          2
   208          2
   209          1
   210          2
   212          2
   213          2
   214          2
   215          2
   216          4
   217          2
   218          2
   219          1
   222          2
   223          2
   224          3
   225          2
   226          1
   227          2
   228          2
   229          3
   230          2
   231          2
   236          2
   237          1
   238          3
   239          2
   240          4
   241          3
   243          2
   244          2
   245          1
   249          2
   250          7
   251          7
   252          9
   253          7
   254          5
   255          4
   256          2
   257          3
   258          2
   262          2
   263          3
   264          6
   265          7
   266          8
   267          5
   268          5
   269          2
   270          1
   275          2
   276          2
   277          4
   278          5
   279         45
   280          9
   281         28
   282          5
   283          5
   289          1
   290          1
   291          5
   292          5
   293         22
   294          6
   295         14
   296          3
   297          2
   303          2
   304          2
   305          4
   306          2
   307          3
   308          2
   309          3
   310          1
   319          2
   338          4
   339          2
   340          4
   342          2
   347          1
   372          3
   373          3
   374          2
   376          2
   382          3
   384          1
   387          1
   388          1
   396          1
   403          4
   404          2
   405          1
   406          2
   407          2
   408          6
   409          3
   410          4
   411          2
   421          7
   422          3
   423          9
   424          3
   425          6
   426          2
   427          2
   435          1
   437          8
   438         83
   439         23
   440         53
   441         12
   442          9
   443          1
   450          4
   451         19
   452          7
   453         12
   454          3
   455          2
   464          2
   509         11
   510          2
   511          8
   512          2