##TITLE=Library Entry 14236
##JCAMP-DX=Revision 4.10 
##DATA TYPE=MASS SPECTRUM
##SAMPLE DESCRIPTION=NIST Mass Spectrometry Data Center, 2010
##NAMES=HP
##CAS NAME=Pentachlorophenyl acetate
##MOLFORM=C8H3Cl5O2
##CAS REGISTRY NO=1441-02-7
##MP= -300
##BP= -300
##MW= 306
##$RETENTION INDEX=1844
##$CONDENSED SPECTRUM=NO
##NPOINTS= 162
##XYDATA=(XY..XY) 1 
    15         17
    26          1
    27          1
    29          3
    35          4
    36         12
    37          2
    38          3
    39          1
    40          3
    41          5
    42         25
    43        999
    44         30
    45          4
    47          9
    48          2
    49          3
    50          1
    52          1
    56          1
    59          2
    60         30
    61          4
    63          1
    65          7
    66          5
    67          1
    69          1
    71         18
    72          5
    73         11
    74          1
    75          1
    77          2
    78          1
    79          1
    83         10
    84          1
    85          4
    87          9
    89          3
    94          5
    95         73
    96         11
    97         25
    98          3
    99          1
   100          5
   101          6
   102          3
   103          1
   106         17
   107         15
   108         13
   109          7
   110          3
   111          2
   114          1
   115          1
   116          1
   117         20
   118         11
   119         21
   120          8
   121          7
   122          1
   123          2
   124          1
   130         78
   131         13
   132         53
   133          8
   134          9
   135          1
   141         37
   142         16
   143         37
   144         11
   145         13
   146          2
   147          2
   153          1
   155          1
   158          2
   159          1
   160          1
   165         98
   166          6
   167         93
   168          5
   169         30
   170          2
   171          3
   177          5
   178          1
   179          6
   180          2
   181          2
   182          1
   193          1
   194          1
   195          1
   196          1
   200         20
   201          8
   202         27
   203         10
   204         13
   205          5
   206          3
   207          1
   212          5
   213          1
   214          7
   215          1
   216          3
   218          1
   228         16
   229          2
   230         21
   231          2
   232         11
   233          1
   234          3
   235         33
   236          2
   237         55
   238          3
   239         34
   240          2
   241         11
   242          1
   243          2
   247          5
   248          1
   249          7
   250          2
   251          4
   252          1
   253          2
   263          5
   264        217
   265         21
   266        350
   267         26
   268        227
   269         15
   270         76
   271          5
   272         12
   273          1
   274          1
   306         29
   307          2
   308         47
   309          3
   310         29
   311          3
   312         10
   313          1
   314          1