##TITLE=Library Entry 28460
##JCAMP-DX=Revision 4.10 
##DATA TYPE=MASS SPECTRUM
##SAMPLE DESCRIPTION=Div. of Experiment Therapeutics WRAIR, WRAMC, Washingto
n DC 20307
##NAMES=HP
##CAS NAME=[7-Chloro-1,2,3,4-tetrahydro-3-[[4-trifluoromethyl]phenyl]-4-(3-(
N,N-dimethylamino)propyliminoacridine
##MOLFORM=C25H25ClF3N3
##CAS REGISTRY NO=144155-87-3
##MP= -300
##BP= -300
##MW= 459
##$RETENTION INDEX=0
##$CONDENSED SPECTRUM=NO
##NPOINTS= 232
##XYDATA=(XY..XY) 1 
    42        186
    43         47
    44        105
    45         20
    46          4
    49          1
    50          4
    51          7
    52          2
    53          1
    54          4
    55          2
    56         51
    58        999
    59         29
    60          2
    61          1
    62          1
    63          6
    64          1
    65          1
    67          1
    68          5
    69          2
    70         72
    71          3
    72        777
    73         34
    75          9
    76          2
    77          6
    78          2
    79          1
    81          1
    82          4
    84         99
    85         72
    86         13
    87          4
    88          2
    89          3
    91          1
    95          2
    97          2
    98          5
    99          8
   100          3
   101          4
   102          3
   103         10
   104          1
   107          1
   109          6
   111          1
   112          1
   113          7
   114          4
   115          4
   116          1
   119          2
   120          1
   121          1
   122          1
   123          2
   124          1
   125          4
   126          8
   127         13
   128          2
   129          1
   133          4
   135          2
   136          1
   137          1
   138          4
   139          6
   140         23
   141          4
   142          1
   145          4
   146          2
   147          1
   148          1
   149          2
   150          3
   151         14
   152          6
   153          7
   154          2
   159         21
   160          1
   161          1
   162          4
   163          2
   164          6
   165         11
   166         13
   167          4
   168          1
   169          1
   171          3
   172         12
   174          9
   175          7
   176          4
   177          7
   178          6
   179          5
   180          2
   181          1
   183          1
   186          1
   187          2
   188          3
   189          2
   190          2
   191          2
   192          4
   193          2
   194          2
   200         10
   201          9
   202         12
   203         19
   204          5
   205          6
   206          3
   207          2
   208          2
   212          2
   213          5
   214          8
   215          8
   216          9
   217          3
   218          3
   219          1
   220          1
   226          2
   227          5
   228         10
   229         48
   230         11
   231         14
   232          2
   238          1
   239          1
   240          3
   241          7
   242          6
   243         19
   244          5
   245          6
   251          2
   252          2
   253          4
   254          5
   255          4
   257          2
   266          1
   267          1
   269          1
   271          1
   275          1
   276          1
   287          1
   288          5
   289          2
   290          3
   291          1
   302          1
   303          1
   309          1
   319          1
   320          1
   321          2
   322          5
   323          2
   324          1
   332          3
   333          1
   334          1
   336          1
   337          1
   338          1
   344          2
   345          1
   346          2
   347          1
   349          1
   350          1
   351          1
   352          2
   353          2
   356          3
   357          3
   358          9
   359          4
   360          4
   361          1
   362          1
   369          1
   370          1
   371          2
   372          2
   373          6
   374          2
   375          6
   376          1
   377          1
   383          1
   384          1
   385          4
   386          8
   387         69
   388         81
   389         38
   390         26
   391          5
   399          2
   401          3
   411          1
   412          2
   413          1
   414          1
   415          1
   440          1
   458          1
   459          7
   460          2
   461          2
   462          0