##TITLE=Library Entry 28456
##JCAMP-DX=Revision 4.10 
##DATA TYPE=MASS SPECTRUM
##SAMPLE DESCRIPTION=Leung Pu, NIH, Bethesda, Maryland, U.S.
##NAMES=HP
##CAS NAME=7-Chloro-1-[[3-(dimethylamino)propyl]imino]-1,3,4,10-tetrahydro-1
0-hydroxy-3-(2-methoxyphenyl)-9(2H)-acridinone
##MOLFORM=C25H28ClN3O3
##CAS REGISTRY NO=144128-63-2
##MP= -300
##BP= -300
##MW= 453
##$RETENTION INDEX=0
##$CONDENSED SPECTRUM=NO
##NPOINTS= 230
##XYDATA=(XY..XY) 1 
    41          9
    42        138
    43         47
    44        127
    45         38
    46          7
    50          4
    51          9
    52          5
    53          5
    54          6
    55         10
    56         38
    58        999
    59         30
    60          3
    63          8
    64          2
    65         14
    66          3
    67          3
    68          8
    69          4
    70         38
    71         28
    72        193
    73         11
    75          8
    76          2
    77         20
    78          9
    79          5
    80          2
    81          3
    82          5
    84         71
    85         43
    86         60
    87          7
    89          8
    91         59
    92          6
    93          5
    94          3
    97          3
    98          3
    99         17
   100          4
   101          5
   102          7
   103          7
   104          2
   105          6
   107          6
   108          2
   109          4
   110          4
   111          4
   112          2
   113          6
   114          4
   115          8
   116          3
   117          2
   118          4
   119         12
   121         31
   122          3
   123          3
   124          4
   125          3
   126          5
   127          5
   128          6
   129          2
   131          6
   133          4
   134          4
   135          5
   136          4
   137          5
   138          4
   139          5
   140          5
   141          4
   145          2
   146          2
   147          3
   148          3
   150          2
   151          4
   152          4
   153          5
   154          5
   155          3
   161          5
   162          3
   163          3
   164          7
   165          3
   166          5
   167          3
   168          3
   174          2
   177          2
   178          2
   179          3
   180          2
   182          3
   188          3
   189          3
   190          3
   192          2
   195          2
   200          3
   202          3
   203          3
   204          3
   205          2
   211          2
   214          2
   216          7
   217          6
   218          7
   219          4
   220          3
   227          3
   228          4
   229          4
   230          6
   231          7
   232          6
   233          2
   234          2
   240          3
   241          4
   242          2
   243          5
   244          6
   245         27
   246          8
   247         10
   248          2
   255          2
   256          4
   257          9
   258          3
   259         16
   260          3
   261          5
   269          3
   270          3
   271          7
   272          2
   273          3
   280          4
   281          4
   282          2
   283          3
   284          2
   285          4
   292          3
   294          3
   304          7
   305          2
   306          5
   307          3
   308          3
   310          2
   318          3
   319          6
   320         10
   321          6
   322          7
   323          2
   324          2
   331          3
   332          4
   333          5
   334          5
   335         13
   336         32
   337         12
   338         12
   339          2
   345          4
   347          7
   348          2
   349          7
   350          4
   351         12
   352         10
   353         17
   354          6
   355          6
   361          3
   363          8
   364          5
   365         16
   366         40
   367         13
   368         14
   369          6
   370          2
   371          3
   377          7
   378         11
   379         37
   380         12
   381         13
   382          5
   386          4
   387          4
   388          4
   389          3
   391          4
   393          2
   395          2
   404          5
   417          2
   419          2
   435          2
   436          2
   437         13
   438          5
   439          5
   453         38
   454         11
   455         14
   456          4