##TITLE=Library Entry 70933
##JCAMP-DX=Revision 4.10 
##DATA TYPE=MASS SPECTRUM
##SAMPLE DESCRIPTION=A. Brossi, LC, NIDDK, NIH, Bethesda, MD 20892
##NAMES=HP
##CAS NAME=Azacycloheptane, 3-[1-pyrrolidyl]-
##MOLFORM=C10H20N2
##CAS REGISTRY NO=144243-39-0
##MP= -300
##BP= -300
##MW= 168
##$RETENTION INDEX=0
##$CONDENSED SPECTRUM=NO
##NPOINTS= 87
##XYDATA=(XY..XY) 1 
    41        410
    42        625
    43        460
    44        254
    45        924
    46         45
    47          7
    48          2
    49          2
    50          6
    51         12
    52         43
    53        380
    54        330
    55        312
    56        145
    57         50
    58         17
    60         10
    63         12
    64          2
    65         14
    66          9
    67         57
    68        180
    69        194
    70        322
    71        207
    72        168
    73         11
    74          5
    77         13
    78         15
    79         14
    80         34
    81        131
    82        157
    83        148
    84        757
    85         50
    86          4
    87          8
    88        187
    89          7
    91          4
    92          1
    93          8
    94         43
    95         28
    96        691
    97        244
    98        999
    99        303
   100         24
   101          4
   106          8
   107          4
   108        137
   109         31
   110        815
   111        145
   112         19
   113          4
   116        166
   117         24
   118          2
   120          4
   122         57
   123         10
   124        165
   125         33
   126         17
   127          4
   134          0
   136        205
   137         81
   138         61
   139         13
   140         32
   141          4
   153         31
   154          4
   166          0
   167         12
   168        222
   169         32
   170          2