##TITLE=Library Entry 87254
##JCAMP-DX=Revision 4.10 
##DATA TYPE=MASS SPECTRUM
##SAMPLE DESCRIPTION=LMC, NIDDK, NIH, Bethesda, MD 20892
##NAMES=HP
##CAS NAME=Azacycloheptane, 1-[2-[3,4-dichlorophenyl]ethyl]-3-[1-pyrrolidiny
l]-
##MOLFORM=C18H26Cl2N2
##CAS REGISTRY NO=144243-07-2
##MP= -300
##BP= -300
##MW= 340
##$RETENTION INDEX=0
##$CONDENSED SPECTRUM=NO
##NPOINTS= 200
##XYDATA=(XY..XY) 1 
    41        230
    42        240
    43         96
    44        326
    45        278
    46        150
    47          1
    48          8
    51         12
    52          6
    53         33
    54         76
    55        152
    56         78
    57         41
    58        376
    59         19
    60          5
    62          2
    63         13
    64         10
    65         10
    66          8
    67         48
    68         93
    69        108
    70        150
    71         46
    72         20
    73         11
    74          8
    75         13
    76          7
    77         26
    78          7
    79         24
    80         37
    81         46
    82         85
    83         95
    84        859
    85         56
    86          8
    88          8
    89         18
    90         14
    91         20
    93          7
    94         28
    95         34
    96        336
    97        140
    98        275
    99         37
   100          6
   101         47
   102         58
   103         36
   104          5
   105          7
   106          7
   107          2
   108        158
   109         38
   110        999
   111        215
   112        305
   113         31
   114          9
   115          5
   116          9
   118          3
   120          1
   121          3
   122         58
   123         34
   124        253
   125         41
   126         11
   127          8
   131          5
   133          2
   135          3
   136        443
   137        380
   138        200
   139         50
   140         21
   141          6
   143          1
   145          1
   147          2
   149          6
   150          7
   151          7
   152          6
   153         12
   159         44
   160          5
   161         28
   162          1
   163          7
   164          3
   165          8
   166          3
   167         33
   168         48
   169          9
   171          8
   172         19
   173         56
   174         17
   175         37
   176          5
   177          9
   179         13
   180          6
   181        411
   182         61
   183          7
   186          8
   188          3
   189          5
   190          1
   194          6
   202          2
   204          3
   207          2
   209          5
   214         13
   216         49
   217          8
   218         29
   219         11
   220          6
   223          3
   225          1
   227          1
   228          6
   229          2
   230          5
   233          2
   235          4
   237          2
   238          1
   239          1
   241          2
   242         22
   243          9
   244         16
   245          2
   246          3
   247          2
   248          1
   250          2
   251          2
   254          7
   256         39
   257          6
   258         27
   259          3
   260          3
   261          6
   262          1
   266          1
   268         10
   269          1
   270         33
   271          9
   272         20
   273          1
   276          7
   279          1
   284          3
   287          2
   289          2
   290          2
   293          2
   296          2
   299          1
   300          1
   301          1
   303          3
   306          2
   307          2
   308          6
   310          2
   313          1
   316          1
   318          2
   320          3
   325         14
   326          8
   339          5
   340        254
   341         58
   342        166
   343         34
   344         32
   345          8