##TITLE=Library Entry 87677
##JCAMP-DX=Revision 4.10 
##DATA TYPE=MASS SPECTRUM
##SAMPLE DESCRIPTION=LMC, NIDDK, NIH, Bethesda, MD 20892
##NAMES=HP
##CAS NAME=Azacyclohexane, 1-t-butyloxycarbonyl-3-[1-pyrrolidyl]-
##MOLFORM=C14H26N2O2
##CAS REGISTRY NO=144243-26-5
##MP= -300
##BP= -300
##MW= 254
##$RETENTION INDEX=0
##$CONDENSED SPECTRUM=NO
##NPOINTS= 94
##XYDATA=(XY..XY) 1 
    41         70
    42         34
    43         28
    44         10
    45         20
    46          4
    48          1
    49          1
    51          1
    53         11
    54         19
    55         42
    56         25
    57         89
    58          3
    59          5
    60          5
    65          2
    66          1
    67          8
    68         18
    69         33
    70         68
    71          8
    72          6
    76          2
    77          1
    78          1
    80          6
    81          9
    82         19
    83         24
    84         74
    85          7
    88          3
    89          3
    90          1
    92          3
    94          6
    95          6
    96         35
    97         40
    98         22
    99          8
   101          2
   106          2
   108         13
   110        999
   111         94
   112         10
   114          6
   116          5
   119          2
   121          1
   122          5
   123         41
   124         35
   125         10
   127          8
   128          6
   129          2
   135          4
   139          3
   141          4
   146          5
   149          3
   153          9
   154         15
   156          3
   161          1
   165          1
   169          1
   170          1
   171          9
   175          3
   181         60
   182          8
   185          3
   186          2
   192          2
   196          1
   197         15
   198         17
   200          2
   211          3
   218          1
   219          6
   222          1
   226          3
   227          3
   253          2
   254        163
   255         29
   256          2