##TITLE=Library Entry 71352
##JCAMP-DX=Revision 4.10 
##DATA TYPE=MASS SPECTRUM
##SAMPLE DESCRIPTION=A. Brossi, LC, NIDDK, NIH, Bethesda, MD 20892
##NAMES=HP
##CAS NAME=Azacycloheptan-2-one, 3-[1-pyrrolidyl]-
##MOLFORM=C10H18N2O
##CAS REGISTRY NO=144243-37-8
##MP= -300
##BP= -300
##MW= 182
##$RETENTION INDEX=0
##$CONDENSED SPECTRUM=NO
##NPOINTS= 43
##XYDATA=(XY..XY) 1 
    50          2
    52         46
    53        488
    54        266
    55        173
    56         12
    57          6
    60         17
    68          3
    69         68
    70        112
    71        231
    72        231
    73         14
    74          5
    77          2
    78          5
    80          7
    81        169
    82         56
    83          9
    84         18
    85          2
    87         13
    88        317
    89         12
    96          7
    97          7
    98        999
    99        491
   100         28
   101          6
   110         16
   111          5
   116        339
   117         79
   118          8
   121          5
   124          5
   131          2
   137          6
   181          6
   182          7