##TITLE=Library Entry 100204
##JCAMP-DX=Revision 4.10 
##DATA TYPE=MASS SPECTRUM
##SAMPLE DESCRIPTION=NIST Mass Spectrometry Data Center, 1994
##NAMES=HP
##CAS NAME=2-Amino-3,5-dimethylbenzoic acid
##MOLFORM=C9H11NO2
##CAS REGISTRY NO=14438-32-5
##MP= -300
##BP= -300
##MW= 165
##$RETENTION INDEX=0
##$CONDENSED SPECTRUM=NO
##NPOINTS= 81
##XYDATA=(XY..XY) 1 
    12          4
    15         12
    17          7
    18          8
    19         21
    26         19
    27         50
    28         66
    30         12
    37         15
    38         37
    39        167
    40         31
    41         76
    42         42
    43         13
    44         14
    45         70
    46         14
    49          7
    50         61
    51        140
    52        145
    53         91
    54         37
    55         10
    57          3
    59         57
    60         10
    61         14
    62         36
    63         93
    64         35
    65        203
    66         42
    67         21
    68         14
    73          8
    74         30
    75         32
    76         45
    77        167
    78         70
    79         28
    80         26
    81          6
    83          9
    86          8
    87          8
    88          5
    89         63
    90         46
    91        306
    92         84
    93         48
    94         12
   101          8
   102         32
   103         35
   104        282
   105         43
   106         22
   107          7
   116         59
   117         84
   118        710
   119        999
   120        166
   121         17
   126          3
   127         18
   132         18
   133          3
   137          4
   146        117
   147        388
   148         52
   163          7
   165        584
   166         60
   167          3