##TITLE=Library Entry 109904
##JCAMP-DX=Revision 4.10 
##DATA TYPE=MASS SPECTRUM
##SAMPLE DESCRIPTION=NIST Mass Spectrometry Data Center, 1998.
##NAMES=HP
##CAS NAME=Chlorfenprop-methyl
##MOLFORM=C10H10Cl2O2
##CAS REGISTRY NO=14437-17-3
##MP= -300
##BP= -300
##MW= 232
##$RETENTION INDEX=1572
##$CONDENSED SPECTRUM=NO
##NPOINTS= 156
##XYDATA=(XY..XY) 1 
    14          3
    15         77
    16          1
    26          7
    27         33
    28          4
    29         29
    30          8
    31          7
    35          3
    36          3
    37          8
    38         19
    39         46
    40          4
    41          5
    42          2
    43          4
    44          2
    45          5
    47          3
    48          5
    49         16
    50        136
    51        218
    52         22
    53         10
    54          4
    55         21
    56          2
    59        112
    60          6
    61         25
    62         39
    63        104
    64         16
    65         19
    66          1
    67          1
    68         16
    72          4
    73         38
    74         84
    75        247
    76         67
    77        148
    78         16
    79          6
    81          2
    83          1
    84          9
    85         29
    86         15
    87         22
    88          6
    89        152
    90         51
    91         38
    92          4
    96          1
    97          9
    98         14
    99         64
   100         14
   101        281
   102        303
   103        184
   104         16
   105          3
   107          1
   108          2
   109          4
   110          4
   111         47
   112         36
   113         18
   114         12
   115         20
   116          7
   117          9
   118          6
   119          4
   120          1
   121          2
   123          5
   125        999
   126         81
   127        323
   128         26
   129          2
   130          5
   131         40
   132          4
   133         11
   134          2
   135          4
   136         56
   137        295
   138        121
   139        109
   140         34
   141          9
   142          1
   143          4
   146          2
   147          6
   148          2
   149          1
   150          2
   151         16
   152          4
   153          8
   154          4
   155         28
   156          3
   157          9
   158          1
   159          1
   161         17
   162          5
   163          3
   164          1
   165        814
   166         87
   167        268
   168         33
   169          4
   170          3
   171          2
   172         19
   173         81
   174         19
   175         52
   176          6
   177          8
   178         13
   179          2
   180          4
   181         20
   182          6
   183          7
   184          2
   195         55
   196        663
   197        375
   198        252
   199        118
   200         13
   201          6
   202          1
   203          4
   232          8
   233          1
   234          5
   235          1
   236          1