##TITLE=Library Entry 57217
##JCAMP-DX=Revision 4.10 
##DATA TYPE=MASS SPECTRUM
##SAMPLE DESCRIPTION=NIST Mass Spectrometry Data Center, 1994
##NAMES=HP
##CAS NAME=N,N-Dimethyldecanamide
##MOLFORM=C12H25NO
##CAS REGISTRY NO=14433-76-2
##MP= -300
##BP= -300
##MW= 199
##$RETENTION INDEX=0
##$CONDENSED SPECTRUM=NO
##NPOINTS= 69
##XYDATA=(XY..XY) 1 
     4          1
    15         22
    18         20
    27         65
    28         36
    29        105
    30         16
    31          2
    39         41
    41        171
    42         88
    43        162
    44        165
    45        448
    46         97
    47          2
    51          2
    52          1
    53         13
    54          1
    55        103
    56         30
    57         53
    58         29
    59          5
    65          2
    67         11
    68          7
    69         24
    70         11
    71          2
    72        346
    73         16
    74          3
    77          1
    79          3
    80          1
    81          8
    82          2
    83         10
    84          9
    85         14
    86          1
    87        999
    88         44
    89          2
    95          6
    96          0
    97          4
    98          9
    99          0
   100        206
   101         38
   102          2
   112          2
   114         39
   115          5
   128         12
   129          4
   142         22
   143          4
   155          3
   156         16
   157          2
   170          7
   184          2
   198          4
   199         23
   200          7