##TITLE=Library Entry 20119
##JCAMP-DX=Revision 4.10 
##DATA TYPE=MASS SPECTRUM
##SAMPLE DESCRIPTION=NIST Mass Spectrometry Data Center
##NAMES=HP
##CAS NAME=9-Decenoic acid
##MOLFORM=C10H18O2
##CAS REGISTRY NO=14436-32-9
##MP= -300
##BP= -300
##MW= 170
##$RETENTION INDEX=1374
##$CONDENSED SPECTRUM=NO
##NPOINTS= 105
##XYDATA=(XY..XY) 1 
    15          2
    26          6
    27         94
    28         30
    29        107
    30          3
    31         12
    37          2
    38          8
    39        233
    40         37
    41        567
    42        118
    43        179
    44          9
    45        165
    46          5
    47          3
    50          7
    51         22
    52         13
    53        111
    54        167
    55        999
    56        195
    57         70
    58         23
    59         55
    60        309
    61         27
    62          3
    63          4
    64          1
    65         21
    66         14
    67        176
    68        353
    69        571
    70         92
    71         39
    72          6
    73        222
    74         23
    75          2
    77         13
    78          6
    79         42
    80         24
    81        138
    82        224
    83        238
    84        224
    85         36
    86         14
    87         76
    88         12
    89          2
    91          9
    92          5
    93         18
    94         18
    95         74
    96        160
    97         91
    98         57
    99         38
   100         62
   101         48
   102          9
   103          2
   105          7
   106          7
   107          4
   108         77
   109         56
   110        268
   111         85
   112          7
   113         23
   114         60
   115         12
   116          2
   119         13
   120          1
   121          1
   123        112
   124         44
   125          5
   126          1
   127         26
   128          9
   129          4
   133          2
   134         20
   135          8
   136          1
   137         14
   138          2
   141          9
   142          1
   143          1
   151          5
   152         62
   153          8
   154          1