##TITLE=Library Entry 57146
##JCAMP-DX=Revision 4.10 
##DATA TYPE=MASS SPECTRUM
##SAMPLE DESCRIPTION=D.H.WILLIAMS CHEMISTRY DEPT., UNIVERSITY OF CAMBRIDGE
##NAMES=HP
##CAS NAME=1,3-Dioxolane, 2-butyl-2-methyl-
##MOLFORM=C8H16O2
##CAS REGISTRY NO=14447-27-9
##MP= -300
##BP= -300
##MW= 144
##$RETENTION INDEX=0
##$CONDENSED SPECTRUM=NO
##NPOINTS= 27
##XYDATA=(XY..XY) 1 
    27         60
    28         40
    29         60
    39         40
    41         70
    42         20
    43        380
    44         20
    45         30
    53         22
    55         40
    57         90
    58         30
    59         30
    67         20
    71         40
    72         30
    74         20
    78         20
    85        100
    87        999
    88         60
    89         20
    99         23
   115         23
   129        230
   130         30