##TITLE=Library Entry 408
##JCAMP-DX=Revision 4.10 
##DATA TYPE=MASS SPECTRUM
##SAMPLE DESCRIPTION=Humboldt-Universitat zu Berlin, Department of Chemistry
, Analytical Group
##NAMES=HP
##CAS NAME=4-Methoxy-oxazolidin-2-one
##MOLFORM=C4H7NO3
##CAS REGISTRY NO=14441-94-2
##MP= -300
##BP= -300
##MW= 117
##$RETENTION INDEX=0
##$CONDENSED SPECTRUM=NO
##NPOINTS= 45
##XYDATA=(XY..XY) 1 
    12         13
    13         25
    14        106
    15        671
    16         38
    17         25
    18         69
    25          7
    26         45
    27        121
    28        908
    29        999
    30        291
    31        170
    32         15
    33          7
    38         14
    39         19
    40         57
    41        103
    42        590
    43        128
    44        116
    45        111
    46          3
    54          4
    55          7
    56         20
    57         21
    58         98
    59        300
    60         15
    70          4
    72          4
    73          2
    74         19
    75          2
    85         18
    86        535
    87        541
    88         31
    89          4
   116          4
   117         23
   118          9