##TITLE=Library Entry 54739
##JCAMP-DX=Revision 4.10 
##DATA TYPE=MASS SPECTRUM
##SAMPLE DESCRIPTION=Institute of Organic Chemistry, USSR, 1990
##NAMES=HP
##CAS NAME=3-Acetyl-2,4,4-trimethylcyclohexanol
##MOLFORM=C11H20O2
##CAS REGISTRY NO=144428-84-2
##MP= -300
##BP= -300
##MW= 184
##$RETENTION INDEX=0
##$CONDENSED SPECTRUM=NO
##NPOINTS= 57
##XYDATA=(XY..XY) 1 
    40         10
    41        235
    42         18
    43        688
    44         19
    45         19
    53         48
    55        182
    56         30
    57         87
    58         14
    59         18
    65         14
    67        168
    68         51
    69        156
    70         22
    71        120
    72         88
    77         14
    79         28
    81        219
    82         46
    83         70
    84         25
    85        999
    86        243
    87         12
    91         13
    93         21
    95         85
    96         21
    97        246
    98        412
    99        135
   100          7
   101          7
   105          5
   107         18
   108         69
   109        301
   110         27
   111         27
   112         93
   113         37
   114         28
   115         83
   121          5
   123        163
   124         17
   127         20
   128         32
   151         16
   166        187
   167         23
   169         14
   184         24