##TITLE=Library Entry 61960
##JCAMP-DX=Revision 4.10 
##DATA TYPE=MASS SPECTRUM
##SAMPLE DESCRIPTION=NIST Mass Spectrometry Data Center, 1990.
##NAMES=HP
##CAS NAME=Cyclohexanol, 2-phenyl-
##MOLFORM=C12H16O
##CAS REGISTRY NO=1444-64-0
##MP= -300
##BP= -300
##MW= 176
##$RETENTION INDEX=0
##$CONDENSED SPECTRUM=NO
##NPOINTS= 73
##XYDATA=(XY..XY) 1 
    27         64
    29         58
    31         29
    38         17
    39        133
    40         25
    41        108
    42         20
    43         57
    44         63
    50         53
    51        148
    52         41
    53         39
    54         11
    55         43
    57        159
    62         23
    63         78
    64         29
    65        170
    66         48
    67        136
    69         14
    70         29
    71         70
    74         22
    75         26
    76         45
    77        232
    78        198
    79        106
    80         54
    83         19
    84         25
    85         70
    89         64
    91        999
    92        365
    93         30
    98        145
    99         14
   102         52
   103        141
   104        436
   105        166
   106         14
   107         13
   115        283
   116         73
   117        359
   118         46
   119         15
   120         30
   127         42
   128        115
   129        346
   130        448
   131         74
   132         81
   133         52
   141         19
   142         17
   143        157
   144         21
   152         17
   153         19
   154         32
   157         25
   158        193
   159         21
   176        422
   177         56