##TITLE=Library Entry 58811
##JCAMP-DX=Revision 4.10 
##DATA TYPE=MASS SPECTRUM
##SAMPLE DESCRIPTION=Exported from NIST MS Search
##NAMES=HP
##CAS NAME=Acetic acid, cyano-, phenylmethyl ester
##MOLFORM=C10H9NO2
##CAS REGISTRY NO=14447-18-8
##MP= -300
##BP= -300
##MW= 175
##$RETENTION INDEX=0
##$CONDENSED SPECTRUM=NO
##NPOINTS= 42
##XYDATA=(XY..XY) 1 
    38         32
    39        150
    40        105
    41         62
    44        100
    45        624
    50         45
    51        150
    52         55
    53         45
    62         25
    63         85
    64         32
    65        230
    66         10
    67         20
    68         92
    74         25
    75         20
    76         20
    77        237
    78         50
    79        325
    80         50
    89        187
    90        999
    91        937
    92        150
   103         57
   104         25
   105         57
   106         35
   107        524
   108        599
   109         50
   119         10
   120         15
   129         57
   130        499
   131         57
   175        624
   176         87