##TITLE=Library Entry 32752
##JCAMP-DX=Revision 4.10 
##DATA TYPE=MASS SPECTRUM
##SAMPLE DESCRIPTION=NIST Mass Spectrometry Data Center
##NAMES=HP
##CAS NAME=(3E,10Z)-Oxacyclotrideca-3,10-diene-2,7-dione
##MOLFORM=C12H16O3
##CAS REGISTRY NO=144403-15-6
##MP= -300
##BP= -300
##MW= 208
##$RETENTION INDEX=1738
##$CONDENSED SPECTRUM=NO
##NPOINTS= 154
##XYDATA=(XY..XY) 1 
    26         16
    27        196
    28         92
    29        137
    30          6
    31         36
    34          2
    37          8
    38         35
    39        632
    40        125
    41        687
    42        213
    43        201
    44         15
    45         20
    46          7
    47          2
    48          2
    50         56
    51        166
    52        107
    53        468
    54        437
    55        764
    56        127
    57        133
    58         23
    60         21
    61         14
    62         14
    63         54
    64         12
    65        274
    66        266
    67        999
    68        480
    69        317
    70        110
    71        218
    72         15
    73          9
    74         17
    75         13
    76          5
    77        516
    78        179
    79        937
    80        290
    81        362
    82        317
    83        417
    84        139
    85         59
    86         16
    87         13
    89          9
    90          3
    91        490
    92        528
    93        427
    94        262
    95        382
    96        375
    97        189
    98         45
    99         78
   100         20
   101          4
   102          2
   103         41
   104        100
   105        298
   106        271
   107        540
   108        220
   109        202
   110        157
   111         70
   112         44
   113        125
   114          6
   115         30
   116         62
   117        205
   118        148
   119        207
   120        243
   121        307
   122        553
   123        215
   124        219
   125        136
   126        100
   127         24
   128         29
   129         60
   130        389
   131        388
   132         66
   133        347
   134        648
   135        760
   136        403
   137        204
   138        524
   139         66
   140         29
   141         39
   142         28
   143         11
   144         45
   145         59
   146         60
   147        143
   148        292
   149        641
   150        164
   151         37
   152         44
   153         43
   154         22
   155          4
   157          7
   159         21
   160         28
   161         49
   162        104
   163        160
   164         69
   165         34
   166         73
   167         19
   168          5
   171          7
   172         20
   173          5
   175         39
   176          4
   177         44
   178        103
   179        134
   180         36
   181          4
   189         44
   190        248
   191         56
   192          9
   193         16
   194          4
   207          6
   208        893
   209        115
   210         12