##TITLE=Library Entry 70791
##JCAMP-DX=Revision 4.10 
##DATA TYPE=MASS SPECTRUM
##SAMPLE DESCRIPTION=NIST Mass Spectrometry Data Center
##NAMES=HP
##CAS NAME=1-(2-Propenyl)piperidine
##MOLFORM=C8H15N
##CAS REGISTRY NO=14446-67-4
##MP= -300
##BP= -300
##MW= 125
##$RETENTION INDEX=931
##$CONDENSED SPECTRUM=NO
##NPOINTS= 76
##XYDATA=(XY..XY) 1 
    12          2
    14          9
    15         91
    16          1
    17          1
    18          8
    26         51
    27        255
    28        277
    29        128
    32          1
    33          1
    36          1
    37         12
    38         36
    39        467
    40         85
    41        828
    42        599
    43         88
    44         64
    45          2
    46          1
    47          2
    49          1
    50          8
    51         18
    52         16
    53         49
    54        126
    55        347
    56        113
    57         27
    58          7
    59          1
    62          1
    63          3
    64          2
    65         11
    66          7
    67         56
    68        204
    69        121
    70         99
    71          8
    77          3
    78          3
    79          8
    80         33
    81         23
    82        271
    83        151
    84        158
    85          7
    91          3
    92          2
    93          3
    94         27
    96        171
    98        999
    99         69
   100          2
   105          1
   106          3
   107          1
   108          7
   110        318
   111         27
   112          1
   120          4
   121          1
   122         16
   124        729
   125        424
   126         37
   127          1