##TITLE=Library Entry 11042
##JCAMP-DX=Revision 4.10 
##DATA TYPE=MASS SPECTRUM
##SAMPLE DESCRIPTION=Institute of Organic Chemistry, USSR, 1990
##NAMES=HP
##CAS NAME=2,2,6-Trimethyl-6-(2-oxopropyl)tetrahydropyran
##MOLFORM=C11H20O2
##CAS REGISTRY NO=144428-78-4
##MP= -300
##BP= -300
##MW= 184
##$RETENTION INDEX=0
##$CONDENSED SPECTRUM=NO
##NPOINTS= 42
##XYDATA=(XY..XY) 1 
    40         10
    41        161
    42         14
    43        999
    44         14
    53         21
    55         93
    56        131
    57         17
    58         19
    59        136
    67         38
    68         19
    69        293
    70         11
    71         68
    81         20
    82         11
    83        123
    84         14
    85         17
    93         58
    95         37
    98         57
    99          9
   101        182
   102          5
   107         18
   108         20
   109        572
   110         48
   111        134
   112          6
   113         42
   123         29
   126         19
   127        193
   128         12
   151         72
   166         32
   169        246
   170         19