##TITLE=Library Entry 18010
##JCAMP-DX=Revision 4.10 
##DATA TYPE=MASS SPECTRUM
##SAMPLE DESCRIPTION=Japan AIST/NIMC Database- Spectrum MS-NW-7583
##NAMES=HP
##CAS NAME=Diethyl phenyl orthoformate
##MOLFORM=C11H16O3
##CAS REGISTRY NO=14444-77-0
##MP= -300
##BP= -300
##MW= 196
##$RETENTION INDEX=0
##$CONDENSED SPECTRUM=NO
##NPOINTS= 95
##XYDATA=(XY..XY) 1 
    14          3
    15         12
    18          1
    19          5
    25          3
    26         21
    27        119
    28         78
    29        238
    30          7
    31         90
    32          2
    33          1
    36          1
    37         12
    38         30
    39        150
    40         60
    41         10
    42          7
    43         21
    44          9
    45         68
    46          4
    47        999
    48         12
    49          7
    50         33
    51         93
    52         12
    53         12
    54          3
    55         46
    56          5
    57          3
    59          3
    60          3
    61          9
    62         13
    63         36
    64         15
    65        174
    66        150
    67         15
    68          7
    69          3
    73          7
    74         17
    75        648
    76         35
    77        196
    78         18
    79          9
    80          1
    87          1
    89          5
    90          1
    91         18
    92          6
    93         26
    94        767
    95        517
    96         35
    97          3
   100          1
   102          4
   103        970
   104         59
   105         10
   106          1
   107          9
   108          3
   109          1
   110          1
   115          1
   119          1
   121          4
   122         20
   123        346
   124         28
   125          3
   137          1
   139          2
   141          1
   147          2
   150          1
   151        326
   152         36
   153          7
   155          9
   156          1
   167          1
   171          1
   172          2
   195          2