##TITLE=Library Entry 18514
##JCAMP-DX=Revision 4.10 
##DATA TYPE=MASS SPECTRUM
##SAMPLE DESCRIPTION=Chemical Concepts
##NAMES=HP
##CAS NAME=Benzyl propiolate
##MOLFORM=C10H8O2
##CAS REGISTRY NO=14447-01-9
##MP= -300
##BP= -300
##MW= 160
##$RETENTION INDEX=0
##$CONDENSED SPECTRUM=NO
##NPOINTS= 61
##XYDATA=(XY..XY) 1 
    25        205
    26         68
    27         89
    28         23
    29         94
    37         45
    38        107
    39        395
    40         27
    41         72
    42         10
    44          9
    45          8
    49         31
    50        341
    51        693
    52        185
    53        999
    54         95
    55         11
    61         46
    62        125
    63        296
    64         75
    65        459
    66         28
    67          9
    73         18
    74        103
    75         72
    76         75
    77        948
    78        212
    79        593
    80         43
    85         12
    86         21
    87         14
    88          8
    89        207
    90        371
    91        991
    92         91
   102         39
   103         36
   104         97
   105        188
   106         37
   107        116
   108         43
   114         47
   115        608
   116        565
   117         66
   131        148
   132         66
   133         11
   142         39
   143          8
   160         96
   161         17