##TITLE=Library Entry 2216
##JCAMP-DX=Revision 4.10 
##DATA TYPE=MASS SPECTRUM
##SAMPLE DESCRIPTION=Exported from NIST MS Search
##NAMES=HP
##CAS NAME=2-Butynedioic acid, di-2-propenyl ester
##MOLFORM=C10H10O4
##CAS REGISTRY NO=14447-07-5
##MP= -300
##BP= -300
##MW= 194
##$RETENTION INDEX=0
##$CONDENSED SPECTRUM=NO
##NPOINTS= 64
##XYDATA=(XY..XY) 1 
    25         38
    26        103
    27        346
    28        192
    29        187
    31         51
    37         51
    38         82
    39        795
    40        141
    41        999
    42        128
    43         51
    44        359
    45         26
    50         26
    51         31
    52        128
    53        462
    54         77
    55        141
    56         51
    57        333
    58         26
    64         46
    65        321
    66        231
    67         51
    68         44
    69         59
    77         46
    78         31
    79         77
    80        179
    81        538
    82        333
    83         26
    91         46
    92         67
    93        205
    94         26
    95         46
    96         26
    97        231
    98         26
    99         51
   103         18
   105         36
   107         21
   108         28
   109         77
   110        128
   111         26
   112         26
   119         26
   120         26
   121         26
   125         77
   135         15
   136         28
   137         79
   138         38
   139         26
   194         18