##TITLE=Library Entry 83649
##JCAMP-DX=Revision 4.10 
##DATA TYPE=MASS SPECTRUM
##SAMPLE DESCRIPTION=Japan AIST/NIMC Database- Spectrum MS-NW-1993
##NAMES=HP
##CAS NAME=Benzenemethanol, .alpha.-methyl-, (S)-
##MOLFORM=C8H10O
##CAS REGISTRY NO=1445-91-6
##MP= -300
##BP= -300
##MW= 122
##$RETENTION INDEX=0
##$CONDENSED SPECTRUM=NO
##NPOINTS= 77
##XYDATA=(XY..XY) 1 
    14          2
    15         19
    16          1
    17          3
    18         10
    25          1
    26          9
    27         58
    28         10
    29         22
    31          1
    32          1
    36          1
    37         10
    38         23
    39         85
    40          6
    41          7
    42          3
    43        304
    44         11
    45         39
    46          1
    49          9
    50         98
    51        262
    52         71
    53         51
    54          6
    55          3
    57          2
    58          1
    59          1
    60          6
    61          9
    62         15
    63         47
    64          8
    65         22
    66          2
    71          1
    73          7
    74         35
    75         25
    76         29
    77        503
    78        361
    79        834
    80         55
    81          2
    83          1
    85          1
    86          2
    87          4
    89         13
    90          2
    91         20
    92          2
    93          5
    94          1
    97          1
    98          3
    99          1
   101          4
   102         33
   103        226
   104        593
   105        200
   106         17
   107        999
   108         74
   109          5
   120         35
   121         56
   122        304
   123         27
   124          1