##TITLE=Library Entry 85052
##JCAMP-DX=Revision 4.10 
##DATA TYPE=MASS SPECTRUM
##SAMPLE DESCRIPTION=Japan AIST/NIMC Database- Spectrum MS-NW-9135
##NAMES=HP
##CAS NAME=Hematoporphyrin
##MOLFORM=C34H38N4O6
##CAS REGISTRY NO=14459-29-1
##MP= -300
##BP= -300
##MW= 598
##$RETENTION INDEX=0
##$CONDENSED SPECTRUM=NO
##NPOINTS= 479
##XYDATA=(XY..XY) 1 
    14         25
    15        117
    16        107
    17          7
    18         27
    25          5
    26         51
    27        163
    28        438
    29        105
    30         72
    31          7
    32         22
    34          5
    35         11
    36        193
    37          8
    38         66
    39        110
    40         38
    41        158
    42        126
    43         61
    44        184
    45          6
    46         15
    50         18
    51         46
    52         39
    53        100
    54         36
    55         35
    56         19
    57         19
    58         13
    60          8
    62          7
    63         23
    64         10
    65         76
    66         41
    67        172
    68         27
    69         10
    70          9
    71          9
    73          7
    74          6
    75          9
    76         12
    77         96
    78         46
    79         99
    80        136
    81         92
    82         19
    83         10
    84          8
    85          8
    88          8
    89         17
    90         12
    91         58
    92         45
    93        141
    94        590
    95        200
    96         24
    97          9
    98          9
   101          9
   102         18
   103         28
   104         33
   105         23
   106        118
   107        163
   108        999
   109        403
   110         45
   111         23
   112         10
   115         32
   116         27
   117         42
   118         56
   119         29
   120        136
   121        119
   122        452
   123        396
   124         48
   125         18
   127         16
   128         20
   129         17
   130         44
   131         40
   132         42
   133         29
   134         79
   135         62
   136         80
   137        122
   138         18
   140         13
   141         12
   142         14
   143         25
   144         44
   145         35
   146         38
   147         29
   148         30
   149         30
   150         16
   151         27
   152         16
   154         18
   155         17
   156         17
   157         16
   158         30
   159         28
   160         29
   161         24
   162         16
   163         17
   165         17
   166         14
   167         27
   168         26
   169         19
   170         19
   171         15
   172         19
   173         35
   174         27
   175         19
   177         14
   178         15
   179         16
   180         26
   181         30
   182         34
   183         23
   184         21
   185         16
   186         14
   187         21
   188         24
   189         18
   191         21
   192         23
   193         27
   194         36
   195         48
   196         45
   197         32
   198         23
   199         20
   200         16
   201         20
   202         29
   203         29
   204         27
   205         27
   206         34
   207         49
   208         49
   209         79
   210         74
   211         53
   212         29
   213         25
   214         19
   216         27
   217         35
   218         55
   219         49
   220         53
   221         80
   222         67
   223        130
   224        112
   225         68
   226         34
   227         24
   229         21
   230         24
   231         43
   232         60
   233         85
   234         90
   235         96
   236         82
   237        151
   238        137
   239         55
   240         32
   241         20
   243         20
   244         22
   245         44
   246         44
   247         92
   248        114
   249         86
   250         75
   251        107
   252        116
   253         41
   254         25
   255         15
   257         16
   258         17
   259         35
   260         35
   261         62
   262         85
   263         66
   264         63
   265         54
   266         74
   267         26
   268         19
   269         12
   271         14
   272         16
   273         27
   274         28
   275         31
   276         42
   277         37
   278         41
   279         23
   280         32
   281         14
   282         12
   284         11
   285         14
   286         14
   287         19
   288         20
   289         17
   290         23
   291         15
   292         20
   293         11
   294         15
   296          9
   297          9
   298         13
   299         13
   300         14
   301         14
   302         16
   303         12
   304         11
   305          9
   306         10
   308         10
   309          9
   310         10
   311         10
   312         13
   313         14
   314         14
   315         11
   316         11
   317         10
   318          9
   320          9
   321          8
   322          9
   323          9
   324         11
   325         11
   326         15
   327         14
   328         13
   329         11
   330          9
   331         11
   332          8
   334          9
   335          9
   336         12
   337         11
   338         13
   339         13
   340         15
   341         16
   342         12
   343         10
   344          9
   345         13
   347          9
   348         10
   349         11
   350         13
   351         11
   352         14
   353         16
   354         13
   355         15
   356         10
   357         10
   359         13
   360         11
   361         11
   362         14
   363         18
   364         14
   365         15
   366         13
   367         18
   368         11
   369         12
   370          9
   371          9
   373         11
   374         11
   375         14
   376         16
   377         28
   378         19
   379         21
   380         19
   381         17
   382          9
   383          9
   385          9
   386          8
   387         12
   388         12
   389         20
   390         20
   391         38
   392         28
   393         38
   394         36
   395         18
   396          8
   397          9
   399          8
   400          9
   401         12
   402         12
   403         24
   404         23
   405         46
   406         38
   407         67
   408         71
   409         25
   410          9
   411          8
   413         11
   414          9
   415         14
   416         14
   417         25
   418         25
   419         48
   420         50
   421         95
   422        126
   423         42
   424         12
   425          9
   427         13
   428         14
   429         18
   430         19
   431         23
   432         25
   433         48
   434         66
   435        103
   436        171
   437         57
   438         16
   439         11
   441         15
   442         20
   443         23
   444         30
   445         25
   446         30
   447         42
   448         76
   449         84
   450        177
   451         61
   452         19
   453         13
   454         17
   455         19
   456         25
   457         26
   458         40
   459         27
   460         32
   461         35
   462         71
   463         53
   464        132
   465         48
   466         20
   468         22
   469         20
   470         28
   471         26
   472         43
   473         25
   474         32
   475         25
   476         53
   477         26
   478         64
   479         29
   480         20
   482         26
   483         25
   484         27
   485         20
   486         36
   487         19
   488         23
   489         15
   490         28
   491         14
   492         20
   494         16
   495         17
   496         23
   497         25
   498         22
   499         18
   500         22
   501         13
   502         15
   503         11
   504         17
   506         12
   507         11
   508         14
   509         17
   510         17
   511         25
   512         16
   513         13
   514         12
   516          9
   517          9
   518         11
   519          9
   520          9
   521          9
   522          9
   523         14
   524         12
   525         17
   526         11
   527          9
   528          8
   530          7
   531          7
   532          7
   533          8
   534          6
   535          8
   536          6
   537         10
   538          7
   539          9
   540          6
   541          5