##TITLE=Library Entry 31249
##JCAMP-DX=Revision 4.10 
##DATA TYPE=MASS SPECTRUM
##SAMPLE DESCRIPTION=W.T.RAINEY OAK RIDGE NATIONAL LABORATORY,OAK RIDGE,TN.U
SA
##NAMES=HP
##CAS NAME=2,4(1H,3H)-Pyrimidinedione, 5-.beta.-D-ribofuranosyl-
##MOLFORM=C9H12N2O6
##CAS REGISTRY NO=1445-07-4
##MP= -300
##BP= -300
##MW= 244
##$RETENTION INDEX=0
##$CONDENSED SPECTRUM=NO
##NPOINTS= 34
##XYDATA=(XY..XY) 1 
    55        267
    60        971
    61        999
    67        115
    68         87
    69        123
    70         92
    71        140
    73        112
    82        501
    84        121
    87        202
    98        115
   112        112
   113         67
   114        177
   125        332
   126        160
   137        309
   138        168
   139         95
   141        436
   142        191
   165        183
   171         73
   178         59
   179         67
   207         18
   208        577
   209         67
   210         10
   226         18
   238          9
   244          3