##TITLE=Library Entry 10109
##JCAMP-DX=Revision 4.10 
##DATA TYPE=MASS SPECTRUM
##SAMPLE DESCRIPTION=Chemical Concepts
##NAMES=HP
##CAS NAME=9-Borabicyclo[3.3.2]decan-10-ol, 9-(acetyloxy)-, acetate
##MOLFORM=C13H21BO4
##CAS REGISTRY NO=144522-71-4
##MP= -300
##BP= -300
##MW= 252
##$RETENTION INDEX=0
##$CONDENSED SPECTRUM=NO
##NPOINTS= 137
##XYDATA=(XY..XY) 1 
    26          2
    27         36
    28          0
    29         32
    39         39
    40          6
    41         68
    42         20
    43        999
    44         23
    45         12
    51          4
    52          3
    53         22
    54         20
    55         34
    56          3
    57          3
    60          3
    61          2
    65          8
    66         12
    67         61
    68         17
    69         13
    70          2
    71          1
    77         11
    78          5
    79         39
    80         38
    81         65
    82         13
    83          7
    84          3
    85          3
    86         39
    87        152
    88          5
    89          9
    91         19
    92         15
    93         54
    94         23
    95         29
    96         15
    97          5
    98          4
    99          3
   100          9
   101          5
   102          5
   103          3
   104          0
   105         27
   106         26
   107         29
   108         35
   109         25
   110          8
   111          8
   112          2
   113          4
   114          2
   115          3
   117          0
   118          1
   119         32
   120         58
   121         32
   122         22
   123         30
   124         56
   125          8
   126          5
   127          6
   128          6
   129         17
   130          3
   131          7
   132          1
   133         33
   134          7
   135         10
   136          7
   137         14
   138         12
   139         10
   140          2
   141          4
   142          5
   143          1
   144          2
   145          2
   147         11
   148         49
   149         69
   150         49
   151         22
   152          3
   153          3
   154          3
   155          8
   156          2
   157          3
   162          3
   163         33
   164         78
   165         13
   166          9
   167         17
   168          6
   169          5
   170          3
   171          0
   176          2
   177          9
   180          5
   181         25
   182         29
   183          7
   184         17
   185          0
   191         12
   192         43
   193         12
   194          3
   195          9
   196          3
   197          2
   208          6
   209         24
   210         10
   211          0
   223         17
   224         69
   225          7