##TITLE=Library Entry 53713
##JCAMP-DX=Revision 4.10 
##DATA TYPE=MASS SPECTRUM
##SAMPLE DESCRIPTION=R RYHAGE MS-LAB KAROLINSKA INSTITUTET STOCKHOLM SWEDEN
##NAMES=HP
##CAS NAME=Glutamic acid, N-acetyl-, diethyl ester, L-
##MOLFORM=C11H19NO5
##CAS REGISTRY NO=1446-19-1
##MP= -300
##BP= -300
##MW= 245
##$RETENTION INDEX=0
##$CONDENSED SPECTRUM=NO
##NPOINTS= 94
##XYDATA=(XY..XY) 1 
    14         17
    15         44
    17          7
    18         47
    25         21
    26         82
    27        109
    29         30
    30        121
    39         36
    40          8
    41        121
    42         73
    43        533
    44        116
    45        101
    46         32
    52          5
    53         12
    54         33
    55         61
    56        254
    57        126
    58         14
    59         11
    60         14
    61          6
    66          5
    67         22
    68         23
    69         26
    70         26
    71         21
    72         25
    73         23
    74         33
    75          5
    81          9
    82         49
    83         34
    84        999
    85         88
    86         27
    87          7
    88          5
    95          7
    96          6
    97         45
    98         32
    99         33
   100         33
   101         12
   102         75
   103         10
   104          5
   109          6
   110          8
   111         33
   112        225
   113         23
   114         12
   115          7
   116          9
   121          5
   123         13
   126        323
   127         35
   128         36
   129         10
   130        467
   131         39
   137          5
   139          8
   149         30
   153         26
   154         59
   155          9
   156         17
   157         15
   158         75
   159         22
   167         15
   171          5
   172        452
   173         42
   174          7
   177          9
   198         99
   199         77
   200         11
   201         39
   202          8
   244         10
   245         20