##TITLE=Library Entry 83631
##JCAMP-DX=Revision 4.10 
##DATA TYPE=MASS SPECTRUM
##SAMPLE DESCRIPTION=Chemical Concepts
##NAMES=HP
##CAS NAME=Benzenemethanol, .alpha.-(1-cyclopenten-1-ylmethyl)-
##MOLFORM=C13H16O
##CAS REGISTRY NO=144629-63-0
##MP= -300
##BP= -300
##MW= 188
##$RETENTION INDEX=0
##$CONDENSED SPECTRUM=NO
##NPOINTS= 72
##XYDATA=(XY..XY) 1 
    26          4
    27         41
    28          5
    29         14
    38          5
    39         65
    40         11
    41         58
    42          5
    43          6
    50         22
    51         75
    52         26
    53         49
    54         12
    55         12
    57          2
    62          4
    63         15
    64          3
    65         23
    66         14
    67        379
    68         18
    74          6
    75          8
    76          8
    77        336
    78         50
    79        641
    80         91
    81        185
    82        606
    83         36
    84          2
    89          5
    91         30
    92          5
    93          3
   102          3
   103         10
   104          6
   105         52
   106         14
   107        999
   108         66
   109          4
   115         13
   116          2
   117          2
   120          2
   121         31
   122          3
   127          4
   128         10
   129          7
   136          9
   139          2
   141         11
   142          8
   143          2
   152          3
   153          4
   154          2
   155          6
   165          3
   167          3
   168          3
   169          4
   170          9
   171          5
   188          3