##TITLE=Library Entry 26332
##JCAMP-DX=Revision 4.10 
##DATA TYPE=MASS SPECTRUM
##SAMPLE DESCRIPTION=V.G. Zaikin, TIPS RAS, Moscow, Russia
##NAMES=HP
##CAS NAME=2,2-Dimethylpropionic acid, tetradecyl ester
##MOLFORM=C19H38O2
##CAS REGISTRY NO=144610-93-5
##MP= -300
##BP= -300
##MW= 298
##$RETENTION INDEX=0
##$CONDENSED SPECTRUM=NO
##NPOINTS= 61
##XYDATA=(XY..XY) 1 
    27         75
    28          6
    29        176
    30          6
    31          6
    36          6
    38          6
    39         83
    40         19
    41        362
    42         91
    43        281
    44         29
    45          6
    51          8
    52          8
    53         18
    54         31
    55        199
    56        155
    57        999
    58         49
    59         21
    65          6
    66          3
    67         33
    68         35
    69        117
    70         83
    71        101
    72          6
    79          9
    81         11
    82         31
    83         91
    84         45
    85        138
    86          7
    87         13
    95          6
    96         15
    97         66
    98         28
    99          6
   102          6
   103        456
   104         25
   110          6
   111         31
   112         15
   113          6
   124          4
   125         17
   126          6
   140          6
   168         11
   169          3
   196         33
   197          8
   241          3
   298          1