##TITLE=Library Entry 36697
##JCAMP-DX=Revision 4.10 
##DATA TYPE=MASS SPECTRUM
##SAMPLE DESCRIPTION=Div. of Experiment Therapeutics WRAIR, WRAMC, Washingto
n DC 20307
##NAMES=HP
##CAS NAME=1,1'-[1,5-Pentanediylbis[oxy]]bis[4-nitrobenzene]
##MOLFORM=C17H18N2O6
##CAS REGISTRY NO=14467-60-8
##MP= -300
##BP= -300
##MW= 346
##$RETENTION INDEX=0
##$CONDENSED SPECTRUM=NO
##NPOINTS= 89
##XYDATA=(XY..XY) 1 
    41        382
    42         41
    43         31
    45          3
    46          1
    50         37
    51         18
    53         47
    55         43
    56          3
    57          4
    60          1
    63         78
    64         59
    65         95
    67         73
    69        999
    70         30
    71          1
    75         87
    76         79
    78         56
    79         13
    81         38
    82          4
    83          1
    84          1
    85          2
    89          2
    92         85
    93         57
    94         20
    95          2
    96          1
   103          5
   106         59
   107         10
   109         91
   115          3
   117          4
   119         11
   120          3
   122        113
   123         85
   124          8
   125          1
   128          1
   129          1
   131         20
   133         84
   134          6
   136          8
   137          1
   139         37
   140        122
   141          6
   142          1
   145          3
   147          5
   149         10
   150          1
   152        258
   153         16
   154          2
   159          1
   160          3
   162         76
   163          6
   165         13
   166         11
   167          1
   168          1
   173          5
   178          7
   179          1
   191         12
   192          1
   206          1
   208        446
   209         46
   210          4
   314          1
   316          4
   328          1
   330          8
   331          1
   346        302
   347         59
   348          5