##TITLE=Library Entry 28034
##JCAMP-DX=Revision 4.10 
##DATA TYPE=MASS SPECTRUM
##SAMPLE DESCRIPTION=R.E.Ardrey ET AL.Pharmaceutical Mass Spectra,L.,1985
##NAMES=HP
##CAS NAME=1-Propanamine, 3-dibenzo[b,e]thiepin-11(6H)-ylidene-N,N-dimethyl-
, S-oxide
##MOLFORM=C19H21NOS
##CAS REGISTRY NO=1447-71-8
##MP= -300
##BP= -300
##MW= 311
##$RETENTION INDEX=0
##$CONDENSED SPECTRUM=NO
##NPOINTS= 16
##XYDATA=(XY..XY) 1 
    26         10
    27         20
    29         20
    30         20
    31         40
    40         20
    42         30
    43         10
    44         50
    45         20
    55         10
    56         10
    57         30
    58        999
    59         30
   202         10