##TITLE=Library Entry 40530
##JCAMP-DX=Revision 4.10 
##DATA TYPE=MASS SPECTRUM
##SAMPLE DESCRIPTION=CARL DJERASSI DEPT OF CHEM STANFORD UNIV STANFORD CALIF
 94305
##NAMES=HP
##CAS NAME=5-Nonanone, oxime
##MOLFORM=C9H19NO
##CAS REGISTRY NO=14475-42-4
##MP= -300
##BP= -300
##MW= 157
##$RETENTION INDEX=0
##$CONDENSED SPECTRUM=NO
##NPOINTS= 56
##XYDATA=(XY..XY) 1 
    25         10
    26         50
    27        390
    28        120
    29        360
    30         30
    31        160
    32         60
    37         10
    38         20
    39        240
    40         40
    41        540
    42        110
    43        170
    44         10
    45         10
    46         10
    50         10
    51         20
    52         20
    53         50
    54        140
    55        170
    56         60
    57        190
    58         20
    59         10
    60         10
    65         10
    66         10
    67         30
    68         30
    69         30
    70         20
    72         10
    73        999
    74         40
    80         10
    81         10
    82         50
    83         50
    84         70
    85         10
    86         60
    87         40
    96         10
    97         10
    98         20
   100         50
   110         30
   112         20
   115         50
   128         90
   140         20
   142         10