##TITLE=Library Entry 61926
##JCAMP-DX=Revision 4.10 
##DATA TYPE=MASS SPECTRUM
##SAMPLE DESCRIPTION=TNO Volatile Compounds in Food - Chemical Concepts
##NAMES=HP
##CAS NAME=2,5-Piperazinedione, 3-benzyl-6-isopropyl-
##MOLFORM=C14H18N2O2
##CAS REGISTRY NO=14474-71-6
##MP= -300
##BP= -300
##MW= 246
##$RETENTION INDEX=0
##$CONDENSED SPECTRUM=NO
##NPOINTS= 107
##XYDATA=(XY..XY) 1 
    38          7
    39        126
    40         16
    41        162
    42         59
    43        125
    44         22
    45          0
    46          1
    50         13
    51         54
    52         14
    53         15
    54         17
    55        163
    56         69
    57        151
    58         23
    59          1
    62          1
    63         38
    64          8
    65        132
    66          5
    67          2
    68          5
    69         31
    70         27
    71          7
    72        227
    73         14
    74          3
    75          4
    76          9
    77         81
    78         33
    79          7
    80          1
    82         70
    83         17
    84         18
    85        306
    86         10
    87          3
    89         31
    90         20
    91        999
    92        171
    93         16
    97          5
    98          2
    99        196
   100          9
   102          8
   103         75
   104         37
   105         14
   106          0
   110          3
   111          6
   112         45
   113        151
   114          7
   115          2
   116          5
   117         16
   118         26
   119         15
   120        113
   121          9
   125          2
   127        563
   128         36
   129         65
   130          1
   131         40
   132         22
   133          3
   135          0
   141          0
   145          1
   146         13
   147          7
   148          1
   154          5
   155        131
   156         10
   157          2
   160         14
   162          1
   175         36
   176          2
   188          0
   202          2
   203         23
   204         77
   205          8
   206          8
   218          0
   229         12
   230          1
   231          3
   244          0
   245          0
   246        340
   247         45
   248          6