##TITLE=Library Entry 69694
##JCAMP-DX=Revision 4.10 
##DATA TYPE=MASS SPECTRUM
##SAMPLE DESCRIPTION=D.HENNEBERG, MAX-PLANCK INSTITUTE, MULHEIM, WEST GERMAN
Y
##NAMES=HP
##CAS NAME=4-Hepten-3-one, 5-methyl-
##MOLFORM=C8H14O
##CAS REGISTRY NO=1447-26-3
##MP= -300
##BP= -300
##MW= 126
##$RETENTION INDEX=1007
##$CONDENSED SPECTRUM=NO
##NPOINTS= 89
##XYDATA=(XY..XY) 1 
    23          0
    24          1
    25          3
    26         19
    27        227
    28         74
    29        517
    30         10
    31          6
    35          2
    36          1
    37         11
    38         14
    39        184
    40         31
    41        995
    42         49
    43        143
    44          5
    45          4
    46          0
    47          0
    48          1
    49          6
    50         13
    51         26
    52         12
    53         70
    54         15
    55         91
    56         18
    57        519
    58         16
    59          1
    60          0
    61          1
    62          3
    63          6
    64          2
    65         19
    66          7
    67         54
    68         10
    69        160
    70         20
    71          2
    72          0
    73          0
    74          1
    76          1
    77         23
    78          4
    79         23
    80          2
    81         11
    82          4
    83          4
    84          0
    89          0
    90          0
    91         15
    92          2
    93         10
    94          2
    95         20
    96          8
    97        999
    98         64
    99          3
   102          0
   103          0
   104          0
   105          1
   106          1
   107          3
   108          1
   109         27
   110          2
   111          6
   112          0
   120          1
   121          1
   122          4
   123          2
   124         10
   125          1
   126        165
   127         14
   128          0