##TITLE=Library Entry 12764
##JCAMP-DX=Revision 4.10 
##DATA TYPE=MASS SPECTRUM
##SAMPLE DESCRIPTION=Exported from NIST MS Search
##NAMES=HP
##CAS NAME=Myristin, 2,3-diaceto-1-
##MOLFORM=C21H38O6
##CAS REGISTRY NO=14473-55-3
##MP= -300
##BP= -300
##MW= 386
##$RETENTION INDEX=2519
##$CONDENSED SPECTRUM=NO
##NPOINTS= 101
##XYDATA=(XY..XY) 1 
    27         50
    28         20
    29        110
    31         10
    39         40
    40         10
    41        240
    42         70
    43        999
    44         30
    45         60
    53         20
    54         30
    55        240
    56         70
    57        280
    58         20
    59         10
    60         10
    61         30
    65         10
    67         50
    68         30
    69        140
    70         50
    71        160
    72         10
    73        100
    74         20
    75         10
    77         10
    79         20
    80         10
    81         50
    82         30
    83         90
    84        220
    85        100
    86         20
    87         10
    93         10
    94         10
    95         60
    96         20
    97         80
    98        320
    99         70
   100         10
   101         10
   103         20
   107         10
   108         10
   109         40
   110         10
   111         60
   112        120
   113         20
   115         90
   116         80
   117        120
   118         10
   121         10
   123         20
   124         10
   125         20
   126         30
   127         10
   129         10
   135         10
   137         10
   138         10
   139         10
   140         10
   145         10
   149         20
   153         10
   154         10
   158        250
   159        500
   160         40
   161         10
   166         10
   167         10
   168         10
   171         70
   172         10
   177         60
   178         10
   185         10
   210         30
   211        430
   212         70
   213         10
   218         20
   227         20
   242         10
   283         10
   313         20
   314         10
   326         20
   327         10