##TITLE=Library Entry 61919
##JCAMP-DX=Revision 4.10 
##DATA TYPE=MASS SPECTRUM
##SAMPLE DESCRIPTION=TNO Volatile Compounds in Food - Chemical Concepts
##NAMES=HP
##CAS NAME=2,5-Piperazinedione, 3-methyl-6-(phenylmethyl)-
##MOLFORM=C12H14N2O2
##CAS REGISTRY NO=14474-78-3
##MP= -300
##BP= -300
##MW= 218
##$RETENTION INDEX=0
##$CONDENSED SPECTRUM=NO
##NPOINTS= 74
##XYDATA=(XY..XY) 1 
    37          1
    38          8
    39         82
    40         15
    41         36
    43         52
    45         23
    46         21
    49          4
    50         15
    51         58
    52         12
    53          2
    54          2
    55         19
    56         12
    57         10
    58         26
    59          1
    60          3
    61          1
    62          4
    63         29
    64          5
    65        120
    66          5
    69          0
    70         13
    71         61
    72          8
    73          0
    74          4
    75          2
    76          2
    77         48
    78         20
    79          3
    84          0
    89         19
    90         11
    91        999
    92        141
    93          9
    97          0
    98          1
    99        217
   100          8
   102          4
   103         29
   104         21
   105          5
   111          0
   115          1
   116          1
   117          6
   118         12
   119          4
   120         33
   121          1
   126          5
   127        255
   128         22
   129          1
   130          1
   131         20
   132          6
   146          1
   147          3
   157          4
   175          6
   201          0
   216          0
   218        149
   219         20