##TITLE=Library Entry 30258
##JCAMP-DX=Revision 4.10 
##DATA TYPE=MASS SPECTRUM
##SAMPLE DESCRIPTION=D.HENNEBERG, MAX-PLANCK INSTITUTE, MULHEIM, WEST GERMAN
Y
##NAMES=HP
##CAS NAME=Cyclopropanecarboxylic acid, 2,2-dichloro-1-methyl-, methyl ester
##MOLFORM=C6H8Cl2O2
##CAS REGISTRY NO=1447-13-8
##MP= -300
##BP= -300
##MW= 182
##$RETENTION INDEX=0
##$CONDENSED SPECTRUM=NO
##NPOINTS= 151
##XYDATA=(XY..XY) 1 
    24          1
    26        145
    27        568
    28        283
    29        113
    30         34
    31         35
    32          4
    33          6
    34          1
    35         26
    36        126
    37         46
    38         68
    39        236
    40         35
    41        383
    42         30
    43        180
    44         28
    45         44
    46          1
    47         56
    48         21
    49         86
    50        142
    51        686
    52        104
    53        388
    54         72
    55        229
    56         40
    57         16
    58          6
    59        999
    60         46
    61        190
    62         45
    63        130
    64         14
    65         30
    66          4
    67         37
    68         10
    69        766
    70         39
    71          7
    72         14
    73         53
    74          6
    75         91
    76          7
    77         28
    78          4
    79         19
    80          6
    81         31
    82         32
    83        169
    84         28
    85        132
    86         20
    87        998
    88        120
    89        329
    90         43
    91         14
    92          8
    93          4
    94          3
    95          9
    96         85
    97         24
    98         54
    99         17
   100         17
   101          8
   102         10
   103        279
   104         18
   105         92
   106          5
   107         12
   108          2
   109         21
   110          2
   111         31
   112          8
   113         32
   114          1
   115         28
   116         10
   117         33
   118         29
   119        532
   120         40
   121        183
   122         76
   123        780
   124         74
   125        495
   126         69
   127         83
   128         28
   129          4
   130          6
   131        110
   132         12
   133         38
   134          2
   135          1
   137          3
   138          0
   139         35
   140          2
   141         22
   142          4
   143          5
   144          1
   145          2
   146         66
   147        404
   148         51
   149        132
   150        123
   151        406
   152         96
   153        252
   154         28
   155         43
   156          5
   157          0
   164          0
   166          1
   167         29
   168          2
   169         21
   170          1
   171          3
   176          0
   177         23
   178          1
   179         29
   180          1
   181         15
   182        170
   183         17
   184        105
   185          9
   186         15
   187          1