##TITLE=Library Entry 25347
##JCAMP-DX=Revision 4.10 
##DATA TYPE=MASS SPECTRUM
##SAMPLE DESCRIPTION=Japan AIST/NIMC Database- Spectrum MS-IW-2921
##NAMES=HP
##CAS NAME=4-Undecanone
##MOLFORM=C11H22O
##CAS REGISTRY NO=14476-37-0
##MP= -300
##BP= -300
##MW= 170
##$RETENTION INDEX=1208
##$CONDENSED SPECTRUM=NO
##NPOINTS= 86
##XYDATA=(XY..XY) 1 
    15          6
    26          7
    27        162
    28         26
    29        146
    30          3
    31          5
    38          3
    39         90
    40         17
    41        361
    42         87
    43        866
    44         31
    45         11
    50          2
    51          5
    52          2
    53         21
    54          9
    55        157
    56         26
    57        999
    58        810
    59         40
    60          6
    63          1
    65          5
    66          2
    67         48
    68          9
    69         26
    70         30
    71        925
    72         49
    73          6
    77          4
    78          1
    79          5
    80          2
    81         15
    82         30
    83         25
    84         15
    85         11
    86        697
    87        172
    88          9
    91          3
    93          2
    94          1
    95          8
    96          5
    97          5
    98          9
    99        207
   100         19
   101          2
   105          1
   107          2
   108          1
   109         75
   110          9
   111          2
   113         24
   114         12
   115          1
   121          2
   122          1
   123          2
   124          2
   125          2
   126          3
   127        712
   128         89
   129          7
   135          2
   141          9
   142          5
   152          3
   155          7
   156          1
   169          1
   170        115
   171         16
   172          1