##TITLE=Library Entry 42370
##JCAMP-DX=Revision 4.10 
##DATA TYPE=MASS SPECTRUM
##SAMPLE DESCRIPTION=L. Cohen, LC, NIDDK, NIH, Bethesda, MD 20892
##NAMES=HP
##CAS NAME=Uridine, 5-heptafluoropropyl-
##MOLFORM=C12H11F7N2O6
##CAS REGISTRY NO=144862-38-4
##MP= -300
##BP= -300
##MW= 412
##$RETENTION INDEX=0
##$CONDENSED SPECTRUM=NO
##NPOINTS= 232
##XYDATA=(XY..XY) 1 
    41         85
    42         64
    43        195
    44        157
    45        276
    46        112
    47         25
    48         12
    49          8
    50          4
    51         10
    52          8
    53         61
    54         16
    55        158
    56         93
    57        657
    58        119
    59         40
    60        114
    61        114
    62          4
    63          3
    64          1
    65          2
    66          3
    67          7
    68         83
    69        147
    70         96
    71        167
    72         24
    73        999
    74        107
    75        107
    76          9
    77         19
    78         19
    79          3
    80          1
    81          7
    82          7
    83         24
    84         76
    85        117
    86        131
    87         54
    88          8
    89         17
    90         24
    91         70
    92          5
    93          4
    94          5
    95         11
    96         20
    97         68
    98         10
    99          7
   100         14
   101         24
   102         14
   103         49
   104         47
   105          6
   106         19
   107          5
   108          1
   109          3
   110          2
   111          3
   112          9
   113         18
   114         81
   115        103
   116         16
   117         22
   118         62
   119         14
   120          6
   121          6
   122          4
   123          3
   124         11
   125          7
   126          2
   127          1
   128          2
   129          4
   130          4
   131         19
   132        153
   133        798
   134         46
   135         10
   136          2
   137          3
   138          2
   139         13
   140          2
   141         11
   142          3
   143          6
   144          8
   145         11
   146          2
   147          4
   148          1
   149          3
   150          3
   155          3
   156          1
   157          4
   158          3
   159          3
   160          4
   161        103
   162          9
   163          5
   164          1
   166          1
   168          1
   169          3
   170          1
   171          4
   172          1
   173          7
   175         16
   176          1
   178          1
   180          1
   181          1
   182          2
   187          8
   188          1
   189          3
   190          3
   191        109
   192          7
   193          2
   203          5
   204          5
   211          2
   216          1
   218         82
   219          7
   220          2
   221          5
   222         12
   223         50
   224          3
   230          1
   231         12
   232         18
   233          3
   236          3
   237          1
   238          7
   239          2
   242          6
   243          1
   244          7
   245          2
   246          1
   248          2
   249          3
   250         32
   251          8
   252          1
   253         11
   254          2
   259          2
   260          8
   261         76
   262         11
   263         13
   264         15
   265          3
   266         20
   267          2
   272          2
   273          8
   275          4
   276          2
   278         18
   279          3
   280         14
   281        266
   282         23
   283          2
   285          2
   290          3
   291          1
   292          4
   293          6
   294          2
   297          1
   303          6
   304          7
   305          8
   306          4
   307          3
   309         23
   310          5
   316          1
   320          6
   321          7
   322          6
   323         20
   324          2
   333          1
   334          5
   335          9
   336          1
   339         93
   340         10
   341          1
   347         17
   348          2
   351         12
   352          1
   363         15
   364          3
   365          1
   377          4
   381          3
   382          2
   394        129
   395         18
   396          2
   412          3
   413          1