##TITLE=Library Entry 83717
##JCAMP-DX=Revision 4.10 
##DATA TYPE=MASS SPECTRUM
##SAMPLE DESCRIPTION=Chemical Concepts
##NAMES=HP
##CAS NAME=3-Diazo-1,7,7-trimethylbicyclo[2.2.1]heptan-2-one
##MOLFORM=C10H14N2O
##CAS REGISTRY NO=14487-70-8
##MP= -300
##BP= -300
##MW= 178
##$RETENTION INDEX=0
##$CONDENSED SPECTRUM=NO
##NPOINTS= 80
##XYDATA=(XY..XY) 1 
    26         14
    28        157
    29        462
    30         86
    34         19
    38          4
    39          4
    41         21
    42        321
    43         47
    44        462
    45         25
    46         64
    47         11
    48          5
    49          4
    52         28
    53        108
    54         43
    55        137
    56         22
    57        123
    58         41
    59         41
    60          4
    61          7
    63          8
    64         39
    65        121
    66        110
    67        113
    68         33
    69         34
    70         21
    71         16
    74          6
    75          6
    77        196
    78         37
    79        462
    80        462
    81        102
    82         34
    83         26
    84          4
    85          6
    89          8
    90          5
    91        591
    92         81
    93        142
    94         59
    95         52
    96         13
    97          7
   103         16
   104          7
   105        150
   106         26
   107        999
   108        156
   109         64
   110          7
   115          6
   117         23
   119         10
   120          7
   121         72
   122         94
   123         13
   131          7
   132          4
   133          8
   134          5
   135        462
   136         37
   149         14
   150        296
   151         24
   178          4