##TITLE=Library Entry 84520
##JCAMP-DX=Revision 4.10 
##DATA TYPE=MASS SPECTRUM
##SAMPLE DESCRIPTION=A.A.Kutin, Moscow, Russia
##NAMES=HP
##CAS NAME=Malonic acid, mononitrile, monothioamide, 2-(4-methoxyphenylhydra
zono)-
##MOLFORM=C10H10N4OS
##CAS REGISTRY NO=144870-66-6
##MP= -300
##BP= -300
##MW= 234
##$RETENTION INDEX=0
##$CONDENSED SPECTRUM=NO
##NPOINTS= 173
##XYDATA=(XY..XY) 1 
    33         21
    34         17
    35          2
    36          1
    37         13
    38         72
    39        103
    40        224
    41        143
    42         13
    43         14
    44         48
    45         58
    46          9
    47          4
    48          3
    49          6
    50         78
    51        129
    52        294
    53        213
    54         34
    55         37
    56          5
    57          6
    58          7
    59         40
    60        407
    61         30
    62         60
    63        180
    64        270
    65        109
    66         51
    67         55
    68         12
    69          8
    70         27
    71         19
    72         51
    73          8
    74         21
    75         17
    76         51
    77        596
    78        125
    79        108
    80        160
    81         36
    82         22
    83          7
    84          5
    85          3
    86          6
    87          7
    88          2
    89          5
    90         19
    91         42
    92        341
    93         38
    95        166
    96         15
    97          5
    98          6
    99          5
   100          2
   101          0
   102          2
   103          4
   104          7
   105         10
   106         70
   107        999
   108        139
   109         12
   110          1
   111          1
   112          3
   113          2
   114          1
   115          1
   117         28
   119          9
   120         16
   121        112
   122        413
   123         47
   124          5
   125         10
   126          2
   127          4
   128          0
   129          3
   130          5
   131          2
   132          4
   133         12
   134          8
   135        224
   136         19
   137          3
   138          2
   139          9
   140         98
   141          9
   142          6
   143          1
   144          0
   145          0
   146          5
   147         16
   148         11
   149          6
   150          3
   151          2
   153         37
   154         37
   155          5
   156          2
   157          2
   158         16
   159         16
   160          2
   161          0
   163          1
   164          3
   165          4
   166          0
   167          0
   170          0
   171          1
   172          1
   173         13
   174         15
   175          3
   176          1
   179          1
   180          1
   181          2
   184          0
   185          6
   186         26
   187          4
   188          0
   189         13
   190          2
   191          5
   192          0
   193          0
   199          0
   200         13
   201         14
   202          4
   203          5
   204          1
   205          3
   206          3
   207          0
   208          0
   217          5
   218          4
   219          8
   220          1
   221          0
   231          0
   232          5
   233         51
   234        700
   235         92
   236         35
   237          4
   238          0