##TITLE=Library Entry 76467
##JCAMP-DX=Revision 4.10 
##DATA TYPE=MASS SPECTRUM
##SAMPLE DESCRIPTION=V.G.Zaikin, TIPS RAS, Moscow, Russia
##NAMES=HP
##CAS NAME=Ethoxydi(tert-butyl)silane
##MOLFORM=C10H24OSi
##CAS REGISTRY NO=144890-04-0
##MP= -300
##BP= -300
##MW= 188
##$RETENTION INDEX=0
##$CONDENSED SPECTRUM=NO
##NPOINTS= 89
##XYDATA=(XY..XY) 1 
    26         31
    27        194
    28         12
    29        318
    30          6
    31         18
    36         16
    37         12
    38         28
    39        199
    40         41
    41        405
    42         49
    43        145
    44         48
    45        512
    46         49
    47        115
    48          7
    49          9
    50         15
    51         25
    52         21
    53         29
    54          9
    55         51
    56        165
    57        374
    58         66
    59        225
    60         45
    61        498
    62         39
    63         31
    65          9
    66          3
    67         19
    68          9
    69         15
    70          4
    71         28
    72          6
    73        332
    74         56
    75        557
    76         45
    77         35
    78          9
    79         41
    80          4
    81         31
    82          4
    83          9
    84          4
    85         38
    86         15
    87         38
    88          9
    89        411
    90         38
    91         17
    93         21
    94          2
    95         15
    97          7
    99          4
   101         11
   102         33
   103        999
   104        125
   105         48
   113          3
   115          3
   117          3
   120          3
   121          8
   122          4
   123          9
   129          4
   130         65
   131        325
   132         48
   133         16
   160         15
   161          2
   187          1
   188         35
   189          5
   190          2