##TITLE=Library Entry 76838
##JCAMP-DX=Revision 4.10 
##DATA TYPE=MASS SPECTRUM
##SAMPLE DESCRIPTION=Chemical Concepts
##NAMES=HP
##CAS NAME=L-Methionylglycine
##MOLFORM=C7H14N2O3S
##CAS REGISTRY NO=14486-03-4
##MP= -300
##BP= -300
##MW= 206
##$RETENTION INDEX=0
##$CONDENSED SPECTRUM=NO
##NPOINTS= 110
##XYDATA=(XY..XY) 1 
    26          3
    27         45
    28        112
    29         56
    30        208
    31         24
    35         39
    36          2
    37          2
    38          1
    39         17
    40          4
    41         41
    42         62
    43         52
    44         28
    45         40
    46         17
    47         36
    48         15
    49         12
    50          1
    51          2
    52          4
    53          4
    54         23
    55         36
    56        638
    57        164
    58         25
    59         19
    60         13
    61        878
    62         39
    63         54
    64          2
    65          1
    66          1
    67          3
    68          8
    69          7
    70          8
    71          7
    72          4
    73         11
    74         38
    75         53
    76         71
    77          6
    78          1
    82          2
    83         14
    84         14
    85         90
    86         45
    87         22
    88         45
    89          5
    90          6
    91          2
    95          2
    96          5
    97          3
    98          4
    99         37
   100          4
   101          2
   102          9
   103          5
   104        999
   105         68
   106         50
   107          3
   111          3
   112          4
   113         18
   114         69
   115          9
   116         61
   117          4
   118          3
   127         11
   128          2
   129          1
   130          1
   131        193
   132        128
   133         16
   134          2
   140          3
   141          2
   142          2
   143          1
   144          5
   145         33
   146          3
   147          1
   158         12
   159          4
   160          2
   161          2
   188         10
   189          4
   190          1
   191          1
   205          2
   206        226
   207         34
   208         15
   209          2