##TITLE=Library Entry 19512
##JCAMP-DX=Revision 4.10 
##DATA TYPE=MASS SPECTRUM
##SAMPLE DESCRIPTION=CARL DJERASSI DEPT OF CHEM STANFORD UNIV STANFORD CALIF
 94305
##NAMES=HP
##CAS NAME=Androstane-2,11-dione, (5.alpha.)-
##MOLFORM=C19H28O2
##CAS REGISTRY NO=1449-57-6
##MP= -300
##BP= -300
##MW= 288
##$RETENTION INDEX=0
##$CONDENSED SPECTRUM=NO
##NPOINTS= 114
##XYDATA=(XY..XY) 1 
    41        850
    42        150
    43        250
    44         41
    50          8
    51         50
    52         33
    53        100
    54        108
    55        999
    56         58
    57         50
    58          8
    59         16
    60          8
    63         16
    64          8
    65        133
    66         75
    67        641
    68        175
    69        250
    70         16
    71         25
    73          8
    74         16
    77        258
    78         66
    79        516
    80        141
    81        600
    82        183
    83         58
    84          8
    91        291
    92         50
    93        308
    94         91
    95        391
    96         83
    97         33
   102          8
   103         16
   104          8
   105        141
   106         50
   107        183
   108         91
   109        141
   110         58
   111         16
   115         25
   116          8
   117         33
   118         16
   119         66
   120         33
   121        100
   122         41
   123        125
   124        133
   125         41
   128          8
   129          8
   131         33
   132          8
   133         58
   134         66
   135        808
   136        108
   137         25
   145         25
   147         33
   148         33
   149         25
   151         50
   152          8
   159          8
   160          8
   161         41
   162          8
   163         41
   164         66
   165          8
   171          8
   173          8
   174         16
   175         16
   176          8
   177         41
   178          8
   185          8
   187          8
   189         50
   190          8
   191         25
   203          8
   204          8
   215         25
   216        158
   217        208
   218         33
   227         16
   231         58
   232          8
   242         33
   245         33
   260        175
   261         41
   273        241
   274         41
   275          8
   288        108
   289         16