##TITLE=Library Entry 68714
##JCAMP-DX=Revision 4.10 
##DATA TYPE=MASS SPECTRUM
##SAMPLE DESCRIPTION=NIST Mass Spectrometry Data Center
##NAMES=HP
##CAS NAME=N-(5-Methylfurfuryl)dimethylamine
##MOLFORM=C8H13NO
##CAS REGISTRY NO=14496-35-6
##MP= -300
##BP= -300
##MW= 139
##$RETENTION INDEX=0
##$CONDENSED SPECTRUM=NO
##NPOINTS= 62
##XYDATA=(XY..XY) 1 
    12          2
    15        111
    16          1
    18         13
    26         21
    27         62
    28         39
    30         40
    37          6
    38         15
    39         59
    40         27
    41        121
    42        234
    43        215
    44         37
    49          7
    50         39
    51         67
    52         47
    53         39
    54          7
    55         26
    56         12
    57         25
    58        105
    61          1
    62          2
    63          4
    65         41
    66         19
    67         56
    68          9
    69          8
    70          8
    72          2
    76          1
    77          5
    78          4
    79         10
    80         16
    81         22
    82         12
    83          3
    84          3
    91          1
    95        999
    96         79
    97          4
   106          1
   107          2
   108          5
   109          2
   110          7
   111          1
   122         11
   124         37
   125          3
   138         86
   139        245
   140         21
   141          1