##TITLE=Library Entry 109281
##JCAMP-DX=Revision 4.10 
##DATA TYPE=MASS SPECTRUM
##SAMPLE DESCRIPTION=Chuck Anderson, Aldrich Chemical Co.
##NAMES=HP
##CAS NAME=Benzene, 1-bromo-4-chloro-2-methyl-
##MOLFORM=C7H6BrCl
##CAS REGISTRY NO=14495-51-3
##MP= -300
##BP= -300
##MW= 204
##$RETENTION INDEX=0
##$CONDENSED SPECTRUM=NO
##NPOINTS= 95
##XYDATA=(XY..XY) 1 
    25          2
    26         11
    27         15
    31          0
    35          2
    36          6
    37         52
    38         75
    39        174
    40         13
    41          2
    43         46
    44        117
    47          3
    48          3
    49         25
    50         72
    51         56
    52          6
    60         11
    61         61
    62        147
    63        275
    64         39
    65         13
    71          0
    72          6
    73         67
    74         49
    75         49
    76          3
    79          5
    80          2
    81          6
    82          2
    83          4
    84         75
    85         95
    86         67
    87         59
    88         22
    89        752
    90        185
    91         12
    93          1
    95          1
    96          3
    97         24
    98          3
    99        101
   100          5
   101         31
   102         15
   103         18
   104          5
   105          0
   106          1
   107          0
   108          1
   109          2
   110          4
   116          1
   117         11
   118          2
   119         11
   121          0
   122          0
   123         33
   124        106
   125        999
   126        101
   127        314
   128         25
   129          3
   130          2
   131          1
   143          8
   145          2
   151          1
   153          2
   167          0
   168          0
   169        210
   170         12
   171        196
   172         12
   177          1
   179          2
   203         19
   204        485
   205         54
   206        617
   207         48
   208        157
   209          9