##TITLE=Library Entry 68882
##JCAMP-DX=Revision 4.10 
##DATA TYPE=MASS SPECTRUM
##SAMPLE DESCRIPTION=Japan AIST/NIMC Database- Spectrum MS-IW-2886
##NAMES=HP
##CAS NAME=N-(1-(2-Furyl)ethyl)aniline
##MOLFORM=C12H13NO
##CAS REGISTRY NO=14497-49-5
##MP= -300
##BP= -300
##MW= 187
##$RETENTION INDEX=0
##$CONDENSED SPECTRUM=NO
##NPOINTS= 97
##XYDATA=(XY..XY) 1 
    26          1
    27          8
    28          3
    29          3
    37          2
    38          7
    39         47
    40          8
    41         63
    42          8
    43          3
    44          2
    50          8
    51         39
    52          9
    53          5
    54          2
    55         13
    58          4
    61          1
    62          3
    63         11
    64          7
    65         57
    66         22
    67         85
    68          6
    69          1
    70          1
    71         10
    72          3
    73          1
    74          2
    75          2
    76          3
    77         91
    78         11
    79          4
    80          2
    81          2
    83          2
    84          1
    85         16
    86         11
    89          3
    90          3
    91         10
    92         10
    93        242
    94         45
    95        999
    96         70
    97          4
   102          1
   103          5
   104         29
   105          9
   106          2
   114          1
   115         12
   116          5
   117         10
   118         10
   119          2
   120         14
   121          1
   127          3
   128          4
   129          2
   130          8
   131          2
   132          2
   140          1
   141          2
   142          4
   143         11
   144          5
   154          3
   155          1
   156          4
   157          2
   158          5
   159         13
   160          1
   167          1
   168          1
   170          8
   171          2
   172        187
   173         23
   174          1
   184          1
   185          1
   186          8
   187        275
   188         37
   189          2