##TITLE=Library Entry 21030
##JCAMP-DX=Revision 4.10 
##DATA TYPE=MASS SPECTRUM
##SAMPLE DESCRIPTION=DR GLENN PATTERSON
##NAMES=HP
##CAS NAME=9,19-Cyclolanostan-3-ol, 24-methylene-, (3.beta.)-
##MOLFORM=C31H52O
##CAS REGISTRY NO=1449-09-8
##MP= -300
##BP= -300
##MW= 440
##$RETENTION INDEX=3108
##$CONDENSED SPECTRUM=NO
##NPOINTS= 162
##XYDATA=(XY..XY) 1 
    26         30
    27         50
    28         30
    29        100
    39         60
    41        679
    42         40
    43        529
    53        100
    55        999
    56         70
    57        180
    65         40
    67        430
    68         60
    69        649
    70         70
    71         90
    77        120
    78         30
    79        410
    80         60
    81        699
    82        100
    83        390
    84         50
    85         30
    91        400
    92         90
    93        579
    94        140
    95        969
    96        150
    97        220
   104         30
   105        460
   106        130
   107        699
   108        180
   109        599
   110         70
   111         70
   115         30
   117        120
   118         60
   119        460
   120        190
   121        559
   122        220
   123        420
   124        100
   125         80
   128         30
   129         60
   130         30
   131        180
   132        100
   133        440
   134        300
   135        499
   136        130
   137        150
   143         70
   144         30
   145        230
   146         90
   147        400
   148        210
   149        300
   150         80
   151         60
   157         70
   158         30
   159        240
   160         90
   161        330
   162        100
   163        240
   164         40
   165         30
   171         60
   172         40
   173        280
   174        100
   175        430
   176         90
   177        160
   178         30
   179         30
   185         60
   186         30
   187        210
   188         80
   189        180
   190         60
   191         60
   193         30
   199         50
   200         30
   201        210
   202        100
   203        280
   204         80
   205         60
   213         50
   215         90
   216        140
   217        130
   218         60
   219         90
   220         50
   227         70
   229         90
   230         30
   231         50
   232         40
   233         30
   241         50
   243         50
   245         70
   246         30
   247         30
   255         60
   257         70
   258         40
   259         60
   269         50
   271         40
   273         60
   283         30
   285         90
   286         30
   288         30
   295         30
   297        110
   298         30
   299         30
   300        290
   301         80
   313         40
   315         70
   323         30
   325         30
   327         30
   339         30
   341         30
   342         30
   353        110
   354         40
   379        170
   380         60
   397         30
   407        420
   408        150
   409         30
   422        330
   423        120
   424         30
   425        250
   426         90
   440        140
   441         50