##TITLE=Library Entry 6951
##JCAMP-DX=Revision 4.10 
##DATA TYPE=MASS SPECTRUM
##SAMPLE DESCRIPTION=CARL DJERASSI DEPT OF CHEM STANFORD UNIV STANFORD CALIF
 94305
##NAMES=HP
##CAS NAME=2-Pentanone, 5,5-diethoxy-
##MOLFORM=C9H18O3
##CAS REGISTRY NO=14499-41-3
##MP= -300
##BP= -300
##MW= 174
##$RETENTION INDEX=1158
##$CONDENSED SPECTRUM=NO
##NPOINTS= 36
##XYDATA=(XY..XY) 1 
    41        100
    42         70
    43        999
    44         80
    45        130
    46         10
    47        810
    53         30
    54         10
    55        350
    56         30
    57        310
    58        130
    59        100
    60         40
    61         30
    71         60
    72         40
    73         30
    75        430
    76         10
    83        400
    84         50
    85        120
    86         20
    87         10
    89         30
    99         80
   101        240
   102         20
   103        650
   104         40
   116        100
   128         20
   129        550
   130         50