##TITLE=Library Entry 15436
##JCAMP-DX=Revision 4.10 
##DATA TYPE=MASS SPECTRUM
##SAMPLE DESCRIPTION=A.A.Kutin, Moscow, Russia
##NAMES=HP
##CAS NAME=Benzaldehyde, 3,5-dichloro-2-hydroxy-, 2,2-dimethylhydrazone
##MOLFORM=C9H10Cl2N2O
##CAS REGISTRY NO=14490-83-6
##MP= -300
##BP= -300
##MW= 232
##$RETENTION INDEX=0
##$CONDENSED SPECTRUM=NO
##NPOINTS= 77
##XYDATA=(XY..XY) 1 
    33         46
    34         32
    35          2
    36         54
    37         23
    38         29
    40        456
    42        282
    44        999
    45        551
    46         22
    48         10
    50         23
    51         14
    53         27
    55         14
    57         32
    58         51
    59         14
    61         25
    62         38
    63         78
    64         29
    65         31
    69         17
    70         19
    72         16
    73         31
    74         27
    75         63
    76          5
    77          6
    83          6
    84         12
    85          6
    88         11
    90          8
    91         46
    92         35
    96          4
    97         65
    98          2
    99         50
   108         12
   109          7
   110         13
   111         20
   116         12
   124         15
   125          7
   132          2
   133         36
   134          9
   135         13
   139         22
   152          7
   153          2
   156         18
   159          3
   161          9
   162          9
   174          3
   175          2
   176          3
   182         55
   184          8
   188         29
   189         51
   190         78
   191         30
   192         39
   202          7
   229         21
   232        339
   234        264
   235         20
   236         25