##TITLE=Library Entry 7341
##JCAMP-DX=Revision 4.10 
##DATA TYPE=MASS SPECTRUM
##SAMPLE DESCRIPTION=LAC, NIDDK, NIH, Bethesda, MD 20892
##NAMES=HP
##CAS NAME=Ergosta-7,22-dien-3-ol, acetate, (3.beta.,5.alpha.)-
##MOLFORM=C30H48O2
##CAS REGISTRY NO=1449-60-1
##MP= -300
##BP= -300
##MW= 440
##$RETENTION INDEX=3269
##$CONDENSED SPECTRUM=NO
##NPOINTS= 169
##XYDATA=(XY..XY) 1 
    41        215
    43        999
    44         19
    45          0
    51          0
    53         31
    55        374
    57         86
    58          1
    61          7
    65         14
    67        152
    69        234
    70         27
    71         22
    72          0
    77         37
    79        104
    81        236
    82         40
    83         64
    85          9
    91        100
    93        122
    94         42
    95        120
    96          6
    97         19
    98          0
    99          0
   103          7
   105        127
   107        138
   108         11
   109         62
   110          2
   111          5
   113          0
   115         10
   117         43
   119         63
   120          7
   121         45
   122          7
   123         23
   125         41
   126          1
   128          8
   129         16
   131         46
   133         65
   134          6
   135         39
   137         17
   141          5
   142          3
   143         24
   145         67
   147         82
   148          7
   149         14
   150          5
   151          4
   152          5
   153          0
   155          7
   157         23
   159         38
   160          2
   161         37
   162          5
   163          4
   164          6
   165          1
   167          1
   169          5
   171         12
   173         23
   174          5
   175         14
   176          2
   177          1
   183          4
   185         15
   186          1
   187         19
   188          1
   189          5
   197          7
   199         15
   200          1
   201         13
   202          1
   203          3
   211          6
   213         34
   214          5
   215         10
   216          1
   217          0
   225          4
   227         16
   228         17
   229         33
   230          5
   231          0
   239          6
   240          0
   241         15
   242          1
   243          3
   245          0
   253         12
   255         85
   256         16
   257          3
   259          1
   260          0
   261          2
   267          2
   269          0
   271          1
   273         12
   274          3
   275          1
   281          2
   282          0
   283          3
   285          2
   286          1
   287          1
   288         29
   289          5
   295          0
   299          9
   300          5
   301          1
   309          2
   312          1
   313         99
   314         28
   315         27
   316          5
   327          5
   328          3
   337          7
   338          1
   341          5
   342         20
   343          4
   355          0
   356          0
   365          7
   366          1
   369          1
   379          1
   380          4
   381          9
   382          2
   397          7
   398          2
   425         11
   426          3
   427          0
   439          2
   440         50
   441         14
   442          4
   443          0