##TITLE=Library Entry 10900
##JCAMP-DX=Revision 4.10 
##DATA TYPE=MASS SPECTRUM
##SAMPLE DESCRIPTION=NIST Mass Spectrometry Data Center
##NAMES=HP
##CAS NAME=Pregnenolone
##MOLFORM=C21H32O2
##CAS REGISTRY NO=145-13-1
##MP= -300
##BP= -300
##MW= 316
##$RETENTION INDEX=2775
##$CONDENSED SPECTRUM=NO
##NPOINTS= 260
##XYDATA=(XY..XY) 1 
    15          5
    26          2
    27         22
    28          7
    29         56
    30          2
    31          9
    37          1
    38          1
    39         42
    40         10
    41        185
    42         17
    43        999
    44         29
    45         19
    46          1
    50          2
    51         14
    52          8
    53         89
    54         13
    55        240
    56         13
    57         87
    58         11
    59          7
    61          1
    62          1
    63          5
    64          3
    65         70
    66         23
    67        247
    68         30
    69         80
    70          7
    71        128
    72          8
    73          4
    74          1
    75          2
    76          2
    77        227
    78         59
    79        418
    80         55
    81        265
    82         30
    83         58
    84         53
    85        335
    86         22
    87          5
    88          1
    89          7
    91        557
    92        117
    93        353
    94         82
    95        287
    96         39
    97         42
    98          7
    99         12
   100          2
   101          3
   102          7
   103         56
   104         39
   105        573
   106        121
   107        474
   108         97
   109        136
   110         23
   111         33
   112          4
   113          9
   115        101
   116         48
   117        214
   118         81
   119        324
   120        220
   121        215
   122         45
   123         58
   124         49
   125         72
   126          9
   127         24
   128         93
   129        148
   130         68
   131        290
   132         91
   133        305
   134         88
   135        125
   136         28
   137         56
   138         26
   139         11
   140          2
   141         60
   142         45
   143        214
   144         78
   145        434
   146        105
   147        235
   148         56
   149         67
   150         15
   151         26
   152         13
   153         17
   154         12
   155         42
   156         27
   157        133
   158         91
   159        288
   160        112
   161        271
   162         46
   163         86
   164         16
   165         20
   166          6
   167         12
   168          8
   169         51
   170         19
   171        107
   172         36
   173        129
   174         35
   175         45
   176         21
   177         43
   178         19
   179         14
   180          3
   181         14
   182          6
   183         52
   184         15
   185         71
   186         24
   187        209
   188         38
   189         45
   190         15
   191         18
   192         15
   193          6
   194          2
   195         21
   196          6
   197         34
   198         13
   199         61
   200         18
   201         27
   202          7
   203         13
   204         47
   205        117
   206         21
   207          5
   208          2
   209         33
   210          8
   211         24
   212         12
   213        146
   214         32
   215         30
   216         12
   217         14
   218          6
   219          2
   220          1
   221          1
   222          1
   223         13
   224          5
   225         27
   226          7
   227         28
   228         23
   229         28
   230         23
   231        216
   232         43
   233          6
   234          4
   235          1
   236          2
   237          7
   238          3
   239         28
   240         19
   241         45
   242         10
   243         19
   244         14
   245         10
   246         11
   247          3
   250          1
   251          4
   252          2
   253         10
   254          4
   255         77
   256         55
   257         33
   258         19
   259         15
   260          3
   261          2
   262          1
   265         55
   266         12
   267          2
   269         14
   270         12
   271          6
   272         11
   273         24
   274          6
   275          1
   279          1
   280          5
   281          3
   282          1
   283        163
   284         39
   285          5
   286          1
   287          3
   288          3
   289          1
   296          1
   297          2
   298        191
   299         45
   300          7
   301         55
   302         12
   303          1
   314          2
   315          2
   316        273
   317         66
   318          9
   319          1