##TITLE=Library Entry 33728
##JCAMP-DX=Revision 4.10 
##DATA TYPE=MASS SPECTRUM
##SAMPLE DESCRIPTION=ACCUSTANDARD Chemicals / NIST MS Data Center.
##NAMES=HP
##CAS NAME=7-Oxabicyclo[2.2.1]heptane-2,3-dicarboxylic acid
##MOLFORM=C8H10O5
##CAS REGISTRY NO=145-73-3
##MP= -300
##BP= -300
##MW= 186
##$RETENTION INDEX=1479
##$CONDENSED SPECTRUM=NO
##NPOINTS= 73
##XYDATA=(XY..XY) 1 
    12          2
    14         14
    15         24
    18          0
    24          1
    26         58
    27        169
    28         69
    29         91
    30          4
    32          4
    34          2
    37         18
    38         61
    39        297
    40         91
    41        151
    42         72
    43         24
    44         11
    45          5
    47          4
    48          1
    49          7
    50         32
    51         40
    52         27
    53        162
    54         27
    55         36
    56          3
    57          2
    60          2
    61          3
    62          7
    63         14
    64          4
    65         40
    66         54
    67        192
    68        999
    69        165
    70         39
    71         11
    72          9
    77         13
    78         10
    79         15
    80          4
    81        153
    82        112
    83         15
    84          6
    94         48
    95         80
    96         88
    97         35
    98          5
    99          5
   100        312
   101         15
   102          2
   105          1
   106          1
   111          3
   112          2
   122         25
   123          4
   124         16
   125          1
   140        132
   141          9
   150          2