##TITLE=Library Entry 107784
##JCAMP-DX=Revision 4.10 
##DATA TYPE=MASS SPECTRUM
##SAMPLE DESCRIPTION=D.HENNEBERG, MAX-PLANCK INSTITUTE, MULHEIM, WEST GERMAN
Y
##NAMES=HP
##CAS NAME=Pregn-4-en-3-one, 20-hydroxy-, (20R)-
##MOLFORM=C21H32O2
##CAS REGISTRY NO=145-15-3
##MP= -300
##BP= -300
##MW= 316
##$RETENTION INDEX=0
##$CONDENSED SPECTRUM=NO
##NPOINTS= 267
##XYDATA=(XY..XY) 1 
    26          4
    27         73
    28         19
    29        111
    30          4
    31         18
    37          0
    38          1
    39         74
    41        306
    42         20
    43        217
    44          1
    45        425
    46          9
    47          2
    48          0
    49          1
    50          3
    51         17
    52         14
    53        119
    54         17
    55        293
    56         16
    57         27
    58          4
    59          2
    61          0
    62          1
    63          5
    64          3
    65         64
    66         32
    67        250
    68         47
    69         82
    70          9
    71         55
    72          3
    73          2
    74          1
    75          4
    76          3
    77        195
    78         54
    79        351
    80         57
    81        231
    82         29
    83         40
    84          7
    85         16
    86          5
    87          2
    88          1
    89          5
    90          5
    91        335
    92         61
    93        277
    94        107
    95        268
    96         41
    97         34
    98          3
    99          8
   100          1
   101          1
   103         30
   104         24
   105        251
   106         79
   107        241
   108         79
   109        145
   110         31
   111         43
   112          4
   113         12
   114          4
   115         39
   116         20
   117         84
   118         37
   119        186
   120         81
   121        170
   122        126
   123        135
   124        999
   125        117
   126          9
   127         11
   128         30
   129         39
   130         17
   131        102
   132         63
   133        198
   134        117
   135        166
   136         70
   137        111
   138         34
   139          7
   140          2
   141         15
   142         12
   143         38
   144         18
   145         99
   146         50
   147        172
   148        112
   149        283
   150         44
   151         12
   152          4
   153          4
   154          3
   155         15
   156          8
   157         41
   158         17
   159        111
   160         39
   161         93
   162         47
   163         39
   164         10
   165         10
   166          2
   167          3
   168          4
   169         11
   170          9
   171         32
   172         31
   173         71
   174        194
   175        262
   176         51
   177         27
   178         10
   179         16
   180          4
   181          4
   182          3
   183         13
   184          6
   185         32
   186         18
   187        102
   188         36
   189         31
   190         13
   191         13
   192        144
   193         64
   194         12
   195          6
   196          4
   197          9
   198          5
   199         25
   200         16
   201         36
   202         16
   203         12
   204          3
   205          3
   206          1
   207          5
   208          1
   209          5
   210          2
   211         16
   212         11
   213         49
   214         16
   215         40
   216         18
   217         11
   218         18
   219          3
   220          1
   221          1
   222          1
   223          3
   224          3
   225         16
   226          6
   227         34
   228         19
   229        128
   230        165
   231        157
   232         49
   233          8
   234          3
   235          1
   236          1
   237          4
   238          3
   239          9
   240          4
   241         52
   242         18
   243         32
   244         10
   245          7
   246          6
   247          1
   249          1
   250          1
   251         10
   252          3
   253         12
   254          9
   255         12
   256         89
   257         35
   258          7
   259         15
   260          5
   261          1
   263          1
   265          6
   266          2
   267          2
   268          2
   269         92
   270         22
   271         13
   272         43
   273         13
   274        189
   275         35
   276          4
   277          0
   278          0
   280         11
   281         15
   283         44
   284          7
   285          2
   286          2
   287          2
   288          7
   289          1
   290          0
   295          1
   296          5
   297          5
   298        105
   299         27
   300          4
   301         40
   302          8
   303          0
   314          6
   315          3
   316        409
   317         92
   318         10
   319          1