##TITLE=Library Entry 14647
##JCAMP-DX=Revision 4.10 
##DATA TYPE=MASS SPECTRUM
##SAMPLE DESCRIPTION=NIST Mass Spectrometry Data Center, 1998.
##NAMES=HP
##CAS NAME=Oxymesterone
##MOLFORM=C20H30O3
##CAS REGISTRY NO=145-12-0
##MP= -300
##BP= -300
##MW= 318
##$RETENTION INDEX=2735
##$CONDENSED SPECTRUM=NO
##NPOINTS= 269
##XYDATA=(XY..XY) 1 
    15          4
    19          1
    26          2
    27         47
    28          8
    29        107
    30          3
    31         16
    38          2
    39        102
    40         28
    41        430
    42         38
    43        999
    44         30
    45         41
    46          2
    50          4
    51         30
    52         19
    53        227
    54         51
    55        550
    56         43
    57        160
    58         85
    59         35
    60          2
    61          2
    62          1
    63          9
    64          7
    65        137
    66         52
    67        523
    68         90
    69        170
    70         17
    71        264
    72         28
    73          6
    74          2
    75          4
    76          1
    77        308
    78         68
    79        521
    80         83
    81        415
    82         91
    83         86
    84         21
    85         41
    86          8
    87          3
    88          3
    89          9
    90          5
    91        529
    92         99
    93        441
    94        107
    95        432
    96         63
    97         79
    98         30
    99         28
   100          5
   101          4
   102         10
   103         54
   104         38
   105        420
   106         92
   107        430
   108        206
   109        369
   110        218
   111        119
   112         81
   113        215
   114         17
   115         83
   116         39
   117        108
   118         37
   119        328
   120        160
   121        595
   122        146
   123        279
   124        100
   125        159
   126         89
   127        109
   128         69
   129         69
   130         32
   131        132
   132         60
   133        199
   134         90
   135        157
   136         74
   137        247
   138        330
   139        159
   140        715
   141        102
   142         28
   143         60
   144         31
   145        172
   146         53
   147        220
   148        333
   149        199
   150         71
   151        140
   152         95
   153        108
   154         37
   155         28
   156         13
   157         53
   158         43
   159        129
   160        142
   161        803
   162        212
   163        220
   164         75
   165         60
   166         25
   167         18
   168          8
   169         24
   170         11
   171         39
   172         39
   173        104
   174         60
   175         82
   176         37
   177         71
   178         32
   179         81
   180         17
   181         20
   182          5
   183         32
   184         13
   185         42
   186         18
   187         86
   188         66
   189         78
   190         32
   191         34
   192         47
   193         18
   194          8
   195          9
   196          5
   197         33
   198         20
   199         60
   200         26
   201         65
   202         28
   203         33
   204         16
   205         72
   206         31
   207         18
   208          7
   209         17
   210          4
   211         33
   212         19
   213         36
   214         27
   215         62
   216         24
   217         28
   218         19
   219         20
   220         32
   221          9
   222          2
   223          8
   224          8
   225         44
   226         25
   227         48
   228         15
   229         52
   230         29
   231         20
   232         18
   233         63
   234         15
   235          3
   236          2
   237          2
   238          5
   239         74
   240         38
   241         19
   242         51
   243         74
   244         40
   245         50
   246         14
   247         13
   248         41
   249         27
   250          5
   251          2
   252          2
   253         15
   254         30
   255         10
   256          4
   257         41
   258         36
   259          9
   260         51
   261         36
   262          6
   263          2
   264          3
   265          3
   266          2
   267         82
   268         17
   269          4
   270          2
   271         19
   272         32
   273          7
   274          3
   275         46
   276         60
   277         11
   278          2
   281          3
   282         50
   283         15
   284          3
   285        144
   286         30
   287          4
   289          1
   290         20
   291          4
   298          1
   299          1
   300        167
   301         37
   302          5
   303         55
   304         12
   305          1
   316          3
   318        819
   319        178
   320         24
   321          2