##TITLE=Library Entry 26399
##JCAMP-DX=Revision 4.10 
##DATA TYPE=MASS SPECTRUM
##SAMPLE DESCRIPTION=Philip Morris R&D
##NAMES=HP
##CAS NAME=trans-Carvyl propionate
##MOLFORM=C13H20O2
##CAS REGISTRY NO=145032-51-5
##MP= -300
##BP= -300
##MW= 208
##$RETENTION INDEX=1443
##$CONDENSED SPECTRUM=NO
##NPOINTS= 103
##XYDATA=(XY..XY) 1 
    36          5
    37          1
    38          8
    39         87
    40         20
    41        154
    42         11
    43         60
    44          5
    45         11
    46          1
    47          0
    50          6
    51         26
    52          9
    53         50
    54         15
    55        121
    56         16
    57        999
    58         39
    59          9
    60          0
    63          9
    64          5
    65         38
    66         14
    67         42
    68         33
    69         30
    70          0
    71          3
    72          4
    73          8
    74         13
    75          7
    76          1
    77         90
    78         29
    79        107
    80         74
    81         54
    82         31
    83         37
    84        241
    85         15
    86          3
    89         13
    90          1
    91        259
    92        148
    93        149
    94         41
    95         29
    96         52
    97         32
    98          3
   100          1
   102          0
   103         12
   104          8
   105        131
   106         56
   107         63
   108        104
   109        561
   110         51
   111          9
   112          1
   115         14
   116          3
   117         44
   118          7
   119        451
   120         43
   121          6
   122          7
   123         31
   124         10
   125          0
   128          1
   129          0
   131          2
   132          5
   133         27
   134        216
   135         32
   136          4
   137         33
   138          2
   139          8
   140         13
   141          0
   150          2
   151          8
   152        399
   153         46
   154          3
   164         18
   165         82
   166         10
   167          0
   208          4