##TITLE=Library Entry 91002
##JCAMP-DX=Revision 4.10 
##DATA TYPE=MASS SPECTRUM
##SAMPLE DESCRIPTION=NIST Mass Spectrometry Data Center, 1990.
##NAMES=HP
##CAS NAME=Chloropyrazine
##MOLFORM=C4H3ClN2
##CAS REGISTRY NO=14508-49-7
##MP= -300
##BP= -300
##MW= 114
##$RETENTION INDEX=895
##$CONDENSED SPECTRUM=NO
##NPOINTS= 51
##XYDATA=(XY..XY) 1 
    12         12
    13          5
    14          0
    18          0
    24         25
    25         83
    26        289
    27         50
    28        130
    29          3
    35         18
    36          7
    37         22
    38         64
    39         51
    40         33
    41          2
    43          5
    44          3
    47         30
    48          6
    49         15
    50         45
    51        316
    52        482
    53        102
    54          3
    57          3
    58          2
    60        307
    61         22
    62        111
    63          6
    64          5
    73          4
    74          3
    75          4
    76         11
    77         18
    78          3
    79        916
    80         49
    85         10
    86         47
    87        160
    88         20
    89         55
   114        999
   115         71
   116        312
   117         15