##TITLE=Library Entry 2637
##JCAMP-DX=Revision 4.10 
##DATA TYPE=MASS SPECTRUM
##SAMPLE DESCRIPTION=NIST Mass Spectrometry Data Center, 1994
##NAMES=HP
##CAS NAME=2,4-Decadien-1-ol
##MOLFORM=C10H18O
##CAS REGISTRY NO=14507-02-9
##MP= -300
##BP= -300
##MW= 154
##$RETENTION INDEX=1264
##$CONDENSED SPECTRUM=NO
##NPOINTS= 68
##XYDATA=(XY..XY) 1 
     4          4
    14          3
    15         33
    16          2
    19          5
    26         32
    27        428
    28        103
    29        558
    30         16
    31        168
    32         11
    37          6
    38         26
    39        439
    40         86
    41        999
    42        139
    43        251
    44         27
    45          9
    50         34
    51         89
    52         57
    53        170
    54        156
    55        599
    56        191
    57        172
    58          7
    62          7
    63         31
    64          9
    65        120
    66         86
    67        400
    68        147
    69        247
    70        286
    71         58
    77        177
    78         44
    79        315
    80        111
    81        239
    82         91
    83        533
    84        369
    85         32
    91         52
    92          7
    93         51
    94         22
    95         80
    96         29
    97         98
    98         92
    99         29
   107         17
   109          6
   110         59
   111         25
   112         11
   121          6
   136         35
   137          8
   154         64
   155          8