##TITLE=Library Entry 42348
##JCAMP-DX=Revision 4.10 
##DATA TYPE=MASS SPECTRUM
##SAMPLE DESCRIPTION=Japan AIST/NIMC Database- Spectrum MS-NW-9254
##NAMES=HP
##CAS NAME=Disilane, hexamethyl-
##MOLFORM=C6H18Si2
##CAS REGISTRY NO=1450-14-2
##MP= -300
##BP= -300
##MW= 146
##$RETENTION INDEX=692
##$CONDENSED SPECTRUM=NO
##NPOINTS= 54
##XYDATA=(XY..XY) 1 
    28          4
    29          6
    31          5
    32          1
    42          2
    43         34
    44         11
    45         83
    46          5
    47          3
    53          3
    55          5
    56          1
    57          5
    58         11
    59         25
    60          2
    61          1
    69          5
    70          2
    71          5
    72         22
    73        999
    74         87
    75         36
    76          1
    81          1
    83          2
    84          1
    85          5
    86          1
    87          2
    91          1
    92          1
    97          1
    99          6
   100          1
   101          4
   103          2
   113          2
   115         15
   116          3
   117          2
   129          8
   130          3
   131        243
   132         38
   133         18
   134          2
   145          2
   146        114
   147         19
   148          9
   149          1