##TITLE=Library Entry 19953
##JCAMP-DX=Revision 4.10 
##DATA TYPE=MASS SPECTRUM
##SAMPLE DESCRIPTION=Exported from NIST MS Search
##NAMES=HP
##CAS NAME=Orthoformic acid, tri-2-butenyl ester
##MOLFORM=C13H22O3
##CAS REGISTRY NO=14503-57-2
##MP= -300
##BP= -300
##MW= 226
##$RETENTION INDEX=0
##$CONDENSED SPECTRUM=NO
##NPOINTS= 41
##XYDATA=(XY..XY) 1 
    41        338
    42         68
    43        297
    44         95
    45         43
    47         14
    48         14
    49         32
    50         95
    51         95
    52         32
    53        270
    54        365
    55        999
    56        149
    57        649
    58         35
    59         14
    67         54
    68         27
    69         62
    70         32
    71        459
    72        243
    73         27
    77         14
    79         14
    80         14
    81         38
    82        149
    83         27
    84         14
    85         14
    93         14
    95         27
    96         27
    97         27
    98         14
   100         27
   109         14
   111         49