##TITLE=Library Entry 89400
##JCAMP-DX=Revision 4.10 
##DATA TYPE=MASS SPECTRUM
##SAMPLE DESCRIPTION=NIST Mass Spectrometry Data Center, 1994
##NAMES=HP
##CAS NAME=2-Mercaptopyrimidine
##MOLFORM=C4H4N2S
##CAS REGISTRY NO=1450-85-7
##MP= -300
##BP= -300
##MW= 112
##$RETENTION INDEX=0
##$CONDENSED SPECTRUM=NO
##NPOINTS= 60
##XYDATA=(XY..XY) 1 
    12          7
    13          7
    14          2
    15          0
    16          1
    17          3
    18          2
    24          6
    25         26
    26        127
    27         81
    28        116
    32         62
    33         49
    34          7
    35          3
    36          4
    37         17
    38         38
    39         28
    40         47
    41         14
    44         33
    45         46
    46         12
    47          4
    50         11
    51         88
    52        202
    53        190
    54         92
    55          8
    56         23
    57         83
    58        165
    59        228
    60         56
    61         14
    62          4
    66          3
    68        277
    69         16
    70         29
    71          7
    72          3
    76          5
    77         10
    79         64
    80          7
    82         12
    83         30
    84         95
    85        200
    86         73
    87         11
    88          3
   111        266
   112        999
   113         71
   114         41