##TITLE=Library Entry 68429
##JCAMP-DX=Revision 4.10 
##DATA TYPE=MASS SPECTRUM
##SAMPLE DESCRIPTION=Exported from NIST MS Search
##NAMES=HP
##CAS NAME=Tricyclo[4.3.1.1(3,8)]undecan-3-ol
##MOLFORM=C11H18O
##CAS REGISTRY NO=14504-80-4
##MP= -300
##BP= -300
##MW= 166
##$RETENTION INDEX=0
##$CONDENSED SPECTRUM=NO
##NPOINTS= 61
##XYDATA=(XY..XY) 1 
    39         30
    40         50
    41         40
    42         30
    43         90
    51         20
    52         20
    53         40
    54         40
    55        130
    56         20
    57         30
    58         20
    59         20
    65         30
    66         30
    67        120
    68         50
    69         40
    70         80
    71         90
    77         70
    78         40
    79        180
    80         60
    81        120
    82         40
    83         50
    84         20
    91         80
    92         60
    93        110
    94        140
    95        999
    96        190
    97         30
   105         50
   106         90
   107         50
   108        180
   109        490
   110        200
   111         40
   112         20
   119         20
   120         10
   122         30
   123        100
   124         90
   125         20
   135         50
   136         10
   137         30
   138         20
   147         40
   148         40
   149         20
   150         20
   166        280
   167         40
   168         20