##TITLE=Library Entry 26352
##JCAMP-DX=Revision 4.10 
##DATA TYPE=MASS SPECTRUM
##SAMPLE DESCRIPTION=Chemical Concepts
##NAMES=HP
##CAS NAME=2-Dodecanol, 1-[(1,1-dimethylethyl)thio]-, (R)-
##MOLFORM=C16H34OS
##CAS REGISTRY NO=145021-06-3
##MP= -300
##BP= -300
##MW= 274
##$RETENTION INDEX=0
##$CONDENSED SPECTRUM=NO
##NPOINTS= 116
##XYDATA=(XY..XY) 1 
    27         24
    28         11
    29         93
    30          1
    31          4
    39         20
    40          2
    41        163
    42         16
    43         99
    44         13
    45         14
    46          1
    47         12
    48          4
    49          6
    53          7
    54          7
    55        106
    56         83
    57        999
    58         54
    59         24
    60          3
    61          3
    63          0
    65          0
    66          0
    67         22
    68         11
    69         73
    70          6
    71         30
    72          2
    73          5
    74          7
    75          6
    76          1
    77          6
    79          2
    81         21
    82         19
    83         68
    84          5
    85         13
    86          1
    87         18
    88          3
    89         18
    90          1
    91          2
    95         17
    96         23
    97         73
    98          6
    99          2
   100          0
   101          8
   103          9
   104        248
   105         30
   106         11
   107          0
   109          9
   110          7
   111         22
   112          1
   113          0
   115          3
   116          0
   117          0
   119          0
   123          3
   124          9
   125          1
   126          1
   127          1
   128          0
   129          0
   130          2
   132          0
   133          8
   137          1
   138          9
   142          0
   143          5
   152          3
   153          1
   157          0
   159          0
   166         63
   167          8
   169          3
   170          2
   171         40
   172          4
   184          6
   185          4
   198          0
   199         17
   200          4
   201         30
   202          3
   203          0
   216          2
   217         24
   218          2
   219          0
   227          1
   228          1
   241          1
   242          0
   259          2
   274         53
   275         10
   276          2