##TITLE=Library Entry 26401
##JCAMP-DX=Revision 4.10 
##DATA TYPE=MASS SPECTRUM
##SAMPLE DESCRIPTION=Philip Morris R&D
##NAMES=HP
##CAS NAME=Carvyl propionate, cis-
##MOLFORM=C13H20O2
##CAS REGISTRY NO=145032-50-4
##MP= -300
##BP= -300
##MW= 208
##$RETENTION INDEX=1408
##$CONDENSED SPECTRUM=NO
##NPOINTS= 107
##XYDATA=(XY..XY) 1 
    36          6
    37          1
    38          9
    39        103
    40         20
    41        181
    42         12
    43         78
    44          7
    45         12
    46          1
    50          8
    51         34
    52         14
    53         62
    54         14
    55        131
    56         20
    57        999
    58         43
    59         11
    60          1
    61          1
    62          2
    63         10
    64          5
    65         48
    66         16
    67         44
    68         23
    69         32
    70          2
    71          3
    72          5
    73          9
    74         16
    75          4
    76          0
    77        120
    78         31
    79        123
    80         66
    81         56
    82         39
    83         44
    84        229
    85         12
    86          3
    88          0
    89          9
    90          2
    91        321
    92        195
    93        216
    94         45
    95         35
    96         61
    97         32
    98          1
   100          2
   102          1
   103         17
   104          8
   105        181
   106         74
   107        104
   108        133
   109        792
   110         68
   111         10
   112          1
   115         19
   116          3
   117         48
   118          7
   119        645
   120         65
   121          7
   122          7
   123         30
   124         13
   125          1
   127          1
   128          1
   129          0
   131          4
   132          8
   133         32
   134        270
   135         52
   136          5
   137         48
   138          5
   139         10
   140         17
   141          0
   150          0
   151          8
   152        652
   153         67
   154          4
   164         22
   165        112
   167          5
   179          0
   208         22
   209          1