##TITLE=Library Entry 27032
##JCAMP-DX=Revision 4.10 
##DATA TYPE=MASS SPECTRUM
##SAMPLE DESCRIPTION=Chemical Concepts
##NAMES=HP
##CAS NAME=2-Butanol, 1-[(1,1-dimethylethyl)thio]-, (R)-
##MOLFORM=C8H18OS
##CAS REGISTRY NO=145021-04-1
##MP= -300
##BP= -300
##MW= 162
##$RETENTION INDEX=0
##$CONDENSED SPECTRUM=NO
##NPOINTS= 86
##XYDATA=(XY..XY) 1 
    27         10
    28         14
    29         43
    30          0
    31         14
    39         12
    40          2
    41        156
    42         11
    43         23
    44          2
    45         16
    46          5
    47         15
    48         10
    49         12
    50          1
    51          2
    53          8
    54         17
    55         71
    56         90
    57        999
    58         54
    59        192
    60         17
    61          6
    63          2
    67          1
    69          3
    70          0
    71          8
    72         25
    73         16
    74          5
    75         21
    76          2
    77         11
    79          1
    81          0
    83          1
    85          3
    86          0
    87         26
    88         92
    89        120
    90         11
    91          9
    92          0
    95          8
    96          0
    97          1
    99          1
   101          2
   103         21
   104        131
   105         54
   106         23
   107         11
   108          0
   109          0
   115         31
   116          2
   117          1
   119          4
   120          7
   121          0
   128          0
   129         12
   130          1
   131          1
   132          2
   133         35
   134          4
   135          1
   143          0
   144         42
   145          7
   146          1
   147         16
   148          1
   149          0
   162        520
   163         63
   164         27
   165          2