##TITLE=Library Entry 1921
##JCAMP-DX=Revision 4.10 
##DATA TYPE=MASS SPECTRUM
##SAMPLE DESCRIPTION=A.A.Kutin, Moscow, Russia
##NAMES=HP
##CAS NAME=Pyridin-2-amine, N,N-bis(trifluoromethylsulfonyl)-
##MOLFORM=C7H4F6N2O4S2
##CAS REGISTRY NO=145100-50-1
##MP= -300
##BP= -300
##MW= 358
##$RETENTION INDEX=0
##$CONDENSED SPECTRUM=NO
##NPOINTS= 186
##XYDATA=(XY..XY) 1 
    33          4
    34          2
    35         20
    36         80
    37         95
    38        298
    39        999
    40        236
    41         63
    42         18
    43         22
    44         16
    45         11
    46          8
    48         86
    49         13
    50         92
    51        150
    52         91
    53         55
    54          9
    55         11
    56          4
    57         11
    58          3
    59          7
    60          4
    61          3
    62         11
    63         39
    64        167
    65        219
    66        782
    67         96
    69        666
    70         11
    71          5
    72          3
    73          3
    74          3
    75         10
    76         14
    77         77
    78        366
    79         53
    80         37
    81         24
    82         28
    83          4
    84          4
    85          7
    86          2
    87          2
    88          8
    89         12
    90          8
    91         22
    92        150
    93        834
    94         60
    95         21
    96         12
    97          4
    98          3
    99          1
   100          1
   101          3
   102          4
   103          4
   105        114
   106         13
   107         49
   108          7
   109          7
   110          2
   111          3
   112          3
   113          1
   114          6
   115          9
   116         10
   117          2
   118          3
   119          9
   120          4
   121         13
   122          4
   123         33
   124          4
   125          4
   126          2
   127          2
   128          4
   129          4
   130          1
   131          1
   132          1
   133          4
   134          7
   135         57
   136          4
   137          0
   138          0
   139          2
   140          5
   141         46
   142         43
   143         14
   144          1
   145          2
   146         19
   147          3
   148          0
   149          4
   150          0
   151          0
   153          1
   154          2
   157        992
   158         68
   159         49
   160          5
   161          7
   162          1
   163          0
   165          0
   166          1
   167          0
   169          0
   170          1
   171         15
   172          1
   173          2
   174          1
   175          0
   177          0
   179          1
   183          0
   184          1
   185          6
   186          0
   187          0
   189          1
   191          1
   192          0
   193          0
   194          0
   195          3
   197          2
   199          4
   200          0
   201          0
   203          1
   205          0
   207          0
   209          3
   210          3
   211          1
   213          0
   217          0
   221          1
   222          0
   226        466
   227         39
   228         21
   229          1
   236          2
   237          1
   238          0
   239          1
   240          3
   241          0
   242          0
   254          1
   257          0
   263          0
   265         27
   266          4
   267          0
   275          2
   277          0
   292          1
   293         17
   294         10
   295          1
   296          0