##TITLE=Library Entry 85256
##JCAMP-DX=Revision 4.10 
##DATA TYPE=MASS SPECTRUM
##SAMPLE DESCRIPTION=CARL DJERASSI DEPT OF CHEM STANFORD UNIV STANFORD CALIF
 94305
##NAMES=HP
##CAS NAME=4,5-Secoakuammilan-17-oic acid, 4-acetyl-5-(acetyloxy)-1,2-dihydr
o-16-(hydroxymethyl)-, methyl ester, (2.alpha.)-
##MOLFORM=C25H32N2O6
##CAS REGISTRY NO=14514-02-4
##MP= -300
##BP= -300
##MW= 456
##$RETENTION INDEX=0
##$CONDENSED SPECTRUM=NO
##NPOINTS= 237
##XYDATA=(XY..XY) 1 
    60        171
    61         20
    63         10
    65         70
    66         10
    67        121
    68        141
    69        151
    70         70
    71        111
    72         10
    73         60
    74         10
    75         10
    76         40
    77        212
    78         50
    79        161
    80        151
    81        131
    82         50
    83         90
    84         30
    85         60
    87         30
    89         20
    90         20
    91        141
    92         60
    93        171
    94        131
    95         70
    96         30
    97         50
    98         20
    99         10
   101         10
   102         20
   103         60
   104         30
   105         50
   106        212
   107        161
   108        999
   109        171
   110         40
   111         20
   112         10
   113         10
   115         90
   116         40
   117        131
   118         50
   119         30
   120         50
   121         30
   122         60
   123         20
   124         20
   125         10
   127        101
   128         70
   129         80
   130        555
   131        111
   132         80
   133         20
   134         60
   135         10
   136         20
   137         10
   138         20
   139         10
   140         20
   141         20
   142         70
   143        171
   144        252
   145         50
   146         20
   147         10
   148         20
   149         90
   150        414
   151         70
   152         30
   153         20
   154         90
   155         50
   156        202
   157         50
   158         50
   159         40
   160         30
   161         50
   162         30
   163         20
   164         40
   165         30
   166         40
   167        101
   168        111
   169         70
   170         60
   171         20
   172         70
   173         20
   174         40
   175         10
   176         20
   178         70
   179         20
   180        111
   181         40
   182         40
   183         30
   184         20
   185         10
   186         20
   187         80
   188         20
   191         20
   192         70
   193         60
   194        141
   195         30
   196         10
   197         10
   198         10
   199         10
   200         10
   201         10
   202         10
   204         20
   205         10
   206         60
   207         30
   208         30
   209         20
   210         20
   211         10
   212         10
   214         60
   215         10
   216         20
   217         20
   218         50
   219         30
   220         70
   221         50
   222         90
   223         20
   224         10
   226         10
   227         10
   228         40
   229         10
   230         10
   231         20
   232         70
   233         40
   234         40
   235         90
   236        101
   237         20
   238         20
   244         10
   245         10
   246         30
   247         20
   248         20
   249         20
   250         10
   251         10
   252         20
   253         10
   257         10
   258         20
   260         10
   261         10
   262         10
   263         40
   264         20
   265         10
   266         10
   274         10
   275         10
   276         10
   277         20
   278         10
   279         20
   280         10
   290         10
   291         40
   292         40
   293         40
   294         30
   295         60
   296         20
   304         10
   305         70
   306         40
   307         60
   308         20
   309         30
   319         20
   320         10
   321         30
   322         10
   323         70
   324         10
   335         20
   337         40
   338         20
   339         30
   349         20
   350         50
   351        111
   352         50
   364         30
   365         40
   366         30
   378         20
   379         20
   381         30
   382         80
   383         30
   384         20
   395         30
   396         70
   397         20
   424         80
   425         60
   426         30
   438         20
   456         50
   457         20