##TITLE=Library Entry 10824
##JCAMP-DX=Revision 4.10 
##DATA TYPE=MASS SPECTRUM
##SAMPLE DESCRIPTION=P.A. Leclercq, Lab. Instrum. Anal., Eindhoven Univ. Tec
hnol., Netherlands
##NAMES=HP
##CAS NAME=Nickel(II) bis(N,N-dipropyldithiocarbamate)
##MOLFORM=C14H28N2NiS4
##CAS REGISTRY NO=14516-30-4
##MP= -300
##BP= -300
##MW= 410
##$RETENTION INDEX=3277
##$CONDENSED SPECTRUM=NO
##NPOINTS= 216
##XYDATA=(XY..XY) 1 
    41        474
    42        106
    43        999
    44         54
    45         40
    46         10
    47         23
    48          2
    51          3
    52          3
    53          3
    54         20
    55         11
    56         49
    57          6
    58        108
    59         18
    60        381
    61         16
    62         21
    63          3
    64          5
    67          5
    68         20
    69          5
    70         89
    71          7
    72         64
    73         18
    74         24
    75         26
    76         32
    77         18
    78          5
    80          4
    81          3
    82          8
    83          3
    84         11
    85         44
    86         17
    87         24
    88          4
    89          4
    90          5
    91         20
    92          9
    93          8
    94          3
    96          7
    97          2
    98         35
    99         42
   100        326
   101         52
   102        687
   103         48
   104         36
   105         13
   106          8
   110         10
   111          4
   112         31
   113          8
   114          5
   115          6
   116          8
   117         71
   118         38
   119         33
   120         18
   121          8
   122         32
   123         12
   124         17
   125         11
   126         17
   127         49
   128         34
   129         38
   130         19
   131         25
   132         16
   133         14
   134         27
   135         12
   136         17
   137          8
   138          5
   140          7
   141          3
   142         15
   143          6
   144        600
   145         85
   146         38
   147         29
   148          8
   149         45
   150         37
   151         20
   152         18
   153          7
   154         19
   155          9
   156         17
   157         16
   158         37
   159         62
   160         46
   161         30
   162         21
   163         11
   164         11
   165          5
   166         12
   168         10
   171          8
   172         44
   173        127
   174         46
   175         79
   176         38
   177         51
   178         10
   179         10
   180          2
   181         25
   182          5
   183         17
   184         17
   185          8
   186         14
   187          7
   188          7
   189          7
   191         44
   192         14
   193         24
   194          9
   195          9
   197          5
   198         38
   199         12
   200         58
   201        103
   202        119
   203         61
   204         49
   205         35
   206         18
   207         11
   208          5
   219          5
   221          4
   223          4
   224          6
   232          6
   233          5
   234        148
   235        116
   236         83
   237         58
   238         23
   239         13
   240          6
   241          6
   243          8
   244          3
   245         33
   246         10
   247          6
   248          6
   266          4
   267          4
   268          3
   269          4
   270          3
   271         76
   272         15
   273         35
   274          9
   275         11
   276          5
   277          4
   279          6
   288          7
   300          8
   301         16
   302         10
   303         21
   304          6
   305         15
   306          3
   307          6
   345          6
   346         21
   347          7
   348         10
   349          3
   376          9
   377         11
   378        134
   379         33
   380         72
   381         19
   382         19
   383          6
   384          6
   410        563
   411        147
   412        344
   413         91
   414        110
   415         37
   416         38