##TITLE=Library Entry 98507
##JCAMP-DX=Revision 4.10 
##DATA TYPE=MASS SPECTRUM
##SAMPLE DESCRIPTION=E. STECKHAN, INST. ORG. CHEM. BIOCHEM., UNIV. BONN, W.
 GER.
##NAMES=HP
##CAS NAME=Androst-5-en-17-one, 3-hydroxy-, cyclic 1,2-ethanediyl mercaptole
 (3.beta.)
##MOLFORM=C21H32OS2
##CAS REGISTRY NO=14517-40-9
##MP= -300
##BP= -300
##MW= 364
##$RETENTION INDEX=0
##$CONDENSED SPECTRUM=NO
##NPOINTS= 17
##XYDATA=(XY..XY) 1 
    41        400
    91        510
   105        430
   118        999
   131        780
   145        260
   159        180
   213        150
   244        170
   255        260
   270        400
   304        170
   336        370
   346        200
   349         30
   364        440
   365         90