##TITLE=Library Entry 18890
##JCAMP-DX=Revision 4.10 
##DATA TYPE=MASS SPECTRUM
##SAMPLE DESCRIPTION=Chemical Concepts
##NAMES=HP
##CAS NAME=Manganese pentacarbonyl bromide
##MOLFORM=C5BrMnO5
##CAS REGISTRY NO=14516-54-2
##MP= -300
##BP= -300
##MW= 274
##$RETENTION INDEX=0
##$CONDENSED SPECTRUM=NO
##NPOINTS= 81
##XYDATA=(XY..XY) 1 
    28        955
    29         11
    44          1
    49          1
    50          0
    51          0
    55        999
    60          0
    79         16
    81         16
    83        208
    84          3
    85          0
    86          0
    87          0
    88          0
    90          0
    91          0
    92          0
    93          0
    97          0
   102          0
   104          0
   107          0
   111         79
   112          2
   113          0
   123          1
   124          1
   125          0
   127          0
   134        163
   136        163
   137          0
   139         25
   140          1
   141          0
   160          0
   162         72
   163          1
   164         72
   165          1
   166          0
   167         17
   168          1
   169          0
   171          0
   174          0
   176          0
   180          0
   182          0
   190        157
   191          3
   192        145
   193          3
   194          0
   195         20
   196          1
   197          0
   210          0
   213          3
   218         45
   219          2
   220         44
   221          1
   222          0
   224          0
   226          0
   238          0
   245          0
   247          0
   250          0
   266          0
   268          0
   270          0
   272          0
   274        101
   275          6
   276        103
   277          6
   278          1