##TITLE=Library Entry 79113
##JCAMP-DX=Revision 4.10 
##DATA TYPE=MASS SPECTRUM
##SAMPLE DESCRIPTION=Japan AIST/NIMC Database- Spectrum MS-NW-7307
##NAMES=HP
##CAS NAME=S-Benzoyl-N-(p-methoxybenzylidene)thiohydroxylamine
##MOLFORM=C15H13NO2S
##CAS REGISTRY NO=145198-44-3
##MP= -300
##BP= -300
##MW= 271
##$RETENTION INDEX=0
##$CONDENSED SPECTRUM=NO
##NPOINTS= 80
##XYDATA=(XY..XY) 1 
    15          1
    17          1
    18          1
    27          4
    28          3
    37          2
    38          6
    39          9
    41          1
    45          4
    49          1
    50         18
    51         59
    52          6
    53          2
    58          1
    59          1
    60          1
    61          1
    62          4
    63         14
    64         14
    65          9
    66          2
    69          4
    70          3
    73          1
    74          4
    75          6
    76          9
    77        279
    78         21
    79          3
    82          1
    89          2
    90         10
    91          6
    92         10
    93          2
    95          5
    96         13
    97          1
    98          1
   102          2
   103          8
   104          3
   105        999
   106         78
   107          9
   108          3
   109          4
   110          1
   117          2
   118          2
   119          3
   121          2
   122          3
   123         12
   124          4
   125          1
   132          1
   133         17
   134         25
   135         11
   136          2
   138          2
   139          2
   151         12
   152          2
   153          1
   162          1
   165          1
   166         11
   167          1
   168          1
   239         15
   240          3
   271         57
   272          9
   273          3