##TITLE=Library Entry 6742
##JCAMP-DX=Revision 4.10 
##DATA TYPE=MASS SPECTRUM
##SAMPLE DESCRIPTION=A.A.Kutin, Moscow, Russia
##NAMES=HP
##CAS NAME=Ethene-1,1-diamine, 2,2-dinitro-
##MOLFORM=C2H4N4O4
##CAS REGISTRY NO=145250-81-3
##MP= -300
##BP= -300
##MW= 148
##$RETENTION INDEX=0
##$CONDENSED SPECTRUM=NO
##NPOINTS= 74
##XYDATA=(XY..XY) 1 
    33          5
    34          5
    35          2
    36         19
    37          0
    38         19
    40        129
    41         81
    43        999
    44        558
    46         59
    47         10
    48         11
    50          1
    51          3
    53        197
    54         20
    55         57
    56         18
    57         27
    58          1
    59          3
    60          8
    64          7
    65          2
    66          0
    67          7
    69        313
    70         38
    71         22
    72         48
    73          9
    74          0
    76          2
    77          3
    79          3
    81          5
    82          4
    83          8
    84          9
    85         26
    86         86
    87          3
    88          1
    90          1
    91          3
    93          1
    95          3
    96          1
    97          4
    98          3
    99          0
   101          2
   102          0
   104          3
   105          3
   108          0
   109          1
   110          0
   111          2
   112          3
   113          2
   115          1
   117          1
   118          8
   119          2
   121          1
   123          0
   129          0
   132          0
   133          2
   148        290
   149         35
   150          5