##TITLE=Library Entry 29091
##JCAMP-DX=Revision 4.10 
##DATA TYPE=MASS SPECTRUM
##SAMPLE DESCRIPTION=Drug Lab
##NAMES=HP
##CAS NAME=Rizatriptan
##MOLFORM=C15H19N5
##CAS REGISTRY NO=145202-66-0
##MP= -300
##BP= -300
##MW= 269
##$RETENTION INDEX=0
##$CONDENSED SPECTRUM=NO
##NPOINTS= 76
##XYDATA=(XY..XY) 1 
    42         42
    43         10
    44          2
    50          2
    51          5
    52          3
    53          1
    54          1
    55          2
    56          6
    57         13
    58        999
    59         38
    62          1
    63          7
    64          2
    65          4
    70          1
    72          1
    74          1
    75          4
    76          4
    77         12
    78          4
    87          1
    88          2
    89         10
    90          3
    91          2
    92          1
    99          1
   100          3
   101          5
   102         10
   103          5
   104          1
   113          3
   114          6
   115         46
   116         10
   117          6
   118          1
   126          2
   127         10
   128         21
   129         14
   130          9
   131          1
   140          6
   141          9
   142         62
   143         81
   144         12
   153          1
   154         13
   155         10
   156         37
   157          8
   158          4
   167          2
   168          5
   169          4
   170          1
   181          2
   182          3
   183          3
   184          1
   197          1
   201          1
   209          1
   211         31
   212          5
   224          2
   225          3
   269          5
   270          1