##TITLE=Library Entry 32744
##JCAMP-DX=Revision 4.10 
##DATA TYPE=MASS SPECTRUM
##SAMPLE DESCRIPTION=Exported from NIST MS Search
##NAMES=HP
##CAS NAME=Pyridine, 2-ethoxy-
##MOLFORM=C7H9NO
##CAS REGISTRY NO=14529-53-4
##MP= -300
##BP= -300
##MW= 123
##$RETENTION INDEX=938
##$CONDENSED SPECTRUM=NO
##NPOINTS= 68
##XYDATA=(XY..XY) 1 
    14         47
    15        107
    16          6
    17          4
    18          9
    24          4
    25         19
    26        150
    27        438
    28        260
    29        230
    30         12
    31          8
    32          3
    35          4
    36          8
    37         83
    38        211
    39        627
    40        173
    41        183
    42         44
    43         36
    44          8
    45          7
    48          5
    49         23
    50        109
    51        263
    52        231
    53         64
    54         15
    55         11
    56         39
    57          4
    60         44
    62          6
    63         12
    64         29
    65         27
    66        118
    67        999
    68         76
    69          7
    74          4
    75         14
    76         22
    77         13
    78        337
    79        851
    80        154
    81         21
    82          5
    86          4
    92          3
    93         11
    94         29
    95        419
    96         49
   104         12
   106          9
   108        779
   111         17
   113         51
   115         18
   120          4
   122         59
   123        223