##TITLE=Library Entry 16517
##JCAMP-DX=Revision 4.10 
##DATA TYPE=MASS SPECTRUM
##SAMPLE DESCRIPTION=R.E.Ardrey ET AL.Pharmaceutical Mass Spectra,L.,1985
##NAMES=HP
##CAS NAME=Etorphine
##MOLFORM=C25H33NO4
##CAS REGISTRY NO=14521-96-1
##MP= -300
##BP= -300
##MW= 411
##$RETENTION INDEX=3033
##$CONDENSED SPECTRUM=NO
##NPOINTS= 194
##XYDATA=(XY..XY) 1 
    27         50
    29         60
    30         20
    31         40
    39         20
    41        100
    42        310
    43        240
    44        999
    45        460
    51         10
    53         20
    55         50
    56         20
    57         50
    58        230
    59         80
    60         10
    65         20
    67         10
    69         40
    70         60
    71         70
    77         30
    78         20
    79         20
    80         10
    81         10
    82         10
    87        130
    89         10
    91         40
    94         20
    95         10
    97         10
   103         20
   105         20
   107         20
   108         10
   109         20
   110         20
   113         10
   115         40
   116         10
   117         20
   118         10
   119         10
   120         30
   121        130
   122         30
   123         60
   124         10
   127         30
   128         30
   129         20
   131         30
   132         50
   133         20
   134         30
   135         30
   136         10
   139         10
   141         20
   144         20
   145         20
   146         10
   147         30
   148         40
   149         20
   150         70
   151         20
   152         40
   153         20
   154         10
   155         10
   157         10
   158         10
   159         10
   160         30
   161         70
   162        270
   163        130
   164        420
   165         70
   166         20
   167         10
   168         20
   169         20
   170         10
   171         20
   172         20
   173         40
   174         80
   175         90
   176         70
   177         20
   178         20
   179         10
   181         20
   182         10
   183         10
   184         20
   185         10
   186         30
   187         20
   188         10
   189         10
   190         20
   191         10
   194         10
   195         20
   196         20
   197         30
   198         20
   200         10
   201         10
   202         30
   203         30
   204         30
   205         10
   206         10
   207         10
   208         10
   209         10
   210         10
   211         30
   212         10
   213         90
   215        670
   216        280
   217         40
   218         10
   221         20
   222         10
   223         30
   224         20
   225         20
   226         20
   227         10
   228         20
   229         10
   232         70
   233         10
   234         10
   235         20
   236         10
   237         20
   238         20
   239         30
   240         40
   241         70
   242         20
   248         10
   249         20
   250        120
   251         30
   252         20
   253         30
   254         40
   255         10
   264         10
   265         10
   266         30
   267         30
   268         20
   280         20
   281         30
   282         60
   283         20
   294         20
   295         10
   297        150
   298        110
   299         20
   310         30
   311         10
   322         20
   324        520
   325        110
   326         20
   336         10
   350         10
   364         10
   368         20
   378         20
   379         30
   380         10
   393         30
   394         10
   396         40
   397         10
   411        610
   412        130
   413         20