##TITLE=Library Entry 15562
##JCAMP-DX=Revision 4.10 
##DATA TYPE=MASS SPECTRUM
##SAMPLE DESCRIPTION=M.A.FRIEDMAN FAC. SCI. ST-JEROME, MARSEILLE, FRANCE
##NAMES=HP
##CAS NAME=Thiazole, 5-nitro-
##MOLFORM=C3H2N2O2S
##CAS REGISTRY NO=14527-46-9
##MP= -300
##BP= -300
##MW= 130
##$RETENTION INDEX=0
##$CONDENSED SPECTRUM=NO
##NPOINTS= 24
##XYDATA=(XY..XY) 1 
    26         60
    27         60
    28         10
    29         90
    30        180
    34         40
    36        130
    38         80
    39         90
    40         40
    41         80
    42         80
    43        160
    44        999
    45        310
    57        820
    58         90
    59         80
    84        700
    99         60
   113         60
   130        580
   131         30
   132         20