##TITLE=Library Entry 19153
##JCAMP-DX=Revision 4.10 
##DATA TYPE=MASS SPECTRUM
##SAMPLE DESCRIPTION=CARL DJERASSI DEPT OF CHEM STANFORD UNIV STANFORD CALIF
 94305
##NAMES=HP
##CAS NAME=Cyclohexane, 1,1'-[methylenebis(oxy)]bis-
##MOLFORM=C13H24O2
##CAS REGISTRY NO=1453-21-0
##MP= -300
##BP= -300
##MW= 212
##$RETENTION INDEX=0
##$CONDENSED SPECTRUM=NO
##NPOINTS= 45
##XYDATA=(XY..XY) 1 
    41        800
    42        160
    43        150
    44        150
    45         40
    51         20
    52         20
    53        110
    54        180
    55        999
    56        140
    57        710
    58         50
    59         80
    67        280
    68         40
    69         50
    70         20
    71        100
    72         50
    77         20
    79         30
    80         30
    81        110
    82        570
    83        620
    84        150
    85         20
    87         30
    94         30
    95         40
    96         20
    97         20
    98         30
    99         80
   100        320
   101         40
   111         40
   112         70
   113        190
   114         30
   129         20
   130         40
   131         20
   169         20