##TITLE=Library Entry 25139
##JCAMP-DX=Revision 4.10 
##DATA TYPE=MASS SPECTRUM
##SAMPLE DESCRIPTION=Dennis Rohrbaugh, CBDCOM/ERDEC, Edgewood, MD
##NAMES=HP
##CAS NAME=Trifluoromethyl t-butyl disulfide
##MOLFORM=C5H9F3S2
##CAS REGISTRY NO=145372-23-2
##MP= -300
##BP= -300
##MW= 190
##$RETENTION INDEX=0
##$CONDENSED SPECTRUM=NO
##NPOINTS= 21
##XYDATA=(XY..XY) 1 
    45         30
    47         10
    49         17
    53         18
    55         60
    56         29
    57        999
    58         67
    59         70
    64         52
    69        150
    71          4
    73         38
    74          9
    82         15
    89          9
   101          1
   115          3
   133          9
   175          9
   190          4