##TITLE=Library Entry 40818
##JCAMP-DX=Revision 4.10 
##DATA TYPE=MASS SPECTRUM
##SAMPLE DESCRIPTION=Chemical Concepts
##NAMES=HP
##CAS NAME=1,3-Dioxolane, 2-(5-chloro-3-methyl-3-pentenyl)-, (E)-
##MOLFORM=C9H15ClO2
##CAS REGISTRY NO=145362-82-9
##MP= -300
##BP= -300
##MW= 190
##$RETENTION INDEX=0
##$CONDENSED SPECTRUM=NO
##NPOINTS= 72
##XYDATA=(XY..XY) 1 
    26          7
    27         75
    28          8
    29         27
    30          2
    31         15
    36          3
    38          5
    39         66
    40         13
    41         73
    42         38
    43         36
    44         12
    45        317
    46          8
    50         10
    51         21
    52         12
    53         46
    54          9
    55         20
    56          4
    57         10
    58          2
    62          2
    63          6
    65         20
    66         10
    67         41
    68         18
    69          7
    70          2
    71          4
    73        999
    74         39
    75          7
    77         30
    78          7
    79         75
    80         12
    81         41
    82          7
    83          6
    85          2
    86        280
    87         18
    88          3
    89          2
    91         30
    92         15
    93         14
    94         19
    95         15
    96          3
    97          3
    99         15
   100          2
   105          3
   109          6
   110          4
   111          3
   125          6
   127          2
   139         18
   141          4
   142          2
   153         13
   154         19
   155          5
   189          3
   191          3