##TITLE=Library Entry 100307
##JCAMP-DX=Revision 4.10 
##DATA TYPE=MASS SPECTRUM
##SAMPLE DESCRIPTION=CONTINENTAL OIL CO., PONCA CITY, OKLA, USA
##NAMES=HP
##CAS NAME=Benzenebutanoic acid, 2,5-dimethyl-
##MOLFORM=C12H16O2
##CAS REGISTRY NO=1453-06-1
##MP= -300
##BP= -300
##MW= 192
##$RETENTION INDEX=0
##$CONDENSED SPECTRUM=NO
##NPOINTS= 146
##XYDATA=(XY..XY) 1 
    13          1
    14         26
    15         37
    16          4
    17          2
    18          8
    19          1
    25          1
    26         16
    27        141
    28         25
    29         51
    30          2
    31         13
    32          8
    36          0
    37          2
    38         11
    39        141
    40         26
    41        129
    42         23
    43         21
    44         11
    45        108
    46          3
    47          2
    49          1
    50         25
    51         88
    52         31
    53         58
    54          4
    55         27
    56          1
    57          7
    58          6
    59          4
    60         14
    61          2
    62         11
    63         48
    64         22
    65         73
    66          9
    67          7
    68          1
    69          6
    70          5
    71          9
    72          5
    73         21
    74          9
    75         14
    76         12
    77        149
    78         58
    79         58
    80          5
    81          2
    85          3
    86          2
    87          5
    89         20
    90         11
    91        219
    92         24
    93         14
    94          1
    95          1
    96          4
    97          1
    98          1
    99          1
   100          0
   101          5
   102         23
   103         80
   104         91
   105        156
   106         45
   107          8
   108          1
   109          1
   110          1
   111          2
   113          4
   114          6
   115        114
   116         54
   117        205
   118         64
   119        999
   120        163
   121         13
   122          1
   125          1
   126          3
   127         15
   128         38
   129         32
   130         28
   131        114
   132        804
   133        157
   134         12
   135          4
   136          1
   137          0
   139          1
   140          0
   141          7
   142          4
   143          3
   144          2
   145         26
   146         17
   147          5
   148          0
   149          1
   150          0
   152          0
   153          1
   154          0
   155          2
   156          1
   157          1
   158          2
   159          6
   160          1
   161          2
   162          0
   172          0
   173          2
   174          7
   175         10
   176          2
   177          6
   178          1
   179          0
   190          1
   191          3
   192        384
   193         51
   194          4
   195          0