##TITLE=Library Entry 50090
##JCAMP-DX=Revision 4.10 
##DATA TYPE=MASS SPECTRUM
##SAMPLE DESCRIPTION=B. Derendyaev, Novosibirsk Institute of Organic Chemist
ry
##NAMES=HP
##CAS NAME=Cyclohexene, 1-ethyl-
##MOLFORM=C8H14
##CAS REGISTRY NO=1453-24-3
##MP= -300
##BP= -300
##MW= 110
##$RETENTION INDEX=861
##$CONDENSED SPECTRUM=NO
##NPOINTS= 64
##XYDATA=(XY..XY) 1 
    14          1
    15          5
    26          6
    27        102
    28         13
    29         42
    30          1
    37          1
    38          5
    39        141
    40         23
    41        225
    42         18
    43         10
    44          1
    45          2
    46          1
    50          8
    51         30
    52         18
    53         96
    54         77
    55         71
    56          9
    57          2
    62          2
    63          6
    64          2
    65         32
    66         21
    67        342
    68         79
    69         55
    70          4
    71          1
    73          1
    74          1
    75          2
    76          1
    77         45
    78         11
    79        119
    80         45
    81        999
    82        170
    83          8
    84          1
    89          1
    91         18
    92          3
    93         10
    94          3
    95        119
    96          8
    97          1
   103          1
   104          1
   105          1
   106          1
   107          1
   108          1
   110        225
   111         15
   112          1