##TITLE=Library Entry 96273
##JCAMP-DX=Revision 4.10 
##DATA TYPE=MASS SPECTRUM
##SAMPLE DESCRIPTION=Exported from NIST MS Search
##NAMES=HP
##CAS NAME=Octadecanoic acid, 3-oxo-, methyl ester
##MOLFORM=C19H36O3
##CAS REGISTRY NO=14531-34-1
##MP= -300
##BP= -300
##MW= 312
##$RETENTION INDEX=0
##$CONDENSED SPECTRUM=NO
##NPOINTS= 210
##XYDATA=(XY..XY) 1 
    12          2
    13          2
    14          5
    15         21
    16          2
    17         19
    18        108
    20          2
    25          1
    26          9
    27         40
    28         30
    29        105
    30          4
    31         27
    32         13
    33          4
    37          2
    38          2
    39         28
    40         10
    41        231
    42         43
    43        336
    44          8
    45          8
    49          1
    50          4
    51          2
    52          3
    53         14
    54         24
    55        222
    56         49
    57        245
    58         24
    59         69
    60          3
    61          1
    65          3
    66          5
    67         38
    68         24
    69         99
    70         27
    71        103
    72          8
    73          3
    74        114
    75         14
    76          2
    77          5
    78          3
    79         13
    80         12
    81         41
    82         28
    83         70
    84         82
    85         53
    86          6
    87         10
    88         14
    91          5
    92          1
    93         10
    94         15
    95         41
    96         20
    97         53
    98         43
    99         11
   100          2
   101         84
   102          6
   103          4
   104          1
   105          2
   106          2
   107          7
   108          8
   109         22
   110         11
   111         20
   112         15
   113          5
   114          2
   115          3
   116        999
   117        318
   118         21
   119          5
   120          2
   121          9
   122          7
   123         12
   124         11
   125         11
   126          7
   127          3
   128          2
   129        227
   130         22
   131          5
   132          1
   133          1
   134          1
   135          9
   136          6
   137          8
   138          9
   139          7
   140         17
   141          4
   142          2
   143         26
   144          7
   145          2
   147          1
   148          1
   149          6
   150          3
   151          4
   152          6
   153          6
   154         16
   155          3
   157          5
   158         25
   159          5
   163          3
   164          2
   165          3
   166          3
   167          4
   168          5
   169          2
   171          8
   172         13
   173          2
   177          3
   178          4
   179          2
   180          2
   181          2
   182          3
   183          1
   185         14
   186          3
   189          1
   191          1
   192          2
   193          2
   194          9
   195          4
   196          8
   197          8
   198          1
   199          2
   200          3
   201          1
   205          1
   209          3
   210          2
   211          1
   212          1
   213          3
   214          4
   218          2
   219          2
   220         25
   221          8
   222          2
   223          2
   224          1
   227          3
   228          3
   229          1
   234          6
   235          2
   236          1
   237          3
   238          5
   239         88
   240         16
   241          3
   242          1
   252          3
   254          2
   255          2
   256          4
   257          1
   262          4
   263          1
   265          1
   269          5
   270          6
   271          1
   281          7
   282          3
   283          3
   284          1
   294         23
   295          6
   296          1
   300          1
   311          1
   312         43
   313         11
   314          2