##TITLE=Library Entry 4801
##JCAMP-DX=Revision 4.10 
##DATA TYPE=MASS SPECTRUM
##SAMPLE DESCRIPTION=A.A.Kutin, Moscow, Russia
##NAMES=HP
##CAS NAME=Pyrazole, 3,5-dimethyl-4-nitro-
##MOLFORM=C5H7N3O2
##CAS REGISTRY NO=14531-55-6
##MP= -300
##BP= -300
##MW= 141
##$RETENTION INDEX=0
##$CONDENSED SPECTRUM=NO
##NPOINTS= 78
##XYDATA=(XY..XY) 1 
    36          3
    37         38
    38         99
    39        464
    40        198
    41        280
    42        999
    43         42
    46         82
    47          2
    48          1
    49         12
    50         44
    51        111
    52        117
    53        158
    54         58
    55         86
    56         58
    57         10
    58         18
    60          7
    61         58
    62        140
    63        266
    64         66
    65        512
    66        192
    67         91
    68         69
    69        128
    70          8
    71          4
    72          0
    73          1
    74          1
    75          3
    76          4
    77          9
    78          5
    79         18
    80          8
    81         15
    82         20
    83         41
    85          6
    86          0
    87          0
    88          0
    89          0
    90          0
    91          0
    92          0
    93          1
    94         17
    95          6
    96          5
    97          2
    98          0
   102          0
   105          0
   106          0
   107          0
   108          0
   109          1
   110          3
   111          4
   112          2
   113          0
   122          0
   124        188
   125         14
   126          1
   131          0
   137          0
   141        107
   142          7
   143          0