##TITLE=Library Entry 40528
##JCAMP-DX=Revision 4.10 
##DATA TYPE=MASS SPECTRUM
##SAMPLE DESCRIPTION=A.A.Kutin, Moscow, Russia
##NAMES=HP
##CAS NAME=2-(2',4',4',6',6',8',8'-Heptamethyltetrasiloxan-2'-yloxy)-2,4,4,6
,6,8,8,10,10-nonamethylcyclopentasiloxane
##MOLFORM=C16H48O10Si9
##CAS REGISTRY NO=145344-72-5
##MP= -300
##BP= -300
##MW= 652
##$RETENTION INDEX=0
##$CONDENSED SPECTRUM=NO
##NPOINTS= 57
##XYDATA=(XY..XY) 1 
    33         56
    34         20
    40        389
    42          1
    43         23
    44         77
    45         41
    46          1
    59         34
    60          0
    73        999
    75         89
    85          0
    87          6
   117         10
   126         10
   131         12
   133         11
   145          3
   147        202
   148         27
   149         11
   191          3
   205          4
   207         11
   221         63
   222         12
   223          5
   265          2
   267          0
   281         80
   282         21
   283         11
   325          2
   327          7
   341          9
   355          7
   399          1
   401          3
   415         39
   416         14
   417          8
   459          0
   461         26
   462          9
   463          6
   475         11
   476          3
   477          2
   533          6
   534          1
   535          1
   549          2
   637         18
   638          9
   639          7
   640          1