##TITLE=Library Entry 20774
##JCAMP-DX=Revision 4.10 
##DATA TYPE=MASS SPECTRUM
##SAMPLE DESCRIPTION=NIST Mass Spectrometry Data Center
##NAMES=HP
##CAS NAME=n-Heptadecanol-1
##MOLFORM=C17H36O
##CAS REGISTRY NO=1454-85-9
##MP= -300
##BP= -300
##MW= 256
##$RETENTION INDEX=1984
##$CONDENSED SPECTRUM=NO
##NPOINTS= 97
##XYDATA=(XY..XY) 1 
    15          1
    19          1
    26          2
    27         55
    28         15
    29        167
    31        123
    33          1
    39         70
    41        630
    42        158
    43        739
    44         38
    45         16
    46          1
    50          1
    51          3
    52          3
    53         48
    54        108
    55        999
    56        478
    57        788
    58         37
    59          3
    65          9
    66         14
    67        165
    68        315
    69        777
    70        437
    71        328
    72         19
    73         18
    74          1
    77          6
    78          1
    79         16
    80          6
    81         99
    82        411
    83        902
    84        320
    85        203
    86         13
    87          3
    91          3
    92          1
    93          2
    95         45
    96        156
    97        760
    98        208
    99         46
   100          3
   108          1
   109         16
   110         70
   111        406
   112        136
   113         25
   114          2
   122          1
   123          8
   124         42
   125        187
   126         82
   127         14
   128          1
   137          4
   138         23
   139         51
   140         47
   141          7
   142          1
   152         14
   153         22
   154         29
   155          5
   165          1
   166          8
   167         11
   168         19
   169          4
   180          4
   181          5
   182         16
   183          2
   194          2
   195          3
   196          4
   197          1
   208          1
   210         29
   211          4
   238         11
   239          2