##TITLE=Library Entry 24902
##JCAMP-DX=Revision 4.10 
##DATA TYPE=MASS SPECTRUM
##SAMPLE DESCRIPTION=Japan AIST/NIMC Database- Spectrum MS-IW-1181
##NAMES=HP
##CAS NAME=Pentane, 2-isocyano-2,4,4-trimethyl-
##MOLFORM=C9H17N
##CAS REGISTRY NO=14542-93-9
##MP= -300
##BP= -300
##MW= 139
##$RETENTION INDEX=0
##$CONDENSED SPECTRUM=NO
##NPOINTS= 71
##XYDATA=(XY..XY) 1 
    15          6
    26          9
    27        122
    28         25
    29        156
    30          6
    37          2
    38          6
    39        136
    40         27
    41        497
    42        112
    43        188
    44          9
    45          1
    46          2
    47          2
    48          5
    49          4
    50          8
    51         17
    52         15
    53         43
    54         79
    55        566
    56        627
    57        999
    58         61
    59          1
    62          1
    63          4
    64          2
    65         14
    66         20
    67         82
    68        210
    69        334
    70         50
    71         83
    72          5
    77         14
    78          9
    79         37
    80         32
    81         13
    82         21
    83         73
    84         43
    85          2
    91          9
    92          1
    93         10
    94          4
    95          3
    96          9
    97        541
    98         43
    99          1
   103          1
   105          2
   107          3
   108          9
   109          3
   110          9
   111          2
   112         61
   113         20
   114          1
   122          1
   124         12
   125          1