##TITLE=Library Entry 27457
##JCAMP-DX=Revision 4.10 
##DATA TYPE=MASS SPECTRUM
##SAMPLE DESCRIPTION=Chemical Concepts
##NAMES=HP
##CAS NAME=1,4-Cyclohexadiene, 1-(2,2-dimethylpropyl)-3-[2,2,2-trifluoro-1-(
trifluoromethyl)ethoxy]-
##MOLFORM=C14H18F6O
##CAS REGISTRY NO=145428-38-2
##MP= -300
##BP= -300
##MW= 316
##$RETENTION INDEX=0
##$CONDENSED SPECTRUM=NO
##NPOINTS= 144
##XYDATA=(XY..XY) 1 
    26          3
    27         26
    28         10
    29        111
    30          4
    31          2
    33          6
    36          2
    38          4
    39         52
    40         11
    41        181
    42         10
    43         39
    44          6
    45          0
    49          9
    50          8
    51         43
    52          9
    53         15
    54          3
    55         29
    57        999
    58         40
    59          6
    60          0
    61          1
    62          2
    63          7
    64          4
    65         32
    66         11
    67          9
    68          4
    69         36
    70          3
    71         58
    72          3
    73          1
    75          1
    76          2
    77         42
    78         18
    79         54
    80         11
    81         17
    82          3
    83          2
    85          0
    86          0
    87          0
    89          4
    90          2
    91        143
    92         86
    93         66
    94         10
    95          2
    96          2
    97          1
    98          1
    99         17
   101          3
   102          2
   103          7
   104          4
   105         33
   106          6
   107         13
   108          2
   109         14
   110          1
   113          3
   115          8
   116          2
   117          5
   118          2
   119          3
   121          3
   122          1
   127          2
   128          1
   129         12
   131          3
   133         15
   135          1
   139          2
   141          1
   143          1
   145          0
   146          0
   148          8
   149         16
   150          3
   151          1
   152          1
   158          0
   161          0
   167          0
   169          0
   173          1
   175          1
   177          3
   179          0
   181          4
   188          0
   191          1
   192          0
   195          2
   196          0
   205          1
   207          6
   209         10
   219          1
   220          1
   221          1
   225          0
   227          1
   231          0
   233          0
   235          1
   241          1
   244          6
   245        163
   246         16
   247          1
   253          0
   254          0
   257          2
   258          4
   259         33
   260        184
   261         20
   262          1
   265          1
   271          1
   272          3
   273          2
   281          1
   301          9
   305          0
   316          9
   317          1