##TITLE=Library Entry 81573
##JCAMP-DX=Revision 4.10 
##DATA TYPE=MASS SPECTRUM
##SAMPLE DESCRIPTION=Japan AIST/NIMC Database- Spectrum MS-NW- 370
##NAMES=HP
##CAS NAME=Phenyl 4-pyridyl ketone
##MOLFORM=C12H9NO
##CAS REGISTRY NO=14548-46-0
##MP= -300
##BP= -300
##MW= 183
##$RETENTION INDEX=0
##$CONDENSED SPECTRUM=NO
##NPOINTS= 46
##XYDATA=(XY..XY) 1 
    18          1
    26          3
    27          6
    28          5
    37          2
    38          4
    39          7
    49          3
    50         51
    51        195
    52         15
    53          3
    61          2
    62          4
    63          8
    64          2
    73          2
    74         13
    75         12
    76         19
    77        414
    78         98
    79          6
    86          2
    87          2
    89          1
    91          6
    98          2
    99          2
   101          3
   102          4
   104          2
   105        999
   106        105
   107          7
   126          6
   127         11
   128          4
   139          1
   153          2
   154          9
   155          5
   182         13
   183        555
   184         77
   185          6