##TITLE=Library Entry 52377
##JCAMP-DX=Revision 4.10 
##DATA TYPE=MASS SPECTRUM
##SAMPLE DESCRIPTION=NIST Mass Spectrometry Data Center
##NAMES=HP
##CAS NAME=n-Nonadecanol-1
##MOLFORM=C19H40O
##CAS REGISTRY NO=1454-84-8
##MP= -300
##BP= -300
##MW= 284
##$RETENTION INDEX=2176
##$CONDENSED SPECTRUM=NO
##NPOINTS= 110
##XYDATA=(XY..XY) 1 
    15          1
    19          1
    26          2
    27         46
    28         12
    29        150
    30          5
    31         97
    39         57
    40         15
    41        588
    42        149
    43        774
    44         37
    45         14
    46          1
    50          1
    51          2
    52          2
    53         42
    54        104
    55        996
    56        435
    57        855
    58         38
    59          3
    65          9
    66         14
    67        172
    68        344
    69        832
    70        429
    71        401
    72         22
    73         17
    74          1
    77          5
    78          1
    79         16
    80          8
    81        112
    82        464
    83        999
    84        326
    85        256
    86         16
    87          3
    91          2
    92          1
    93          3
    94          3
    95         60
    96        187
    97        888
    98        213
    99         61
   100          4
   108          1
   109         24
   110         85
   111        480
   112        142
   113         36
   114          2
   122          2
   123         13
   124         50
   125        230
   126         87
   127         21
   128          2
   136          1
   137          8
   138         30
   139         76
   140         51
   141         11
   142          1
   151          2
   152         18
   153         34
   154         35
   155          7
   156          1
   165          1
   166         12
   167         19
   168         21
   169          4
   180          7
   181         10
   182         13
   183          3
   194          5
   195          5
   196         10
   197          3
   208          4
   209          4
   210          9
   211          2
   222          2
   223          2
   224          2
   236          1
   237          1
   238         25
   239          5
   266         13
   267          2