##TITLE=Library Entry 13408
##JCAMP-DX=Revision 4.10 
##DATA TYPE=MASS SPECTRUM
##SAMPLE DESCRIPTION=ORMSBG,9(7)635(1974); TATEMATSU
##NAMES=HP
##CAS NAME=1H-Pyrrole-2-carboxamide, 4-amino-N-(3-amino-3-iminopropyl)-1-met
hyl-
##MOLFORM=C9H15N5O
##CAS REGISTRY NO=14559-42-3
##MP= -300
##BP= -300
##MW= 209
##$RETENTION INDEX=0
##$CONDENSED SPECTRUM=NO
##NPOINTS= 21
##XYDATA=(XY..XY) 1 
    41        190
    42        690
    43        999
    44        170
    53        200
    54        270
    57        420
    69        190
    94        330
    95        410
    96        230
    98        200
   112        130
   123        650
   124        310
   138        330
   139        520
   150         90
   165         80
   192        720
   209        130