##TITLE=Library Entry 70510
##JCAMP-DX=Revision 4.10 
##DATA TYPE=MASS SPECTRUM
##SAMPLE DESCRIPTION=Exported from NIST MS Search
##NAMES=HP
##CAS NAME=Thiophene, 2-butyl-
##MOLFORM=C8H12S
##CAS REGISTRY NO=1455-20-5
##MP= -300
##BP= -300
##MW= 140
##$RETENTION INDEX=1069
##$CONDENSED SPECTRUM=NO
##NPOINTS= 106
##XYDATA=(XY..XY) 1 
    14          2
    15         14
    26          8
    27        119
    28         11
    29         32
    30          1
    32          1
    33          1
    34          1
    35          1
    36          1
    37          7
    38         19
    39        113
    40          8
    41         46
    42          4
    43          9
    44          2
    45        156
    46          5
    47         13
    48          1
    49          2
    50         16
    51         30
    52         10
    53         59
    54          3
    55          5
    56          1
    57         14
    58         28
    59         10
    60          2
    61          4
    62          6
    63         16
    64          2
    65         18
    66          8
    67         11
    68          1
    69         25
    70          9
    71          2
    72          2
    73          2
    74          2
    75          2
    76          1
    77         18
    78          8
    79          6
    80          1
    81          5
    82          6
    83          4
    84         28
    85         21
    86          3
    87          1
    88          1
    89          1
    90          1
    91          5
    92          1
    93          3
    94          1
    95          6
    96          5
    97        999
    98        153
    99         50
   100          7
   101          1
   102          1
   103          1
   104          1
   105          1
   106          1
   107          1
   108          2
   109          9
   110          9
   111         28
   112          5
   113          1
   114          1
   121          1
   122          1
   123          3
   124          1
   125         41
   126          4
   127          2
   128          1
   134          1
   135          1
   137          1
   139          2
   140        192
   141         15
   142         10
   143          1