##TITLE=Library Entry 35447
##JCAMP-DX=Revision 4.10 
##DATA TYPE=MASS SPECTRUM
##SAMPLE DESCRIPTION=NIST Mass Spectrometry Data Center, 2010
##NAMES=HP
##CAS NAME=trans-Sesquisabinene hydrate
##MOLFORM=C15H26O
##CAS REGISTRY NO=145512-84-1
##MP= -300
##BP= -300
##MW= 222
##$RETENTION INDEX=1581
##$CONDENSED SPECTRUM=NO
##NPOINTS= 98
##XYDATA=(XY..XY) 1 
    27         43
    29         51
    30          2
    31          6
    39        120
    40         22
    41        547
    42         32
    43        497
    44         16
    45         33
    50          5
    51         25
    52         14
    53        151
    54         28
    55        391
    56         46
    57         75
    58         28
    63          7
    64          4
    65         63
    66         26
    67        386
    68         66
    69        999
    70         81
    71        272
    72         46
    73          5
    77        134
    78         26
    79        256
    80         54
    81        200
    82        677
    83        164
    84         50
    85         12
    91        126
    92         63
    93        451
    94        176
    95        287
    96         55
    97         84
    98         20
    99          8
   103          7
   105        151
   106         35
   107        242
   108         99
   109        309
   110         56
   111        149
   112         22
   113         12
   119        509
   120         98
   121        396
   122        248
   123        282
   124         35
   125         31
   126          7
   133         98
   134         66
   136         46
   137        188
   138        107
   139         33
   140         17
   147         52
   148         68
   149         38
   151         71
   152         11
   154          6
   161        198
   162         30
   164         27
   165          6
   166          7
   175          9
   176          5
   179         24
   180          5
   189         58
   190         10
   204        163
   205         30
   207        148
   208         22
   209          2
   222         10
   223          2