##TITLE=Library Entry 2455
##JCAMP-DX=Revision 4.10 
##DATA TYPE=MASS SPECTRUM
##SAMPLE DESCRIPTION=Exported from NIST MS Search
##NAMES=HP
##CAS NAME=1-Nonanethiol
##MOLFORM=C9H20S
##CAS REGISTRY NO=1455-21-6
##MP= -300
##BP= -300
##MW= 160
##$RETENTION INDEX=1233
##$CONDENSED SPECTRUM=NO
##NPOINTS= 108
##XYDATA=(XY..XY) 1 
    37          7
    38         16
    39        392
    40         63
    41        999
    42        366
    43        762
    44         26
    45        126
    46         48
    47        393
    48         17
    49         19
    50          8
    51         19
    52         10
    53         78
    54         85
    55        700
    56        721
    57        319
    58         18
    59         34
    60         48
    61        165
    62         12
    63         10
    64          1
    65          9
    66          5
    67         57
    68        163
    69        438
    70        461
    71        107
    72          5
    73         13
    74          5
    75          8
    76          2
    77          6
    78          1
    79          6
    80          1
    81         15
    82         64
    83        248
    84        219
    85         51
    86          3
    87         13
    88          7
    89        103
    90          6
    91          7
    92          1
    93          1
    94          1
    95          5
    96         26
    97        183
    98        165
    99         18
   100          1
   101          3
   102          1
   103         10
   104          1
   105          1
   106          1
   107          1
   109          2
   110          1
   111          8
   112          3
   113          4
   114          1
   115          1
   117          1
   119          1
   121          1
   122          1
   123          1
   124          1
   125          1
   126        102
   127         11
   128          1
   129          1
   131          1
   137          1
   139          1
   140          1
   141          1
   145          1
   146          1
   147          1
   151          1
   153          1
   154          1
   155          1
   157          1
   158          1
   159         18
   160        140
   161         17
   162          7
   163          1