##TITLE=Library Entry 67330
##JCAMP-DX=Revision 4.10 
##DATA TYPE=MASS SPECTRUM
##SAMPLE DESCRIPTION=Chemical Concepts
##NAMES=HP
##CAS NAME=Propanamide, N-[9-(4,6-di-O-benzoyl-2,3-dideoxy-.beta.-d-erythro-
hexopyranosyl)-6,9-dihydro-6-oxo-1H-purin-2-yl]-2-methyl-
##MOLFORM=C29H29N5O7
##CAS REGISTRY NO=145593-82-4
##MP= -300
##BP= -300
##MW= 559
##$RETENTION INDEX=0
##$CONDENSED SPECTRUM=NO
##NPOINTS= 70
##XYDATA=(XY..XY) 1 
    31          9
    32          9
    38         12
    39         62
    40         14
    41         96
    42         26
    43        330
    45         13
    50         40
    51        145
    52         12
    53         74
    54         33
    55         46
    56          7
    57         11
    65         14
    66         19
    67         22
    68         14
    69         31
    70         22
    71         61
    74         12
    75         12
    76         33
    77        889
    78         47
    79         12
    80         14
    81        916
    82         67
    83         22
    94        999
    95         89
    96         10
   104          9
   105        934
   106         78
   107          7
   108         14
   109         60
   110         45
   111          7
   122         23
   123         10
   124          5
   134         30
   135         34
   136         17
   149          6
   150          7
   151        323
   152        111
   153         11
   177         11
   178         24
   193          8
   215          8
   216          5
   217          9
   220          8
   221        207
   222         60
   223          8
   315          7
   339         19
   340          6
   559          2