##TITLE=Library Entry 81370
##JCAMP-DX=Revision 4.10 
##DATA TYPE=MASS SPECTRUM
##SAMPLE DESCRIPTION=ASES Database, Dalian Institute, P.R. China
##NAMES=HP
##CAS NAME=3-Methyl-5-pyrid-2-yl-1,2,4-oxadiazole
##MOLFORM=C8H7N3O
##CAS REGISTRY NO=1455-84-1
##MP= -300
##BP= -300
##MW= 161
##$RETENTION INDEX=0
##$CONDENSED SPECTRUM=NO
##NPOINTS= 18
##XYDATA=(XY..XY) 1 
    41        114
    50         70
    51        134
    52         56
    53         27
    57         79
    58         28
    63         28
    64         27
    76         38
    77        140
    78        235
    79         38
   103         14
   104        290
   105        999
   160         44
   161        699