##TITLE=Library Entry 1212
##JCAMP-DX=Revision 4.10 
##DATA TYPE=MASS SPECTRUM
##SAMPLE DESCRIPTION=Chemical Concepts
##NAMES=HP
##CAS NAME=Bupranolol
##MOLFORM=C14H22ClNO2
##CAS REGISTRY NO=14556-46-8
##MP= -300
##BP= -300
##MW= 271
##$RETENTION INDEX=0
##$CONDENSED SPECTRUM=NO
##NPOINTS= 122
##XYDATA=(XY..XY) 1 
    26          2
    27         21
    28         13
    29         75
    30        999
    31         18
    35         14
    36        100
    37          5
    38         31
    39         30
    40          4
    41        126
    42         44
    43         47
    44         13
    45         10
    50          5
    51         22
    52          6
    53          8
    54          6
    55         43
    56         55
    57        243
    58         72
    59          6
    60         60
    61          4
    63         10
    65          8
    67          8
    68          5
    69         24
    70        142
    71         99
    72         24
    73         13
    74          9
    75          5
    76          2
    77         61
    78         14
    79         11
    80          2
    81         11
    82          8
    83         15
    84         19
    85         20
    86        904
    87         62
    89         23
    90          7
    91         24
    92          3
    93          4
    95          7
    96         23
    97         13
    98         15
    99          9
   100          8
   101          3
   104          2
   105          7
   106          2
   107         50
   108          8
   109          5
   110          3
   111          8
   112          4
   113         10
   114         55
   115          8
   116         16
   117          4
   119          3
   120          2
   121          5
   123          3
   124          2
   125         21
   126          3
   127         12
   128         20
   129         10
   130          2
   133          2
   135          2
   137          2
   139          2
   141         14
   142         39
   143          7
   144         13
   145          3
   146          6
   147          2
   153          5
   155         27
   156          3
   157          9
   167          3
   169          3
   181         11
   183          4
   184          3
   193          1
   205          1
   227         40
   228          5
   229         14
   230          2
   238          1
   256        174
   257         25
   258         55
   259          8
   272          3
   274          1