##TITLE=Library Entry 30046
##JCAMP-DX=Revision 4.10 
##DATA TYPE=MASS SPECTRUM
##SAMPLE DESCRIPTION=LAC, NIDDK, NIH, Bethesda, MD 20892
##NAMES=HP
##CAS NAME=1-[2-[2,6-Dimethylphenoxy]ethyl]-1-methylhydrazine
##MOLFORM=C11H18N2O
##CAS REGISTRY NO=14573-16-1
##MP= -300
##BP= -300
##MW= 194
##$RETENTION INDEX=0
##$CONDENSED SPECTRUM=NO
##NPOINTS= 111
##XYDATA=(XY..XY) 1 
    41         32
    42        178
    43         77
    44        105
    45         79
    46         27
    47         15
    48          8
    49         27
    50        270
    51         51
    52        102
    53         35
    54          7
    55         20
    56         76
    57         54
    58        645
    59        999
    60         47
    61          2
    62          3
    63         19
    64          4
    65         35
    66          5
    67          2
    68          1
    69          3
    70         17
    71        177
    72         82
    73         64
    74          3
    75          1
    76          2
    77        105
    78         27
    79         46
    80          3
    81          1
    82          1
    83         26
    84          6
    85         58
    86          4
    87          3
    89          4
    90          1
    91         70
    92         11
    93          7
    94          3
    95          1
    96          1
    97          4
    98          5
    99          2
   102          3
   103         24
   104         10
   105         55
   106          5
   107         53
   108          4
   109          0
   110          0
   112          0
   113          1
   115          2
   117          1
   118          1
   119          4
   120          4
   121         45
   122         85
   123         10
   124          1
   127          1
   129          0
   131          1
   132          2
   133         11
   134          3
   135         13
   136          3
   145          1
   146          3
   147          4
   148         11
   149          7
   150          1
   160          0
   161          2
   162          3
   163          3
   164          1
   176         10
   177          3
   178          1
   179          1
   180          4
   184         14
   185          1
   186          4
   191          0
   192          7
   193         47
   194        271
   195         44
   196          3