##TITLE=Library Entry 34256
##JCAMP-DX=Revision 4.10 
##DATA TYPE=MASS SPECTRUM
##SAMPLE DESCRIPTION=Chemical Concepts
##NAMES=HP
##CAS NAME=2-Pentene, 4-chloro-
##MOLFORM=C5H9Cl
##CAS REGISTRY NO=1458-99-7
##MP= -300
##BP= -300
##MW= 104
##$RETENTION INDEX=742
##$CONDENSED SPECTRUM=NO
##NPOINTS= 39
##XYDATA=(XY..XY) 1 
    26         75
    27        255
    29         90
    31         37
    37         54
    38        100
    39        482
    40        239
    41        872
    42        192
    43        247
    44         54
    45         50
    49         16
    50         52
    51         72
    52         45
    53        590
    54         48
    55         65
    56         15
    57         38
    58         16
    60         58
    61         32
    62         38
    63         73
    65        120
    66         72
    67        717
    68        553
    69        999
    70         84
    89         86
    91         28
   104        134
   105         13
   106         42
   107          4