##TITLE=Library Entry 96641
##JCAMP-DX=Revision 4.10 
##DATA TYPE=MASS SPECTRUM
##SAMPLE DESCRIPTION=Japan AIST/NIMC Database- Spectrum MS-IW-7180
##NAMES=HP
##CAS NAME=1-(Hydrazinocarbonylmethyl)-2-thiourea
##MOLFORM=C3H8N4OS
##CAS REGISTRY NO=14586-05-1
##MP= -300
##BP= -300
##MW= 148
##$RETENTION INDEX=0
##$CONDENSED SPECTRUM=NO
##NPOINTS= 103
##XYDATA=(XY..XY) 1 
    12          3
    13          3
    14          9
    15          7
    16         95
    17        168
    18        113
    24          1
    25          2
    26         40
    27        262
    28        285
    29        122
    30        300
    31        110
    32        294
    33         53
    34        162
    35          4
    36          8
    38          9
    39         10
    40         35
    41         26
    42         66
    43         67
    44         57
    45         65
    46         30
    47         12
    48          6
    51          1
    52          4
    53         14
    54         10
    55         21
    56         23
    57         10
    58         46
    59        278
    60        238
    61         38
    62         10
    63          1
    64         42
    65          2
    66         13
    67          1
    68          2
    69          2
    70         25
    71         64
    72         48
    73         34
    74         23
    75          4
    76         18
    77          1
    78          1
    81          1
    82          4
    83          2
    84         29
    85         10
    86         31
    87          4
    88        157
    89         32
    90          9
    91         14
    96          1
    97         35
    98        130
    99         11
   100          9
   101          3
   102          4
   103         29
   104          1
   105          1
   106          2
   111          4
   112          2
   113          2
   114         13
   115          6
   116        999
   117        317
   118         58
   119         14
   126          2
   127          3
   128          2
   129          4
   130         10
   131        119
   132          9
   133         17
   134          2
   135          1
   148         22
   149          2
   150          1