##TITLE=Library Entry 30102
##JCAMP-DX=Revision 4.10 
##DATA TYPE=MASS SPECTRUM
##SAMPLE DESCRIPTION=A.A.Kutin, Moscow, Russia
##NAMES=HP
##CAS NAME=Oxirane-2-carboxylic acid, 2-aminocarbonyl-3-ethyl-3-methyl-, eth
yl ester
##MOLFORM=C9H15NO4
##CAS REGISTRY NO=1459-81-0
##MP= -300
##BP= -300
##MW= 201
##$RETENTION INDEX=0
##$CONDENSED SPECTRUM=NO
##NPOINTS= 84
##XYDATA=(XY..XY) 1 
    35          0
    37          7
    38         23
    39        267
    40         76
    41        636
    42        436
    43        405
    44        823
    45        226
    46         57
    47         45
    48          1
    49          2
    50          6
    51          7
    52          7
    53         17
    54          7
    55         27
    56         23
    57         24
    58         92
    59        999
    60         36
    61          4
    62         11
    63         18
    66          5
    67         18
    68         21
    69        658
    70        841
    71         47
    72         13
    73        137
    74         61
    75         13
    76          2
    80          1
    82          2
    83         10
    84          6
    85         14
    86         22
    87         76
    88          6
    89          4
    90          6
    91         13
    96          2
    97          5
    98         15
    99         18
   100          3
   101         27
   102         15
   103        236
   104         11
   109          2
   113          4
   114         50
   115         14
   116          5
   118         13
   119          6
   124          6
   125          4
   126          8
   127          4
   129          8
   130          3
   131          3
   141          3
   142         15
   143         14
   144         20
   145          2
   146          8
   147         14
   149          2
   159          7
   172          1
   187         10