##TITLE=Library Entry 80327
##JCAMP-DX=Revision 4.10 
##DATA TYPE=MASS SPECTRUM
##SAMPLE DESCRIPTION=D.HENNEBERG, MAX-PLANCK INSTITUTE, MULHEIM, WEST GERMAN
Y
##NAMES=HP
##CAS NAME=Benzene, (2-bromo-1-methylethyl)-
##MOLFORM=C9H11Br
##CAS REGISTRY NO=1459-00-3
##MP= -300
##BP= -300
##MW= 198
##$RETENTION INDEX=0
##$CONDENSED SPECTRUM=NO
##NPOINTS= 92
##XYDATA=(XY..XY) 1 
    23          0
    24          0
    25          1
    26         10
    27         72
    29          0
    33          7
    34          0
    35          0
    36          0
    37          6
    38         19
    39        129
    40          9
    41         93
    42          4
    45          0
    46          0
    47          0
    48          1
    49          5
    50         60
    51        138
    52         32
    53         10
    54          0
    55          1
    58         29
    60          2
    61          4
    62         14
    63         38
    64          8
    65         37
    66          3
    67          0
    68          0
    69          0
    70          1
    71          0
    72          0
    73          1
    74         13
    75         16
    76         16
    77        119
    78         63
    79         98
    80          5
    81          1
    82          1
    83          0
    84          0
    85          1
    86          2
    87          3
    88          1
    89         15
    90          5
    91        147
    92         12
    93          5
    94          0
    95          5
    98          1
    99          0
   101          7
   102         17
   103         85
   104         85
   105        999
   106         88
   107          3
   112          0
   113          2
   114          1
   115         28
   116         10
   117         50
   118         39
   119         37
   120          3
   121          0
   171          0
   183          3
   184          0
   185          3
   196          0
   198         46
   199          4
   200         44
   201          4