##TITLE=Library Entry 60282
##JCAMP-DX=Revision 4.10 
##DATA TYPE=MASS SPECTRUM
##SAMPLE DESCRIPTION=Exported from NIST MS Search
##NAMES=HP
##CAS NAME=Benzene, [(2-propenyloxy)methyl]-
##MOLFORM=C10H12O
##CAS REGISTRY NO=14593-43-2
##MP= -300
##BP= -300
##MW= 148
##$RETENTION INDEX=0
##$CONDENSED SPECTRUM=NO
##NPOINTS= 78
##XYDATA=(XY..XY) 1 
    14          1
    15          2
    17          2
    18         10
    26          7
    27         35
    28         28
    29         21
    30          2
    31         12
    32          6
    36          1
    37          9
    38         20
    39        109
    40         16
    41        100
    42         21
    43          7
    44          3
    45          1
    49          5
    50         56
    51        133
    52         35
    53         37
    54          8
    55          6
    56          1
    57          4
    60          1
    61          6
    62         15
    63         43
    64         11
    65        120
    66          9
    67          1
    69          2
    70          7
    71          2
    73          4
    74         17
    75         10
    76         10
    77        322
    78         69
    79        517
    80         45
    81          4
    85          2
    86          3
    87          3
    89         51
    90         50
    91        999
    92        487
    93         35
    94          3
   103          2
   104         53
   105        150
   106         60
   107        456
   108        426
   109         33
   110          2
   115          5
   116          1
   117         10
   118         15
   119          3
   120          1
   122          1
   130          1
   133          1
   147         23
   148          8