##TITLE=Library Entry 65212
##JCAMP-DX=Revision 4.10 
##DATA TYPE=MASS SPECTRUM
##SAMPLE DESCRIPTION=Exported from NIST MS Search
##NAMES=HP
##CAS NAME=Benzene, tetradecyl-
##MOLFORM=C20H34
##CAS REGISTRY NO=1459-10-5
##MP= -300
##BP= -300
##MW= 274
##$RETENTION INDEX=2090
##$CONDENSED SPECTRUM=NO
##NPOINTS= 83
##XYDATA=(XY..XY) 1 
    14          2
    16          2
    26          3
    27         22
    29         56
    32         11
    39         17
    40          4
    41        101
    42         17
    43        152
    44         15
    51          6
    52          2
    53          6
    54          6
    55         58
    56         19
    57        110
    58          5
    63          3
    65         25
    66          3
    67          8
    68          4
    69         23
    70         11
    71         49
    72          3
    77         14
    78         31
    79         20
    80          7
    81          4
    82          4
    83         13
    84          5
    85         24
    86          2
    89          4
    90          4
    91        575
    92        999
    93         81
    94         12
    95          3
    96          3
    97          8
    98          3
    99          3
   103          9
   104         41
   105         78
   106         20
   107          3
   111          3
   112          1
   113          1
   115          5
   117         14
   118          7
   119         27
   120          9
   121          2
   131          2
   132          3
   133         81
   134         25
   135          5
   147         14
   148          7
   161          6
   162          2
   175          3
   189          1
   220          2
   231          2
   232          1
   245          1
   246          1
   274        162
   275         35
   276          4