##TITLE=Library Entry 79116
##JCAMP-DX=Revision 4.10 
##DATA TYPE=MASS SPECTRUM
##SAMPLE DESCRIPTION=A.A.Kutin, Moscow, Russia
##NAMES=HP
##CAS NAME=Benzhydrazide, N2-benzoyl-2-bromo-3-nitro-N1-phenyl-
##MOLFORM=C20H14BrN3O4
##CAS REGISTRY NO=145933-17-1
##MP= -300
##BP= -300
##MW= 439
##$RETENTION INDEX=0
##$CONDENSED SPECTRUM=NO
##NPOINTS= 157
##XYDATA=(XY..XY) 1 
    33          0
    34          0
    35          0
    36          2
    37          1
    38          3
    39         10
    40         10
    41          2
    42          1
    43          7
    44          6
    45          0
    46          0
    48          0
    50         17
    51         63
    52          6
    53          1
    54          0
    55          1
    56          0
    57          1
    60          0
    61          0
    62          2
    63         11
    64          6
    65          8
    66          0
    68          0
    69          0
    70          0
    71          0
    73          1
    74         12
    75         65
    76         19
    77        279
    78         19
    79          2
    80          1
    81          0
    82          1
    83          0
    84          0
    85          0
    86          0
    87          0
    88          0
    89          1
    90          1
    91          7
    92          1
    93          3
    94          0
    95          0
    96          0
    97          0
    98          0
    99          0
   100          0
   101          0
   103         20
   105        999
   106         72
   107          6
   108          0
   109          0
   110          0
   111          0
   112          0
   113          0
   115          0
   116          0
   117          0
   119          2
   120          0
   121          1
   122          0
   123          0
   125          0
   126          0
   127          0
   128          0
   130          0
   131          0
   133          0
   135          0
   136          0
   139          1
   140          0
   141          0
   142          0
   143          0
   144          0
   145          0
   149          0
   150          2
   151          2
   152          4
   153          1
   154         10
   155          1
   156          9
   157          1
   164          0
   165          0
   166          0
   167          0
   168          0
   170          2
   171          0
   172          2
   173          0
   178          0
   179          1
   180          1
   182         28
   183          3
   184         25
   185          2
   194          9
   195          1
   196          0
   198          1
   199          0
   200          1
   201          0
   208          0
   211         19
   212          7
   214          5
   215          0
   226          0
   228         41
   229          3
   230         39
   231          3
   232          0
   254          0
   261          0
   263          0
   265          0
   317          0
   318          0
   319          0
   320          0
   322          0
   346          0
   348          0
   361          0
   439         16
   440          3
   441         15
   442          3
   443          0