##TITLE=Library Entry 2434
##JCAMP-DX=Revision 4.10 
##DATA TYPE=MASS SPECTRUM
##SAMPLE DESCRIPTION=P.A. Leclercq, Lab. Instrum. Anal., Eindhoven Univ. Tec
hnol., Netherlands
##NAMES=HP
##CAS NAME=Nickel(II) bis(N,N-dihexyldithiocarbamate)
##MOLFORM=C26H52N2NiS4
##CAS REGISTRY NO=14592-20-2
##MP= -300
##BP= -300
##MW= 578
##$RETENTION INDEX=0
##$CONDENSED SPECTRUM=NO
##NPOINTS= 268
##XYDATA=(XY..XY) 1 
    41        999
    42        423
    43        884
    44        601
    45         98
    46         20
    47         43
    51         26
    52         16
    53         99
    54         96
    55        769
    56        452
    57        474
    58         57
    59         39
    60         84
    61         37
    62         38
    63          6
    64         10
    65         14
    66         10
    67         66
    68         66
    69        241
    70        146
    71         46
    72        176
    73         57
    74        103
    75         53
    76        212
    77         26
    78         20
    79         16
    80         33
    81         37
    82         95
    83        148
    84        111
    85        642
    86         42
    87         11
    88         81
    89         58
    90         10
    91         10
    92          4
    93         13
    94         28
    95         23
    96         31
    97         16
    98         92
    99         16
   100         55
   101         34
   102         27
   103         12
   104          3
   105          6
   106          8
   107          8
   108         18
   109         13
   110         98
   111         13
   112        217
   113         19
   114        372
   115        187
   116         33
   117         23
   118         16
   119         10
   120          8
   121          6
   122         13
   123         10
   124         55
   125          9
   126        233
   127         23
   128         44
   129         16
   130         12
   131          7
   132         13
   133          8
   134          6
   136         10
   137          6
   138         15
   139         13
   140         57
   141         18
   142         40
   143         30
   144        369
   145         33
   146         41
   147         23
   148          6
   149         20
   150         13
   151          9
   152         16
   153         13
   154         24
   155          6
   156         16
   157         10
   158         66
   159         15
   160         10
   161         18
   162          6
   163         10
   164         37
   165         15
   166         66
   167         13
   168         29
   169         16
   170         39
   171         19
   172         31
   173         23
   174         12
   175         13
   176         14
   177          5
   178         20
   179          5
   180         16
   181          4
   182         23
   183          5
   184        161
   185         28
   186         29
   187         26
   188         15
   189         16
   190         13
   191          6
   192          9
   193          7
   194         27
   195         14
   196        427
   197         80
   198         27
   199         12
   200         19
   201         26
   202          7
   203         16
   204         11
   205         10
   206         13
   207         10
   208         23
   209          6
   210         64
   211         11
   212         13
   213          9
   214         20
   215         25
   216         17
   217         22
   218         10
   219          8
   220          8
   222          9
   224         36
   225          8
   226         30
   227         12
   228        389
   229         80
   230         26
   231         13
   232          7
   233          9
   234          5
   235          4
   236          5
   237          6
   238          8
   239          6
   240         13
   241         12
   242         30
   243         23
   244         13
   245         10
   246          7
   247          5
   248          6
   249          4
   250          6
   251          3
   252         13
   253          4
   254          9
   255          5
   256         16
   257         10
   258         10
   259         11
   260         46
   261         66
   262         20
   263          9
   270          5
   274          6
   275          7
   280          5
   281          4
   282         23
   283          8
   284         26
   285         24
   286         14
   287         13
   288          5
   289          5
   314          3
   315          3
   318         30
   319         21
   320         16
   321          9
   322          4
   333          3
   351          3
   352          1
   353          2
   371         39
   372         10
   373          5
   385          4
   390          7
   391          3
   392         18
   393          5
   397         14
   398          3
   399          6
   431          6
   494          4
   521          6
   546         86
   547         23
   548         45
   549         10
   550         16
   551          9
   552         10
   578        393
   579        135
   580        240
   581        100
   582        100
   583         55