##TITLE=Library Entry 28708
##JCAMP-DX=Revision 4.10 
##DATA TYPE=MASS SPECTRUM
##SAMPLE DESCRIPTION=NIST Mass Spectrometry Data Center, 1990.
##NAMES=HP
##CAS NAME=Triflupromazine
##MOLFORM=C18H19F3N2S
##CAS REGISTRY NO=146-54-3
##MP= -300
##BP= -300
##MW= 352
##$RETENTION INDEX=2232
##$CONDENSED SPECTRUM=NO
##NPOINTS= 154
##XYDATA=(XY..XY) 1 
    14          3
    15          3
    28         37
    29         12
    30         44
    32          7
    39         12
    40          4
    41         18
    42         93
    43         26
    44         51
    45         18
    50          6
    51          9
    55          3
    56         20
    58        999
    59         45
    62          3
    63         11
    64          3
    65          5
    68          4
    69         25
    70         46
    71         20
    72         28
    74          3
    75          9
    76          4
    77         10
    78          3
    81          2
    82          7
    83          4
    84         38
    85         99
    86        171
    87         11
    89          5
    91          3
    93          4
    94          3
    95          7
    96          3
    99          2
   101          3
   102          2
   107          3
   108          9
   109          5
   113          2
   117          2
   120          3
   121          2
   123          1
   124          2
   125          3
   126          5
   127          3
   128          2
   130          3
   132          3
   134          5
   139          6
   140          4
   145          4
   151          3
   152          8
   153          9
   154          3
   157          6
   158          3
   164          6
   165          3
   166          3
   169          4
   170          5
   171          4
   172          2
   175          3
   176          5
   177          5
   178          4
   179          3
   182          4
   183          3
   184          7
   188          3
   189          3
   194          3
   195          5
   196         25
   197         16
   198          7
   201          6
   202         14
   203          7
   204          3
   206          2
   208          3
   209          3
   212          2
   213          3
   214          4
   215          6
   216          7
   220          3
   221          3
   222         18
   223          9
   224          3
   225          2
   226          4
   227          3
   228          7
   233          5
   234         12
   235         15
   236          3
   238          5
   239          5
   240          4
   245          2
   246          8
   247         22
   248         56
   249          7
   260          3
   261          3
   262          7
   265          6
   266         77
   267         71
   268         13
   269          3
   272          2
   274          4
   278          7
   279          3
   280         23
   281         15
   282          2
   291          7
   292         12
   293         10
   294          6
   306        122
   307         44
   308         10
   352        155
   353         33
   354         11