##TITLE=Library Entry 29292
##JCAMP-DX=Revision 4.10 
##DATA TYPE=MASS SPECTRUM
##SAMPLE DESCRIPTION=M.Solomon ET AL.Gust.J.Chem.,26,325(1973)
##NAMES=HP
##CAS NAME=10H-Phenothiazine-10-propanamine, N,N-dimethyl-, 5-oxide
##MOLFORM=C17H20N2OS
##CAS REGISTRY NO=146-21-4
##MP= -300
##BP= -300
##MW= 300
##$RETENTION INDEX=0
##$CONDENSED SPECTRUM=NO
##NPOINTS= 65
##XYDATA=(XY..XY) 1 
    41         23
    42         94
    43         30
    44        103
    45         40
    46         11
    50         18
    51         18
    55         21
    56         21
    57         51
    58        999
    59         51
    63         21
    65         23
    69         18
    70         54
    71         30
    72         30
    74         82
    77         30
    83         11
    84        155
    85         51
    86         87
   101          9
   102         23
   109         21
   139         23
   140         21
   152         23
   154         23
   166         25
   167         25
   179         30
   180        143
   181         32
   198        101
   199        138
   200         30
   201          9
   212        795
   213        150
   214         49
   215         16
   223          9
   224         28
   225         40
   226         18
   236         21
   237         21
   238        108
   239         40
   240          9
   255         47
   256         18
   281         18
   282         18
   283         75
   284        105
   285         28
   286          9
   300         98
   301         21
   302          9