##TITLE=Library Entry 57278
##JCAMP-DX=Revision 4.10 
##DATA TYPE=MASS SPECTRUM
##SAMPLE DESCRIPTION=Chemical Concepts
##NAMES=HP
##CAS NAME=3-Pentanol, 2,2,4,4-tetramethyl-
##MOLFORM=C9H20O
##CAS REGISTRY NO=14609-79-1
##MP= -300
##BP= -300
##MW= 144
##$RETENTION INDEX=0
##$CONDENSED SPECTRUM=NO
##NPOINTS= 58
##XYDATA=(XY..XY) 1 
    26          2
    27         23
    28          1
    29         62
    30          2
    31          8
    37          0
    38          0
    39         24
    40          7
    41        137
    42         19
    43         29
    44          1
    45        144
    46          4
    47          0
    49          0
    50          1
    51          3
    52          0
    53          7
    54          2
    55         48
    56         44
    57        421
    58         16
    59         82
    60          2
    62          0
    63          0
    64          0
    65          1
    66          0
    67          6
    68          0
    69        393
    70         68
    71          9
    72          4
    73          3
    74          0
    76          0
    77          2
    78          0
    79          2
    80          0
    81          1
    82          0
    83         36
    84          1
    85         12
    86          5
    87        999
    88         41
    89          2
   144          4
   145          0