##TITLE=Library Entry 65406
##JCAMP-DX=Revision 4.10 
##DATA TYPE=MASS SPECTRUM
##SAMPLE DESCRIPTION=F. Rubino ET AL, Org.Mass Spectrom.,27,1240(1992)
##NAMES=HP
##CAS NAME=3-Picolinyl ximeninate
##MOLFORM=C24H35NO2
##CAS REGISTRY NO=146038-28-0
##MP= -300
##BP= -300
##MW= 369
##$RETENTION INDEX=0
##$CONDENSED SPECTRUM=NO
##NPOINTS= 95
##XYDATA=(XY..XY) 1 
    50         14
    51         72
    52         32
    53         54
    55         36
    57          5
    61          1
    62          1
    63         32
    65        275
    67         41
    68          1
    69         14
    71          1
    77         27
    78         58
    79         76
    80        187
    81         34
    91         94
    92        999
    93        806
    94         72
    95         14
    98          1
   105         14
   106         29
   107         45
   108        994
   109        103
   110         20
   118          3
   119         10
   121         12
   122          5
   131          3
   133         13
   136          7
   137          5
   147          7
   150         10
   151         29
   152         14
   154          3
   161          3
   164        105
   165         12
   168          9
   169         20
   170         15
   178         14
   179          3
   181         46
   182         20
   184          2
   185          5
   192          5
   199         87
   200         16
   206         16
   207          2
   215          3
   220         29
   233          2
   234          8
   241          2
   242         16
   243         24
   244        305
   245         32
   246          7
   247          5
   256         38
   257          8
   270         12
   272         10
   274          8
   278         10
   284         27
   286         10
   288          7
   298        112
   299         52
   300         14
   312        232
   313         84
   314         12
   326         78
   327         16
   329          3
   340         16
   341          3
   354          4
   369        146
   370         22