##TITLE=Library Entry 81045
##JCAMP-DX=Revision 4.10 
##DATA TYPE=MASS SPECTRUM
##SAMPLE DESCRIPTION=Chemical Concepts
##NAMES=HP
##CAS NAME=1-Penten-4-yn-3-ol, 1-phenyl-
##MOLFORM=C11H10O
##CAS REGISTRY NO=14604-31-0
##MP= -300
##BP= -300
##MW= 158
##$RETENTION INDEX=0
##$CONDENSED SPECTRUM=NO
##NPOINTS= 106
##XYDATA=(XY..XY) 1 
    25          6
    26         32
    27        120
    28         13
    29         57
    30          2
    31         13
    37         16
    38         51
    39        209
    40         16
    41         24
    42          4
    43         39
    44          4
    49          9
    50        181
    51        464
    52        130
    53        226
    54         21
    55        110
    56         19
    57         12
    58          6
    61         27
    62        101
    63        255
    64         92
    65        113
    66         32
    67         27
    68          6
    69         19
    70         23
    71          4
    73         13
    74        106
    75        109
    76        111
    77        595
    78        420
    79        185
    80         18
    81         56
    82          4
    83          3
    84          4
    85         19
    86         40
    87         58
    88         28
    89        142
    90         55
    91        760
    92        161
    93         14
    94          4
    95          4
    97          6
    98         23
    99         13
   100          6
   101         45
   102        229
   103        390
   104        220
   105        999
   106         94
   107         20
   109          5
   110          8
   111          9
   112          5
   113         47
   114         54
   115        738
   116        322
   117         44
   118         17
   119          5
   125         15
   126         40
   127        293
   128        601
   129        915
   130        293
   131        172
   132         62
   133         31
   134         72
   135         15
   136          6
   137          9
   138         33
   139        420
   140        339
   141        261
   142         42
   143         11
   155         28
   156         35
   157        615
   158        800
   159         94
   160          8