##TITLE=Library Entry 30485
##JCAMP-DX=Revision 4.10 
##DATA TYPE=MASS SPECTRUM
##SAMPLE DESCRIPTION=NIST Mass Spectrometry Data Center
##NAMES=HP
##CAS NAME=Agarospirol
##MOLFORM=C15H26O
##CAS REGISTRY NO=1460-73-7
##MP= -300
##BP= -300
##MW= 222
##$RETENTION INDEX=1645
##$CONDENSED SPECTRUM=NO
##NPOINTS= 62
##XYDATA=(XY..XY) 1 
    27         33
    29         45
    31         57
    39        108
    40         27
    41        239
    42         25
    43        282
    45         36
    53        116
    55        253
    59        999
    60         34
    65         96
    66         34
    67        228
    68         47
    69        126
    71         75
    77        252
    79        328
    80         51
    81        255
    82         61
    83         52
    91        414
    92         80
    93        475
    94        138
    95        292
    96         65
    97         39
   103         39
   105        449
   106        112
   107        569
   108        165
   109        140
   115         33
   117         66
   118         26
   119        926
   120        247
   121        289
   122        249
   123        177
   133        195
   134         64
   135        390
   136        125
   147        283
   148         60
   149        225
   161        780
   162        370
   163         96
   189        340
   190         44
   204        357
   205         66
   207         28
   222         23