##TITLE=Library Entry 1391
##JCAMP-DX=Revision 4.10 
##DATA TYPE=MASS SPECTRUM
##SAMPLE DESCRIPTION=J.Zhang ET AL.J.Mass Spectrom.,35,841(2000)
##NAMES=HP
##CAS NAME=1,1,4,4-Tetranitrocyclohexane
##MOLFORM=C6H8N4O8
##CAS REGISTRY NO=146028-82-2
##MP= -300
##BP= -300
##MW= 264
##$RETENTION INDEX=0
##$CONDENSED SPECTRUM=NO
##NPOINTS= 54
##XYDATA=(XY..XY) 1 
    27         53
    28         28
    29          9
    30        999
    39        131
    40         38
    41         91
    42         20
    43         11
    44          1
    46         41
    48         15
    50         15
    52         42
    53        109
    54         39
    55         51
    56         18
    57          4
    60          6
    63          9
    65         48
    66         44
    67        151
    68         23
    70         24
    77        375
    78        398
    79        117
    80         28
    83         42
    85          8
    94         51
    95        119
    96         27
    98          3
   100          4
   107         18
   108        119
   109         14
   112         19
   124        121
   125        104
   126         30
   141         27
   142        119
   143          4
   153          8
   154         23
   155          2
   170          5
   171        540
   172        186
   173         15