##TITLE=Library Entry 71230
##JCAMP-DX=Revision 4.10 
##DATA TYPE=MASS SPECTRUM
##SAMPLE DESCRIPTION=Japan AIST/NIMC Database- Spectrum MS-IW-7261
##NAMES=HP
##CAS NAME=1,15-Pentadecanedioic acid
##MOLFORM=C15H28O4
##CAS REGISTRY NO=1460-18-0
##MP= -300
##BP= -300
##MW= 272
##$RETENTION INDEX=0
##$CONDENSED SPECTRUM=NO
##NPOINTS= 185
##XYDATA=(XY..XY) 1 
    17          3
    18         10
    26          1
    27         29
    28         14
    29         64
    30          2
    31          6
    39         25
    40          6
    41        190
    42         45
    43        162
    44          7
    45         34
    47          1
    51          1
    52          1
    53         14
    54         26
    55        321
    56         63
    57        105
    58         48
    59         34
    60        141
    61         19
    62          1
    63          1
    65          2
    66          4
    67         61
    68         57
    69        206
    70         55
    71         97
    72          9
    73        160
    74         15
    75          1
    77          3
    78          3
    79         21
    80         37
    81         76
    82         61
    83        176
    84        626
    85         74
    86          7
    87         36
    88          4
    89          1
    91          8
    92          3
    93         24
    94         46
    95         73
    96         71
    97        157
    98        999
    99         94
   100         14
   101         28
   102          5
   103          1
   104          1
   105          3
   106          3
   107         23
   108         36
   109         37
   110         42
   111         90
   112        350
   113         41
   114         14
   115         26
   116          9
   117          2
   118          1
   119          7
   120          6
   121         40
   122         29
   123         28
   124         25
   125         49
   126         76
   127         16
   128          5
   129         56
   130         67
   131          7
   132          1
   133          8
   134         10
   135         41
   136         14
   137         19
   138         19
   139         29
   140         22
   141          5
   142          3
   143         23
   144          7
   145          1
   147          5
   148          4
   149         15
   150         15
   151         12
   152         34
   153         28
   154         18
   155          5
   156          2
   157         10
   158          6
   159          1
   161          3
   162          3
   163          9
   164          5
   165          9
   166         10
   167         13
   168         10
   169          4
   170          6
   171         13
   172          5
   175          6
   176          8
   177         27
   178          5
   179          5
   180          8
   181          6
   182          4
   183          3
   184          1
   185         29
   186          5
   187          1
   189          2
   190          3
   191          1
   192          6
   193          8
   194         13
   195         53
   196          8
   197          6
   198          4
   199          7
   200          2
   207          3
   208         30
   209          5
   210         10
   211          6
   212          3
   213          9
   214          3
   217          1
   218          5
   219          1
   222          2
   226          1
   228         67
   229          9
   230          1
   235          5
   236         69
   237         10
   238          1
   242          1
   253          1
   254         23
   255         20
   256          4
   272          1
   273          2