##TITLE=Library Entry 27367
##JCAMP-DX=Revision 4.10 
##DATA TYPE=MASS SPECTRUM
##SAMPLE DESCRIPTION=NIST Mass Spectrometry Data Center, 1994
##NAMES=HP
##CAS NAME=Benzene, 1,3,5-tri-tert-butyl-
##MOLFORM=C18H30
##CAS REGISTRY NO=1460-02-2
##MP= -300
##BP= -300
##MW= 246
##$RETENTION INDEX=0
##$CONDENSED SPECTRUM=NO
##NPOINTS= 112
##XYDATA=(XY..XY) 1 
     4          0
    12          1
    13          1
    15         38
    17          1
    18          4
    27         28
    28         10
    29        250
    30          3
    32          0
    39         55
    41        439
    42         17
    43         29
    44          0
    50          2
    51         13
    52          3
    53         21
    54          0
    55         39
    56          0
    57        999
    58         49
    63          8
    64         12
    65         21
    66          7
    67          7
    69          9
    71         13
    72          7
    75          4
    76          8
    77         37
    78         13
    79         24
    80          9
    81          3
    82          1
    83          3
    84          3
    85          3
    86          7
    89          6
    91         74
    92          6
    93          8
    94         36
   100         13
   101          3
   102          7
   103         12
   104          4
   105         29
   106          3
   107          3
   108         42
   115         51
   116         17
   117         35
   118          5
   119         26
   120          2
   127         15
   128         47
   129         39
   130         12
   131         36
   132          7
   133          8
   139          3
   141         20
   142         15
   143         15
   144         10
   145         14
   146          3
   147         10
   151          1
   152          5
   153          6
   154          4
   155          7
   156          5
   157          6
   159         24
   160          5
   161          5
   165          2
   169          2
   170          1
   171          4
   173         12
   174          3
   175         29
   176          3
   185          2
   187          2
   189          7
   201          5
   203         19
   204          3
   215         11
   216          3
   231        989
   232        192
   233         17
   246        108
   247         21
   248          2