##TITLE=Library Entry 21221
##JCAMP-DX=Revision 4.10 
##DATA TYPE=MASS SPECTRUM
##SAMPLE DESCRIPTION=Japan AIST/NIMC Database- Spectrum MS-NW-6393
##NAMES=HP
##CAS NAME=Cycloheptanecarboxylic acid
##MOLFORM=C8H14O2
##CAS REGISTRY NO=1460-16-8
##MP= -300
##BP= -300
##MW= 142
##$RETENTION INDEX=0
##$CONDENSED SPECTRUM=NO
##NPOINTS= 103
##XYDATA=(XY..XY) 1 
    14          1
    15         13
    16          2
    17          2
    18          7
    25          1
    26         18
    27        189
    28         65
    29        158
    30          5
    31         12
    32          3
    36          2
    37          5
    38         13
    39        221
    40         47
    41        366
    42        120
    43        114
    44         21
    45         51
    46          3
    47          8
    48          1
    49          2
    50         10
    51         21
    52         10
    53         83
    54        123
    55        999
    56        114
    57         52
    58         17
    59         14
    60        155
    61         76
    62          6
    63          7
    64          2
    65         17
    66         20
    67        208
    68        108
    69        111
    70        125
    71         39
    72          7
    73        338
    74         46
    75          4
    76          1
    77         14
    78         21
    79         21
    80         43
    81        108
    82        402
    83        230
    84         17
    85         12
    86         70
    87        104
    88         27
    89          2
    90          1
    91          9
    92          3
    93         11
    94          5
    95         61
    96        216
    97        196
    98         16
    99        449
   100        107
   101         24
   102          2
   105          2
   106         14
   107          2
   108          1
   109         13
   110          1
   111          1
   112          1
   113         55
   114         12
   115          1
   122          2
   123          4
   124        150
   125         19
   126          2
   127         32
   128          3
   140          1
   141          6
   142        166
   143         17
   144          2