##TITLE=Library Entry 1945
##JCAMP-DX=Revision 4.10 
##DATA TYPE=MASS SPECTRUM
##SAMPLE DESCRIPTION=RADIAN CORP
##NAMES=HP
##CAS NAME=Propane, 1,1,2-tribromo-
##MOLFORM=C3H5Br3
##CAS REGISTRY NO=14602-62-1
##MP= -300
##BP= -300
##MW= 278
##$RETENTION INDEX=0
##$CONDENSED SPECTRUM=NO
##NPOINTS= 53
##XYDATA=(XY..XY) 1 
    12          3
    13          9
    14         14
    15         54
    24          3
    25         19
    26         73
    27        114
    28         17
    36         19
    37        115
    38        213
    39        999
    40         77
    41        326
    42         15
    43          4
    63          3
    79        132
    80         40
    81        123
    82         36
    91         17
    92         17
    93         90
    94         17
    95         67
   104          8
   105         13
   106         13
   107         48
   108          6
   109         33
   117         16
   119        422
   120         23
   121        392
   122         38
   158         11
   160         22
   162         11
   171         25
   173         47
   175         25
   184          5
   185          7
   186         13
   188          2
   199        424
   201        580
   203        252
   280          5
   282          8