##TITLE=Library Entry 37413
##JCAMP-DX=Revision 4.10 
##DATA TYPE=MASS SPECTRUM
##SAMPLE DESCRIPTION=Japan AIST/NIMC Database- Spectrum MS-NW-2259
##NAMES=HP
##CAS NAME=1,2-Cyclohexanediol, trans-
##MOLFORM=C6H12O2
##CAS REGISTRY NO=1460-57-7
##MP= -300
##BP= -300
##MW= 116
##$RETENTION INDEX=0
##$CONDENSED SPECTRUM=NO
##NPOINTS= 83
##XYDATA=(XY..XY) 1 
    14          3
    15         22
    16          2
    17         20
    18         79
    19          8
    25          1
    26         20
    27        162
    28         31
    29        122
    30         10
    31        108
    32          8
    36          8
    37          7
    38         15
    39        161
    40         35
    41        413
    42        306
    43        178
    44        320
    45         52
    46          2
    47         16
    48          1
    49          2
    50         11
    51         17
    52          9
    53         36
    54        107
    55        155
    56        104
    57        767
    58         42
    59          4
    60         18
    61          3
    62          3
    63          4
    64          1
    65         12
    66          8
    67         81
    68         44
    69        247
    70        999
    71         62
    72         17
    73         16
    74         13
    75          3
    76          1
    77         15
    78          6
    79         49
    80        105
    81         21
    82          4
    83        297
    84         18
    85          9
    86          9
    87          3
    88          4
    94          2
    95          6
    96         12
    97         76
    98        318
    99         21
   100          2
   109          1
   110          1
   112          7
   113          1
   114          2
   115          3
   116         98
   117          7
   118          1