##TITLE=Library Entry 18229
##JCAMP-DX=Revision 4.10 
##DATA TYPE=MASS SPECTRUM
##SAMPLE DESCRIPTION=Div. of Experiment Therapeutics WRAIR, WRAMC, Washingto
n DC 20307
##NAMES=HP
##CAS NAME=3H-1,2-Benzoxathiole, 5-nitro-, 2,2-dioxide
##MOLFORM=C7H5NO5S
##CAS REGISTRY NO=14618-10-1
##MP= -300
##BP= -300
##MW= 215
##$RETENTION INDEX=0
##$CONDENSED SPECTRUM=NO
##NPOINTS= 66
##XYDATA=(XY..XY) 1 
    41         11
    42         35
    43          5
    45         14
    46         50
    48         50
    50        347
    51        999
    52        337
    53        134
    54         69
    55         14
    57          2
    58          2
    61         17
    62         40
    63         63
    64         54
    65        524
    67         91
    68         20
    69         16
    71          5
    73         10
    74         83
    75         62
    76        114
    77        306
    79        696
    81         96
    82         23
    85          1
    86          7
    87          3
    89          6
    90          5
    91         12
    93        172
    94         12
    95         17
    96          3
   104         10
   106         16
   119          3
   121          9
   122          3
   123          3
   125          5
   134          3
   135         37
   136          3
   151        892
   152         76
   153         10
   155          4
   165          1
   182          6
   199         13
   212          1
   213          2
   214          4
   215        452
   216         48
   217         32
   218          1
   219          1