##TITLE=Library Entry 65984
##JCAMP-DX=Revision 4.10 
##DATA TYPE=MASS SPECTRUM
##SAMPLE DESCRIPTION=G.VON BUNAU MAX-PLANCK-INST., MULHEIM-RHUR, GERMANY, FR
G
##NAMES=HP
##CAS NAME=Cyclohexene, 1-methyl-5-(1-methylethenyl)-, (R)-
##MOLFORM=C10H16
##CAS REGISTRY NO=1461-27-4
##MP= -300
##BP= -300
##MW= 136
##$RETENTION INDEX=1027
##$CONDENSED SPECTRUM=NO
##NPOINTS= 41
##XYDATA=(XY..XY) 1 
    27        114
    29         65
    39        182
    40         58
    41        192
    42         34
    43         56
    50         19
    51         58
    52         34
    53        165
    54         24
    55         82
    63         29
    65         58
    66         95
    67        326
    68        724
    69         56
    77        143
    78         43
    79        241
    80         92
    81        124
    82         24
    91        153
    92        341
    93        999
    94        224
    95         73
   103         19
   105         56
   106         24
   107        182
   108         53
   117         17
   119         34
   121        173
   122         24
   136        234
   137         31