##TITLE=Library Entry 84669
##JCAMP-DX=Revision 4.10 
##DATA TYPE=MASS SPECTRUM
##SAMPLE DESCRIPTION=Chemical Concepts
##NAMES=HP
##CAS NAME=Butanoic acid, 4-methylphenyl ester
##MOLFORM=C11H14O2
##CAS REGISTRY NO=14617-92-6
##MP= -300
##BP= -300
##MW= 178
##$RETENTION INDEX=0
##$CONDENSED SPECTRUM=NO
##NPOINTS= 93
##XYDATA=(XY..XY) 1 
    26          9
    27        129
    29         10
    31          0
    37          1
    38          4
    39         62
    40         11
    41        106
    42         10
    43        541
    44         18
    45          0
    46          0
    49          0
    50         10
    51         31
    52         24
    53         24
    54          2
    55         31
    56          1
    57          0
    58          0
    60          0
    61          0
    62          2
    63         12
    64          3
    65         38
    66          4
    67          2
    68          2
    69          5
    70          6
    71        238
    72          9
    73          1
    74          3
    75          1
    76          1
    77         97
    78         23
    79         56
    80         38
    81          4
    82          0
    86          0
    87          0
    88          0
    89          7
    90         38
    91         59
    92          4
    93          1
    94          0
   103          0
   105          6
   106          4
   107        328
   108        999
   109        179
   110         11
   111          0
   115          0
   116          0
   117          0
   118          0
   119          7
   120          0
   121          2
   122          2
   123          0
   132          0
   133          0
   134          0
   135         10
   136          1
   141          0
   145          0
   147          0
   148          0
   149          0
   150          0
   161          0
   163          1
   176          0
   177          1
   178        230
   179         28
   180          2
   181          0
   182          0