##TITLE=Library Entry 34042
##JCAMP-DX=Revision 4.10 
##DATA TYPE=MASS SPECTRUM
##SAMPLE DESCRIPTION=J.T. CLERC, ORGANIC CHEM. LAB., ETH, ZURICH, SWITZ.
##NAMES=HP
##CAS NAME=2-Butenoic acid, 4-nitrophenyl ester, (E)-
##MOLFORM=C10H9NO4
##CAS REGISTRY NO=14617-88-0
##MP= -300
##BP= -300
##MW= 207
##$RETENTION INDEX=0
##$CONDENSED SPECTRUM=NO
##NPOINTS= 31
##XYDATA=(XY..XY) 1 
    28        181
    30         90
    32         36
    38         72
    39        490
    40         90
    41        818
    42         72
    44         18
    50         36
    53         18
    61         18
    62         36
    63        109
    64         72
    65         36
    68         72
    69        999
    70        200
    71          9
    74          9
    75          9
    76          9
    93          9
   109          9
   122          9
   123          9
   139          9
   160          9
   161          9
   207         18