##TITLE=Library Entry 38302
##JCAMP-DX=Revision 4.10 
##DATA TYPE=MASS SPECTRUM
##SAMPLE DESCRIPTION=Exported from NIST MS Search
##NAMES=HP
##CAS NAME=Butyric acid, m-nitrophenyl ester
##MOLFORM=C10H11NO4
##CAS REGISTRY NO=14617-97-1
##MP= -300
##BP= -300
##MW= 209
##$RETENTION INDEX=0
##$CONDENSED SPECTRUM=NO
##NPOINTS= 47
##XYDATA=(XY..XY) 1 
    26          8
    27        141
    28         10
    29         14
    30         41
    37          5
    38         28
    39         72
    40          7
    41        173
    42         41
    43        998
    44         29
    50         23
    51          9
    52          5
    53          8
    54          3
    55         44
    56          3
    60          2
    61          3
    62         12
    63         60
    64         49
    65         30
    66          5
    69          6
    70         14
    71        999
    72         39
    73          3
    74          5
    75         14
    76         18
    77          4
    79          2
    81          6
    91          2
    92         22
    93         21
    94          3
   109          5
   122          5
   123          5
   139          9
   209          4