##TITLE=Library Entry 71179
##JCAMP-DX=Revision 4.10 
##DATA TYPE=MASS SPECTRUM
##SAMPLE DESCRIPTION=Japan AIST/NIMC Database- Spectrum MS-NW-1025
##NAMES=HP
##CAS NAME=4,4-Dimethoxybutyronitrile
##MOLFORM=C6H11NO2
##CAS REGISTRY NO=14618-78-1
##MP= -300
##BP= -300
##MW= 129
##$RETENTION INDEX=1020
##$CONDENSED SPECTRUM=NO
##NPOINTS= 67
##XYDATA=(XY..XY) 1 
    13          2
    14          9
    15        123
    16          3
    17          1
    18          3
    25          2
    26         27
    27         88
    28         94
    29        170
    30         29
    31        166
    32         40
    33          4
    37          9
    38         14
    39         50
    40         21
    41        156
    42        260
    43         48
    44         15
    45         79
    46          2
    47        135
    48          3
    50          2
    51         10
    52         34
    53         13
    54         82
    55         47
    56          9
    57         36
    58         69
    59         11
    63          2
    64          7
    65          3
    66         26
    67         32
    68         69
    69         16
    70         52
    71         12
    72          4
    73          1
    74          2
    75        826
    76         27
    77          4
    80          6
    81          2
    82         42
    83          6
    84          2
    88          5
    89          1
    96         39
    97         81
    98        999
    99         60
   100          6
   101          1
   128         15
   129          1