##TITLE=Library Entry 27158
##JCAMP-DX=Revision 4.10 
##DATA TYPE=MASS SPECTRUM
##SAMPLE DESCRIPTION=Chemical Concepts
##NAMES=HP
##CAS NAME=Acetamide, 2,2,2-trifluoro-N,N-bis(2-methylpropyl)-
##MOLFORM=C10H18F3NO
##CAS REGISTRY NO=14618-28-1
##MP= -300
##BP= -300
##MW= 225
##$RETENTION INDEX=0
##$CONDENSED SPECTRUM=NO
##NPOINTS= 161
##XYDATA=(XY..XY) 1 
    26          2
    27         64
    28         23
    29        249
    30         19
    31          2
    33          2
    36          0
    37          0
    38          2
    39         76
    40         14
    41        297
    42        107
    43         55
    44         10
    45          2
    46          1
    47          0
    48          0
    49          0
    50          1
    51          3
    52          1
    53         10
    54          6
    55         80
    56         93
    57        999
    58         61
    59          4
    60          1
    61          0
    62          0
    63          0
    64          1
    65          1
    66          1
    67          2
    68          5
    69         77
    70          8
    71          2
    72          3
    73          3
    74          0
    75          0
    76          0
    77          1
    78          8
    79          2
    80          1
    81          1
    82          2
    83          2
    84          6
    85          1
    86          6
    87          1
    88          0
    89          0
    90          0
    91          1
    92          0
    93          1
    94          1
    95          0
    96          3
    97          2
    98          3
    99          1
   100          4
   101          0
   102          0
   103          0
   104          0
   105          0
   106          3
   107          1
   108          1
   109          0
   110          4
   111          0
   112          3
   113          0
   114         25
   115          1
   116          0
   117          0
   118          0
   119          0
   120          0
   121          0
   122          0
   123          0
   124          0
   126        199
   127         14
   128         15
   129          1
   130          0
   131          0
   132          0
   133          0
   134          0
   135          0
   136          0
   137          0
   138          0
   139          4
   140         30
   141          7
   142          1
   143          0
   147          0
   148          0
   149          0
   150         10
   151          1
   152          3
   153          1
   154         21
   155          1
   156          3
   157          0
   160          0
   161          0
   162          0
   163          1
   164          0
   165          0
   166          2
   167          0
   168          7
   169          2
   170        105
   171          9
   172          0
   180          1
   181          1
   182        298
   183         31
   184          3
   185          0
   186          0
   193          0
   196          0
   206          0
   207          0
   208          1
   209          0
   210          4
   211          0
   219          0
   220          0
   221          0
   223          0
   224          2
   225         30
   226          3
   227          0