##TITLE=Library Entry 98774
##JCAMP-DX=Revision 4.10 
##DATA TYPE=MASS SPECTRUM
##SAMPLE DESCRIPTION=TNO Volatile Compounds in Food - Chemical Concepts
##NAMES=HP
##CAS NAME=1H-Benzocycloheptene, 2,4a,5,6,7,8-hexahydro-3,5,5,9-tetramethyl-
, (R)-
##MOLFORM=C15H24
##CAS REGISTRY NO=1461-03-6
##MP= -300
##BP= -300
##MW= 204
##$RETENTION INDEX=1500
##$CONDENSED SPECTRUM=NO
##NPOINTS= 107
##XYDATA=(XY..XY) 1 
    26          6
    27        134
    29        106
    30          1
    37          1
    38          4
    39        175
    41        456
    42         36
    43        100
    50         11
    51         47
    52         20
    53         97
    54          9
    55        275
    56         76
    57         27
    58          5
    62          3
    63         19
    64         12
    65         74
    66         15
    67         58
    68         12
    69        120
    70         33
    71          7
    72          2
    74          2
    75          4
    76          5
    77        181
    78         51
    79        181
    80         25
    81         72
    82         75
    83         41
    84         11
    85          2
    89          7
    90          2
    91        364
    92        130
    93        398
    94         65
    95         34
    96          5
    97          8
   101          2
   102          5
   103         34
   104         23
   105        418
   106        114
   107        157
   108         46
   109         52
   110          8
   115         52
   116         19
   117         68
   118         21
   119        999
   120        136
   121        407
   122         85
   123          9
   127          6
   128         20
   129         18
   130         10
   131         38
   132         15
   133        300
   134        413
   135         97
   136         16
   139          1
   141          5
   142          4
   143          6
   144          4
   145         19
   146          6
   147        169
   148         95
   149         16
   155          2
   157          5
   159          4
   160          3
   161        130
   162         22
   163          3
   173          1
   175          5
   176          2
   187          1
   189         50
   190          7
   202          2
   203          4
   204        394
   205         64