##TITLE=Library Entry 29852
##JCAMP-DX=Revision 4.10 
##DATA TYPE=MASS SPECTRUM
##SAMPLE DESCRIPTION=J.E. WILKINSON S-CUBED, SAN DIEGO, CA.
##NAMES=HP
##CAS NAME=Acetamide, 2,2'-thiobis-
##MOLFORM=C4H8N2O2S
##CAS REGISTRY NO=14618-65-6
##MP= -300
##BP= -300
##MW= 148
##$RETENTION INDEX=0
##$CONDENSED SPECTRUM=NO
##NPOINTS= 23
##XYDATA=(XY..XY) 1 
    41         81
    42        212
    43        136
    44        489
    45        185
    46        128
    47        107
    48         12
    59        999
    60         55
    61         23
    62          5
    86          7
    87          6
    90          4
   103         57
   104          1
   105         20
   130          8
   131        380
   132          4
   133          3
   148          2