##TITLE=Library Entry 69200
##JCAMP-DX=Revision 4.10 
##DATA TYPE=MASS SPECTRUM
##SAMPLE DESCRIPTION=AAFS Toxicology Section MS DB Committee, U. Alberta, Ca
nada
##NAMES=HP
##CAS NAME=Selegiline
##MOLFORM=C13H17N
##CAS REGISTRY NO=14611-51-9
##MP= -300
##BP= -300
##MW= 187
##$RETENTION INDEX=1440
##$CONDENSED SPECTRUM=NO
##NPOINTS= 88
##XYDATA=(XY..XY) 1 
    37          2
    38         10
    39         81
    40          6
    41         29
    42        111
    43          5
    44         11
    45          1
    49          1
    50          8
    51         26
    52         10
    53         13
    54         13
    55         14
    56        232
    57         15
    58         28
    59          1
    61          1
    62          4
    63         18
    64          5
    65         61
    66          9
    67          5
    68         11
    69          1
    70         45
    71          3
    72          1
    73          1
    74          2
    75          3
    76          3
    77         24
    78         11
    79          5
    80         15
    81         13
    82          1
    88          1
    89         14
    90          4
    91        136
    92         12
    93          1
    94         17
    96        999
    97         71
    98          2
    99          1
   101          1
   102          4
   103          9
   104          4
   105          3
   106          1
   114          1
   115         18
   116          5
   117         15
   118          4
   119          3
   120          1
   126          1
   127          2
   128          7
   129          2
   130          3
   131          2
   132          2
   133          1
   134          1
   144          2
   145          1
   146          1
   160          1
   162          2
   163          1
   170          2
   171          1
   172          3
   173          1
   184          1
   186          1
   187          1