##TITLE=Library Entry 100241
##JCAMP-DX=Revision 4.10 
##DATA TYPE=MASS SPECTRUM
##SAMPLE DESCRIPTION=NIST Mass Spectrometry Data Center, 2010
##NAMES=HP
##CAS NAME=Benzene, 1-(1,5-dimethylhexyl)-4-methyl-
##MOLFORM=C15H24
##CAS REGISTRY NO=1461-02-5
##MP= -300
##BP= -300
##MW= 204
##$RETENTION INDEX=1448
##$CONDENSED SPECTRUM=NO
##NPOINTS= 42
##XYDATA=(XY..XY) 1 
    39          3
    40          1
    41         18
    42          2
    43         11
    50          1
    51          4
    52          1
    53          3
    56          1
    57          1
    62          1
    63          4
    64          1
    65         13
    66          1
    70          1
    75          1
    76          1
    77         25
    78          8
    79          9
    89          4
    90          1
    91         77
    92          9
   101          1
   102          4
   103         21
   104         15
   105        104
   106          9
   115         29
   116          9
   117         62
   118         28
   119        999
   120        114
   131          5
   132          4
   204        108
   205         18