##TITLE=Library Entry 8201
##JCAMP-DX=Revision 4.10 
##DATA TYPE=MASS SPECTRUM
##SAMPLE DESCRIPTION=H. Fales, LC, NHLBI, NIH, Bethesda, MD 20892
##NAMES=HP
##CAS NAME=Acetamide, N-(2-methyl-3-oxo-4-isoxazolidinyl)-
##MOLFORM=C6H10N2O3
##CAS REGISTRY NO=14617-48-2
##MP= -300
##BP= -300
##MW= 158
##$RETENTION INDEX=0
##$CONDENSED SPECTRUM=NO
##NPOINTS= 27
##XYDATA=(XY..XY) 1 
    41         51
    43        999
    46         40
    47         18
    51         39
    53         37
    56         75
    58         69
    59        152
    60         17
    72         19
    73         16
    78         20
    82         17
    84        100
    85         60
    87         58
    88         17
   105         17
   112         84
   113         65
   115         16
   116         16
   142         17
   143         18
   158         85
   159         42