##TITLE=Library Entry 32995
##JCAMP-DX=Revision 4.10 
##DATA TYPE=MASS SPECTRUM
##SAMPLE DESCRIPTION=NIST Mass Spectrometry Data Center, 1990.
##NAMES=HP
##CAS NAME=Cyclopentanol, 1-ethyl-
##MOLFORM=C7H14O
##CAS REGISTRY NO=1462-96-0
##MP= -300
##BP= -300
##MW= 114
##$RETENTION INDEX=0
##$CONDENSED SPECTRUM=NO
##NPOINTS= 41
##XYDATA=(XY..XY) 1 
    26         26
    27        146
    28         58
    29        146
    31         29
    38         32
    39        231
    40         50
    41        256
    42         48
    43        228
    44         21
    50         32
    51         59
    52         30
    53        126
    54         55
    55        152
    56         42
    57        403
    58         23
    62         15
    63         29
    65         96
    67        999
    68         87
    71         35
    72        247
    73         17
    77         56
    78         15
    79         89
    80         18
    81         90
    83         19
    85        775
    86         56
    91         15
    95         34
    96        156
    97         29