##TITLE=Library Entry 89485
##JCAMP-DX=Revision 4.10 
##DATA TYPE=MASS SPECTRUM
##SAMPLE DESCRIPTION=Japan AIST/NIMC Database- Spectrum MS-IW-7711
##NAMES=HP
##CAS NAME=2-(N,N-Bis(2-chloroethyl)amino)methyl-2,3-dihydro-6-hydroxy-3-oxo
pyridazine
##MOLFORM=C9H13Cl2N3O2
##CAS REGISTRY NO=14628-36-5
##MP= -300
##BP= -300
##MW= 265
##$RETENTION INDEX=0
##$CONDENSED SPECTRUM=NO
##NPOINTS= 77
##XYDATA=(XY..XY) 1 
    12          2
    13          2
    14          3
    15          3
    16          2
    17          4
    18          1
    24          4
    25         14
    26         73
    27        105
    28         97
    29         55
    30         20
    31          6
    35         10
    36        129
    37          9
    38         54
    39         27
    40         14
    41         44
    42         25
    43         47
    44         44
    45          3
    49          1
    50         10
    51         67
    52         21
    53         30
    54        102
    55        126
    56         30
    57          4
    58         12
    59          1
    61          1
    62          1
    63         10
    64          3
    65          7
    66         25
    67         32
    68          7
    69          8
    70          5
    71          1
    74          3
    75          1
    76          6
    77         18
    78         67
    79          4
    80          2
    82        521
    83         25
    84         45
    85          2
    86          1
    92         48
    93          2
    94         40
    95          3
    96          2
    97          1
    98          1
   105          1
   106          2
   112        999
   113         60
   114          7
   125          1
   138          1
   139          1
   141          1
   143          1