##TITLE=Library Entry 45759
##JCAMP-DX=Revision 4.10 
##DATA TYPE=MASS SPECTRUM
##SAMPLE DESCRIPTION=Chemical Concepts
##NAMES=HP
##CAS NAME=1-Pentanol, TMS derivative
##MOLFORM=C8H20OSi
##CAS REGISTRY NO=14629-45-9
##MP= -300
##BP= -300
##MW= 160
##$RETENTION INDEX=891
##$CONDENSED SPECTRUM=NO
##NPOINTS= 81
##XYDATA=(XY..XY) 1 
    26          6
    27         59
    29         37
    30          1
    31          8
    33          0
    37          0
    38          0
    39         33
    40          0
    41         65
    42         35
    43         68
    44         25
    45         96
    46          8
    47         65
    48          4
    49          3
    50          1
    51          1
    52          1
    53          3
    54          0
    55         25
    56          4
    57         11
    58         40
    59         75
    60         10
    61         71
    62          4
    63          3
    65          0
    67          2
    69        115
    70         19
    71          8
    72         14
    73        447
    74         41
    75        999
    76         70
    77         32
    78          1
    83          1
    85          6
    86          1
    87          7
    88         15
    89        181
    90         14
    91         12
    92          0
    97          1
    99         17
   100          1
   101         39
   102          6
   103        214
   104         18
   105          8
   109          0
   113          0
   115          7
   116          1
   117          2
   118          0
   127          1
   129          7
   130          0
   131          1
   141          2
   142          3
   145        776
   146         95
   147         31
   148          1
   159          2
   160          3
   161          1