##TITLE=Library Entry 60117
##JCAMP-DX=Revision 4.10 
##DATA TYPE=MASS SPECTRUM
##SAMPLE DESCRIPTION=CARL DJERASSI DEPT OF CHEM STANFORD UNIV STANFORD CALIF
 94305
##NAMES=HP
##CAS NAME=Benzenemethanethiol, TMS derivative
##MOLFORM=C10H16SSi
##CAS REGISTRY NO=14629-67-5
##MP= -300
##BP= -300
##MW= 196
##$RETENTION INDEX=0
##$CONDENSED SPECTRUM=NO
##NPOINTS= 74
##XYDATA=(XY..XY) 1 
    26         20
    27         40
    28         20
    29         30
    31         20
    32         10
    33         10
    34         20
    37         10
    38         20
    39        110
    40         10
    41         30
    42         20
    43         80
    44         20
    45        130
    46         10
    47         10
    50         40
    51        100
    52         30
    53         20
    55         10
    57         10
    58         20
    59         40
    60         10
    61         30
    62         20
    63         50
    64         20
    65        140
    66         20
    69         10
    72         10
    73        210
    74         30
    75         90
    76         20
    77         50
    78         40
    79         20
    89         40
    90         30
    91        999
    92        110
    93         20
    95         10
   102         10
   103         20
   104         40
   105         30
   106         30
   107         10
   121         20
   124         30
   131         10
   135         10
   147         70
   148         10
   151         10
   162        150
   163         30
   164         20
   178         20
   179         20
   180         30
   181        150
   182         40
   183         10
   196        140
   197         20
   198         10