##TITLE=Library Entry 75852
##JCAMP-DX=Revision 4.10 
##DATA TYPE=MASS SPECTRUM
##SAMPLE DESCRIPTION=Japan AIST/NIMC Database- Spectrum MS-IW-5230
##NAMES=HP
##CAS NAME=.beta.-Alanine, N-dodecyl-
##MOLFORM=C15H31NO2
##CAS REGISTRY NO=1462-54-0
##MP= -300
##BP= -300
##MW= 257
##$RETENTION INDEX=0
##$CONDENSED SPECTRUM=NO
##NPOINTS= 131
##XYDATA=(XY..XY) 1 
    14          2
    15          4
    17          3
    18         11
    25          3
    26         19
    27         63
    28         33
    29         65
    30        771
    31         18
    32          3
    36          3
    38          1
    39         19
    40          5
    41        138
    42        171
    43        172
    44        275
    45         96
    46          3
    51          1
    52          2
    53         10
    54         16
    55        140
    56         85
    57         84
    58         16
    59         26
    60         12
    65          2
    66          1
    67         13
    68         14
    69         60
    70         57
    71         22
    72         85
    73         13
    74          2
    77          2
    78          1
    79          3
    80          2
    81          9
    82         15
    83         36
    84        324
    85         39
    86         55
    87          9
    88         16
    89         14
    90         14
    91          2
    93          2
    94          1
    95          5
    96         11
    97         26
    98         35
    99          9
   100         31
   101          5
   102        999
   103         50
   104          5
   105          1
   107          1
   108          1
   109          2
   110          9
   111         11
   112         26
   113          5
   114         13
   115          4
   116         18
   117          5
   118          1
   122          1
   123          1
   124          6
   125          5
   126         25
   127          4
   128         10
   129          2
   130          2
   131          1
   138          4
   139          2
   140         15
   141          2
   142         11
   143          2
   144          9
   145          1
   152          2
   154          9
   155          1
   156         10
   157          1
   158         11
   159          1
   168          9
   169          1
   170          4
   172          7
   173          1
   182          6
   183          1
   184         31
   185         40
   186          9
   187          1
   196         21
   197          3
   198         31
   199          5
   200          3
   210          1
   212          1
   214          3
   228          3
   242          1
   256          4
   257         19
   258          4