##TITLE=Library Entry 97925
##JCAMP-DX=Revision 4.10 
##DATA TYPE=MASS SPECTRUM
##SAMPLE DESCRIPTION=CARL DJERASSI DEPT OF CHEM STANFORD UNIV STANFORD CALIF
 94305
##NAMES=HP
##CAS NAME=3-Phenylpropanol, TMS derivative
##MOLFORM=C12H20OSi
##CAS REGISTRY NO=14629-60-8
##MP= -300
##BP= -300
##MW= 208
##$RETENTION INDEX=1320
##$CONDENSED SPECTRUM=NO
##NPOINTS= 59
##XYDATA=(XY..XY) 1 
    40          9
    41         69
    42          9
    43        118
    44         29
    45        227
    46         19
    47        118
    48          9
    49          9
    50         19
    51         69
    52         19
    53          9
    55          9
    57         19
    58         69
    59        128
    60         29
    61         79
    62          9
    63         29
    64          9
    65        118
    66         19
    71          9
    72         19
    73        297
    74         39
    75        376
    76         29
    77         79
    78         39
    79         19
    87         29
    88          9
    89        475
    90         49
    91        455
    92        128
    93         19
   101         19
   102         29
   103         69
   104         29
   105         19
   115         49
   116         29
   117        376
   118        999
   119         99
   120         19
   135         19
   147          9
   163         19
   175         19
   193        148
   194         39
   195          9