##TITLE=Library Entry 52228
##JCAMP-DX=Revision 4.10 
##DATA TYPE=MASS SPECTRUM
##SAMPLE DESCRIPTION=NIST Mass Spectrometry Data Center, 1990.
##NAMES=HP
##CAS NAME=1-Butanone, 1-cyclohexyl-
##MOLFORM=C10H18O
##CAS REGISTRY NO=1462-27-7
##MP= -300
##BP= -300
##MW= 154
##$RETENTION INDEX=1984
##$CONDENSED SPECTRUM=NO
##NPOINTS= 48
##XYDATA=(XY..XY) 1 
    15         11
    26         21
    27        218
    28         32
    29        111
    31          5
    39        190
    40         45
    41        422
    42         72
    43        456
    44         18
    50          7
    51         18
    52         11
    53         56
    54         76
    55        750
    56         34
    57         16
    58         12
    65         13
    67        104
    68         22
    69         19
    70         49
    71        386
    72         17
    73          5
    77         17
    78          5
    79         23
    80          6
    81         24
    82          5
    83        999
    84         67
    86          7
    91          4
    93          5
    98          6
    99         49
   111        223
   112         20
   113          8
   139          5
   154        140
   155         14