##TITLE=Library Entry 45237
##JCAMP-DX=Revision 4.10 
##DATA TYPE=MASS SPECTRUM
##SAMPLE DESCRIPTION=TNO Volatile Compounds in Food - Chemical Concepts
##NAMES=HP
##CAS NAME=Dodecane, 1,1-dimethoxy-
##MOLFORM=C14H30O2
##CAS REGISTRY NO=14620-52-1
##MP= -300
##BP= -300
##MW= 230
##$RETENTION INDEX=1769
##$CONDENSED SPECTRUM=NO
##NPOINTS= 62
##XYDATA=(XY..XY) 1 
    26          2
    27         16
    30          2
    31          8
    33          2
    36          2
    39         13
    41         88
    42         13
    43         55
    44         14
    45         43
    47         30
    50          2
    51          4
    53          7
    54         12
    55         56
    56          9
    57         23
    58         39
    59         11
    60          1
    65          3
    66          4
    67         21
    68         15
    69         44
    70          4
    71        157
    72         12
    73          2
    74          3
    75        999
    76         35
    77          6
    79          2
    80          2
    81         16
    82         23
    83         35
    84          4
    85         20
    95         15
    96         13
    97         30
    98          3
    99          1
   101          2
   109          6
   110          4
   111         15
   113          1
   123          1
   125          4
   127          2
   138          2
   152          1
   166          3
   199         33
   200          5
   229          1