##TITLE=Library Entry 67072
##JCAMP-DX=Revision 4.10 
##DATA TYPE=MASS SPECTRUM
##SAMPLE DESCRIPTION=Div. of Experiment Therapeutics WRAIR, WRAMC, Washingto
n DC 20307
##NAMES=HP
##CAS NAME=2-Pyridinecarboxylic acid, 3-amino-
##MOLFORM=C6H6N2O2
##CAS REGISTRY NO=1462-86-8
##MP= -300
##BP= -300
##MW= 138
##$RETENTION INDEX=0
##$CONDENSED SPECTRUM=NO
##NPOINTS= 76
##XYDATA=(XY..XY) 1 
    41         21
    42          2
    43          1
    44          2
    45         52
    46          2
    47          0
    48          0
    49          2
    50          6
    51         11
    52         35
    53         22
    54         20
    55          4
    56          1
    57          0
    60          0
    61          0
    62          4
    63         17
    64         58
    65        110
    66        141
    67        314
    68         15
    69          0
    71          0
    72          0
    74          1
    75          9
    76         10
    77          6
    78          3
    79          1
    80          0
    81          3
    82          3
    83          1
    84          0
    85          0
    86          0
    88          0
    89          0
    90          1
    91          9
    92        122
    93         60
    94        999
    96          0
    97          0
    98          0
    99          0
   102          0
   103          0
   104          0
   105          0
   106          0
   107          0
   108          0
   109          0
   110          1
   111          1
   115          0
   116          0
   117          0
   119          1
   120          1
   121         77
   122          4
   123          1
   137          2
   138        221
   139         36
   140          2
   141          0