##TITLE=Library Entry 70244
##JCAMP-DX=Revision 4.10 
##DATA TYPE=MASS SPECTRUM
##SAMPLE DESCRIPTION=ASES Database, Dalian Institute, P.R. China
##NAMES=HP
##CAS NAME=2-Butyl-3,4,5,6-tetrahydropyridine
##MOLFORM=C9H17N
##CAS REGISTRY NO=1462-94-8
##MP= -300
##BP= -300
##MW= 139
##$RETENTION INDEX=0
##$CONDENSED SPECTRUM=NO
##NPOINTS= 13
##XYDATA=(XY..XY) 1 
    41         61
    54         51
    55         50
    69         49
    82         89
    84         70
    96        387
    97        999
    98         60
   110        169
   124         40
   138         19
   139         10