##TITLE=Library Entry 71480
##JCAMP-DX=Revision 4.10 
##DATA TYPE=MASS SPECTRUM
##SAMPLE DESCRIPTION=Japan AIST/NIMC Database- Spectrum MS-IW-7712
##NAMES=HP
##CAS NAME=2,3-Dihydro-6-hydroxy-3-oxo-2-(piperidinomethyl)pyridazine
##MOLFORM=C10H15N3O2
##CAS REGISTRY NO=14628-38-7
##MP= -300
##BP= -300
##MW= 209
##$RETENTION INDEX=0
##$CONDENSED SPECTRUM=NO
##NPOINTS= 90
##XYDATA=(XY..XY) 1 
    13          1
    14          2
    15          9
    16          1
    17         15
    18          2
    24          2
    25          8
    26         45
    27         70
    28         80
    29         45
    30         36
    31          5
    36          2
    37          5
    38         15
    39         35
    40         14
    41        100
    42        115
    43         68
    44         60
    45          3
    46          1
    50          9
    51         44
    52         22
    53         25
    54         71
    55        130
    56         52
    57         32
    58         13
    62          1
    63          1
    64          1
    65          6
    66         15
    67         26
    68         33
    69         49
    70         51
    71         10
    72          1
    76          4
    77         13
    78         50
    79         14
    80         34
    81         12
    82        278
    83         28
    84        174
    85         53
    86          3
    92          3
    93          7
    94         26
    95         23
    96         99
    97        351
    98        999
    99        104
   100          4
   104          1
   106          1
   107          3
   108          6
   109         10
   110          9
   111          9
   112        455
   113         36
   114          8
   122          1
   123          3
   124          1
   125         21
   126          4
   137          1
   139          7
   149          1
   165          1
   192          6
   193          1
   207          5
   208          1
   209         30
   210          3