##TITLE=Library Entry 41752
##JCAMP-DX=Revision 4.10 
##DATA TYPE=MASS SPECTRUM
##SAMPLE DESCRIPTION=FLO 0013
##NAMES=HP
##CAS NAME=N-Ethylbenzylamine, TMS derivative
##MOLFORM=C12H21NSi
##CAS REGISTRY NO=14629-66-4
##MP= -300
##BP= -300
##MW= 207
##$RETENTION INDEX=1303
##$CONDENSED SPECTRUM=NO
##NPOINTS= 137
##XYDATA=(XY..XY) 1 
    14          1
    15          7
    18          2
    26          3
    27         28
    28         62
    29         40
    30         12
    31         61
    32          6
    33          1
    37          1
    38          3
    39         41
    40          5
    41         22
    42         19
    43        138
    44         49
    45        270
    46         19
    47          9
    50          8
    51         25
    52          7
    53         13
    54          5
    55         17
    56         29
    57         27
    58         39
    59        280
    60         24
    61         11
    62          2
    63         12
    64          5
    65        102
    66          8
    67          5
    68          3
    69          5
    70          9
    71          8
    72         19
    73        999
    74         95
    75         42
    76          4
    77         25
    78          8
    79         14
    80          2
    81          2
    82          1
    83          4
    84          2
    85          3
    86         30
    87          5
    88          4
    89         20
    90          8
    91        930
    92         96
    93          8
    94          1
    95          4
    96          1
    97          1
    98          1
    99          1
   100         75
   101         14
   102          7
   103          5
   104         17
   105         20
   106          6
   107         12
   108          3
   109          3
   110          1
   114         12
   115          4
   116         14
   117          7
   118          9
   119          8
   120         11
   121         26
   122          4
   123          2
   124          1
   129          1
   130        128
   131         18
   132         15
   133          5
   134         13
   135        145
   136         21
   137          9
   138          2
   143          1
   145          3
   146          2
   147          5
   148          3
   149         69
   150         12
   151          3
   152         11
   153          1
   159          1
   160          2
   161          1
   162          5
   163          3
   164          1
   174          1
   175          1
   176          4
   177          2
   178          1
   188          1
   189          1
   190          7
   191          2
   192        470
   193         89
   194         30
   195          6
   206          8
   207         62
   208         13
   209          3