##TITLE=Library Entry 97563
##JCAMP-DX=Revision 4.10 
##DATA TYPE=MASS SPECTRUM
##SAMPLE DESCRIPTION=NIST Mass Spectrometry Data Center, 1990.
##NAMES=HP
##CAS NAME=Cyclopropyl phenyl sulphide
##MOLFORM=C9H10S
##CAS REGISTRY NO=14633-54-6
##MP= -300
##BP= -300
##MW= 150
##$RETENTION INDEX=0
##$CONDENSED SPECTRUM=NO
##NPOINTS= 70
##XYDATA=(XY..XY) 1 
    14         13
    26         16
    27         43
    37         25
    38         77
    39        396
    40         37
    41        270
    42         11
    45        278
    46         13
    47         26
    49         13
    50        153
    51        347
    52         36
    57         38
    58         57
    59         68
    61         16
    62         27
    63         78
    64         13
    65        356
    66        142
    69        186
    70         24
    71        110
    72        142
    73         99
    74         97
    75         45
    76         31
    77        238
    78        148
    79         40
    81         27
    82         54
    83         28
    84         60
    89         23
    91        310
    92         29
    93         13
   103         30
   104         39
   105        206
   106         21
   107         13
   108         71
   109        323
   110        151
   111         27
   112          9
   115        271
   116        169
   117        999
   118         95
   121        164
   122         33
   123         40
   134        133
   135        610
   136         65
   137         32
   147         33
   149        343
   150        548
   151         74
   152         28