##TITLE=Library Entry 71477
##JCAMP-DX=Revision 4.10 
##DATA TYPE=MASS SPECTRUM
##SAMPLE DESCRIPTION=A.I. Gren, Phys.-Chem. Inst., Acad. Sci. Ukraine, Odess
a 270080, Ukraine
##NAMES=HP
##CAS NAME=9H-Fluoren-9-one, 3-nitro-2,7-bis[2-(1-piperidinyl)ethoxy]-
##MOLFORM=C27H33N3O5
##CAS REGISTRY NO=146397-91-3
##MP= -300
##BP= -300
##MW= 479
##$RETENTION INDEX=0
##$CONDENSED SPECTRUM=NO
##NPOINTS= 28
##XYDATA=(XY..XY) 1 
    54         14
    55         77
    56         34
    57         32
    58          9
    68         17
    69         41
    70         24
    71         17
    82         26
    83         39
    84         19
    85         15
    96         33
    97         15
    98        999
    99         68
   110         24
   111         26
   112        345
   113         41
   450         16
   451          5
   463          6
   464          2
   478          6
   479         15
   480          5