##TITLE=Library Entry 41640
##JCAMP-DX=Revision 4.10 
##DATA TYPE=MASS SPECTRUM
##SAMPLE DESCRIPTION=B. Derendyaev, Novosibirsk Institute of Organic Chemist
ry
##NAMES=HP
##CAS NAME=5-10-Methoxy-2,7,7,10-tetramethylundeca-2,5-dien-4-one
##MOLFORM=C16H28O2
##CAS REGISTRY NO=146308-65-8
##MP= -300
##BP= -300
##MW= 252
##$RETENTION INDEX=0
##$CONDENSED SPECTRUM=NO
##NPOINTS= 46
##XYDATA=(XY..XY) 1 
    41         69
    42          8
    43         88
    53          8
    55         96
    57          9
    59          7
    67          9
    69         53
    71          5
    72          8
    73        999
    74         21
    77          5
    79          7
    81         49
    82         15
    83        260
    84          9
    85         91
    91          7
    95         33
    96         26
   105          5
   107         18
   108         17
   109        207
   110         14
   111          8
   121         13
   122          8
   123         55
   124         75
   137         29
   140         42
   141         10
   149         80
   150          9
   151         95
   152         82
   153          8
   164         17
   177         10
   205         18
   220         25
   221          5