##TITLE=Library Entry 23624
##JCAMP-DX=Revision 4.10 
##DATA TYPE=MASS SPECTRUM
##SAMPLE DESCRIPTION=Dennis Rohrbaugh, CBDCOM/ERDEC, Edgewood, MD
##NAMES=HP
##CAS NAME=Trifluoromethyl S-butyl disulfide
##MOLFORM=C5H9F3S2
##CAS REGISTRY NO=146439-76-1
##MP= -300
##BP= -300
##MW= 190
##$RETENTION INDEX=0
##$CONDENSED SPECTRUM=NO
##NPOINTS= 26
##XYDATA=(XY..XY) 1 
    41        546
    42         36
    45         67
    47         23
    53         36
    55         98
    57        999
    58         75
    59        106
    60         42
    61         35
    64         60
    69        204
    71          9
    73         21
    82         13
    87          4
    89         16
   114         10
   115         11
   133         30
   134          6
   161          9
   190        110
   191          9
   192         10