##TITLE=Library Entry 49127
##JCAMP-DX=Revision 4.10 
##DATA TYPE=MASS SPECTRUM
##SAMPLE DESCRIPTION=Chemical Concepts
##NAMES=HP
##CAS NAME=2-Pyridinecarbamidine, N'-(4-methylbenzimino)-
##MOLFORM=C14H14N4
##CAS REGISTRY NO=146429-92-7
##MP= -300
##BP= -300
##MW= 238
##$RETENTION INDEX=0
##$CONDENSED SPECTRUM=NO
##NPOINTS= 167
##XYDATA=(XY..XY) 1 
    26         16
    27         71
    28         40
    29         15
    30          4
    31          3
    37          6
    38         19
    39        117
    40         13
    41         47
    42         10
    43         60
    44          4
    45          3
    49          4
    50         53
    51        205
    52        249
    53         55
    54          9
    55         21
    56         10
    57         29
    58          3
    59          2
    60          5
    61          4
    62         17
    63         63
    64         35
    65        139
    66         18
    67         12
    68          6
    69         18
    70         10
    71         16
    73          5
    74         10
    75         20
    76         42
    77        159
    78        569
    79        999
    80        109
    81         16
    82          6
    83         13
    84          6
    85         12
    86          4
    87          7
    88          5
    89         70
    90         51
    91        232
    92        181
    93         33
    94         15
    95          9
    96          5
    97         11
    98          5
    99          4
   101          5
   102         23
   103        117
   104        108
   105        977
   106        248
   107         95
   108         10
   109          7
   110          4
   111          7
   112          5
   113          5
   114          3
   115         12
   116         65
   117         58
   118        131
   119        150
   120         90
   121        145
   122         16
   123          5
   124          3
   125          5
   127          5
   128          5
   129          5
   130         11
   131         23
   132         22
   133        272
   134         78
   135         10
   136          3
   137          4
   139          4
   140          4
   141          5
   142          4
   143         10
   144          3
   145          8
   146          5
   147        924
   148        103
   149         74
   150          8
   151          4
   152          6
   153          5
   154          4
   155          4
   157          4
   158          3
   159          4
   160        146
   161         18
   165          5
   166          9
   167         34
   168         15
   169          5
   170          2
   178          4
   179          6
   180         16
   181         12
   182         33
   183         10
   184          7
   185          7
   186          3
   189          4
   190          5
   191          7
   192         25
   193         47
   194        364
   195         88
   196         13
   197          3
   205          8
   206          9
   207         76
   208         73
   209        309
   210        100
   211         13
   219          3
   220         31
   221        100
   222        140
   223         34
   224          8
   225          2
   235          3
   236         80
   237        580
   238        525
   239        107
   240          9