##TITLE=Library Entry 67087
##JCAMP-DX=Revision 4.10 
##DATA TYPE=MASS SPECTRUM
##SAMPLE DESCRIPTION=Japan AIST/NIMC Database- Spectrum MS-NW-2020
##NAMES=HP
##CAS NAME=Phenyl-.beta.-D-glucoside
##MOLFORM=C12H16O6
##CAS REGISTRY NO=1464-44-4
##MP= -300
##BP= -300
##MW= 256
##$RETENTION INDEX=0
##$CONDENSED SPECTRUM=NO
##NPOINTS= 117
##XYDATA=(XY..XY) 1 
    12          1
    13          2
    14          8
    15         28
    16          2
    17         14
    18         61
    19          5
    25          2
    26         13
    27         43
    28         36
    29         79
    30         24
    31         69
    32          8
    36          1
    37          8
    38         16
    39         75
    40         36
    41         28
    42         28
    43         85
    44         24
    45         52
    46          2
    47         13
    49          3
    50         15
    51         31
    52          8
    53         10
    54          8
    55         59
    56         20
    57         87
    58          7
    59          6
    60         86
    61         53
    62          6
    63         11
    64          5
    65         58
    66         81
    67          6
    68         10
    69         46
    70         15
    71         33
    72         12
    73         92
    74         13
    75          5
    76          3
    77         47
    78          9
    79          9
    80          3
    81          9
    82          2
    83          5
    84          7
    85         72
    86          7
    87         42
    88          4
    89         11
    90          3
    91         19
    92          2
    93          7
    94        999
    95         83
    96         12
    97         28
    98         14
    99          9
   100          1
   101          9
   102          3
   103          7
   105          1
   107         11
   108          3
   109          6
   110          2
   112          2
   113          3
   114          2
   115          7
   116          2
   118          4
   119          5
   120          1
   121          1
   122          1
   123          3
   126          4
   127         16
   128          2
   131          6
   132          1
   133          2
   135          1
   136          9
   137          3
   144          6
   145         14
   146          1
   147          2
   148          1
   161          1
   162         12
   163          1
   256          2