##TITLE=Library Entry 67334
##JCAMP-DX=Revision 4.10 
##DATA TYPE=MASS SPECTRUM
##SAMPLE DESCRIPTION=NIST Mass Spectrometry Data Center
##NAMES=HP
##CAS NAME=3-Pyridinemethanol, 5-hydroxy-4-(methoxymethyl)-6-methyl-
##MOLFORM=C9H13NO3
##CAS REGISTRY NO=1464-33-1
##MP= -300
##BP= -300
##MW= 183
##$RETENTION INDEX=1660
##$CONDENSED SPECTRUM=NO
##NPOINTS= 69
##XYDATA=(XY..XY) 1 
    26          6
    27         42
    29         37
    30          5
    31         36
    33          6
    37          4
    38         23
    39        186
    40         23
    41         73
    42        131
    43         45
    45         73
    46          5
    50         45
    51        172
    52         96
    53        209
    54        156
    55         86
    56         14
    61          9
    62          9
    63         40
    64         28
    65         82
    66         60
    67        119
    68         36
    69         20
    77         67
    78         29
    79         47
    80        140
    81        171
    82         99
    83         14
    85         11
    90          2
    92         43
    93         48
    94        999
    95         95
    96         16
   104         14
   105         47
   106        637
   107        152
   108         98
   109         19
   110         14
   120         45
   121         16
   122        291
   123         84
   124         12
   133         72
   134         21
   136        140
   149         12
   150        145
   151        569
   152         57
   165         28
   166          5
   183        269
   184         31
   185          2