##TITLE=Library Entry 40659
##JCAMP-DX=Revision 4.10 
##DATA TYPE=MASS SPECTRUM
##SAMPLE DESCRIPTION=Chemical Concepts
##NAMES=HP
##CAS NAME=Silane, trimethyl-1,2-propadienyl-
##MOLFORM=C6H12Si
##CAS REGISTRY NO=14657-22-8
##MP= -300
##BP= -300
##MW= 112
##$RETENTION INDEX=0
##$CONDENSED SPECTRUM=NO
##NPOINTS= 78
##XYDATA=(XY..XY) 1 
    25          0
    26          6
    27         23
    28         21
    29         61
    30          6
    31         26
    33          1
    36          0
    37          4
    38          9
    39         35
    40          2
    41          5
    42         35
    43        248
    44         46
    45        233
    46         15
    47          7
    48          8
    50          5
    51          5
    52          3
    53         91
    54         22
    55         79
    56          8
    57         19
    58         22
    59         38
    60          3
    61          1
    62          0
    63          0
    64          1
    65         17
    66         42
    67         60
    68         13
    69        216
    70         24
    71         49
    73        999
    74         96
    75         38
    76          2
    77          8
    78          1
    79          5
    80          1
    81         16
    82          2
    83         23
    84          2
    85          3
    86          0
    89          0
    90          0
    91          0
    92          0
    93          1
    95         16
    96         11
    97        234
    98         28
    99         21
   100          1
   101          0
   105          0
   108          0
   109          0
   110          0
   112        205
   113         24
   114         10
   115          1
   116          0