##TITLE=Library Entry 46459
##JCAMP-DX=Revision 4.10 
##DATA TYPE=MASS SPECTRUM
##SAMPLE DESCRIPTION=Humboldt-Universitat zu Berlin, Department of Chemistry
, Analytical Group
##NAMES=HP
##CAS NAME=2-Anilino-6-methyl-6,7,8,9-tetrhydro-5H-[1,2,4]-triazolo[1,5-c][1
,3]-diazepin-5-one
##MOLFORM=C13H15N5O
##CAS REGISTRY NO=146580-62-3
##MP= -300
##BP= -300
##MW= 257
##$RETENTION INDEX=0
##$CONDENSED SPECTRUM=NO
##NPOINTS= 150
##XYDATA=(XY..XY) 1 
    12          4
    13          3
    14         10
    15        205
    16          8
    17         12
    18         44
    26         40
    27        205
    28        301
    29         75
    30         36
    31         18
    37          9
    38         40
    39        278
    40         90
    41        625
    42        412
    43        122
    44         93
    45          9
    50        121
    51        464
    52        103
    53         66
    54        145
    55         94
    56         94
    57         54
    58        188
    59         11
    60         27
    61          5
    62         11
    63         48
    64         49
    65        119
    66         53
    67         60
    68        236
    69         69
    70         30
    71         15
    72         14
    73         51
    74         23
    75         36
    76        143
    77        999
    78        107
    79         16
    80         16
    81         30
    82         28
    83         32
    84          7
    85         13
    86          4
    88          3
    89          7
    90         23
    91         92
    92         59
    93         38
    94         10
    95         58
    96         11
    97         41
    98        141
    99         15
   100         12
   101          3
   102         14
   103         90
   104        397
   105         61
   106         13
   107          6
   108          7
   109        140
   110         17
   111          7
   112          7
   115          5
   116          8
   117         53
   118        178
   119         86
   120         19
   121          4
   122          4
   123          6
   124         12
   125         61
   126        131
   127         13
   128          7
   129         11
   130         15
   131         12
   132         53
   133         36
   134          8
   135          6
   137         16
   138          3
   142          2
   143         33
   144         45
   145         14
   146         23
   147          5
   151          2
   152          2
   155          3
   156          6
   157         22
   158         14
   159         12
   160          8
   161          3
   169          4
   170         17
   171         36
   172         18
   173          7
   174         31
   175          4
   182          4
   183          2
   184          2
   185          8
   186         14
   187         15
   188          3
   197          1
   199        238
   200        198
   201         47
   202          4
   213          7
   214         22
   215          3
   228          4
   229         27
   230          4
   257        267
   258         45
   259          4