##TITLE=Library Entry 98590
##JCAMP-DX=Revision 4.10 
##DATA TYPE=MASS SPECTRUM
##SAMPLE DESCRIPTION=NIST Mass Spectrometry Data Center, 2009
##NAMES=HP
##CAS NAME=(Z)-N-Hydroxy-1-(4-methylphenyl)propanimine
##MOLFORM=C11H15NO
##CAS REGISTRY NO=1465781-11-6
##MP= -300
##BP= -300
##MW= 177
##$RETENTION INDEX=1524
##$CONDENSED SPECTRUM=NO
##NPOINTS= 119
##XYDATA=(XY..XY) 1 
    15          4
    19          1
    26          7
    27         86
    28         13
    29         30
    30          7
    31          4
    37          4
    38         15
    39        154
    40         19
    41        133
    42         33
    43         48
    44         14
    45          5
    46          8
    50         37
    51         90
    52         33
    53         32
    54          9
    55          6
    56          2
    57          5
    58         10
    60          6
    61          7
    62         33
    63        125
    64         52
    65        319
    66         30
    67          6
    68         13
    69          3
    70          9
    71         13
    74         30
    75         29
    76         28
    77        132
    78         44
    79         90
    80         55
    81         22
    82          2
    84          2
    85          2
    86         10
    88         23
    89        247
    90        186
    91        808
    92        190
    93         30
    94          6
    95          2
    98          2
    99          2
   100          1
   101         10
   102         45
   103         77
   104         33
   105        271
   106        133
   107        125
   108         81
   109          8
   110          1
   111          1
   113          3
   114         11
   115        262
   116        336
   117        619
   118        999
   119        464
   120        131
   121         31
   122          3
   126          3
   127         28
   128         75
   129         55
   130        103
   131        138
   132         42
   133         78
   134         99
   135         10
   136          3
   139          1
   140          2
   141          6
   142          7
   143         56
   144        101
   145        107
   146         43
   148        832
   149        467
   150         45
   151          3
   156          2
   157          3
   158         20
   160        587
   161         79
   162        806
   163         92
   164          6
   174          1
   176        292
   177        323
   178         41
   179          3