##TITLE=Library Entry 225
##JCAMP-DX=Revision 4.10 
##DATA TYPE=MASS SPECTRUM
##SAMPLE DESCRIPTION=Exported from NIST MS Search
##NAMES=HP
##CAS NAME=Cobalt, tetracarbonylsilyl-
##MOLFORM=C4H3CoO4Si
##CAS REGISTRY NO=14652-62-1
##MP= -300
##BP= -300
##MW= 202
##$RETENTION INDEX=0
##$CONDENSED SPECTRUM=NO
##NPOINTS= 27
##XYDATA=(XY..XY) 1 
    28        999
    29        170
    30         70
    31        120
    44         20
    45         20
    59        200
    60         10
    73         50
    74         30
    75         90
    76         50
    77        120
    78         30
    79         10
    87        100
    88         40
    89         10
    90         30
   115         40
   116         20
   118         20
   143         10
   146          5
   171          3
   174          5
   202          1