##TITLE=Library Entry 73896
##JCAMP-DX=Revision 4.10 
##DATA TYPE=MASS SPECTRUM
##SAMPLE DESCRIPTION=Zaikin V.G., TIPS RAS, Moscow, Russia
##NAMES=HP
##CAS NAME=Pentanoic acid, 5-bromo-, ethyl ester
##MOLFORM=C7H13BrO2
##CAS REGISTRY NO=14660-52-7
##MP= -300
##BP= -300
##MW= 208
##$RETENTION INDEX=1240
##$CONDENSED SPECTRUM=NO
##NPOINTS= 68
##XYDATA=(XY..XY) 1 
    26         23
    27        168
    28          5
    29        307
    30         12
    31         11
    36         10
    38          6
    39         67
    40          9
    41        111
    42         28
    43         80
    44         13
    45         77
    50          4
    51          7
    52          5
    53         29
    54         23
    55        622
    56         57
    57         32
    58          7
    59         83
    60         14
    69          5
    73        166
    74         24
    75          4
    79          6
    80          8
    81          3
    82         12
    83        215
    84         12
    85          4
    87         30
    93         10
    95          9
    99          7
   100          6
   101        999
   102         70
   103          6
   106          7
   107         27
   108         11
   109         25
   110          4
   115         20
   129        302
   130         24
   135        190
   136         11
   137        180
   138          8
   162          7
   163        256
   164         21
   165        242
   166         14
   179          3
   180         25
   181         11
   182         24
   183          7
   210         15