##TITLE=Library Entry 83220
##JCAMP-DX=Revision 4.10 
##DATA TYPE=MASS SPECTRUM
##SAMPLE DESCRIPTION=NIST Mass Spectrometry Data Center
##NAMES=HP
##CAS NAME=Urea, N,N'-bis(phenylmethyl)-
##MOLFORM=C15H16N2O
##CAS REGISTRY NO=1466-67-7
##MP= -300
##BP= -300
##MW= 240
##$RETENTION INDEX=2402
##$CONDENSED SPECTRUM=NO
##NPOINTS= 35
##XYDATA=(XY..XY) 1 
    30         13
    39         17
    50         10
    51         45
    52         13
    63         17
    64          6
    65        125
    66          8
    74          7
    76          9
    77        100
    78         43
    79        167
    80         15
    89         18
    90          8
    91        421
    92         54
   104         71
   105         30
   106        999
   107        118
   108         13
   132         12
   133          9
   147          9
   148          6
   149        206
   150         16
   167          7
   182          7
   240        479
   241         82
   242          8