##TITLE=Library Entry 47453
##JCAMP-DX=Revision 4.10 
##DATA TYPE=MASS SPECTRUM
##SAMPLE DESCRIPTION=Japan AIST/NIMC Database- Spectrum MS-IW-2330
##NAMES=HP
##CAS NAME=2-Propenal, 3-(2-nitrophenyl)-
##MOLFORM=C9H7NO3
##CAS REGISTRY NO=1466-88-2
##MP= -300
##BP= -300
##MW= 177
##$RETENTION INDEX=0
##$CONDENSED SPECTRUM=NO
##NPOINTS= 112
##XYDATA=(XY..XY) 1 
    15          3
    16          1
    26          9
    27         50
    28         52
    29         73
    30         27
    31          3
    36          1
    37         19
    38         43
    39        194
    40         17
    41         37
    42          8
    43         32
    44          5
    45          2
    46          3
    48          1
    49         15
    50        257
    51        578
    52        124
    53         47
    54         10
    55          9
    56          1
    57          1
    58          1
    60          3
    61         29
    62         81
    63        254
    64         96
    65        930
    66        179
    67         27
    68          4
    69         19
    70          1
    71         31
    72          2
    73         18
    74        168
    75        268
    76        337
    77        999
    78        161
    79         25
    80          5
    81          3
    82          1
    84          2
    85          8
    86         15
    87         26
    88         15
    89        197
    90        130
    91        527
    92        834
    93        331
    94         33
    95          2
    96          1
    97          4
    98         25
    99         10
   100          6
   101        162
   102        469
   103        279
   104        317
   105         96
   106          9
   107          3
   109          1
   110          1
   111          1
   113          2
   114          4
   115          9
   116         46
   117         15
   118         57
   119         16
   120        198
   121         49
   122          4
   127          1
   128          8
   129         53
   130        192
   131        369
   132        335
   133         34
   134          4
   135          2
   144          2
   145          8
   146          4
   147          5
   148        938
   149         88
   150          8
   159         13
   160         22
   161          2
   176          7
   177         52
   178          7