##TITLE=Library Entry 48522
##JCAMP-DX=Revision 4.10 
##DATA TYPE=MASS SPECTRUM
##SAMPLE DESCRIPTION=Pu Leung, NIH, Bethesda, MD
##NAMES=HP
##CAS NAME=Tris(2-cyanoethyl)nitromethane
##MOLFORM=C10H12N4O2
##CAS REGISTRY NO=1466-48-4
##MP= -300
##BP= -300
##MW= 220
##$RETENTION INDEX=0
##$CONDENSED SPECTRUM=NO
##NPOINTS= 98
##XYDATA=(XY..XY) 1 
    41        734
    42        174
    43         20
    44         10
    46         60
    47          7
    48          7
    49         40
    50         51
    51        191
    52        235
    53        478
    54        309
    55         53
    56         15
    57          5
    58          1
    59          0
    60          3
    61          3
    62          7
    63         50
    64         71
    65        280
    66        225
    67        268
    68         45
    69          8
    70          3
    71          2
    73          2
    74          2
    75          9
    76         19
    77        185
    78         26
    79        999
    80        185
    81         60
    82         12
    84         23
    86         14
    87          0
    88          6
    89          6
    90          9
    91         60
    92         94
    93        154
    94        122
    95         22
    96          6
    97          2
   101          0
   102          4
   103         25
   104         31
   106        709
   107        203
   108         42
   109          5
   110          2
   115          0
   116         52
   117         14
   118         22
   119         13
   120        446
   121         50
   122          4
   123          1
   127          7
   128          2
   130         45
   131         57
   132         53
   133        431
   134        473
   135         43
   136          5
   137          1
   140          1
   142          2
   145         10
   147        283
   148         25
   149          2
   156          1
   157         24
   158          3
   159          3
   172          4
   174        351
   175         37
   176          2
   203          9
   204          0
   220          2