##TITLE=Library Entry 5168
##JCAMP-DX=Revision 4.10 
##DATA TYPE=MASS SPECTRUM
##SAMPLE DESCRIPTION=Japan AIST/NIMC Database- Spectrum MS-NW-4717
##NAMES=HP
##CAS NAME=Pyrazine, trimethyl-
##MOLFORM=C7H10N2
##CAS REGISTRY NO=14667-55-1
##MP= -300
##BP= -300
##MW= 122
##$RETENTION INDEX=1004
##$CONDENSED SPECTRUM=NO
##NPOINTS= 54
##XYDATA=(XY..XY) 1 
    14          1
    15         23
    17          1
    18          6
    25          1
    26         17
    27         70
    28         19
    29          2
    37         10
    38         28
    39        194
    40        131
    41         35
    42        999
    43         26
    44          1
    47          1
    49          2
    50         13
    51         28
    52         38
    53         63
    54        104
    55          7
    56          1
    60          6
    61          3
    63          2
    64          7
    65          3
    66         13
    67          3
    68          2
    75          2
    76          2
    77          1
    78          4
    79          4
    80         27
    81        163
    82         11
    93          1
    94          4
    95          6
    96          2
   107         15
   108          3
   119          1
   120          2
   121         24
   122        664
   123         56
   124          3