##TITLE=Library Entry 34701
##JCAMP-DX=Revision 4.10 
##DATA TYPE=MASS SPECTRUM
##SAMPLE DESCRIPTION=Chemical Concepts
##NAMES=HP
##CAS NAME=Uridine, 5'-deoxy-5'-iodo-2',3'-O-(1-methylethylidene)-
##MOLFORM=C12H15IN2O5
##CAS REGISTRY NO=14671-65-9
##MP= -300
##BP= -300
##MW= 394
##$RETENTION INDEX=0
##$CONDENSED SPECTRUM=NO
##NPOINTS= 162
##XYDATA=(XY..XY) 1 
    26         65
    27        161
    28         77
    29         84
    30         11
    31         52
    38         20
    39        313
    40        149
    41        850
    42        131
    43        875
    44         71
    45         16
    47         10
    50         14
    51         38
    52         40
    53         94
    54         90
    55        143
    56         38
    57         93
    58         33
    59        575
    60         38
    61         11
    63          9
    64          9
    65         26
    66         24
    67        120
    68        218
    69        999
    70        314
    71         62
    72         11
    73         21
    74          9
    75         10
    76         12
    77         82
    78         14
    79         18
    80         26
    81        115
    82        105
    83         73
    84         35
    85        145
    86         16
    87          9
    92         27
    93         15
    94         19
    95         63
    96        159
    97         99
    98        312
    99        182
   100         36
   101         30
   102         16
   107         11
   108         25
   109         31
   110         39
   111         32
   112         70
   113        275
   114         24
   115         16
   119          9
   120         18
   121         16
   122         28
   123         12
   124         40
   125         19
   126        113
   127        467
   128         45
   129         11
   135         11
   136         12
   137        287
   138        102
   139         22
   140         11
   141        128
   142         25
   143         15
   148         43
   149         89
   150         21
   151         23
   152         15
   153         17
   154         13
   155        190
   156         27
   157         18
   163         16
   164         14
   165         67
   166         67
   167         54
   168         14
   169         40
   170         31
   171         10
   179         13
   180          8
   181         18
   182          7
   183        156
   184          9
   191         36
   192         60
   193         17
   195         75
   196         78
   197        149
   198         10
   199         14
   201         10
   209        373
   210         57
   211         10
   212          7
   223         15
   224         11
   225        259
   226         17
   240         20
   243          8
   247         22
   248         36
   249          9
   250          6
   251         60
   252         10
   253         11
   254          9
   266         11
   267         28
   268          9
   276         25
   280         11
   282         34
   283        385
   284         38
   319        205
   320         24
   336         83
   337         20
   379        237
   380         33
   381         10
   394        131
   395         21
   396          5