##TITLE=Library Entry 16477
##JCAMP-DX=Revision 4.10 
##DATA TYPE=MASS SPECTRUM
##SAMPLE DESCRIPTION=Dr. Jiri Zamecnik, DCIEM, North York, Canada, GP Librar
y
##NAMES=HP
##CAS NAME=2,5-Dimethoxy-4-(methylsulfonyl)amphetamine
##MOLFORM=C12H19NO4S
##CAS REGISTRY NO=146724-75-6
##MP= -300
##BP= -300
##MW= 273
##$RETENTION INDEX=0
##$CONDENSED SPECTRUM=NO
##NPOINTS= 36
##XYDATA=(XY..XY) 1 
    44        999
    45         27
    53          9
    65          8
    69          6
    73         11
    77         18
    79         11
    84         16
    90          6
    91         12
   105          5
   107          4
   120          9
   121          6
   122          3
   135          5
   136          3
   137          6
   147          4
   149          5
   150          3
   167         10
   183          1
   197         29
   198          7
   199          5
   207          1
   214          8
   215          2
   221          2
   229          2
   230          3
   266          2
   273          9
   274          1