##TITLE=Library Entry 51445
##JCAMP-DX=Revision 4.10 
##DATA TYPE=MASS SPECTRUM
##SAMPLE DESCRIPTION=A.A.Kutin, Moscow, Russia
##NAMES=HP
##CAS NAME=10-Oxatricyclo[5.2.1.0(2.6)]dec-8-ene-3,5-dione, 4-(2-methylpheny
l)-
##MOLFORM=C16H15NO3
##CAS REGISTRY NO=146797-48-0
##MP= -300
##BP= -300
##MW= 269
##$RETENTION INDEX=0
##$CONDENSED SPECTRUM=NO
##NPOINTS= 127
##XYDATA=(XY..XY) 1 
    37          3
    38         16
    39        118
    40         13
    41         16
    42          9
    43        100
    44          3
    45          0
    50         27
    51         70
    52         45
    53         89
    54        134
    55         21
    56          4
    57          0
    61          0
    62          8
    63         33
    65         94
    66         11
    67          2
    68          4
    69          4
    70          1
    74          3
    75          5
    76         14
    77         90
    78         58
    79         49
    81        191
    82        999
    83         80
    84          6
    88          1
    89         16
    90         27
    91         43
    92          6
    93         10
    94          9
    95          5
    96          6
    97          0
   101          0
   102          6
   103         13
   104         72
   105         26
   106         13
   107         21
   108         13
   109          1
   110          3
   114          4
   115         12
   116          8
   117         21
   118         13
   119          2
   121          8
   122          1
   127          1
   128          3
   130         82
   131         18
   132         25
   133         11
   134          2
   135          8
   136          0
   138          0
   140          5
   141         24
   142         11
   143         33
   144          7
   145          4
   146          1
   147          0
   151          1
   152         12
   153          2
   154          1
   155          0
   157          0
   158         12
   159         42
   160          4
   165          1
   167          1
   169        152
   170         26
   171          3
   172          2
   173          4
   175          3
   177          0
   178          1
   179          0
   180          0
   181          5
   182          0
   184          1
   185          1
   186         12
   187        129
   188         22
   189          2
   194          0
   196          0
   198          1
   199          2
   206          0
   207          0
   208          2
   222          0
   223          1
   224          0
   226          3
   227          0
   240          2
   269         54
   270          9
   271          0