##TITLE=Library Entry 4199
##JCAMP-DX=Revision 4.10 
##DATA TYPE=MASS SPECTRUM
##SAMPLE DESCRIPTION=Exported from NIST MS Search
##NAMES=HP
##CAS NAME=1H-Purine, 6-[(3-methyl-2-butenyl)thio]-
##MOLFORM=C10H12N4S
##CAS REGISTRY NO=14671-21-7
##MP= -300
##BP= -300
##MW= 220
##$RETENTION INDEX=0
##$CONDENSED SPECTRUM=NO
##NPOINTS= 65
##XYDATA=(XY..XY) 1 
    27        159
    28        266
    29         77
    38         33
    39        220
    40         59
    41        999
    42         74
    43        127
    44        135
    45        100
    51         33
    52         14
    53        166
    54         29
    55        100
    56         46
    57         92
    59         22
    66         77
    67         61
    68        177
    69         83
    70        511
    71        103
    72         61
    81         29
    82         14
    83         33
    84         14
    85         46
    92         55
    93         70
    94         33
    95         18
    97        103
    98         51
    99         33
   119        127
   120         44
   121         37
   124         55
   125        224
   126         33
   134        270
   135         22
   152        585
   153        138
   154         29
   163         29
   164         38
   171         29
   172        194
   173         48
   175         42
   177        100
   178         16
   185         35
   186        125
   187        962
   191         33
   205         42
   220        309
   221         31
   222         18