##TITLE=Library Entry 35290
##JCAMP-DX=Revision 4.10 
##DATA TYPE=MASS SPECTRUM
##SAMPLE DESCRIPTION=NIST Mass Spectrometry Data Center, 1998.
##NAMES=HP
##CAS NAME=Cyanamide, dimethyl-
##MOLFORM=C3H6N2
##CAS REGISTRY NO=1467-79-4
##MP= -300
##BP= -300
##MW= 70
##$RETENTION INDEX=728
##$CONDENSED SPECTRUM=NO
##NPOINTS= 31
##XYDATA=(XY..XY) 1 
    12          1
    13          1
    14          6
    15         45
    16          1
    24          1
    25          3
    26          9
    27         28
    28         77
    29          5
    30          3
    38         13
    39         17
    40         50
    41         60
    42        330
    43         28
    44          4
    51          1
    52          8
    53        196
    54         27
    55         24
    56          1
    66          2
    67         27
    68          8
    69        999
    70        559
    71         24