##TITLE=Library Entry 6971
##JCAMP-DX=Revision 4.10 
##DATA TYPE=MASS SPECTRUM
##SAMPLE DESCRIPTION=Div. of Experiment Therapeutics WRAIR, WRAMC, Washingto
n DC 20307
##NAMES=HP
##CAS NAME=Acetic acid, 2-(o-nitrophenyl)hydrazide
##MOLFORM=C8H9N3O3
##CAS REGISTRY NO=14674-17-0
##MP= -300
##BP= -300
##MW= 195
##$RETENTION INDEX=0
##$CONDENSED SPECTRUM=NO
##NPOINTS= 68
##XYDATA=(XY..XY) 1 
    43        999
    44          6
    45          3
    47          3
    48          0
    49         18
    50         75
    51        191
    52        625
    53         93
    54          4
    55          3
    57          1
    59          0
    60          0
    61         12
    62         12
    63         71
    64         49
    65         37
    66          7
    67          1
    73          2
    74         22
    75         12
    76         59
    77        252
    78         72
    79         70
    80         21
    81          2
    82          0
    83          1
    84         16
    86         10
    88          3
    90         46
    91         90
    92         22
    93          8
    94          3
   103          0
   104          2
   105         17
   107         46
   108          2
   109          1
   119         11
   120          3
   121          1
   122          2
   125          3
   132         41
   133          1
   134          5
   135         62
   136         17
   137          3
   138          0
   148          1
   149          0
   152         16
   153         81
   154          8
   155          0
   195        276
   196         43
   197          4