##TITLE=Library Entry 15200
##JCAMP-DX=Revision 4.10 
##DATA TYPE=MASS SPECTRUM
##SAMPLE DESCRIPTION=Japan AIST/NIMC Database- Spectrum MS-IW-2657
##NAMES=HP
##CAS NAME=5-Aminoisoxazole
##MOLFORM=C3H4N2O
##CAS REGISTRY NO=14678-05-8
##MP= -300
##BP= -300
##MW= 84
##$RETENTION INDEX=0
##$CONDENSED SPECTRUM=NO
##NPOINTS= 56
##XYDATA=(XY..XY) 1 
    12          9
    13         15
    14         33
    15         16
    16         76
    17         60
    18         45
    24          6
    25         17
    26         45
    27        103
    28        385
    29        316
    30         31
    31          2
    32          1
    33          1
    34          1
    36          2
    37          7
    38        114
    39        201
    40        632
    41        925
    42        100
    43        165
    44        999
    45         35
    46          4
    49          1
    50          5
    51         16
    52         94
    53         93
    54         12
    55         18
    56         23
    57         71
    58          3
    59          3
    60          1
    61          8
    64          2
    65          3
    66         24
    67        119
    68        394
    69         15
    70         24
    71          1
    82          2
    83          6
    84        778
    85         39
    86         24
    87          1