##TITLE=Library Entry 23716
##JCAMP-DX=Revision 4.10 
##DATA TYPE=MASS SPECTRUM
##SAMPLE DESCRIPTION=NIST Mass Spectrometry Data Center, 1990.
##NAMES=HP
##CAS NAME=Heptane, 3-ethyl-2-methyl-
##MOLFORM=C10H22
##CAS REGISTRY NO=14676-29-0
##MP= -300
##BP= -300
##MW= 142
##$RETENTION INDEX=941
##$CONDENSED SPECTRUM=NO
##NPOINTS= 42
##XYDATA=(XY..XY) 1 
    14          6
    15          4
    16          4
    27        119
    28         10
    29        127
    30          2
    39        132
    41        482
    42        114
    43        450
    44         19
    50          4
    51         12
    52          7
    53         56
    54         28
    55        211
    56        259
    57        999
    58         44
    65         12
    66          3
    67         27
    68         19
    69        155
    70        154
    71        158
    72          9
    77          8
    79          6
    81          3
    83         29
    84         34
    85         90
    86          5
    98        472
    99         63
   100          3
   112         16
   113         26
   142         14