##TITLE=Library Entry 100511
##JCAMP-DX=Revision 4.10 
##DATA TYPE=MASS SPECTRUM
##SAMPLE DESCRIPTION=Insect Chem. Ecol. Lab., USDA, Beltsville, MD 20705
##NAMES=HP
##CAS NAME=p-Ethylbenzylchloride
##MOLFORM=C9H11Cl
##CAS REGISTRY NO=1467-05-6
##MP= -300
##BP= -300
##MW= 154
##$RETENTION INDEX=1184
##$CONDENSED SPECTRUM=NO
##NPOINTS= 89
##XYDATA=(XY..XY) 1 
    41         35
    43         26
    44          1
    45         12
    47          1
    48          3
    49          9
    50         37
    51         80
    52         23
    53         12
    55          5
    58         85
    59          9
    60          1
    61          7
    62         24
    63         66
    65         60
    66          4
    67          1
    68          0
    69          3
    70          1
    71          1
    73          6
    74         12
    75         17
    76          3
    77        100
    78         54
    79         30
    80          2
    81          0
    82          1
    83          1
    84          2
    85          3
    86          6
    87          7
    89         51
    91        201
    92         16
    93         12
    94          1
    95          1
    97          2
    99          8
   101          6
   102         19
   103        129
   104        108
   105        125
   106          7
   107         28
   108          0
   109          0
   111          1
   112          0
   113          2
   115         71
   117        142
   119        999
   120         80
   121          9
   122          0
   123          1
   125         54
   127         21
   128          0
   131          1
   133         20
   135         16
   136          1
   137          6
   138         14
   139         94
   140          6
   141         28
   142          2
   147          0
   148          0
   152          3
   153        100
   154        319
   155         25
   156        136
   157         11
   158          0