##TITLE=Library Entry 79086
##JCAMP-DX=Revision 4.10 
##DATA TYPE=MASS SPECTRUM
##SAMPLE DESCRIPTION=Japan AIST/NIMC Database- Spectrum MS-IW-7888
##NAMES=HP
##CAS NAME=1,3,5-Pentanetrione, 1,5-diphenyl-
##MOLFORM=C17H14O3
##CAS REGISTRY NO=1467-40-9
##MP= -300
##BP= -300
##MW= 266
##$RETENTION INDEX=0
##$CONDENSED SPECTRUM=NO
##NPOINTS= 80
##XYDATA=(XY..XY) 1 
    17          2
    18         12
    27          5
    28          5
    38          1
    39          7
    40          1
    41          2
    42          1
    43          4
    50          9
    51         51
    52          4
    53          1
    55          9
    62          1
    63          5
    64          1
    65         10
    66          2
    69        108
    70          4
    74          3
    75          4
    76          9
    77        289
    78         36
    79          5
    84          1
    89          5
    90          2
    91         11
    92          2
   101          1
   102          8
   103          9
   104          3
   105        999
   106        246
   107         18
   108          1
   110          1
   111          1
   115          7
   116          1
   118          2
   119          3
   120         37
   121          4
   131          2
   132          1
   133          3
   143          3
   144         10
   145          2
   146          3
   147         79
   148          8
   149          1
   160         72
   161        190
   162         20
   163          2
   171          7
   189          5
   191          1
   220          6
   221          1
   223          4
   224          3
   225          2
   231          1
   247         11
   248         85
   249         23
   250          3
   265          1
   266         65
   267         14
   268          2