##TITLE=Library Entry 2989
##JCAMP-DX=Revision 4.10 
##DATA TYPE=MASS SPECTRUM
##SAMPLE DESCRIPTION=Exported from NIST MS Search
##NAMES=HP
##CAS NAME=3-Heptene, (E)-
##MOLFORM=C7H14
##CAS REGISTRY NO=14686-14-7
##MP= -300
##BP= -300
##MW= 98
##$RETENTION INDEX=688
##$CONDENSED SPECTRUM=NO
##NPOINTS= 68
##XYDATA=(XY..XY) 1 
    12          1
    13          2
    14          8
    15         60
    16          1
    24          1
    25          2
    26         44
    27        371
    28         74
    29        193
    30          5
    31          1
    36          1
    37         10
    38         30
    39        320
    40         51
    41        999
    42        174
    43        128
    44          6
    45          1
    46          1
    49          2
    50         22
    51         38
    52         17
    53         86
    54         69
    55        477
    56        661
    57         70
    58          2
    60          1
    61          2
    62          5
    63         10
    64          2
    65         15
    66          7
    67         50
    68         31
    69        558
    70        126
    71          6
    73          1
    75          1
    76          1
    77          7
    78          2
    79          7
    80          1
    81          9
    82          1
    83         32
    84          2
    85          1
    86          1
    87          1
    89          1
    91          1
    95          1
    96          1
    97          1
    98        279
    99         22
   100          1