##TITLE=Library Entry 40789
##JCAMP-DX=Revision 4.10 
##DATA TYPE=MASS SPECTRUM
##SAMPLE DESCRIPTION=Chemical Concepts
##NAMES=HP
##CAS NAME=2-Ethoxy-2-(2'-chloroethoxy)-ethane
##MOLFORM=C6H13ClO2
##CAS REGISTRY NO=14689-96-4
##MP= -300
##BP= -300
##MW= 152
##$RETENTION INDEX=0
##$CONDENSED SPECTRUM=NO
##NPOINTS= 78
##XYDATA=(XY..XY) 1 
    27        144
    28         57
    29        124
    30         16
    31         31
    32          8
    35          2
    36          4
    38          2
    39          3
    40          2
    41          8
    42         18
    43        163
    44         47
    45        936
    46         22
    47         59
    48          5
    49         31
    50          7
    51         11
    52          2
    55          6
    56          3
    57         11
    58          9
    59          8
    60          3
    61         31
    62         19
    63        647
    64         21
    65        235
    66          6
    67          2
    68          1
    69          4
    70          5
    71         11
    72         13
    73        999
    74         43
    75         10
    77          1
    78          1
    79          4
    80          2
    81          8
    82          1
    83          5
    84          3
    85          2
    86          1
    87          5
    89          1
    93          1
    97          1
    98          1
   101          1
   103          7
   107        599
   108         31
   109        375
   110         13
   111         49
   112          4
   113          2
   121          3
   123         11
   125          4
   137        200
   138         12
   139         65
   140          3
   151          8
   152          1
   153          2