##TITLE=Library Entry 30981
##JCAMP-DX=Revision 4.10 
##DATA TYPE=MASS SPECTRUM
##SAMPLE DESCRIPTION=Exported from NIST MS Search
##NAMES=HP
##CAS NAME=.alpha.-L-Galactopyranoside, methyl 6-deoxy-
##MOLFORM=C7H14O5
##CAS REGISTRY NO=14687-15-1
##MP= -300
##BP= -300
##MW= 178
##$RETENTION INDEX=0
##$CONDENSED SPECTRUM=NO
##NPOINTS= 49
##XYDATA=(XY..XY) 1 
    27        120
    28          4
    29        360
    30         37
    31        300
    32         15
    39         67
    41        150
    42        120
    43        360
    44        240
    45        247
    55        127
    56         60
    57        330
    58        267
    59        135
    60        999
    61        315
    69         37
    70         15
    71        360
    72         22
    73        225
    74        480
    75         90
    85         22
    86         15
    87         30
    88          2
    89         10
    97          3
    98          2
   100          5
   101          2
   103          5
   116          3
   117          1
   118          3
   119          1
   120          3
   129          1
   131          1
   133          1
   135          1
   147          1
   148          0
   177          2
   178          0