##TITLE=Library Entry 80182
##JCAMP-DX=Revision 4.10 
##DATA TYPE=MASS SPECTRUM
##SAMPLE DESCRIPTION=A. Brossi, LC, NIDDK, NIH, Bethesda, MD 20892
##NAMES=HP
##CAS NAME=Colchiceine, N-desacetyl-N-benzoyl-
##MOLFORM=C26H25NO6
##CAS REGISTRY NO=14686-58-9
##MP= -300
##BP= -300
##MW= 447
##$RETENTION INDEX=0
##$CONDENSED SPECTRUM=NO
##NPOINTS= 232
##XYDATA=(XY..XY) 1 
    41         19
    43         22
    44         12
    45          9
    50         10
    51         50
    52          6
    53          8
    54          5
    55         20
    56          5
    57         14
    60          5
    63          7
    65          8
    67          8
    69         41
    70          6
    71          7
    73          5
    75         10
    76         23
    77        568
    78         44
    79         12
    81          6
    82          5
    83          7
    84          5
    85          6
    89          8
    91         15
    92          4
    93          4
    95          5
    97          7
    99          4
   100          6
   101          5
   102          8
   103          8
   104         22
   105        999
   106         82
   107         10
   109          3
   111          4
   113          6
   114          8
   115         31
   116          7
   117          4
   118          4
   119          8
   120          4
   121          6
   122         13
   123          4
   125          3
   126          8
   127         15
   128         19
   129         10
   130          6
   131         22
   132          4
   133          4
   134          5
   135          5
   136          4
   137          3
   139         24
   140         11
   141         18
   142         10
   143          7
   144          6
   145          6
   146          6
   147          5
   148          3
   149          5
   150          5
   151         12
   152         23
   153         14
   154          9
   155         14
   156         10
   157         17
   158          6
   159          5
   163          6
   164          5
   165         19
   166          8
   167         11
   168         19
   169         26
   170         12
   171         10
   172          5
   173          4
   174          6
   175          3
   176          6
   177          7
   178          7
   179          6
   180         10
   181         29
   182         13
   183         14
   184         14
   185         18
   186          6
   187          4
   189          3
   190          4
   191          6
   192          4
   193          7
   194          9
   195         14
   196         17
   197         30
   198         14
   199          9
   200          5
   205          7
   206          5
   207         16
   208         12
   209         12
   210         11
   211         17
   212         16
   213         17
   214          8
   215          4
   219         25
   220          6
   221          9
   222          9
   223         18
   224         24
   225         24
   226         12
   227         14
   228         13
   229          5
   235          6
   236          9
   237         14
   238         15
   239         22
   240         41
   241         20
   242         16
   243          7
   249          4
   250          6
   251         18
   252         21
   253         19
   254         16
   255         26
   256         21
   257         12
   258          5
   264         10
   265          8
   266         17
   267         49
   268         24
   269         16
   270         24
   271         13
   272          6
   273          3
   278          3
   279          5
   280          8
   281         10
   282         17
   283         48
   284         27
   285         27
   286         23
   287          7
   293          4
   294         10
   295         25
   296         13
   297         23
   298         47
   299         16
   300         24
   301          9
   308          4
   309          5
   310         10
   311         38
   312         14
   313         21
   314        212
   315         41
   316          9
   324          6
   325         17
   326        102
   327         27
   328          7
   342        271
   343         57
   344         11
   402          8
   403          4
   404         31
   405         10
   414          4
   416          6
   418          4
   419        328
   420         86
   421         14
   429          3
   430          4
   446         15
   447        257
   448         72
   449         14