##TITLE=Library Entry 45432
##JCAMP-DX=Revision 4.10 
##DATA TYPE=MASS SPECTRUM
##SAMPLE DESCRIPTION=J. Little, Eastman chemical company.
##NAMES=HP
##CAS NAME=Dimexano
##MOLFORM=C4H6O2S4
##CAS REGISTRY NO=1468-37-7
##MP= -300
##BP= -300
##MW= 214
##$RETENTION INDEX=0
##$CONDENSED SPECTRUM=NO
##NPOINTS= 41
##XYDATA=(XY..XY) 1 
    28        105
    29         63
    30         24
    31         89
    32        147
    38         48
    43        104
    44         90
    45        116
    46         89
    47        268
    59         24
    60        310
    61         63
    62         31
    64        232
    66         22
    75        999
    76        519
    77        115
    78         49
    79         62
    80          9
    91         51
    94         46
    96          8
   106         29
   107         88
   108         23
   109         10
   121         46
   122        247
   123         19
   124         26
   139         12
   154         10
   182         29
   214         74
   215          6
   216         14
   217          1