##TITLE=Library Entry 19846
##JCAMP-DX=Revision 4.10 
##DATA TYPE=MASS SPECTRUM
##SAMPLE DESCRIPTION=Japan AIST/NIMC Database- Spectrum MS-NW-3427
##NAMES=HP
##CAS NAME=2-Heptene, (E)-
##MOLFORM=C7H14
##CAS REGISTRY NO=14686-13-6
##MP= -300
##BP= -300
##MW= 98
##$RETENTION INDEX=699
##$CONDENSED SPECTRUM=NO
##NPOINTS= 54
##XYDATA=(XY..XY) 1 
    14          1
    15         13
    26         21
    27        262
    28         36
    29        219
    30          5
    37          8
    38         20
    39        275
    40         47
    41        742
    42        192
    43        204
    44          7
    45          3
    49          3
    50         17
    51         30
    52         13
    53         98
    54        115
    55        999
    56        903
    57         98
    58          4
    61          2
    62          5
    63          8
    64          1
    65         12
    66          6
    67         49
    68         35
    69        480
    70        168
    71         10
    72          1
    74          1
    77          7
    78          2
    79          8
    80          1
    81         11
    82          3
    83         41
    84          3
    85          1
    95          1
    96          1
    97          4
    98        433
    99         35
   100          1