##TITLE=Library Entry 28181
##JCAMP-DX=Revision 4.10 
##DATA TYPE=MASS SPECTRUM
##SAMPLE DESCRIPTION=Japan AIST/NIMC Database- Spectrum MS-IW-4049
##NAMES=HP
##CAS NAME=Carbonic acid, ethyl 2-propenyl ester
##MOLFORM=C6H10O3
##CAS REGISTRY NO=1469-70-1
##MP= -300
##BP= -300
##MW= 130
##$RETENTION INDEX=0
##$CONDENSED SPECTRUM=NO
##NPOINTS= 48
##XYDATA=(XY..XY) 1 
    14          4
    15         26
    16          1
    18          2
    25          1
    26         30
    27        191
    28        133
    29        748
    30        155
    31        102
    32          3
    37          5
    38         17
    39        236
    40        150
    41        827
    42         52
    43         42
    44         33
    45        108
    46          4
    47          4
    53          2
    55         21
    56         11
    57        930
    58        999
    59         52
    60          3
    63        108
    64          1
    67          5
    68          5
    69          1
    71          2
    73          5
    75          1
    81          1
    84         32
    85          3
    86          1
    91         22
   101          3
   102         18
   103          5
   130          5
   131          9