##TITLE=Library Entry 79215
##JCAMP-DX=Revision 4.10 
##DATA TYPE=MASS SPECTRUM
##SAMPLE DESCRIPTION=NIST Mass Spectrometry Data Center, 1994
##NAMES=HP
##CAS NAME=o-Hydroxydibenzoylmethane
##MOLFORM=C15H12O3
##CAS REGISTRY NO=1469-94-9
##MP= -300
##BP= -300
##MW= 240
##$RETENTION INDEX=0
##$CONDENSED SPECTRUM=NO
##NPOINTS= 101
##XYDATA=(XY..XY) 1 
    12          1
    16          0
    17          2
    18          2
    26          1
    27         15
    28          6
    32          0
    37          6
    38         25
    39        147
    40          9
    41          6
    42         10
    43          9
    44          0
    50         57
    51        179
    52         22
    53         41
    54          2
    55          8
    61          4
    62         21
    63         70
    64         38
    65        153
    66         18
    67          2
    68          2
    69        119
    70          4
    71          1
    74         10
    75         19
    77        417
    78         57
    79         18
    80          2
    82          8
    84          1
    86          3
    87          3
    88          3
    89         26
    90         11
    91         29
    92         62
    93         66
    94         11
    95          3
    96          1
    97          4
    98          1
   101          4
   102          9
   103          7
   104          1
   105        999
   106         77
   107         11
   110          1
   111          5
   113          1
   115          4
   116          1
   118          2
   120         45
   121        254
   122         20
   123          1
   126          1
   127          2
   128          2
   129          2
   133          1
   134          4
   135          1
   137          1
   138          1
   139          4
   145          1
   147          5
   151          1
   152          3
   153          1
   163         35
   164          6
   165          9
   166          1
   181          1
   194          3
   197          2
   221          4
   222          8
   223         49
   224          8
   225          1
   240        196
   241         34
   242          4