##TITLE=Library Entry 5622
##JCAMP-DX=Revision 4.10 
##DATA TYPE=MASS SPECTRUM
##SAMPLE DESCRIPTION=CARL DJERASSI DEPT OF CHEM STANFORD UNIV STANFORD CALIF
 94305
##NAMES=HP
##CAS NAME=1,3,2-Dioxathiolane, 4-methyl-, 2-oxide
##MOLFORM=C3H6O3S
##CAS REGISTRY NO=1469-73-4
##MP= -300
##BP= -300
##MW= 122
##$RETENTION INDEX=0
##$CONDENSED SPECTRUM=NO
##NPOINTS= 27
##XYDATA=(XY..XY) 1 
    27         29
    28        148
    29        297
    30        485
    31         69
    32         19
    33          9
    39         19
    41         29
    42         19
    43        999
    44         19
    48        118
    49          9
    50         79
    57        168
    58         69
    64         19
    65         59
    66         29
    78        118
    79          9
    92        425
    93          9
    94         19
   107        128
   122         29