##TITLE=Library Entry 78029
##JCAMP-DX=Revision 4.10 
##DATA TYPE=MASS SPECTRUM
##SAMPLE DESCRIPTION=Chemical Concepts
##NAMES=HP
##CAS NAME=1,3,5-Hexanetrione, 1-phenyl-
##MOLFORM=C12H12O3
##CAS REGISTRY NO=1469-95-0
##MP= -300
##BP= -300
##MW= 204
##$RETENTION INDEX=0
##$CONDENSED SPECTRUM=NO
##NPOINTS= 156
##XYDATA=(XY..XY) 1 
    25          2
    26         15
    27        123
    28         16
    29         47
    30          2
    31         40
    32          1
    33          0
    34          0
    35          1
    37          2
    38          6
    39        107
    40         13
    41         40
    42         31
    43        698
    44         18
    45         11
    46          1
    49          2
    50         71
    51        258
    52         32
    53         32
    54          3
    55        116
    56          6
    57          7
    58         31
    59          6
    60          0
    61          3
    62         13
    63         39
    64         14
    65         53
    66         13
    67          9
    68          2
    69        548
    70         20
    71         14
    72          1
    73          2
    74         19
    75         25
    76         37
    77        596
    78         97
    79         26
    80          7
    81          3
    82          1
    83          2
    84         24
    85        110
    86          7
    87          6
    88         10
    89         26
    90         13
    91         66
    92         16
    93          4
    94          1
    95          0
    96          0
    97          3
    98         12
    99         12
   100          1
   101          5
   102         13
   103         58
   104         10
   105        999
   106         85
   107          6
   108          0
   109          5
   110          1
   111         24
   112          1
   113          1
   114          4
   115         65
   116         12
   117          8
   118          6
   119          4
   120         49
   121          9
   125          1
   126          1
   127         40
   128          8
   129          8
   130          1
   131         12
   132          6
   133         25
   134          4
   135          0
   137          0
   139          0
   140          0
   141          0
   142          0
   143         19
   144         18
   145         19
   146          4
   147        234
   148         24
   149          2
   155          0
   156          0
   157          1
   158          1
   159          1
   160         27
   161        520
   162        101
   163         10
   164          0
   167          0
   168          1
   169          6
   170          5
   171         69
   172          9
   173          1
   174          0
   175          3
   176          0
   177          0
   178          0
   179          0
   182          0
   184          2
   185         17
   186        336
   187         97
   188         12
   189         88
   190         10
   191          1
   200          0
   201          0
   202          0
   203          7
   204        205
   205         33
   206          3