##TITLE=Library Entry 67136
##JCAMP-DX=Revision 4.10 
##DATA TYPE=MASS SPECTRUM
##SAMPLE DESCRIPTION=Chemical Concepts
##NAMES=HP
##CAS NAME=Bicyclo[3.3.1]nonane-2,9-diol, exo-anti-
##MOLFORM=C9H16O2
##CAS REGISTRY NO=14690-19-8
##MP= -300
##BP= -300
##MW= 156
##$RETENTION INDEX=0
##$CONDENSED SPECTRUM=NO
##NPOINTS= 71
##XYDATA=(XY..XY) 1 
    26         21
    27        327
    28         86
    29        346
    30         16
    31        165
    38         14
    39        324
    40         61
    41        667
    42        108
    43        439
    44         87
    45         53
    47         31
    50         16
    51         49
    52         26
    53        175
    54        168
    55        529
    56         93
    57        570
    58         73
    59         62
    60         23
    65         63
    66        129
    67        611
    68        167
    69        169
    70        258
    71        129
    72         20
    73         77
    75         96
    77        120
    78        156
    79        942
    80        389
    81        784
    82        219
    83        185
    84        103
    85        216
    86         21
    91        278
    92        234
    93        119
    94        999
    95        468
    96        687
    97        283
    98         47
    99         16
   101         40
   105         85
   107         47
   108         17
   109        577
   110        204
   111         55
   119         29
   120        573
   121        141
   122         18
   123         55
   137        191
   138        559
   139         71
   155         11