##TITLE=Library Entry 107728
##JCAMP-DX=Revision 4.10 
##DATA TYPE=MASS SPECTRUM
##SAMPLE DESCRIPTION=NIST Mass Spectrometry Data Center, 1990.
##NAMES=HP
##CAS NAME=4-Acetamido-2,2,6,6-tetramethylpiperidinyloxy
##MOLFORM=C11H21N2O2
##CAS REGISTRY NO=14691-89-5
##MP= -300
##BP= -300
##MW= 213
##$RETENTION INDEX=0
##$CONDENSED SPECTRUM=NO
##NPOINTS= 81
##XYDATA=(XY..XY) 1 
    15         49
    27         65
    28         79
    29        110
    30         80
    38         10
    39         93
    40         45
    41        340
    42        269
    43        516
    44         97
    51         14
    52         11
    53         43
    54         27
    55        123
    56        127
    57        132
    58        155
    59         17
    60        139
    65         18
    67        137
    68        162
    69         67
    70        415
    71         41
    72        109
    73         11
    74         27
    77         18
    79         33
    80         24
    81         84
    82        115
    83         69
    84        493
    85        177
    86         34
    91         17
    93         11
    94         15
    95         33
    96         27
    97         54
    98        133
    99         27
   101         17
   107         77
   108         54
   109        440
   110         52
   111         15
   112        190
   113         14
   121          9
   122         72
   124        999
   125        110
   126         56
   127        467
   128         46
   136         10
   137          9
   138         24
   139        122
   140        148
   141         19
   142          9
   154        137
   155         17
   167          7
   181         19
   183        161
   184         23
   197          9
   198         36
   200          8
   213         71
   214         13