##TITLE=Library Entry 47435
##JCAMP-DX=Revision 4.10 
##DATA TYPE=MASS SPECTRUM
##SAMPLE DESCRIPTION=A.A.Kutin, Moscow, Russia
##NAMES=HP
##CAS NAME=Formamide, N-(2,2-dichloro-1-cyclopropylcyclopropyl)-N-phenyl-
##MOLFORM=C13H13Cl2NO
##CAS REGISTRY NO=146935-64-0
##MP= -300
##BP= -300
##MW= 269
##$RETENTION INDEX=0
##$CONDENSED SPECTRUM=NO
##NPOINTS= 198
##XYDATA=(XY..XY) 1 
    33          7
    34          8
    35         11
    36         28
    37         26
    38         95
    39        398
    40        157
    41        258
    42         53
    43         30
    44         53
    45          6
    46          7
    47          8
    49         24
    50        183
    51        603
    52         94
    53         45
    54         35
    55         22
    56          6
    57         15
    58          8
    59          5
    61         85
    62         38
    63        110
    64         58
    65        140
    66         53
    67         38
    68        193
    69         17
    71         24
    72         11
    73         24
    74         33
    75         55
    77        999
    78        129
    79         27
    80          8
    82         27
    83         16
    84         31
    85         22
    86         11
    87         15
    88         13
    89         72
    90         67
    91        114
    92         35
    93         40
    94         11
    95          9
    96         33
    98         25
    99          5
   100          5
   101         14
   102         18
   103         87
   104        103
   105         49
   106         19
   107          5
   108          0
   109          6
   110          4
   111          7
   112          5
   113         15
   115         69
   116         37
   117        105
   118         33
   119         50
   120         19
   121         10
   122          6
   123          6
   124          3
   125         13
   126          5
   127         22
   128         48
   129         26
   130         82
   131         16
   132         17
   133          4
   134          4
   135         19
   136          2
   138         29
   139         36
   140         22
   141         59
   142         32
   144        662
   145         70
   146          8
   147          3
   148          2
   149          5
   150          4
   151          9
   152          6
   153         17
   154         27
   155         18
   156         28
   157         11
   158         23
   159         18
   160          7
   161         11
   162          7
   163          7
   164         38
   165          5
   166         15
   167         19
   168         39
   169         22
   170        110
   171         25
   172          6
   173          9
   174          2
   175         14
   177         26
   178         23
   179         11
   180         15
   181          3
   182          3
   183          8
   184          8
   185          6
   186          6
   188          4
   189         11
   190         31
   191         10
   192         16
   193          3
   194          1
   196          1
   198         93
   199         18
   200         18
   201          3
   202          9
   204         67
   205         21
   206        152
   207         23
   208         42
   209          4
   212          5
   213          3
   214         13
   215          4
   216          9
   217          0
   218          3
   219          0
   224          2
   226          8
   227          1
   228          5
   229          0
   230          1
   231          0
   232         14
   234        158
   235         20
   236         48
   237          5
   238          0
   240         55
   241         14
   242         35
   243          9
   244          6
   245          1
   250          0
   252          0
   254          3
   256          2
   268          8
   269          8
   270          5
   271          5