##TITLE=Library Entry 96516
##JCAMP-DX=Revision 4.10 
##DATA TYPE=MASS SPECTRUM
##SAMPLE DESCRIPTION=Insect Chem. Ecol. Lab., USDA, Beltsville, MD 20705
##NAMES=HP
##CAS NAME=Carbamodithioic acid, diethyl-
##MOLFORM=C5H11NS2
##CAS REGISTRY NO=147-84-2
##MP= -300
##BP= -300
##MW= 149
##$RETENTION INDEX=0
##$CONDENSED SPECTRUM=NO
##NPOINTS= 91
##XYDATA=(XY..XY) 1 
    41         37
    42        112
    43         37
    44        472
    45         93
    46         45
    47         18
    48          3
    49          2
    50          1
    51          3
    52          3
    53          2
    54         19
    55         18
    56         98
    57         24
    58        286
    59         91
    60        629
    61         43
    62         30
    63          2
    64         14
    65          3
    66          2
    67          4
    68          4
    69         10
    70         19
    71         16
    72        132
    73         94
    74         14
    75          3
    76        336
    77         61
    78         40
    79         11
    80          2
    81          4
    82          3
    83          5
    84         15
    85          6
    86         81
    87         29
    88        690
    89         33
    90         37
    91         33
    92          8
    93          6
    94          1
    95          4
    96          2
    97          4
    98          2
    99          1
   100          2
   101          3
   102          2
   103          2
   104          6
   105          5
   106          1
   107          2
   108          0
   109          3
   110          2
   111          3
   112          1
   113          1
   114          9
   115          5
   116        999
   117        108
   118         58
   119         13
   120          3
   121          2
   122          1
   134          2
   135          0
   146          6
   147         17
   148         60
   149         32
   150         10
   151          4
   152          1