##TITLE=Library Entry 46282
##JCAMP-DX=Revision 4.10 
##DATA TYPE=MASS SPECTRUM
##SAMPLE DESCRIPTION=Japan AIST/NIMC Database- Spectrum MS-NW- 262
##NAMES=HP
##CAS NAME=Butanedioic acid, 2,3-dihydroxy-, [S-(R*,R*)]-
##MOLFORM=C4H6O6
##CAS REGISTRY NO=147-71-7
##MP= -300
##BP= -300
##MW= 150
##$RETENTION INDEX=0
##$CONDENSED SPECTRUM=NO
##NPOINTS= 78
##XYDATA=(XY..XY) 1 
    13          3
    14         12
    15         57
    16          1
    17          6
    18         29
    19        130
    20          2
    25          2
    26          9
    27          6
    28         35
    29        285
    30        141
    31        216
    32          5
    35          1
    36          9
    38          3
    39          2
    40          2
    41         15
    42        119
    43        115
    44         29
    45        126
    46         11
    47         16
    48          1
    49         27
    53          5
    54          1
    55          5
    56          3
    57          4
    58        337
    59        219
    60         62
    61         36
    62          1
    63          1
    67          2
    68          1
    69         71
    70        224
    71         43
    72          2
    73          4
    74          1
    75         16
    76        999
    77        184
    78          9
    79          2
    80          4
    81          2
    82          5
    83          3
    84          2
    85          1
    86          1
    87         25
    88        106
    89          7
    90          1
    91          1
    93          2
    95          1
    97          2
    98          1
   101          1
   105        205
   106          7
   107          2
   111          1
   115          1
   129          1
   132          2