##TITLE=Library Entry 29385
##JCAMP-DX=Revision 4.10 
##DATA TYPE=MASS SPECTRUM
##SAMPLE DESCRIPTION=A.S.Moskovkin,I.M.Karnaukh, Russian Center on Disaster
 Medicine
##NAMES=HP
##CAS NAME=1-(2-Acetoxyethyl)-3,6-diazahomoadamantan-9-one
##MOLFORM=C13H20N2O3
##CAS REGISTRY NO=147084-92-2
##MP= -300
##BP= -300
##MW= 252
##$RETENTION INDEX=0
##$CONDENSED SPECTRUM=NO
##NPOINTS= 148
##XYDATA=(XY..XY) 1 
    51         38
    52         55
    53        154
    54        157
    55        460
    56        270
    57        586
    58        999
    59        167
    60         21
    61         13
    62         15
    63         14
    64          1
    65         73
    66         35
    67        143
    68        158
    69        122
    70        171
    71         85
    72        247
    73         29
    74         18
    75          6
    76         17
    77         52
    78         70
    79         83
    80         78
    81         99
    82        226
    83         98
    84        242
    85         59
    86         14
    87          6
    88          1
    89         13
    90         27
    91         57
    92         20
    93         50
    94         97
    95         71
    96        151
    97         73
    98         40
    99         42
   100         28
   101          2
   102          1
   103          1
   104         25
   105         60
   106         69
   107         59
   108        137
   109         84
   110         74
   111         52
   112         25
   113         17
   114          1
   115         10
   116          2
   117          7
   118         14
   119         18
   120        146
   121        153
   122         98
   123         56
   124         53
   125         84
   126         53
   127         27
   128          8
   129          2
   130          1
   131          1
   132         11
   133         16
   134         28
   135         59
   136        364
   137        102
   138         43
   139         21
   140         15
   141          8
   142          7
   143          2
   145          1
   146          3
   147         13
   148         34
   149         85
   150        144
   151         74
   152         26
   153         11
   154         18
   155          1
   156          3
   160          1
   161          6
   162         15
   163         31
   164         42
   165         39
   166         43
   167         14
   168         18
   169          1
   170         13
   175          2
   176          1
   177         25
   178         26
   179        251
   180         56
   181         14
   182         25
   183          2
   190          1
   191         57
   192         98
   193         28
   194         14
   195          8
   196         26
   197         15
   207          1
   208         15
   209         43
   210         54
   221          1
   222          4
   223         69
   224         62
   225          2
   237          1
   250         14
   251        165
   252        706
   253        104
   254          7