##TITLE=Library Entry 39678
##JCAMP-DX=Revision 4.10 
##DATA TYPE=MASS SPECTRUM
##SAMPLE DESCRIPTION=A.S.Moskovkin,I.M.Karnaukh, Russian Center on Disaster
 Medicine
##NAMES=HP
##CAS NAME=1,2-Bis(3,6-diazahomoadamantantydene-6)hydrazine
##MOLFORM=C18H28N6
##CAS REGISTRY NO=147085-05-0
##MP= -300
##BP= -300
##MW= 328
##$RETENTION INDEX=0
##$CONDENSED SPECTRUM=NO
##NPOINTS= 229
##XYDATA=(XY..XY) 1 
    38         11
    39         70
    40         50
    41        310
    42        510
    43        180
    44        130
    45         20
    50         12
    51         27
    52         31
    53         61
    54        120
    55        140
    56        170
    57        130
    58        310
    59         20
    60         12
    61          4
    62          3
    63          8
    64          5
    65         37
    66         30
    67         80
    68        130
    69         89
    70        150
    71         71
    72        999
    73         61
    74          6
    75          6
    76          6
    77         53
    78         29
    79         81
    80         85
    81         85
    82        130
    83         65
    84        120
    85         30
    86         28
    87          8
    88          2
    89          6
    90          4
    91         36
    92         31
    93         66
    94        160
    95        110
    96         66
    97         49
    98         16
    99          3
   100          3
   101          5
   102          4
   103         12
   104         13
   105         37
   106         80
   107        110
   108        120
   109         89
   110         51
   111         48
   112         17
   113         12
   114          3
   116          6
   117         22
   118         26
   119         32
   120         73
   121        250
   122        120
   123        100
   124         27
   125         30
   126          8
   127          6
   128          4
   129          6
   130          6
   131         11
   132         19
   133         42
   134         72
   135        130
   136         85
   137         39
   138         23
   139         11
   140          6
   141          9
   142          4
   143          6
   144          8
   145         12
   146         30
   147         28
   148         38
   149         92
   150         55
   151         11
   152         11
   153          6
   154          5
   155          5
   156          3
   157          6
   158         13
   159         21
   160         14
   161         18
   162         39
   163        110
   164        410
   165        110
   166         84
   167         16
   168          9
   169          5
   170          8
   171          9
   172         16
   173         12
   174         11
   175         11
   176         24
   177         33
   178         45
   179          1
   181          7
   182          7
   183          8
   184          6
   185          9
   186         13
   187          9
   188          9
   191         43
   192        177
   193         33
   196          4
   197          5
   198          5
   199          8
   200         12
   201          8
   202          8
   203          6
   204         19
   205         12
   206         18
   207         14
   208          8
   209          3
   210          2
   211          4
   212          4
   213          9
   214          7
   215          7
   216          5
   217          8
   218          5
   219          6
   220         51
   221          9
   222          3
   223          2
   224          3
   225          3
   226          7
   227          7
   228          5
   229          6
   230          5
   231          6
   232          5
   233          4
   234          4
   235          5
   236          5
   237          1
   238          2
   239          2
   240          2
   241          4
   242          4
   243         19
   244         16
   245          9
   246          4
   255          3
   256         13
   257         20
   258         23
   259         16
   260          8
   261          2
   269          2
   270         16
   271         25
   272         16
   273          9
   274          3
   284         16
   285         12
   286         34
   287         12
   288          2
   298          9
   299          9
   300         27
   301          7
   312          3
   313          6
   326          3
   327         39
   328        470
   329        103
   330         11
   331          1