##TITLE=Library Entry 40531
##JCAMP-DX=Revision 4.10 
##DATA TYPE=MASS SPECTRUM
##SAMPLE DESCRIPTION=Japan AIST/NIMC Database- Spectrum MS-NW-1302
##NAMES=HP
##CAS NAME=2-Octenoic acid
##MOLFORM=C8H14O2
##CAS REGISTRY NO=1470-50-4
##MP= -300
##BP= -300
##MW= 142
##$RETENTION INDEX=0
##$CONDENSED SPECTRUM=NO
##NPOINTS= 96
##XYDATA=(XY..XY) 1 
    15         19
    16          1
    17          5
    18         25
    25          1
    26         28
    27        400
    28         38
    29        829
    30         19
    31         27
    32          8
    36          2
    37          7
    38         26
    39        391
    40         91
    41        958
    42        512
    43        241
    44         18
    45         92
    46          4
    47          3
    49          1
    50         17
    51         37
    52         19
    53        136
    54         91
    55        712
    56        306
    57        257
    58         48
    59         12
    60         69
    61         13
    62          4
    63          9
    64          2
    65         22
    66         18
    67        198
    68        221
    69        108
    70        728
    71        109
    72         15
    73        999
    74         74
    75          8
    77         11
    78          4
    79         13
    80         14
    81        103
    82        447
    83        163
    84         13
    85         27
    86        375
    87        174
    88         18
    89          2
    91          5
    92          1
    93          6
    94          2
    95         58
    96        213
    97         32
    98          8
    99        358
   100        147
   101         32
   102          2
   106          9
   107          2
   109         15
   110          2
   111          3
   112          2
   113         67
   114         16
   115          2
   123          3
   124        157
   125         30
   126          3
   127         20
   128          2
   139          1
   140          1
   141          1
   142         17
   143          3