##TITLE=Library Entry 4773
##JCAMP-DX=Revision 4.10 
##DATA TYPE=MASS SPECTRUM
##SAMPLE DESCRIPTION=A.S.Moskovkin,I.M.Karnaukh, Russian Center on Disaster
 Medicine
##NAMES=HP
##CAS NAME=7-Amino-1,3,5-triazaadamantane
##MOLFORM=C7H14N4
##CAS REGISTRY NO=14707-75-6
##MP= -300
##BP= -300
##MW= 154
##$RETENTION INDEX=0
##$CONDENSED SPECTRUM=NO
##NPOINTS= 80
##XYDATA=(XY..XY) 1 
    26         91
    27        287
    28        354
    29        232
    30         90
    31        141
    32         23
    37          8
    38         20
    39         25
    40        197
    41        207
    42        999
    43        237
    44        267
    45        106
    46         11
    48          2
    49          7
    50         10
    51          4
    52          5
    53         25
    54         51
    55        141
    56        227
    57        889
    58         35
    59          9
    60         70
    62          2
    63          1
    64          9
    65         10
    66         25
    67         45
    68         50
    69        166
    70         75
    71        167
    73         23
    74         25
    75          5
    77         10
    78          5
    79         10
    80         15
    81         90
    82        106
    83        505
    84        181
    85         96
    86         10
    94          9
    95         50
    96         60
    97        308
    98         40
    99         15
   100         10
   107         20
   108         10
   109         30
   110         24
   111         65
   112        111
   113         25
   114          5
   123         10
   124         25
   125         91
   126         20
   127         15
   128          5
   136         14
   137         30
   153         15
   154        459
   155         42
   156          2