##TITLE=Library Entry 33183
##JCAMP-DX=Revision 4.10 
##DATA TYPE=MASS SPECTRUM
##SAMPLE DESCRIPTION=CARL DJERASSI DEPT OF CHEM STANFORD UNIV STANFORD CALIF
 94305
##NAMES=HP
##CAS NAME=Hydrazinecarboxylic acid, cyclopentylidene-, methyl ester
##MOLFORM=C7H12N2O2
##CAS REGISTRY NO=14702-41-1
##MP= -300
##BP= -300
##MW= 156
##$RETENTION INDEX=0
##$CONDENSED SPECTRUM=NO
##NPOINTS= 73
##XYDATA=(XY..XY) 1 
    41        770
    42        140
    43         80
    44         80
    45         40
    46         20
    50         20
    51         40
    52         60
    53        350
    54        430
    55        330
    56         60
    57         20
    58         40
    59        310
    60         30
    61         10
    62         10
    63         10
    64         10
    65         50
    66         80
    67        999
    68        160
    69         80
    70         40
    71         20
    75         40
    76        190
    77         10
    78         10
    79         20
    80        250
    81        190
    82        340
    83         60
    84         10
    85         10
    88         10
    89         20
    90        130
    91         20
    94         10
    95        100
    96        120
    97        290
    98         50
    99         50
   100         30
   101         10
   102        150
   103         20
   109         10
   111         20
   112         10
   113         20
   114         10
   115         20
   122         10
   123        200
   124        520
   125         60
   127        170
   128         50
   129         20
   130         20
   132         30
   141         10
   155        620
   156        810
   157         90
   158         20