##TITLE=Library Entry 114776
##JCAMP-DX=Revision 4.10 
##DATA TYPE=MASS SPECTRUM
##SAMPLE DESCRIPTION=CARL DJERASSI DEPT OF CHEM STANFORD UNIV STANFORD CALIF
 94305
##NAMES=HP
##CAS NAME=Carbazic acid, 3-pentylidene-, ethyl ester
##MOLFORM=C8H16N2O2
##CAS REGISTRY NO=14702-38-6
##MP= -300
##BP= -300
##MW= 172
##$RETENTION INDEX=0
##$CONDENSED SPECTRUM=NO
##NPOINTS= 46
##XYDATA=(XY..XY) 1 
    41        590
    42        170
    43        330
    44        120
    45        300
    46        100
    50         10
    51         20
    52         20
    53         20
    54        150
    55        230
    56        100
    57        240
    58        240
    62        210
    67         20
    68         20
    69         70
    70         10
    71         70
    72         10
    81         10
    82         30
    83         20
    84        600
    85         20
    86         10
    87         30
    89         20
    90         10
    97         90
    98         10
    99         10
   102        110
   103         10
   104         10
   115         30
   127         20
   129         10
   130        999
   131         60
   143         70
   144         40
   157         10
   172         10