##TITLE=Library Entry 25852
##JCAMP-DX=Revision 4.10 
##DATA TYPE=MASS SPECTRUM
##SAMPLE DESCRIPTION=Chemical Concepts
##NAMES=HP
##CAS NAME=t-Butyl isobutyl ketone
##MOLFORM=C9H18O
##CAS REGISTRY NO=14705-50-1
##MP= -300
##BP= -300
##MW= 142
##$RETENTION INDEX=0
##$CONDENSED SPECTRUM=NO
##NPOINTS= 63
##XYDATA=(XY..XY) 1 
    12          0
    13          0
    14          3
    15         31
    16          0
    17          1
    18          7
    19          0
    25          0
    26          5
    27        116
    28         33
    29        296
    30          6
    31          2
    32          0
    37          1
    38          5
    39        114
    40         20
    41        428
    42         55
    43        117
    44          4
    45          2
    50          1
    51          3
    52          1
    53          8
    54          2
    55         23
    56         62
    57        999
    59          2
    63          0
    65          1
    66          0
    67          7
    68          0
    69         20
    70          3
    71         23
    72          1
    77          0
    78          0
    79          1
    80          1
    81          1
    82          4
    84         25
    85        520
    86         32
    87          2
    91          0
    95          0
   100          4
   101          0
   109          0
   127          7
   128          0
   142         98
   143         11
   144          0