##TITLE=Library Entry 29364
##JCAMP-DX=Revision 4.10 
##DATA TYPE=MASS SPECTRUM
##SAMPLE DESCRIPTION=A.S.Moskovkin,I.M.Karnaukh, Russian Center on Disaster
 Medicine
##NAMES=HP
##CAS NAME=9-Cyano-1-phenyl-3,6-diazahomoadamantan-9-ol
##MOLFORM=C16H19N3O
##CAS REGISTRY NO=147084-78-4
##MP= -300
##BP= -300
##MW= 269
##$RETENTION INDEX=0
##$CONDENSED SPECTRUM=NO
##NPOINTS= 176
##XYDATA=(XY..XY) 1 
    39         38
    40         14
    41        173
    42        321
    43         76
    44         29
    45          3
    50          7
    51         86
    52         39
    53         64
    54        112
    55        328
    56        209
    57        457
    58        999
    59         67
    60         15
    61          4
    62         11
    63         39
    64         14
    65         54
    66         23
    67         61
    68         96
    69         75
    70         98
    71         57
    72        267
    73         33
    74         13
    75         14
    76         37
    77        232
    78         54
    79         45
    80         36
    81         42
    82        134
    83        111
    84        217
    85         77
    86         13
    87         11
    88         10
    89         42
    90         33
    91        176
    92         28
    93         27
    94         37
    95         39
    96         44
    97         45
    98         22
    99         11
   100          4
   101         21
   102         96
   103        294
   104         54
   105         33
   106         22
   107         23
   108         23
   109         27
   110         25
   111         24
   112         10
   113         12
   114         23
   115        165
   116         52
   117         76
   118         53
   119         23
   120         24
   121         33
   122         17
   123         16
   124         21
   125         26
   126          2
   127         21
   128         44
   129         52
   130         67
   131         44
   132         30
   133         23
   134         14
   135         15
   136         11
   137         14
   138         11
   139         10
   140          4
   141         22
   142         25
   143         47
   144         65
   145         32
   146         36
   147         24
   148         15
   149         33
   150         11
   151          1
   152         45
   153         10
   154         11
   155          9
   156         30
   157         31
   158         45
   159         29
   160         32
   161         12
   162         14
   163         14
   164         10
   165          1
   166          1
   167         10
   168         10
   169         21
   170         72
   171         44
   172         34
   173         22
   174         10
   175         11
   176          3
   179          3
   180         13
   181          1
   182         10
   183          9
   184         13
   185         21
   186         26
   187         23
   188         11
   189         52
   190         17
   191          9
   195          2
   196          2
   197          9
   198         34
   199         51
   200         54
   201         10
   202          3
   203         11
   204          2
   205          3
   206          2
   207         11
   209          3
   211          1
   212         11
   213         14
   214         14
   215          2
   227         24
   239          2
   240         21
   241        188
   242        576
   243         86
   244         12
   268          5
   269         16
   270          3