##TITLE=Library Entry 17329
##JCAMP-DX=Revision 4.10 
##DATA TYPE=MASS SPECTRUM
##SAMPLE DESCRIPTION=CARL DJERASSI DEPT OF CHEM STANFORD UNIV STANFORD CALIF
 94305
##NAMES=HP
##CAS NAME=Carbazic acid, 3-(1-propylbutylidene)-, ethyl ester
##MOLFORM=C10H20N2O2
##CAS REGISTRY NO=14702-39-7
##MP= -300
##BP= -300
##MW= 200
##$RETENTION INDEX=0
##$CONDENSED SPECTRUM=NO
##NPOINTS= 55
##XYDATA=(XY..XY) 1 
    41        460
    42        120
    43        220
    44        280
    45        999
    46        450
    47        140
    48         70
    49         40
    50         30
    51         20
    52         10
    53         30
    54         50
    55        150
    56         80
    57         70
    58         20
    62         20
    66         10
    67         20
    68         40
    69         90
    70        110
    71         60
    72         20
    81         10
    82         30
    83        680
    84         30
    85        430
    86         10
    87         70
    96         30
    97         10
    98        330
    99         20
   111        100
   112         30
   114         10
   117         10
   118         20
   119         10
   120         20
   126         80
   127         10
   129         20
   130         30
   139         50
   140         10
   144         80
   154         20
   157         10
   185         20
   200         40