##TITLE=Library Entry 89384
##JCAMP-DX=Revision 4.10 
##DATA TYPE=MASS SPECTRUM
##SAMPLE DESCRIPTION=A.A.Kutin, Moscow, Russia
##NAMES=HP
##CAS NAME=1,4,2,5-Dioxadiazine, 3,6-bis(4-amino-3-furazanyl)-
##MOLFORM=C6H4N8O4
##CAS REGISTRY NO=147085-15-2
##MP= -300
##BP= -300
##MW= 252
##$RETENTION INDEX=0
##$CONDENSED SPECTRUM=NO
##NPOINTS= 117
##XYDATA=(XY..XY) 1 
    33          6
    34          0
    36          1
    38         25
    39         14
    40         23
    41         59
    42        135
    43         82
    44         82
    45          4
    46          1
    50          1
    51          4
    53        550
    54        606
    55         60
    56         11
    58        706
    59         22
    60          4
    61          0
    63          0
    64          3
    65          2
    66         15
    67          8
    68         26
    69        172
    70        560
    71         29
    73         26
    74          0
    76          0
    77          0
    78          1
    80         49
    82        139
    84         58
    85         16
    86          2
    87          2
    89          0
    91          0
    92          0
    93          1
    94          0
    96         99
    97         10
    98          2
    99          1
   101          0
   104          0
   105          0
   106          0
   107          0
   109          6
   110         85
   112        999
   113         54
   114          5
   115          1
   116          1
   117          0
   118          0
   121          0
   122          0
   123          0
   126         60
   127         11
   128          8
   129          1
   130          0
   131          0
   135          0
   137          1
   138          0
   140          0
   141          0
   143         15
   144         11
   145          0
   149          2
   150          0
   151          0
   153          0
   155          0
   156          1
   157          0
   158          0
   164          0
   165         55
   166          3
   167          0
   168          0
   170          0
   171          1
   179          1
   180          0
   181          0
   194          3
   195         48
   196          4
   197          0
   198          0
   200          0
   213          1
   222          3
   228          0
   236          1
   249          1
   250          3
   252        582
   253         52
   254          7
   255          0
   256          0