##TITLE=Library Entry 28517
##JCAMP-DX=Revision 4.10 
##DATA TYPE=MASS SPECTRUM
##SAMPLE DESCRIPTION=A.S.Moskovkin,I.M.Karnaukh, Russian Center on Disaster
 Medicine
##NAMES=HP
##CAS NAME=1-(4-Hydroxyphenylmethyl)-3,6-diazahomoadamantan-9-one oxime
##MOLFORM=C16H21N3O2
##CAS REGISTRY NO=147084-66-0
##MP= -300
##BP= -300
##MW= 287
##$RETENTION INDEX=0
##$CONDENSED SPECTRUM=NO
##NPOINTS= 195
##XYDATA=(XY..XY) 1 
    35         13
    36         78
    37          8
    38         36
    39         87
    40        100
    41        290
    42        640
    43        310
    44        740
    45        170
    46         67
    47          5
    50         15
    51         41
    52         33
    53         54
    54        100
    55        150
    56        160
    57        150
    58        999
    59         46
    60         99
    61         13
    62          4
    63         15
    64         22
    65         45
    66         39
    67         56
    68        110
    69        110
    70        110
    71         57
    72        970
    73         79
    74         14
    75          5
    76          6
    77        110
    78         54
    79         57
    80         58
    81         52
    82         82
    83         58
    84         76
    85         66
    86         14
    87         11
    89         10
    90          7
    91         50
    92         32
    93         56
    94         86
    95         60
    96         43
    97         33
    98         25
    99         17
   100          9
   101         10
   102          9
   103         32
   104         19
   105         37
   106         48
   107        410
   108         73
   109         35
   110         25
   111         43
   112         10
   113         14
   114          6
   115         39
   116         17
   117         30
   118         22
   119         54
   120         53
   121        100
   122         37
   123         42
   124         28
   125         12
   127         21
   128         21
   129         20
   130         15
   131         84
   132         39
   133         61
   134         46
   135         65
   136         24
   137         30
   138         11
   139          8
   140          6
   141         16
   142          9
   143         22
   144         27
   145         53
   146         29
   147         37
   148         20
   149         21
   150          9
   151         13
   152          7
   153          6
   154         10
   155         10
   156         24
   157         27
   158         26
   159         25
   160         22
   161         10
   162         28
   163         20
   164         70
   165         17
   166         15
   167          9
   168         14
   169         36
   170         31
   171         20
   172         27
   173         14
   174         23
   175          6
   176          7
   180         13
   181         14
   182         10
   183         25
   184         39
   185         30
   186         67
   187         44
   188         36
   189          8
   195          4
   196         13
   197         38
   198         76
   199         52
   200        100
   201         52
   202         16
   210         11
   211         29
   212         28
   213         43
   214         33
   215         21
   216         13
   217          6
   224          3
   225         34
   226         52
   227        240
   228         99
   229         53
   230         10
   231          5
   239          8
   240          7
   241         70
   242         31
   243         18
   244          5
   245          7
   254         17
   255          6
   256         16
   257          7
   268         19
   269        160
   270        750
   271        300
   272         97
   273         16
   274          5
   285          4
   286         13
   287        430
   288         80
   289          7