##TITLE=Library Entry 27895
##JCAMP-DX=Revision 4.10 
##DATA TYPE=MASS SPECTRUM
##SAMPLE DESCRIPTION=A.S.Moskovkin,I.M.Karnaukh, Russian Center on Disaster
 Medicine
##NAMES=HP
##CAS NAME=1-Phenyl-3,6-diazahomoadamantane
##MOLFORM=C15H20N2
##CAS REGISTRY NO=147085-02-7
##MP= -300
##BP= -300
##MW= 228
##$RETENTION INDEX=0
##$CONDENSED SPECTRUM=NO
##NPOINTS= 128
##XYDATA=(XY..XY) 1 
    39        138
    40         57
    41        281
    42        486
    43        117
    44         62
    45         14
    50          5
    51        111
    52         46
    53         54
    54         87
    55        138
    56        189
    57        241
    58        999
    59         54
    60         11
    62         16
    63         62
    64         24
    65        143
    66         51
    67         76
    68        160
    69         84
    70        103
    71         81
    72        170
    73        130
    74         24
    75         22
    76         51
    77        246
    78        108
    79         57
    80         60
    81         78
    82        151
    83         87
    84         97
    85         52
    86          5
    88          8
    89         38
    90         35
    91        376
    92         51
    93         41
    94         60
    95        114
    96         54
    97         57
    98         54
    99         27
   101          3
   102         57
   103        116
   104         54
   105         43
   106         30
   107          8
   108         41
   109          5
   110         11
   111         30
   113          8
   114         54
   115        219
   116         57
   117         70
   118         24
   119         16
   120         11
   123          5
   124          8
   125         32
   126          5
   127         51
   128        135
   129        135
   130         76
   131         30
   132         27
   133          5
   137          8
   139          8
   140         11
   141         57
   142         51
   143         84
   144         81
   145         14
   146         11
   149          8
   150          3
   153          5
   154         24
   155        114
   156        143
   157         73
   158         51
   159         30
   160          8
   167          5
   168          8
   169          5
   170        200
   171         70
   172         38
   173         30
   174         16
   182         14
   183         27
   184        138
   185         60
   186         27
   187          5
   198          8
   199          5
   200          8
   213          8
   214          2
   226          5
   227         84
   228        422
   229         72
   230          6