##TITLE=Library Entry 54410
##JCAMP-DX=Revision 4.10 
##DATA TYPE=MASS SPECTRUM
##SAMPLE DESCRIPTION=NIST Mass Spectrometry Data Center
##NAMES=HP
##CAS NAME=(2E,4E)-1-(Piperidin-1-yl)dodeca-2,4-dien-1-one
##MOLFORM=C17H29NO
##CAS REGISTRY NO=147030-06-6
##MP= -300
##BP= -300
##MW= 263
##$RETENTION INDEX=2360
##$CONDENSED SPECTRUM=NO
##NPOINTS= 116
##XYDATA=(XY..XY) 1 
    27         62
    28         29
    29        111
    30         19
    38          3
    39         98
    40         37
    41        430
    42         95
    43        263
    44         23
    50          6
    51         24
    52         19
    53        239
    54         56
    55        423
    56        124
    57         61
    58          5
    63          5
    64          4
    65        106
    66        249
    67        300
    68         62
    69        208
    70         41
    71          8
    73         13
    77        133
    78         29
    79        225
    80         63
    81        700
    82        118
    83        110
    84        999
    85         89
    86         30
    91         50
    92         11
    93         48
    94         80
    95        182
    96         53
    97         82
    98         20
    99          8
   105         18
   106         11
   107         70
   108         41
   109         51
   110         30
   111         11
   112        123
   115          8
   117          8
   119         19
   120         15
   121         22
   122         53
   123         43
   124         29
   125         15
   126          9
   127         51
   128         10
   133          9
   134         39
   135         15
   136         81
   137         81
   138        464
   139        136
   140         17
   148         13
   150        144
   151         57
   152         59
   153         18
   154          4
   162          6
   163          5
   164        736
   165        100
   166         22
   167          3
   176          5
   178        299
   179        148
   180         26
   181          4
   190          4
   192        756
   193        105
   194         13
   206        110
   207         24
   208          4
   220         68
   221         15
   222         12
   232          2
   234         77
   235         15
   236          3
   246         75
   247         14
   248         41
   249          5
   262         66
   263        322
   264         57
   265          7