##TITLE=Library Entry 3087
##JCAMP-DX=Revision 4.10 
##DATA TYPE=MASS SPECTRUM
##SAMPLE DESCRIPTION=CARL DJERASSI DEPT OF CHEM STANFORD UNIV STANFORD CALIF
 94305
##NAMES=HP
##CAS NAME=1-Propene, 3-(1,1-dimethylethoxy)-
##MOLFORM=C7H14O
##CAS REGISTRY NO=1471-04-1
##MP= -300
##BP= -300
##MW= 114
##$RETENTION INDEX=0
##$CONDENSED SPECTRUM=NO
##NPOINTS= 13
##XYDATA=(XY..XY) 1 
    40         23
    41        999
    42         46
    43         70
    44          9
    53          9
    55         23
    56         70
    57        469
    58         32
    59         61
    99        164
   100          4