##TITLE=Library Entry 52483
##JCAMP-DX=Revision 4.10 
##DATA TYPE=MASS SPECTRUM
##SAMPLE DESCRIPTION=Chemical Concepts
##NAMES=HP
##CAS NAME=Phosphine oxide, dicyclohexyl-
##MOLFORM=C12H23OP
##CAS REGISTRY NO=14717-29-4
##MP= -300
##BP= -300
##MW= 214
##$RETENTION INDEX=0
##$CONDENSED SPECTRUM=NO
##NPOINTS= 107
##XYDATA=(XY..XY) 1 
    26          0
    27         85
    29         98
    30          0
    31          0
    39        152
    40         28
    41        586
    42         37
    43         47
    44          4
    45          5
    47         43
    48         17
    49         25
    50          6
    51        112
    52          8
    53        125
    54         89
    55        893
    56         51
    57          8
    58          0
    59          5
    61          1
    62          1
    63         37
    64         20
    65         45
    66         19
    67        157
    68         10
    69         14
    70          0
    71         12
    72          9
    73          5
    75         26
    76         17
    77        159
    78         36
    79        143
    80         21
    81        284
    82        351
    83        999
    84         75
    85         25
    86          0
    87          0
    89         11
    90         53
    91         42
    92          9
    93          0
    95          0
    97          1
    99          1
   101          0
   102          6
   103         23
   104         91
   105         22
   106          2
   107          0
   109          0
   111          1
   113         41
   114          2
   115         11
   116         15
   117         92
   118         12
   119          8
   120          0
   129          8
   130         20
   131         40
   132        750
   133        735
   134         48
   135          5
   143          6
   144          5
   145          2
   146          8
   147          0
   157         13
   158          7
   159        355
   160         33
   161          0
   171         26
   172         16
   173         69
   174          2
   185         39
   186          5
   187          0
   199        171
   200         21
   201          0
   213         43
   214        205
   215         27
   216          0