##TITLE=Library Entry 33873
##JCAMP-DX=Revision 4.10 
##DATA TYPE=MASS SPECTRUM
##SAMPLE DESCRIPTION=NIST Mass Spectrometry Data Center, 2010
##NAMES=HP
##CAS NAME=N-Cyclopentyl-trifluoroacetamide
##MOLFORM=C7H10F3NO
##CAS REGISTRY NO=14719-25-6
##MP= -300
##BP= -300
##MW= 181
##$RETENTION INDEX=0
##$CONDENSED SPECTRUM=NO
##NPOINTS= 112
##XYDATA=(XY..XY) 1 
    15          4
    26          9
    27         54
    28         95
    29         27
    30          7
    31          3
    33          1
    37          3
    38         11
    39        132
    40         36
    41        312
    42         57
    43         60
    44         25
    46          4
    47          3
    50         20
    51         16
    52         12
    53         41
    54         50
    55         43
    56         57
    57        145
    58         17
    59          9
    60          1
    61          1
    62          2
    63          4
    64          4
    65         31
    66         23
    67        289
    68        999
    69        593
    70        177
    71         11
    72          1
    73          1
    74          1
    75          1
    76          2
    77          7
    78         38
    79          3
    80          8
    81          2
    82         51
    83         13
    84        163
    85         10
    86          1
    89          1
    90         11
    91          2
    92          4
    93          2
    94         15
    95          3
    96         22
    97         14
    98         11
    99          1
   102          1
   104         21
   105          2
   106          5
   107          1
   108          1
   109          1
   110          7
   111         21
   112        181
   114        379
   115         10
   116          2
   118          7
   119          1
   122          1
   124          2
   125          3
   126         58
   127         20
   128          2
   132         63
   133          5
   134          1
   135          1
   136          2
   138        118
   139        166
   140         84
   141          4
   142          1
   146          1
   148          2
   149          1
   152        991
   153         81
   154          6
   161          1
   162          7
   163          1
   164          1
   166         11
   167          1
   180         46
   181         68
   182          7