##TITLE=Library Entry 27728
##JCAMP-DX=Revision 4.10 
##DATA TYPE=MASS SPECTRUM
##SAMPLE DESCRIPTION=NIST Mass Spectrometry Data Center, 1990.
##NAMES=HP
##CAS NAME=1-Propene, 3-propoxy-
##MOLFORM=C6H12O
##CAS REGISTRY NO=1471-03-0
##MP= -300
##BP= -300
##MW= 100
##$RETENTION INDEX=0
##$CONDENSED SPECTRUM=NO
##NPOINTS= 23
##XYDATA=(XY..XY) 1 
    14         13
    15         12
    26         42
    27        182
    28         53
    29        127
    30         24
    31         41
    32          1
    37         16
    38         46
    39        404
    40         94
    41        952
    42        139
    43        411
    44         22
    53          8
    55         65
    57        509
    58        999
    59         83
    71        105