##TITLE=Library Entry 1840
##JCAMP-DX=Revision 4.10 
##DATA TYPE=MASS SPECTRUM
##SAMPLE DESCRIPTION=NIST Mass Spectrometry Data Center, 2010
##NAMES=HP
##CAS NAME=Propargylamine, N-trifluoroacetyl-
##MOLFORM=C5H4F3NO
##CAS REGISTRY NO=14719-21-2
##MP= -300
##BP= -300
##MW= 151
##$RETENTION INDEX=0
##$CONDENSED SPECTRUM=NO
##NPOINTS= 78
##XYDATA=(XY..XY) 1 
    24          2
    25          9
    26         27
    27         35
    28        146
    29         10
    31         16
    33          2
    36          6
    37         58
    38        138
    39        999
    40         38
    42          4
    43         20
    44         14
    46          5
    47          4
    50         73
    51         62
    52        224
    53         76
    54        212
    55        154
    56         48
    57         33
    58          3
    59          1
    62          2
    63          2
    64          3
    65          3
    68         22
    69        628
    70          9
    72          3
    74          3
    75         20
    76         20
    77         12
    78         37
    79          2
    80         23
    82        985
    83         48
    84          9
    85          3
    87          1
    88          6
    89          6
    90          1
    92          3
    93          1
    94          1
    96         27
    97          8
    98          1
   100          7
   102         63
   103         20
   104          6
   105          1
   106          1
   108          6
   109         13
   112          1
   120          1
   122         10
   123         14
   124          7
   126         10
   131        651
   132         42
   133          2
   150         16
   151        201
   152         13
   153          1