##TITLE=Library Entry 90788
##JCAMP-DX=Revision 4.10 
##DATA TYPE=MASS SPECTRUM
##SAMPLE DESCRIPTION=Chemical Concepts
##NAMES=HP
##CAS NAME=Pentanedioic acid, bis(dihexylamide)
##MOLFORM=C29H58N2O2
##CAS REGISTRY NO=147152-58-7
##MP= -300
##BP= -300
##MW= 466
##$RETENTION INDEX=0
##$CONDENSED SPECTRUM=NO
##NPOINTS= 304
##XYDATA=(XY..XY) 1 
    26         24
    27        169
    28        179
    29        282
    30        118
    31         24
    35         30
    36         10
    37         39
    38         60
    39        216
    40         30
    41        374
    42        286
    43        756
    44        272
    45        108
    46          7
    47         88
    48         43
    49         48
    50         29
    51         25
    52         22
    53         35
    54         24
    55        382
    56        133
    57        274
    58         56
    59         94
    60         77
    61         20
    62         15
    63         61
    64          9
    65         32
    66         13
    67         39
    68         31
    69        110
    70        130
    71        119
    72        127
    73         86
    74         77
    75         32
    76         75
    77          9
    78         16
    79        110
    80         11
    81         37
    82         31
    83        415
    84         85
    85        258
    86        130
    87        228
    88         33
    89         13
    90          7
    91         12
    92          5
    93         19
    94         17
    95         33
    96         41
    97         73
    98        100
    99         56
   100         96
   101        118
   102         19
   103          9
   104         14
   105         74
   106         27
   107         32
   108         11
   109         19
   110         14
   111         29
   112         75
   113         39
   114        999
   115        367
   116         36
   117         20
   118         11
   119         48
   120         22
   121         13
   122          9
   123         17
   124         10
   125         19
   126         36
   127         57
   128        136
   129        305
   130         24
   131         16
   132         10
   133         19
   134         17
   135          8
   136          6
   137          9
   138          8
   139         14
   140         37
   141         38
   142        190
   143        384
   144         34
   145         20
   146          7
   147          9
   148         11
   149         84
   150         11
   151          7
   152          7
   153          7
   154         27
   155         17
   156        227
   157         43
   158         10
   159         21
   160         10
   161          7
   162          6
   163          8
   164          3
   165          7
   166          5
   167         12
   168         26
   169         17
   170        130
   171         24
   172         12
   173         30
   174          5
   175          5
   176          4
   177          4
   178          5
   179          4
   180          5
   181          5
   182         39
   183         23
   184        541
   185         81
   186         34
   187         25
   188          4
   189          5
   190          2
   191          3
   192          3
   193          3
   194          3
   195          3
   196         15
   197         14
   198         76
   199         26
   200         15
   201          8
   202          1
   203          6
   204          1
   205          9
   206          3
   207          1
   208          3
   209          3
   210         29
   211          9
   212        282
   213         51
   214         14
   215          5
   216          2
   217          6
   218          2
   219          2
   220          2
   221          2
   222          2
   223          4
   224         20
   225          5
   226         15
   227         25
   228         20
   229         11
   230          3
   231          6
   232          2
   233          2
   237          1
   238         18
   239          7
   240        178
   241         34
   242         28
   243         22
   244          4
   245          6
   246          2
   251          1
   252         19
   253          9
   254         84
   255         21
   256         33
   257         17
   258          2
   259          8
   260          1
   262          3
   264          1
   265          1
   266          7
   268          3
   269          5
   270         24
   271          8
   272          1
   273         13
   274          3
   278          2
   279          3
   280         18
   281          7
   282        414
   283         86
   284         29
   285          6
   286          1
   287         24
   288          6
   289          1
   290          1
   296          6
   297          5
   298         12
   299          7
   300          1
   301          8
   302          0
   308          0
   310          0
   311          0
   312          8
   313         26
   314          6
   315          3
   316          0
   325          3
   326          9
   327         23
   328          4
   329          2
   330          0
   339          8
   340          4
   341          2
   342          0
   343          2
   344          1
   353          7
   354         10
   355          2
   357          0
   367         10
   368          3
   369          0
   381          0
   382          5
   383          3
   384          1
   385          1
   395          1
   396         16
   397          4
   398          0
   409          7
   410          3
   423          5
   424          1
   425          0
   437          6
   438          2
   451          1
   465          2
   466         44
   467         15
   468          1