##TITLE=Library Entry 69540
##JCAMP-DX=Revision 4.10 
##DATA TYPE=MASS SPECTRUM
##SAMPLE DESCRIPTION=V.G. Zaikin, TIPS RAS, Moscow, Russia
##NAMES=HP
##CAS NAME=Trifluoroacetamide, N-cycloheptyl
##MOLFORM=C9H14F3NO
##CAS REGISTRY NO=14719-26-7
##MP= -300
##BP= -300
##MW= 209
##$RETENTION INDEX=0
##$CONDENSED SPECTRUM=NO
##NPOINTS= 99
##XYDATA=(XY..XY) 1 
    26         29
    27        195
    28        171
    29        155
    30         28
    31         19
    33          4
    36          9
    37          9
    38         21
    39        277
    40         69
    41        549
    42        181
    43        148
    44        105
    45         27
    46          7
    47          9
    50         49
    51         73
    52         21
    53        128
    54        311
    55        437
    56         89
    57        163
    58         25
    59         11
    63          9
    64          6
    65         25
    66         64
    67        399
    68        245
    69        459
    70        193
    71         31
    72         15
    73          8
    75          4
    77         28
    78         61
    79         34
    80         19
    81        402
    82         75
    83         29
    84         82
    85          7
    86         15
    88          5
    89          5
    90          9
    91         11
    92          9
    93          9
    94         11
    95         65
    96        999
    97        207
    98         35
    99          6
   104         19
   105          4
   106          4
   107          4
   110         12
   112         17
   113          4
   114         88
   118          4
   126         67
   127         45
   128         21
   132         29
   133          5
   137          6
   138         29
   139        129
   140        138
   141         14
   150          4
   151          8
   152        559
   153         39
   154         16
   155          9
   162          4
   166         29
   167         11
   168          4
   180         23
   181          9
   182          7
   194          9
   195          2
   209         18
   210          5