##TITLE=Library Entry 109788
##JCAMP-DX=Revision 4.10 
##DATA TYPE=MASS SPECTRUM
##SAMPLE DESCRIPTION=NIST Mass Spectrometry Data Center, 1994
##NAMES=HP
##CAS NAME=3-Aminothiophene-2-carboxamide
##MOLFORM=C5H6N2OS
##CAS REGISTRY NO=147123-47-5
##MP= -300
##BP= -300
##MW= 142
##$RETENTION INDEX=0
##$CONDENSED SPECTRUM=NO
##NPOINTS= 51
##XYDATA=(XY..XY) 1 
    16         10
    17         20
    18         14
    25          9
    26         22
    27         26
    37         40
    38         46
    39         82
    40         40
    41         33
    42         27
    43         23
    44        217
    45        283
    46         71
    47         16
    49         20
    51         33
    52        165
    53         71
    54        315
    55         19
    56         16
    57         41
    58         33
    60         20
    61         11
    63         13
    66         10
    67         16
    68         32
    69         70
    70        224
    71        226
    72        145
    73         27
    81         24
    82         13
    86         25
    96         35
    97        378
    98        178
    99         41
   125        999
   126        295
   127         69
   128         15
   142        983
   143         76
   144         46