##TITLE=Library Entry 19390
##JCAMP-DX=Revision 4.10 
##DATA TYPE=MASS SPECTRUM
##SAMPLE DESCRIPTION=NIST Mass Spectrometry Data Center, 1990.
##NAMES=HP
##CAS NAME=1,15-Pentadecanediol
##MOLFORM=C15H32O2
##CAS REGISTRY NO=14722-40-8
##MP= -300
##BP= -300
##MW= 244
##$RETENTION INDEX=0
##$CONDENSED SPECTRUM=NO
##NPOINTS= 40
##XYDATA=(XY..XY) 1 
    27        123
    28         96
    29        252
    31        344
    32         18
    39        104
    41        725
    42        173
    43        373
    44         60
    45         40
    53         59
    54        218
    55        999
    56        237
    57        243
    66         52
    67        408
    68        373
    69        492
    70        158
    71         99
    79         35
    80         37
    81        358
    82        582
    83        365
    84         68
    85         43
    95        285
    96        336
    97        185
    98         45
   109        107
   110        107
   111         71
   123         57
   124         73
   137         29
   138         28