##TITLE=Library Entry 71177
##JCAMP-DX=Revision 4.10 
##DATA TYPE=MASS SPECTRUM
##SAMPLE DESCRIPTION=Chuck Anderson, Aldrich Chemical Co.
##NAMES=HP
##CAS NAME=Tridecanedioic acid, dimethyl ester
##MOLFORM=C15H28O4
##CAS REGISTRY NO=1472-87-3
##MP= -300
##BP= -300
##MW= 272
##$RETENTION INDEX=1960
##$CONDENSED SPECTRUM=NO
##NPOINTS= 166
##XYDATA=(XY..XY) 1 
    14          1
    15         87
    16          1
    26          4
    27         58
    28         41
    29        132
    30          8
    31         19
    32          4
    33          3
    36          0
    38          1
    39         59
    40         13
    41        287
    42         66
    43        237
    44          8
    45         25
    51          1
    52          1
    53         17
    54         19
    55        363
    56         38
    57         63
    58          7
    59        186
    60          6
    61          2
    65          5
    66          4
    67         85
    68         42
    69        253
    70         33
    71         46
    72          5
    73         44
    74        515
    75         35
    76          3
    77          5
    78          3
    79         34
    80         25
    81        106
    82         42
    83        318
    84        469
    85         63
    86          4
    87        299
    88         33
    89          2
    91         10
    92          4
    93         50
    94         33
    95         89
    96         79
    97        238
    98        999
    99         82
   100          9
   101         57
   102          5
   103          1
   104          1
   105         10
   106          5
   107         49
   108         18
   109         52
   110         45
   111        109
   112        333
   113         37
   114         13
   115         44
   116         13
   117          3
   118          1
   119         12
   120          8
   121         41
   122         20
   123         47
   124         40
   125         91
   126        140
   127         18
   128         12
   129         25
   130         15
   131          4
   133          7
   134          6
   135         13
   136          9
   137         22
   138         27
   139         23
   140         23
   141          9
   142         10
   143         25
   144         12
   145          2
   146          1
   147          7
   148         25
   149        125
   150         14
   151         12
   152         20
   153          6
   154          3
   155          4
   156         14
   157         14
   158          4
   161          4
   162          6
   163         18
   164          5
   165          9
   166         34
   167        118
   168         13
   169          2
   170          1
   171          3
   172          2
   173          6
   179          2
   180         17
   181         11
   182          1
   183          1
   184         31
   185          4
   186         10
   187          1
   189          1
   190          4
   191          2
   193          0
   197          2
   198          6
   199        130
   200         15
   201          1
   207          3
   208         42
   209          9
   210          1
   212          3
   213          1
   214          1
   222          1
   240          2
   241        198
   242         28
   243          3