##TITLE=Library Entry 54493
##JCAMP-DX=Revision 4.10 
##DATA TYPE=MASS SPECTRUM
##SAMPLE DESCRIPTION=LAC, NIDDK, NIH, Bethesda, MD 20892
##NAMES=HP
##CAS NAME=Phenylacetamide, 3-fluoro-N-methyl-N-[2-[1-azacyclopentyl]ethyl]-
##MOLFORM=C15H21FN2O
##CAS REGISTRY NO=147241-19-8
##MP= -300
##BP= -300
##MW= 264
##$RETENTION INDEX=0
##$CONDENSED SPECTRUM=NO
##NPOINTS= 170
##XYDATA=(XY..XY) 1 
    41         22
    42        155
    43         65
    44         35
    45         32
    46          8
    47         42
    48          1
    49         10
    50          8
    51         43
    52          7
    53         11
    54         13
    55         75
    56         46
    57         37
    58         19
    59          9
    60          5
    61         12
    62          5
    63         17
    64          4
    65         13
    66          5
    67         10
    68          7
    69         26
    70         15
    71         11
    72          7
    73          7
    74          6
    75          5
    76          4
    77         31
    78         58
    79         16
    80          4
    81         12
    82         13
    84        999
    85         57
    86          3
    87          7
    88         10
    89          9
    91        105
    92          6
    93          7
    94          8
    95         53
    97        188
    98         29
    99         11
   100          7
   101          7
   102          3
   103          6
   104          2
   105         16
   106         26
   107        162
   108         22
   109         88
   110         10
   111          7
   112          1
   113          4
   115         13
   116          8
   117         41
   118          9
   119         42
   120          6
   121          7
   122          3
   123         15
   124         27
   125         15
   126          4
   127          5
   128          5
   129          9
   130          1
   131          6
   132          2
   133          8
   134          5
   135         10
   136          7
   137         22
   138          4
   139          5
   141         11
   142          3
   143          8
   145          3
   146          1
   147          3
   149          5
   150          4
   151          6
   152          7
   153          8
   154          6
   155          5
   157          4
   158          5
   159          4
   163          2
   165          5
   166          2
   167         12
   168         15
   169          5
   170          1
   171          3
   173          3
   175          2
   176          1
   177          1
   178          2
   179          3
   181          3
   183          3
   185          2
   187          2
   191          3
   193          1
   194        100
   195         14
   196          1
   197          6
   199          3
   200          4
   201          1
   202          1
   205          1
   211          3
   212          1
   213          8
   214          4
   215          6
   216          1
   217          1
   221          2
   223          1
   224          1
   225          6
   229          1
   230          4
   231          4
   232          3
   233          5
   235          1
   237          1
   239          3
   241          1
   243          1
   247          1
   253          5
   254          1
   255          1
   257          1
   263         50
   264        281
   265         37
   266          4