##TITLE=Library Entry 71837
##JCAMP-DX=Revision 4.10 
##DATA TYPE=MASS SPECTRUM
##SAMPLE DESCRIPTION=Dr. Jiri Zamecnik, DCIEM, North York, Canada, GP Librar
y
##NAMES=HP
##CAS NAME=cis-4-Hydroxy-3-methyldecanoic acid lactone
##MOLFORM=C11H20O2
##CAS REGISTRY NO=147254-32-8
##MP= -300
##BP= -300
##MW= 184
##$RETENTION INDEX=0
##$CONDENSED SPECTRUM=NO
##NPOINTS= 47
##XYDATA=(XY..XY) 1 
    39        155
    41        434
    42        363
    43        519
    44         35
    45         28
    54         25
    55        294
    56         79
    57         45
    58         22
    67         42
    68         68
    69         99
    70        122
    71        414
    73         48
    81         29
    82         20
    83         28
    85         32
    86         30
    87         12
    95         27
    96         12
    97         93
    98         25
    99        999
   100         73
   110         10
   112          4
   113         31
   114         28
   115         56
   119          7
   123         10
   124         59
   125          5
   129          4
   133         17
   138          7
   140          3
   142         97
   143          6
   144          5
   155          7
   165          6