##TITLE=Library Entry 24893
##JCAMP-DX=Revision 4.10 
##DATA TYPE=MASS SPECTRUM
##SAMPLE DESCRIPTION=Exported from NIST MS Search
##NAMES=HP
##CAS NAME=Heptane, 2,2,4-trimethyl-
##MOLFORM=C10H22
##CAS REGISTRY NO=14720-74-2
##MP= -300
##BP= -300
##MW= 142
##$RETENTION INDEX=876
##$CONDENSED SPECTRUM=NO
##NPOINTS= 49
##XYDATA=(XY..XY) 1 
    26          4
    27        113
    28         20
    29        175
    30          4
    32          1
    37          1
    38          2
    39         67
    40         12
    41        244
    42         30
    43        282
    44          9
    50          1
    51          3
    52          1
    53         14
    54          3
    55         54
    56        470
    57        999
    58         43
    59          1
    63          1
    64          1
    65          2
    66          1
    67          4
    68          1
    69         16
    70          7
    71        155
    72          8
    77          1
    78          1
    79          1
    80          1
    81          1
    82          1
    83          7
    84         45
    85         87
    86          6
    97          1
    98          1
   126          1
   127         24
   128          2