##TITLE=Library Entry 54811
##JCAMP-DX=Revision 4.10 
##DATA TYPE=MASS SPECTRUM
##SAMPLE DESCRIPTION=MYCOTOXINS MASS SPECTRAL DATA BANK, L.R. DUSOLD ET AL,
 FDA, USA
##NAMES=HP
##CAS NAME=Verrucarin A, 7'-deoxo-7'-(1-hydroxyethyl)-
##MOLFORM=C29H40O9
##CAS REGISTRY NO=14729-29-4
##MP= -300
##BP= -300
##MW= 532
##$RETENTION INDEX=0
##$CONDENSED SPECTRUM=NO
##NPOINTS= 67
##XYDATA=(XY..XY) 1 
    38         70
    39        173
    42        461
    43        102
    44        737
    45         96
    46        365
    51         83
    53        275
    54         76
    55        288
    56         76
    57        211
    58        109
    65        179
    66         89
    67        288
    69        160
    70         70
    71         64
    77        198
    79        371
    81        493
    82        275
    84         64
    85        999
    86        121
    91        307
    92        102
    93        198
    94         83
    95        166
    97         51
   105        358
   106        134
   107        282
   109        141
   110        288
   111         57
   115         70
   117         89
   119        121
   120         57
   121        102
   123         70
   128        109
   129         70
   130         64
   131        211
   133        121
   143         76
   145         89
   159        134
   161         64
   169         64
   171        109
   173         76
   185         96
   194        205
   199         57
   212        121
   231        115
   249        121
   311         70
   489        288
   490         89
   532         32