##TITLE=Library Entry 62389
##JCAMP-DX=Revision 4.10 
##DATA TYPE=MASS SPECTRUM
##SAMPLE DESCRIPTION=J.K.TERLOUW UTRECHT UNIV., UTRECHT, THE NETHERLANDS
##NAMES=HP
##CAS NAME=Zinc, bis[bis(phenylmethyl)carbamodithioato-S,S']-, (T-4)-
##MOLFORM=C30H28N2S4Zn
##CAS REGISTRY NO=14726-36-4
##MP= -300
##BP= -300
##MW= 608
##$RETENTION INDEX=0
##$CONDENSED SPECTRUM=NO
##NPOINTS= 244
##XYDATA=(XY..XY) 1 
    26          5
    27         11
    28         44
    29          3
    32         13
    33          3
    34          9
    36          5
    37          7
    38         15
    39         82
    40          7
    41         24
    42          1
    43          3
    44          9
    45         46
    46          3
    47          3
    49          3
    50         26
    51         50
    52         15
    53          5
    55          3
    56          1
    57          9
    58          3
    59          5
    60          3
    61          9
    62         18
    63         56
    64         16
    65        222
    66         13
    67          7
    69          5
    70          3
    71          3
    72          7
    73          3
    74          7
    75          7
    76         30
    77         33
    78         15
    79         31
    80          3
    81          1
    82          1
    83          1
    84          1
    85          3
    86          5
    87          5
    89         54
    90         37
    91        999
    92        142
    93          7
   102          3
   103          7
   104         16
   105          5
   106         80
   107          9
   108          1
   109          1
   110          1
   111          1
   115          3
   116         13
   117         15
   118          7
   119          1
   120          3
   121         71
   122         22
   123        110
   124         15
   125          5
   128          1
   129          1
   130          1
   134          9
   135          7
   136          3
   141          1
   146          3
   147          3
   148        634
   149        189
   150         84
   151         15
   152          5
   153         24
   154          3
   155          3
   162          3
   163          1
   164          3
   165         11
   166          3
   167          5
   168          1
   170          1
   178          5
   179          5
   180          3
   181          7
   182         52
   183          7
   184          5
   185          1
   187          3
   189          1
   192          1
   193          3
   194         16
   195         11
   196         22
   197          7
   200          1
   202          1
   204          1
   205          1
   206          3
   207          7
   208          5
   209          3
   211          1
   212          3
   213          5
   214          1
   219          5
   221          3
   223          1
   238          7
   239         18
   240         26
   241         22
   242          5
   243          1
   244          1
   246          1
   252          1
   253          1
   254          1
   258          1
   260         24
   261          5
   262         15
   263          5
   264          9
   265          1
   266          1
   271          5
   272         22
   273         39
   274          9
   275          5
   286          3
   292          3
   294          1
   296          1
   309          1
   311          1
   313          1
   336         20
   337          3
   338         13
   339          3
   340          9
   341          1
   342          1
   363          5
   364          1
   365          1
   368         13
   369          3
   370          9
   371          3
   373          5
   374          1
   382          1
   384          1
   386          1
   389          3
   390          1
   395         24
   396          5
   397         16
   398          5
   399         11
   400          3
   401          1
   412          1
   414          1
   439          1
   441         13
   442          3
   443          9
   444          3
   445          7
   446          1
   447          1
   458        147
   459         41
   460        108
   461         41
   462         74
   463         22
   464         13
   465          3
   466          1
   485          1
   487          1
   517         24
   518          7
   519         18
   520          7
   521         13
   522          3
   523          3
   531          3
   532          1
   533          1
   535          1
   575          5
   576          3
   577          5
   578          3
   579          3
   580         20
   608        187
   609         63
   610        149
   611         71
   612        106
   613         41
   614         28
   615          7
   616          3