##TITLE=Library Entry 28795
##JCAMP-DX=Revision 4.10 
##DATA TYPE=MASS SPECTRUM
##SAMPLE DESCRIPTION=CARL DJERASSI DEPT OF CHEM STANFORD UNIV STANFORD CALIF
 94305
##NAMES=HP
##CAS NAME=Bicyclo[2.2.1]heptan-2-amine, N,N,1,7,7-pentamethyl-, endo-
##MOLFORM=C12H23N
##CAS REGISTRY NO=14727-50-5
##MP= -300
##BP= -300
##MW= 181
##$RETENTION INDEX=0
##$CONDENSED SPECTRUM=NO
##NPOINTS= 64
##XYDATA=(XY..XY) 1 
    27        200
    28        100
    29        170
    30         40
    39        180
    40         40
    41        440
    42        340
    43        140
    44        160
    45         90
    46         20
    51         40
    52         10
    53        140
    54         30
    55        220
    56        150
    57         30
    58        999
    59         30
    65         40
    66         10
    67        150
    68         60
    69         80
    70         80
    71        210
    72        410
    73         20
    77         80
    78         10
    79         70
    80         10
    81         80
    82        110
    83         20
    84        190
    85         10
    91         50
    93         40
    94         30
    95        960
    96        140
    97         40
    98        260
    99         30
   105         10
   107         20
   108         20
   109         20
   110        890
   111        110
   121         10
   122         10
   124         20
   125         10
   126         10
   136         20
   138         10
   166         70
   180         10
   181        280
   182         30