##TITLE=Library Entry 71838
##JCAMP-DX=Revision 4.10 
##DATA TYPE=MASS SPECTRUM
##SAMPLE DESCRIPTION=TNO Volatile Compounds in Food - Chemical Concepts
##NAMES=HP
##CAS NAME=2(3H)-Furanone, 5-hexyldihydro-4-methyl-, trans-
##MOLFORM=C11H20O2
##CAS REGISTRY NO=147254-33-9
##MP= -300
##BP= -300
##MW= 184
##$RETENTION INDEX=0
##$CONDENSED SPECTRUM=NO
##NPOINTS= 89
##XYDATA=(XY..XY) 1 
    26         16
    27        132
    29        140
    30          5
    34          2
    36          4
    37          4
    38          4
    39        117
    41        395
    42        377
    43        427
    44         10
    45          6
    50          5
    51          7
    53         32
    54         24
    55        288
    56        150
    57         58
    58         20
    59          5
    60          4
    63          3
    64          2
    65         15
    66         12
    67         26
    68         36
    69        127
    70        162
    71        298
    72         24
    73         35
    77         11
    78          4
    79         18
    81         22
    82         33
    83         24
    84         20
    85         30
    86         27
    87          8
    88          5
    94          4
    95         26
    96          8
    97        177
    98         26
    99        999
   100         71
   101         14
   102          4
   103          5
   109          8
   111          5
   112          5
   113         57
   114         35
   115        119
   116         11
   119          2
   121          2
   122          2
   123         12
   124         86
   125         17
   127          4
   128         10
   131          5
   135          2
   136          2
   137          3
   138          3
   141          9
   142         96
   143          9
   144          2
   147          5
   148          4
   151          1
   155          5
   156          3
   163          4
   165          3
   166          5
   183          4