##TITLE=Library Entry 71170
##JCAMP-DX=Revision 4.10 
##DATA TYPE=MASS SPECTRUM
##SAMPLE DESCRIPTION=R.T.HOLMAN,UNIVERSITY OF MINNESOTA
##NAMES=HP
##CAS NAME=Octadecanedioic acid, dimethyl ester
##MOLFORM=C20H38O4
##CAS REGISTRY NO=1472-93-1
##MP= -300
##BP= -300
##MW= 342
##$RETENTION INDEX=2423
##$CONDENSED SPECTRUM=NO
##NPOINTS= 255
##XYDATA=(XY..XY) 1 
    25          4
    26          8
    27         67
    28         42
    29        187
    30          8
    31         24
    32          2
    38          4
    39         57
    40         16
    41        496
    42        114
    43        543
    44         33
    45         48
    46          3
    50          3
    51          4
    52          4
    53         35
    54         55
    55        765
    56        100
    57        234
    58         28
    59        308
    60         16
    61          6
    62          2
    63          4
    64          2
    65          7
    66          8
    67        127
    68         69
    69        449
    70         65
    71        114
    72         10
    73         73
    74        845
    75         87
    76          8
    77          8
    78          6
    79         30
    80         32
    81        140
    82         63
    83        302
    84        469
    85         87
    86          8
    87        402
    88         45
    89          5
    90          2
    91         10
    92          5
    93         32
    94         40
    95        120
    96         87
    97        248
    98        999
    99        100
   100         14
   101         59
   102          8
   103          3
   104          2
   105          6
   106          5
   107         32
   108         35
   109         64
   110         42
   111        134
   112        322
   113         44
   114         16
   115         45
   116         19
   117          6
   118          3
   119         10
   120          6
   121         52
   122         20
   123         44
   124         24
   125         71
   126         87
   127         20
   128         14
   129         37
   130         29
   131          6
   132          3
   133         11
   134          8
   135         45
   136         16
   137         29
   138         21
   139         44
   140         59
   141         21
   142          6
   143         32
   144         40
   145          6
   146          3
   147         12
   148          8
   149         29
   150         12
   151         16
   152         22
   153         29
   154         75
   155         14
   156          4
   157         20
   158         44
   159          7
   160          3
   161          7
   162          4
   163         17
   164          8
   165         10
   166         11
   167         19
   168         40
   169          8
   170          3
   171         20
   172         30
   173          6
   174          2
   175          5
   176          4
   177         13
   178          7
   186         12
   187          4
   189          3
   190          2
   191          4
   192          7
   193          6
   194         19
   195         24
   196         54
   197         11
   198          3
   199         11
   200          8
   201          3
   205          4
   206          6
   207          8
   208         14
   209         17
   210         18
   211          5
   212          7
   213         12
   214          7
   215          2
   216          2
   217          3
   218          6
   219         33
   220          6
   221          6
   222          6
   223          6
   224          4
   225          4
   226         11
   227         21
   228          6
   229          3
   230          2
   231          2
   232          4
   233          8
   234          6
   235          8
   236         56
   237         87
   238         16
   239          5
   240          3
   241          4
   242          4
   243          2
   249          7
   250         34
   251         16
   252          5
   253          3
   254         17
   255          7
   256         20
   257          5
   259          3
   260          6
   261          3
   262          2
   263          2
   264          3
   265          2
   266          4
   267          6
   268         23
   269        208
   270         40
   271          6
   276          2
   277         10
   278         43
   279         15
   280          4
   281          5
   282          8
   283          8
   284          5
   285          2
   292          6
   293          3
   294          2
   295          2
   296          1
   297          2
   298          2
   299          2
   309          5
   310         54
   311        228
   312         46
   313          8
   314          2
   324          3
   325          7
   326          2
   327          2
   339          2
   341          2
   342          9
   343          4
   344          2