##TITLE=Library Entry 33059
##JCAMP-DX=Revision 4.10 
##DATA TYPE=MASS SPECTRUM
##SAMPLE DESCRIPTION=Exported from NIST MS Search
##NAMES=HP
##CAS NAME=Spiro[4.4]nonan-1-one
##MOLFORM=C9H14O
##CAS REGISTRY NO=14727-58-3
##MP= -300
##BP= -300
##MW= 138
##$RETENTION INDEX=0
##$CONDENSED SPECTRUM=NO
##NPOINTS= 50
##XYDATA=(XY..XY) 1 
    37         12
    38         36
    39        363
    40        117
    41        317
    42         36
    43        147
    44         22
    50         32
    51         60
    52         44
    53        121
    54        161
    55         74
    56          4
    57         12
    58         32
    62          4
    63         24
    65         72
    66         60
    67        999
    68         90
    69         28
    70          8
    77         76
    78         24
    79        242
    80         44
    81        101
    82        181
    83         16
    84          4
    91         60
    92         40
    93         36
    94        181
    95        202
    96         32
    97        537
    98         36
   105         20
   107         20
   108         16
   109          8
   110         24
   120         16
   137         16
   138        161
   139         20