##TITLE=Library Entry 4377
##JCAMP-DX=Revision 4.10 
##DATA TYPE=MASS SPECTRUM
##SAMPLE DESCRIPTION=A.Pleshkova, Nesmeyanov Inst.Org.Elem.Cpds, Moscow
##NAMES=HP
##CAS NAME=Dimethylfluoroamine
##MOLFORM=C2H6FN
##CAS REGISTRY NO=14722-43-1
##MP= -300
##BP= -300
##MW= 63
##$RETENTION INDEX=0
##$CONDENSED SPECTRUM=NO
##NPOINTS= 20
##XYDATA=(XY..XY) 1 
    13         46
    14        118
    15        798
    16         10
    20        316
    27         52
    28        334
    29          4
    31        185
    32          2
    38         38
    39         48
    40        143
    41        189
    42        999
    43        526
    44         14
    62        403
    63        265
    64          7