##TITLE=Library Entry 45168
##JCAMP-DX=Revision 4.10 
##DATA TYPE=MASS SPECTRUM
##SAMPLE DESCRIPTION=O TIMOFEEV,PHYS. CHEM. INST.,ACAD. SCI.,ODESSA,USSR
##NAMES=HP
##CAS NAME=2,2-Dimethyl-5-isopropyl-1,3-oxathiane
##MOLFORM=C9H18OS
##CAS REGISTRY NO=147354-43-6
##MP= -300
##BP= -300
##MW= 174
##$RETENTION INDEX=0
##$CONDENSED SPECTRUM=NO
##NPOINTS= 42
##XYDATA=(XY..XY) 1 
    53         53
    54         46
    55        900
    56        190
    57        150
    58         31
    59        550
    60        270
    61        150
    62         15
    63         15
    65         20
    66         10
    67        300
    68        100
    69        900
    70        500
    71         60
    72         45
    74        700
    75        999
    76         80
    77         70
    79         20
    81         36
    82        370
    83        700
    84         60
    85         15
    87         30
    88         27
    89         14
   101        390
   102         33
   103         18
   116        530
   117         80
   118         27
   159        110
   174        450
   175         50
   176         17