##TITLE=Library Entry 12748
##JCAMP-DX=Revision 4.10 
##DATA TYPE=MASS SPECTRUM
##SAMPLE DESCRIPTION=R.T.HOLMAN,UNIVERSITY OF MINNESOTA
##NAMES=HP
##CAS NAME=1,3-Dioxolane-4-methanol, 2,2-dimethyl-, acetate
##MOLFORM=C8H14O4
##CAS REGISTRY NO=14739-11-8
##MP= -300
##BP= -300
##MW= 174
##$RETENTION INDEX=0
##$CONDENSED SPECTRUM=NO
##NPOINTS= 78
##XYDATA=(XY..XY) 1 
    26          3
    27         20
    28         53
    29         23
    30          1
    31         21
    32          8
    36          1
    37          1
    38          1
    39         18
    40          6
    41         43
    42         60
    43        999
    44         31
    45          6
    46          1
    47          1
    50          1
    53          1
    54          1
    55          9
    56          6
    57         93
    58         10
    59         55
    60          4
    61         46
    62          1
    63          1
    65          1
    67          1
    68          1
    69          1
    70          1
    71         10
    72        106
    73         31
    74          3
    75          3
    76          1
    77          1
    78          1
    79          1
    81          1
    82          1
    83         10
    84          1
    85         12
    86          9
    87          3
    88          1
    95          1
    96          1
    97          1
    98          1
    99         37
   100          3
   101        187
   102         10
   103          4
   104          1
   105          1
   114          5
   115          9
   116          3
   117          7
   118          1
   119          1
   145          5
   146          1
   158          1
   159        337
   160         25
   161          3
   162          1
   173          1