##TITLE=Library Entry 35368
##JCAMP-DX=Revision 4.10 
##DATA TYPE=MASS SPECTRUM
##SAMPLE DESCRIPTION=B. Derendyaev, Novosibirsk Institute of Organic Chemist
ry
##NAMES=HP
##CAS NAME=2-Oxy-[(1-methyl-2-dimethylcarbamoyl)vinyl]-5,5-dimethyl-1,3,2-di
oxaphosphorinane
##MOLFORM=C11H20NO4P
##CAS REGISTRY NO=147354-15-2
##MP= -300
##BP= -300
##MW= 261
##$RETENTION INDEX=0
##$CONDENSED SPECTRUM=NO
##NPOINTS= 83
##XYDATA=(XY..XY) 1 
    38          5
    39         91
    40         33
    41        469
    42        104
    43        262
    44        305
    45        103
    46         21
    47         75
    53         25
    54          9
    55         74
    56         98
    57         16
    58         18
    65         22
    66          5
    67         66
    68         41
    69        999
    70         91
    71         10
    72        196
    73          7
    76          8
    77         21
    79          4
    80        552
    81         32
    82         39
    83         11
    84          4
    85         39
    86          7
    87          4
    89          9
    90          4
    91         38
    92         21
    94         31
    95         82
    96         11
    97          7
    98         19
    99          3
   100          7
   110          6
   111          4
   112         36
   113          4
   114          5
   128          7
   129         13
   131         16
   132          5
   133        258
   134         16
   138          2
   148          3
   149          2
   150          3
   151          3
   160         10
   166          2
   167          4
   175         18
   176         28
   177          3
   178         38
   184          2
   190          4
   192         28
   193          3
   194          2
   206          5
   217          7
   246        247
   247         24
   248          3
   260          2
   261         10
   262          1