##TITLE=Library Entry 2519
##JCAMP-DX=Revision 4.10 
##DATA TYPE=MASS SPECTRUM
##SAMPLE DESCRIPTION=B. Derendyaev, Novosibirsk Institute of Organic Chemist
ry
##NAMES=HP
##CAS NAME=[(1-Methyl-2-piperidinocarbonyl)vinyloxy]-4-methyl-1,3,2-dioxapho
spholane
##MOLFORM=C12H20NO4P
##CAS REGISTRY NO=147354-25-4
##MP= -300
##BP= -300
##MW= 273
##$RETENTION INDEX=0
##$CONDENSED SPECTRUM=NO
##NPOINTS= 131
##XYDATA=(XY..XY) 1 
    30        436
    32        212
    39        360
    40        143
    41        999
    43        981
    44        116
    45         56
    47        359
    48         16
    49         12
    51          1
    52         12
    53         59
    54        122
    55        408
    56        299
    57        141
    58         42
    59         16
    61         15
    65        570
    66         75
    67        259
    68        123
    69        399
    70        113
    71         16
    72         13
    75         18
    76         22
    77         34
    78         18
    79        208
    80         75
    81         54
    82        103
    83        170
    84        856
    85        265
    86         30
    87         15
    89         39
    91         13
    92        856
    93        113
    94         74
    95         24
    96         66
    97         15
    98         22
    99        160
   102          1
   103         36
   104         16
   105        570
   106        199
   107        494
   108        113
   109         25
   110        151
   111         24
   112        294
   113         20
   115         11
   120        675
   121         67
   122         23
   123         25
   124         61
   125         16
   126         60
   128         10
   130         25
   131         34
   132         62
   133         19
   134        360
   135        579
   136        219
   137         26
   138         68
   139        237
   140         35
   145         18
   146         21
   148        122
   149         13
   150         45
   151         37
   152        322
   153         64
   154         18
   156         30
   160         29
   161         13
   162         16
   163         12
   164         94
   166          9
   168          9
   169         35
   174         27
   176         26
   179         10
   185         31
   187         11
   188         58
   189        122
   190         16
   198         15
   199        103
   200         39
   203         14
   204         39
   205         13
   214         13
   215         22
   216        113
   217         27
   230        265
   232        203
   233         19
   244         10
   245          9
   258        741
   259        113
   260         13
   272         22
   273         53
   274         16