##TITLE=Library Entry 7826
##JCAMP-DX=Revision 4.10 
##DATA TYPE=MASS SPECTRUM
##SAMPLE DESCRIPTION=Exported from NIST MS Search
##NAMES=HP
##CAS NAME=Heneicosane, 11-pentyl-
##MOLFORM=C26H54
##CAS REGISTRY NO=14739-72-1
##MP= -300
##BP= -300
##MW= 366
##$RETENTION INDEX=2453
##$CONDENSED SPECTRUM=NO
##NPOINTS= 144
##XYDATA=(XY..XY) 1 
    36          1
    37          2
    38          3
    39         51
    40         13
    41        446
    42        114
    43        999
    44         32
    45          1
    49          1
    50          1
    51          2
    52          2
    53         18
    54         35
    55        357
    56        159
    57        909
    58         39
    59          1
    63          1
    65          3
    66          3
    67         36
    68         27
    69        192
    70         94
    71        550
    72         29
    73          1
    76          1
    77          2
    78          1
    79          5
    80          2
    81         17
    82         22
    83        125
    84         44
    85        392
    86         25
    87          1
    91          2
    92          1
    93          1
    94          1
    95          8
    96         14
    97         87
    98         26
    99        109
   100          8
   101          1
   109          3
   110          7
   111         40
   112         21
   113         72
   114          6
   115          1
   123          1
   124          5
   125         21
   126         13
   127         50
   128          6
   129          1
   137          1
   138          4
   139         11
   140         14
   141         42
   142          5
   143          1
   152          3
   153          7
   154          7
   155         32
   156          4
   157          1
   166          2
   167          6
   168          6
   169         25
   170          3
   171          1
   180          2
   181          3
   182          6
   183         16
   184          2
   185          1
   194          1
   195          2
   196         11
   197         10
   198          2
   199          1
   208          1
   209          1
   210          7
   211         10
   212          2
   213          1
   222          1
   223          1
   224        180
   225        154
   226         24
   227          2
   236          1
   237          1
   238          6
   239          8
   240          2
   241          1
   251          1
   252          3
   253          5
   254          1
   265          1
   266          3
   267          3
   268          1
   280          3
   281          4
   282          1
   294         58
   295         86
   296         18
   297          2
   308          2
   309          3
   310          1
   322          1
   323          1
   324          1
   336          1
   337          1
   338          1
   364          1
   365          1
   366          1