##TITLE=Library Entry 49314
##JCAMP-DX=Revision 4.10 
##DATA TYPE=MASS SPECTRUM
##SAMPLE DESCRIPTION=Chemical Concepts
##NAMES=HP
##CAS NAME=4,6-Methanocyclopenta[b]pyran-2(3H)-one, hexahydro-7-iodo-, (4.al
pha.,4a.beta.,6.alpha.,7.beta.,7a.beta.)-
##MOLFORM=C9H11IO2
##CAS REGISTRY NO=14734-16-8
##MP= -300
##BP= -300
##MW= 278
##$RETENTION INDEX=0
##$CONDENSED SPECTRUM=NO
##NPOINTS= 83
##XYDATA=(XY..XY) 1 
    26         12
    27        104
    28          8
    29         34
    31         10
    37          5
    38         19
    39        205
    40         48
    41        154
    42         18
    43         41
    44          6
    45         52
    46          6
    50         22
    51         52
    52         32
    53         96
    54         25
    55         71
    56          8
    57         33
    61          5
    62          6
    63         18
    64          6
    65         78
    66        211
    67        175
    68         36
    69         56
    70          7
    71          9
    73          4
    77        134
    78         43
    79        999
    80         80
    81        189
    82         24
    83         18
    85          5
    89          3
    91        114
    92         17
    93        100
    94         28
    95        136
    96         12
    97         21
   103         10
   104          3
   105        159
   106         17
   107        102
   108         19
   109         44
   110          6
   111          3
   115          4
   121         11
   122          3
   123         43
   124          8
   125          2
   127         22
   128         20
   133         24
   134          2
   141          3
   149          4
   151        541
   152         47
   153          5
   157          4
   165          3
   167         10
   208          3
   221          3
   233          1
   251          2
   279          2