##TITLE=Library Entry 60352
##JCAMP-DX=Revision 4.10 
##DATA TYPE=MASS SPECTRUM
##SAMPLE DESCRIPTION=Drug Lab
##NAMES=HP
##CAS NAME=Propanamide, N-phenyl-N-[1-(phenylmethyl)-4-piperidinyl]-
##MOLFORM=C21H26N2O
##CAS REGISTRY NO=1474-02-8
##MP= -300
##BP= -300
##MW= 322
##$RETENTION INDEX=2694
##$CONDENSED SPECTRUM=NO
##NPOINTS= 117
##XYDATA=(XY..XY) 1 
    40          1
    41         14
    42         50
    43          6
    44          7
    50          4
    51         18
    52          4
    53          6
    54          9
    55         40
    56         32
    57         92
    58          2
    62          1
    63          9
    64          5
    65         79
    66          8
    67          6
    68          6
    69         18
    70          4
    74          2
    75          1
    77         78
    78         12
    79          7
    80         11
    82        821
    83         51
    84          2
    89         16
    91        999
    92         95
    93         32
    94          9
    95          3
    96         34
    97          3
   100          1
   102          1
   103          6
   104         44
   105         17
   106         30
   107          2
   114          1
   115          6
   116          4
   117         36
   118        110
   119         60
   120         52
   121          3
   127          1
   128          2
   129          3
   130         31
   131         16
   132        124
   133         21
   134         40
   135          4
   143          4
   144         50
   145         46
   146        155
   147         22
   148          4
   149          7
   150         25
   151          2
   156          1
   158         62
   159          9
   160          4
   161          1
   170          6
   172        228
   173        246
   174         98
   175         18
   176          3
   188          3
   189          4
   190         14
   191          2
   202          3
   203          3
   204          1
   208          1
   215          3
   216          1
   217          4
   218          2
   219          1
   221          2
   222          1
   231         14
   232          2
   236          4
   237          4
   245          1
   248          3
   249         20
   250          6
   251          1
   263          1
   265         91
   266         20
   267          1
   293          7
   294          1
   322         45
   323         11
   324          1