##TITLE=Library Entry 90106
##JCAMP-DX=Revision 4.10 
##DATA TYPE=MASS SPECTRUM
##SAMPLE DESCRIPTION=K. Jacobson, LBC, NIDDK, NIH, Bethesda, MD 20892
##NAMES=HP
##CAS NAME=5,11-Dihydro-8-methylthio-11-[4-methyl-1-piperazinyl]acetyl]-6H-p
yrido[2,3-b]benzo[f][1,4]diazepine
##MOLFORM=C20H23N5O2S
##CAS REGISTRY NO=147435-32-3
##MP= -300
##BP= -300
##MW= 397
##$RETENTION INDEX=0
##$CONDENSED SPECTRUM=NO
##NPOINTS= 166
##XYDATA=(XY..XY) 1 
    42        441
    43        194
    44         49
    45         17
    47          8
    50          2
    51          3
    52          4
    53          3
    54         22
    55         29
    56        176
    57         44
    58         46
    63         12
    64          3
    65          9
    66          4
    67          3
    68         13
    69         30
    70        607
    71         85
    72         24
    75          3
    76          3
    77          6
    78          9
    79          4
    81          4
    82         23
    83         39
    84         43
    85          9
    89          2
    90          3
    91         18
    92          4
    93          4
    94          2
    95          9
    96          7
    97         20
    98         69
    99        148
   100         13
   101          2
   102          3
   103          6
   104          7
   106          3
   107          6
   108          5
   109          5
   111         38
   112         25
   113        999
   114         73
   115          4
   116          2
   119          2
   120          3
   121         10
   122         11
   123          3
   127          7
   128          2
   129          4
   131          5
   133          6
   134          4
   135          3
   136          6
   137          4
   139          3
   140          9
   141         24
   142          7
   143          3
   147          2
   148          4
   149          2
   150          3
   153          4
   154          5
   155         15
   156          3
   157          3
   159          3
   160          4
   161          2
   163          2
   165          2
   167          4
   168         11
   169         38
   170         25
   171          3
   175          4
   176          5
   180         14
   181         34
   182         18
   183          9
   184          3
   185         12
   186         16
   187          4
   188          3
   194         10
   195          5
   196          5
   197         14
   198         14
   199          6
   200          3
   201          4
   208          2
   209         19
   210          5
   211         11
   212         17
   213         23
   214         42
   215          6
   216          2
   219          4
   223          3
   225          4
   226          9
   227         23
   228         10
   229         54
   230          8
   231          2
   240          6
   241         19
   242        149
   243         28
   244          5
   254          2
   255         26
   256         35
   257        332
   258         64
   259         21
   260          2
   268          2
   269          8
   270         48
   271          7
   284          9
   297         21
   298         26
   299         10
   327          8
   340         41
   341         45
   342          9
   343          2
   354         16
   355          6
   397        231
   398         59
   399         17
   400          2