##TITLE=Library Entry 21629
##JCAMP-DX=Revision 4.10 
##DATA TYPE=MASS SPECTRUM
##SAMPLE DESCRIPTION=V.A.Korolev, Moscow, Russia
##NAMES=HP
##CAS NAME=Benzoic acid, 4-[(1-oxo-2-propenyl)amino]-, ethyl ester
##MOLFORM=C12H13NO3
##CAS REGISTRY NO=14745-58-5
##MP= -300
##BP= -300
##MW= 219
##$RETENTION INDEX=0
##$CONDENSED SPECTRUM=NO
##NPOINTS= 73
##XYDATA=(XY..XY) 1 
    37          8
    38         27
    39         48
    40         14
    41         13
    42          5
    43          9
    44         13
    45         11
    50         24
    51         17
    52         17
    53         16
    55        999
    56         35
    57          4
    61          5
    62         18
    63         80
    64         66
    65        104
    66         10
    69          1
    74          8
    75         11
    76         10
    77          9
    78         12
    80          3
    81         10
    82          2
    89          4
    90         33
    91         65
    92         89
    93         31
    94          2
    98         13
   103          7
   108         21
   109          2
   116          1
   117          8
   118         37
   119         44
   120        464
   121        100
   122          7
   128          3
   132          3
   137        153
   138         12
   144          3
   146         61
   147          9
   149          4
   150         17
   162          4
   163          3
   165        528
   166         55
   167          3
   172          1
   174        170
   175         19
   178          3
   190          7
   191         12
   192          4
   218          4
   219        393
   220         53
   221          4