##TITLE=Library Entry 85849
##JCAMP-DX=Revision 4.10 
##DATA TYPE=MASS SPECTRUM
##SAMPLE DESCRIPTION=Japan AIST/NIMC Database- Spectrum MS-NW-7589
##NAMES=HP
##CAS NAME=Phosphinecarboxylic acid, diethoxy-, ethyl ester, oxide
##MOLFORM=C7H15O5P
##CAS REGISTRY NO=1474-78-8
##MP= -300
##BP= -300
##MW= 210
##$RETENTION INDEX=0
##$CONDENSED SPECTRUM=NO
##NPOINTS= 101
##XYDATA=(XY..XY) 1 
    14          2
    15         21
    16          1
    18          2
    19          1
    25          2
    26         27
    27        217
    28         76
    29        715
    30         16
    31         88
    32          3
    39          1
    41          8
    42          7
    43         64
    44         17
    45        160
    46          6
    47         58
    48          5
    49          2
    55          4
    56          1
    57          3
    59         31
    60          1
    62          3
    63          8
    64          4
    65        257
    66         12
    67          2
    72          2
    73         23
    74          2
    75          1
    76          4
    77          9
    78          2
    79          3
    80          1
    81        727
    82        458
    83        208
    84          3
    85          2
    87          1
    89          1
    90          1
    91        207
    92         29
    93        112
    94         27
    95          4
    96          1
    97          1
    98          1
    99        139
   101          1
   102          1
   104          1
   105          1
   106          1
   107          6
   108          4
   109        999
   110        141
   111        381
   112         10
   113          4
   120          1
   121          6
   122         20
   123          2
   125         55
   126         15
   127        155
   128          5
   129          2
   135          6
   136          3
   137        462
   138        154
   139        102
   140          5
   141          1
   153         17
   154         13
   155         81
   156          4
   165          2
   166         17
   167          7
   181          6
   182          4
   183         10
   195          1
   210         22
   211          4