##TITLE=Library Entry 37128
##JCAMP-DX=Revision 4.10 
##DATA TYPE=MASS SPECTRUM
##SAMPLE DESCRIPTION=J.H.BOWIE UNIVERSITY OF ADELAIDE, AUSTRALIA
##NAMES=HP
##CAS NAME=3,4(2H,5H)-Furandione, 2,2,5,5-tetramethyl-
##MOLFORM=C8H12O3
##CAS REGISTRY NO=14744-18-4
##MP= -300
##BP= -300
##MW= 156
##$RETENTION INDEX=0
##$CONDENSED SPECTRUM=NO
##NPOINTS= 18
##XYDATA=(XY..XY) 1 
    27         90
    28         40
    39        220
    40         80
    41        310
    42        940
    43        360
    44         60
    57         30
    58        280
    59        420
    69         30
    70        999
    71         50
    85         20
   100         40
   128         60
   156         60