##TITLE=Library Entry 71141
##JCAMP-DX=Revision 4.10 
##DATA TYPE=MASS SPECTRUM
##SAMPLE DESCRIPTION=Patti Price, Georgia Bureau of Investigation, Decatur,
 Georgia
##NAMES=HP
##CAS NAME=Sulforidazine
##MOLFORM=C21H26N2O2S2
##CAS REGISTRY NO=14759-06-9
##MP= -300
##BP= -300
##MW= 402
##$RETENTION INDEX=3387
##$CONDENSED SPECTRUM=NO
##NPOINTS= 189
##XYDATA=(XY..XY) 1 
    39          8
    41         39
    42         42
    43         43
    44         15
    45         19
    46          2
    47          3
    48          2
    53          5
    54          5
    55         56
    56         25
    57         69
    58          7
    59          2
    63         28
    64          1
    65          7
    67         22
    68         20
    69         47
    70        127
    71         46
    72          3
    73          7
    75          3
    76          3
    77          9
    78         20
    79         12
    80          5
    81         26
    82         27
    83         45
    84         26
    85         48
    86          4
    87          5
    89          4
    91          9
    93          8
    94          7
    95         29
    96         31
    97         43
    98        999
    99        102
   100         15
   101         12
   102          4
   103          3
   105          7
   107          7
   108          7
   109         17
   110         11
   111         29
   112         24
   113         11
   115          6
   116          3
   117          4
   119          6
   121          6
   122          5
   123         11
   124         12
   125         37
   126         49
   127         19
   128          5
   129          6
   130          2
   131          2
   133          3
   134          3
   135          7
   136          3
   137          7
   138          5
   139         18
   140          7
   141         10
   143          5
   145          3
   146          4
   147          4
   149         28
   150          5
   151         10
   152         12
   153         23
   154          9
   155         10
   157          2
   159          2
   163          8
   164          4
   165          7
   166          7
   167         17
   168          4
   169          8
   170          7
   171         12
   172          4
   173          2
   175          6
   176          2
   177          6
   178         15
   179         26
   180          8
   181          3
   182          5
   183          6
   184          6
   185         19
   186          4
   189          1
   190          3
   191         14
   192          5
   193          5
   194          3
   195          3
   196         62
   197         74
   198         26
   199         19
   200          2
   203          2
   204          1
   205          2
   206          2
   207          2
   209          8
   210         37
   211         33
   212         11
   213          5
   217          1
   221          4
   222          6
   223         15
   224         16
   225         18
   227         11
   228          1
   236          4
   237          2
   238          2
   243          3
   253          3
   254          2
   255          6
   256          9
   257          3
   258         27
   259          6
   262          1
   267          1
   271          2
   272          1
   273          1
   276         33
   277         20
   278          7
   279          3
   281          1
   283          6
   284          5
   285          3
   289          1
   290         30
   291         11
   293          2
   299          7
   302          2
   303         12
   304          4
   305          2
   323          4
   368          2
   387          2
   402         62
   403         15
   404          7