##TITLE=Library Entry 65139
##JCAMP-DX=Revision 4.10 
##DATA TYPE=MASS SPECTRUM
##SAMPLE DESCRIPTION=Japan AIST/NIMC Database- Spectrum MS-NW-1238
##NAMES=HP
##CAS NAME=n-Heptadecylbenzene
##MOLFORM=C23H40
##CAS REGISTRY NO=14752-75-1
##MP= -300
##BP= -300
##MW= 316
##$RETENTION INDEX=0
##$CONDENSED SPECTRUM=NO
##NPOINTS= 96
##XYDATA=(XY..XY) 1 
    14          2
    15          1
    26          1
    27         19
    28          3
    29         52
    30          1
    39         13
    40          2
    41        102
    42         21
    43        174
    44         11
    45          2
    50          1
    51          4
    52          2
    53          8
    54          7
    55         69
    56         19
    57        119
    58          5
    63          2
    65         17
    66          2
    67          9
    68          6
    69         30
    70         10
    71         53
    72          3
    77         10
    78         26
    79         16
    80          7
    81          6
    82          5
    83         17
    84          5
    85         29
    86          2
    89          3
    90          2
    91        523
    92        999
    93         80
    94         13
    95          4
    96          3
    97          9
    98          3
    99          5
   100          1
   103          7
   104         51
   105         89
   106         33
   107          4
   108          1
   109          1
   110          1
   111          4
   112          1
   113          3
   115          4
   116          1
   117         14
   118          8
   119         26
   120          9
   121          2
   123          1
   125          2
   127          2
   129          1
   131          4
   132          4
   133         73
   134         21
   135          4
   136          1
   147         11
   148          5
   149          3
   161          5
   162          1
   165          2
   167          2
   175          3
   189          1
   262          1
   273          1
   316        172
   317         42
   318          6