##TITLE=Library Entry 27675
##JCAMP-DX=Revision 4.10 
##DATA TYPE=MASS SPECTRUM
##SAMPLE DESCRIPTION=Chemical Concepts
##NAMES=HP
##CAS NAME=1,3-Cyclopentadiene, 5-[2-(dimethylamino)ethyl]-
##MOLFORM=C9H15N
##CAS REGISTRY NO=147699-91-0
##MP= -300
##BP= -300
##MW= 137
##$RETENTION INDEX=0
##$CONDENSED SPECTRUM=NO
##NPOINTS= 85
##XYDATA=(XY..XY) 1 
    29         11
    30         46
    31          0
    37          0
    38          1
    39         16
    40          1
    41          9
    42         37
    43         12
    44         10
    45          0
    50          2
    51          7
    52          3
    53          5
    54          0
    55          5
    56          9
    57         10
    58        999
    59         33
    60          0
    61          0
    62          1
    63          3
    64          0
    65          8
    66          1
    67          3
    68          3
    69          1
    70          4
    71         10
    72          0
    73          0
    74          0
    75          0
    76          0
    77         14
    78          4
    79          3
    80          1
    81          2
    82          0
    83          0
    84          0
    85          0
    89          1
    90          0
    91         18
    92          3
    93          5
    94          1
    95          1
    96          0
    97          0
    99          0
   102          0
   103          0
   104          0
   105          1
   106          0
   107          1
   108          0
   109          0
   110          0
   111          0
   117          0
   118          0
   119          1
   120          1
   121          1
   122          0
   123          0
   125          0
   131          0
   132          0
   133          0
   134          2
   135          1
   136          2
   137         24
   138          3
   139          0