##TITLE=Library Entry 29205
##JCAMP-DX=Revision 4.10 
##DATA TYPE=MASS SPECTRUM
##SAMPLE DESCRIPTION=Scientific Instruments & Applications, Cohoes NY
##NAMES=HP
##CAS NAME=Desethylchloroquine
##MOLFORM=C16H22ClN3
##CAS REGISTRY NO=1476-52-4
##MP= -300
##BP= -300
##MW= 291
##$RETENTION INDEX=2575
##$CONDENSED SPECTRUM=NO
##NPOINTS= 196
##XYDATA=(XY..XY) 1 
    40         46
    41        356
    42        294
    43        259
    44        332
    45        198
    46         11
    47          1
    49          3
    50         21
    51         29
    52         32
    53         30
    54         27
    55         47
    56        244
    57         81
    58        999
    59         43
    60          2
    61          5
    62         12
    63         35
    64          6
    65         16
    66          4
    67         23
    68         27
    69         55
    70        117
    71        297
    72         37
    73         46
    74         37
    75         42
    76         16
    77         16
    78          9
    79          5
    80          4
    81          6
    82         11
    83          8
    84         55
    85         33
    86         17
    87         15
    88         14
    89         20
    90         13
    91          7
    92          2
    93          1
    94          3
    95          3
    96         15
    97         15
    98         83
    99         80
   100         31
   101         23
   102         16
   103         10
   108          2
   109          3
   110          5
   111         18
   112         75
   113         13
   114         36
   115         36
   116         17
   117          7
   119          2
   123         23
   124          6
   125         11
   126         28
   127         37
   128         27
   129          9
   130          2
   133          3
   134          1
   135         58
   136         11
   137         20
   138         18
   139          5
   140         12
   141          9
   142         14
   143         17
   144          7
   147          2
   148          2
   149          2
   150         36
   151         15
   152         18
   153         11
   154          8
   155         40
   156         14
   158          1
   161          2
   162         53
   163         50
   164         51
   165         23
   166         13
   167          8
   168         34
   169        104
   170         70
   171          6
   172          1
   174          1
   176          2
   177         24
   178         78
   179        386
   180         54
   181        142
   182         21
   183          4
   188          7
   189         20
   190         30
   191         16
   192          7
   193         18
   194          8
   195         11
   196          2
   197          3
   201          2
   202          8
   203         38
   204         14
   205        178
   206         86
   207         61
   208         27
   209          6
   210          1
   214          2
   215          8
   216          6
   217         34
   218         20
   219         93
   220         23
   221         31
   222          3
   228          1
   229         35
   230         10
   231         32
   232         15
   233         24
   234          9
   235          6
   236          1
   237          1
   238          0
   240          0
   241          3
   242         11
   243          5
   244         15
   245         15
   246         10
   247          7
   248          5
   249          1
   250          1
   253          3
   254          2
   255          3
   262         10
   263          4
   264          6
   265         21
   266         12
   267          8
   268          3
   269          1
   276          3
   277          1
   278          1
   291         42
   292          9
   293         13
   294          2
   295          1