##TITLE=Library Entry 27202
##JCAMP-DX=Revision 4.10 
##DATA TYPE=MASS SPECTRUM
##SAMPLE DESCRIPTION=Dennis Rohrbaugh, CBDCOM/ERDEC, Edgewood, MD
##NAMES=HP
##CAS NAME=Trifluoromethyl butyl disulfide
##MOLFORM=C5H9F3S2
##CAS REGISTRY NO=147618-69-7
##MP= -300
##BP= -300
##MW= 190
##$RETENTION INDEX=0
##$CONDENSED SPECTRUM=NO
##NPOINTS= 21
##XYDATA=(XY..XY) 1 
    45        130
    46         75
    47        112
    55        188
    57        999
    58         73
    59         66
    64         74
    69        252
    73         11
    78         59
    79         20
    87         51
    89         32
   114         17
   133         51
   147         40
   171          7
   190        290
   191         53
   192         30