##TITLE=Library Entry 12284
##JCAMP-DX=Revision 4.10 
##DATA TYPE=MASS SPECTRUM
##SAMPLE DESCRIPTION=NIST Mass Spectrometry Data Center
##NAMES=HP
##CAS NAME=(2R,2'S,5S,5'S)-2,5'-Dimethyl-5-(prop-1-en-2-yl)-5'-vinylhexahydr
o-[2,2'-bifuran]-3(2H)-one
##MOLFORM=C15H22O3
##CAS REGISTRY NO=147663-93-2
##MP= -300
##BP= -300
##MW= 250
##$RETENTION INDEX=1554
##$CONDENSED SPECTRUM=NO
##NPOINTS= 113
##XYDATA=(XY..XY) 1 
    26          2
    27         38
    28         11
    29         28
    30          1
    31          5
    37          1
    38          3
    39        108
    40         41
    41        269
    42         47
    43        999
    44         31
    45         15
    46          1
    48          1
    50          6
    51         19
    52         15
    53        163
    54         20
    55        655
    56         40
    57         31
    58          3
    61          2
    62          2
    63          5
    65         55
    66         22
    67        327
    68        255
    69        372
    70         36
    71         40
    72         12
    73          2
    77         84
    78         11
    79         77
    80         21
    81        193
    82         27
    83        124
    84         18
    85         35
    86          2
    89          3
    90          1
    91        107
    92         11
    93        699
    94         66
    95         94
    96         45
    97        459
    98         41
    99          7
   103          2
   104          2
   105         12
   106          3
   107         30
   109         53
   110         30
   111        791
   112         76
   113         11
   116          7
   117          4
   121         13
   122         21
   123         23
   124          6
   125         58
   126          5
   127          2
   133         10
   135          6
   136          3
   137          8
   138          8
   139         65
   140        796
   141         62
   147          9
   148          1
   149          3
   150          2
   151          2
   153          6
   161          2
   165          4
   166          2
   167          7
   168          1
   175          1
   177          3
   178          2
   179          1
   189          1
   191          1
   192          1
   193          1
   205          1
   207          1
   217          1
   220          2
   221          1
   223          1
   235         11
   236          2