##TITLE=Library Entry 42231
##JCAMP-DX=Revision 4.10 
##DATA TYPE=MASS SPECTRUM
##SAMPLE DESCRIPTION=Dennis Rohrbaugh, CBDCOM/ERDEC, Edgewood, MD
##NAMES=HP
##CAS NAME=(Trimethylsilyl)methyl trifluoromethyl disulfide
##MOLFORM=C5H11F3S2Si
##CAS REGISTRY NO=147618-70-0
##MP= -300
##BP= -300
##MW= 220
##$RETENTION INDEX=0
##$CONDENSED SPECTRUM=NO
##NPOINTS= 28
##XYDATA=(XY..XY) 1 
    45        184
    46        197
    47         43
    49         29
    55         25
    57         32
    58         47
    59        106
    61         28
    63         59
    69         76
    73        999
    74         94
    75        112
    77        430
    78         49
    89         14
    90         31
    91         13
   104         17
   119        524
   120         57
   121         54
   123         39
   147         18
   220         81
   221         10
   222          9