##TITLE=Library Entry 29042
##JCAMP-DX=Revision 4.10 
##DATA TYPE=MASS SPECTRUM
##SAMPLE DESCRIPTION=Patti Price, Georgia Bureau of Investigation, Decatur,
 Georgia
##NAMES=HP
##CAS NAME=Noracymethadol
##MOLFORM=C22H29NO2
##CAS REGISTRY NO=1477-39-0
##MP= -300
##BP= -300
##MW= 339
##$RETENTION INDEX=0
##$CONDENSED SPECTRUM=NO
##NPOINTS= 131
##XYDATA=(XY..XY) 1 
    41         11
    42         30
    43        173
    44         24
    45          3
    51          6
    53          2
    55          3
    56         54
    57         42
    58        999
    59         37
    60          2
    63          2
    65          4
    68          1
    69          1
    70          5
    71         25
    72         21
    73          6
    76          2
    77         16
    78          3
    79          3
    82          1
    83          5
    84         22
    85          5
    89          3
    91         63
    92          5
    98          1
    99         60
   100          4
   101          2
   102          4
   103         11
   104          3
   105         39
   106          4
   107         12
   108          2
   115         32
   116          6
   117          8
   118         10
   119          5
   120          7
   127          6
   128         17
   129         37
   130         17
   131         45
   132          8
   133          3
   134        226
   135         27
   139          3
   141          2
   143          5
   144         11
   145          2
   146          4
   147         14
   148          1
   151          3
   152         12
   153          2
   157          2
   158          4
   159          1
   160          2
   163          2
   164          3
   165         33
   166          7
   167         10
   168          1
   171          1
   172          3
   176          3
   177          2
   178         26
   179         20
   180          7
   181          1
   189          4
   190          3
   191          9
   192          5
   193         40
   194          7
   195          2
   200          1
   202          4
   203          2
   204          2
   205          3
   206          2
   207         15
   208         12
   209          2
   219          2
   220          2
   222         37
   223          9
   224          3
   225         22
   226          4
   233          1
   234          2
   236          2
   248          6
   249          1
   250         31
   251          5
   262          1
   264          3
   265         19
   266          4
   277          1
   278          5
   279          5
   280          7
   281          2
   296          4
   322          2
   324          4
   339         13
   340          3