##TITLE=Library Entry 21790
##JCAMP-DX=Revision 4.10 
##DATA TYPE=MASS SPECTRUM
##SAMPLE DESCRIPTION=CARL DJERASSI DEPT OF CHEM STANFORD UNIV STANFORD CALIF
 94305
##NAMES=HP
##CAS NAME=Pregnan-3-one, (5.alpha.)-
##MOLFORM=C21H34O
##CAS REGISTRY NO=14778-11-1
##MP= -300
##BP= -300
##MW= 302
##$RETENTION INDEX=0
##$CONDENSED SPECTRUM=NO
##NPOINTS= 146
##XYDATA=(XY..XY) 1 
    53        250
    54         80
    55        999
    56        110
    57        170
    58         10
    59         10
    60         10
    61         10
    63         10
    64         10
    65         80
    66         40
    67        540
    68        320
    69        310
    70         50
    71         60
    72         10
    73         30
    74         10
    75         10
    76         10
    77        190
    78         50
    79        380
    80         90
    81        630
    82        120
    83        150
    84         20
    85         40
    88         10
    91        260
    92         50
    93        320
    94        100
    95        420
    96         80
    97        110
    98         20
    99         10
   101         10
   102         10
   103         20
   104         20
   105        180
   106         70
   107        270
   108        120
   109        310
   110        100
   111         70
   112         20
   115         20
   117         40
   118         40
   119        170
   120         50
   121        250
   122        150
   123        320
   124        260
   125         50
   126         10
   128         20
   129         20
   131         50
   132         20
   133         70
   134         40
   135        130
   136         70
   137        100
   138         20
   139         10
   142         10
   143         20
   144         10
   145         50
   146         10
   147         70
   148         30
   149         90
   150         20
   151         30
   153         10
   154         10
   156         10
   157         20
   158         10
   159         50
   160         30
   161         90
   162         50
   163        270
   164         60
   165         60
   167         10
   171         10
   173         40
   174         20
   175         70
   176         60
   177         50
   178         40
   179         90
   180         20
   183         10
   187         10
   188         10
   189         70
   190         50
   191         30
   192         10
   199         10
   201         20
   203         50
   204         70
   205         30
   213         40
   215         50
   217        240
   218         40
   227         10
   229         10
   230         70
   231        880
   232        720
   233        170
   234         10
   244         10
   245         30
   246        190
   247         50
   248         10
   269         30
   270         10
   271         10
   273         20
   274         10
   287        170
   288         40
   302        420
   303         90
   304         20