##TITLE=Library Entry 82891
##JCAMP-DX=Revision 4.10 
##DATA TYPE=MASS SPECTRUM
##SAMPLE DESCRIPTION=Japan AIST/NIMC Database- Spectrum MS-NW-1048
##NAMES=HP
##CAS NAME=1,3-Benzenedimethanamine
##MOLFORM=C8H12N2
##CAS REGISTRY NO=1477-55-0
##MP= -300
##BP= -300
##MW= 136
##$RETENTION INDEX=1328
##$CONDENSED SPECTRUM=NO
##NPOINTS= 94
##XYDATA=(XY..XY) 1 
    14          1
    15          2
    16          6
    26          3
    27         15
    28        173
    29         25
    30        351
    31          6
    36          1
    37          4
    38          9
    39         44
    40          6
    41         15
    42         11
    43          6
    44         23
    45        133
    46          2
    49          2
    50         27
    51         57
    52         25
    53         15
    54         15
    55          5
    56          8
    57          4
    58          3
    59          6
    60          2
    61          4
    62         10
    63         30
    64          9
    65         45
    66         12
    67         17
    68          4
    69          2
    70          2
    71          1
    73          3
    74          9
    75          9
    76         13
    77        104
    78         37
    79        127
    80         24
    81          8
    82          2
    84          1
    85          2
    86          2
    87          2
    88          2
    89         45
    90        112
    91        347
    92        175
    93         30
    94          5
    95          1
    96          1
   101          2
   102          8
   103         15
   104         45
   105         21
   106        999
   107        103
   108         28
   109          3
   111          1
   114          2
   115          1
   116          9
   117         55
   118        546
   119        337
   120         72
   121          8
   128          4
   129          2
   130          1
   131          8
   132          7
   133         19
   134         12
   135         93
   136         39
   137          4