##TITLE=Library Entry 39700
##JCAMP-DX=Revision 4.10 
##DATA TYPE=MASS SPECTRUM
##SAMPLE DESCRIPTION=Drug Lab
##NAMES=HP
##CAS NAME=Levacetylmethadol
##MOLFORM=C23H31NO2
##CAS REGISTRY NO=1477-40-3
##MP= -300
##BP= -300
##MW= 353
##$RETENTION INDEX=0
##$CONDENSED SPECTRUM=NO
##NPOINTS= 64
##XYDATA=(XY..XY) 1 
    41          3
    42         17
    43        102
    44         19
    45          5
    46          2
    51          2
    56         23
    57         12
    58          7
    65          2
    70         19
    71         18
    72        999
    73         46
    77          8
    78          2
    84          2
    85          8
    86          8
    91         39
    92          2
   102          2
   103          5
   105         15
   115         21
   116          3
   117          3
   127          4
   128         10
   129         23
   130          4
   131          3
   139          2
   147          8
   151          2
   152          9
   160          3
   163          2
   164          3
   165         30
   166          6
   167          5
   176          3
   177          2
   178         24
   179         13
   180          3
   189          4
   190          2
   191          7
   192          3
   193          5
   202          2
   207          9
   208          2
   225         24
   226          4
   236          2
   253          2
   265          6
   294          4
   310          4
   338          6