##TITLE=Library Entry 9904
##JCAMP-DX=Revision 4.10 
##DATA TYPE=MASS SPECTRUM
##SAMPLE DESCRIPTION=NIST Mass Spectrometry Data Center, 2009
##NAMES=HP
##CAS NAME=2-Aminoethanol, N,N,O,-triacetyl-
##MOLFORM=C8H13NO4
##CAS REGISTRY NO=14778-36-0
##MP= -300
##BP= -300
##MW= 187
##$RETENTION INDEX=0
##$CONDENSED SPECTRUM=NO
##NPOINTS= 45
##XYDATA=(XY..XY) 1 
    15         19
    26          2
    27          4
    28         10
    29          7
    30        134
    31          8
    40          5
    41          8
    42         59
    43        999
    44         62
    45         10
    54          4
    55         16
    56          8
    57          9
    59          3
    60         58
    61          3
    62          3
    68          3
    70          4
    72        319
    73         73
    74          7
    83          1
    84        183
    85        355
    86         49
    87         10
    88          8
    99         20
   100          2
   102         40
   103          8
   104          5
   114         23
   115          8
   116          2
   127         72
   128          6
   144         15
   145          7
   146          2