##TITLE=Library Entry 87199
##JCAMP-DX=Revision 4.10 
##DATA TYPE=MASS SPECTRUM
##SAMPLE DESCRIPTION=Exported from NIST MS Search
##NAMES=HP
##CAS NAME=5,6-Secocholest-2-en-6-oic acid, 1-oxo-, methyl ester, (10.alpha.
)-
##MOLFORM=C28H46O3
##CAS REGISTRY NO=14772-40-8
##MP= -300
##BP= -300
##MW= 430
##$RETENTION INDEX=0
##$CONDENSED SPECTRUM=NO
##NPOINTS= 33
##XYDATA=(XY..XY) 1 
    41         96
    43        112
    79         73
    81        150
    83         67
   107         96
   108         58
   109        120
   110        999
   111        148
   119         51
   121         54
   161         21
   162         29
   176         21
   178         14
   180         22
   245         21
   247        109
   248         26
   289         16
   319         31
   320         22
   321         23
   357         49
   358         13
   370         16
   398         15
   399         16
   412         10
   415          5
   430         31
   431         10