##TITLE=Library Entry 90958
##JCAMP-DX=Revision 4.10 
##DATA TYPE=MASS SPECTRUM
##SAMPLE DESCRIPTION=Humboldt-Universitat zu Berlin, Department of Chemistry
, Analytical Group
##NAMES=HP
##CAS NAME=Pyrrolidine-1-dithiocarboxylic acid, 2-oxocyclopentyl ester
##MOLFORM=C10H15NOS2
##CAS REGISTRY NO=147723-50-0
##MP= -300
##BP= -300
##MW= 229
##$RETENTION INDEX=0
##$CONDENSED SPECTRUM=NO
##NPOINTS= 131
##XYDATA=(XY..XY) 1 
    12          1
    13          0
    14          5
    15         28
    16          2
    17          8
    18         34
    26         37
    27        278
    28        190
    29        136
    30         42
    31          1
    32          6
    33          2
    34          2
    35          1
    36          0
    37          3
    38         10
    39        136
    40         24
    41        143
    42         56
    43         70
    44         13
    45        126
    46          9
    47         19
    48          1
    49          1
    50          7
    51         15
    52          8
    53         55
    54         21
    55        485
    56         29
    57         11
    58         56
    59         54
    60         42
    61          4
    62          2
    63          0
    64          4
    65          2
    66          1
    67          3
    68         24
    69         19
    70        160
    71         64
    72        632
    73         31
    74         22
    75          1
    76          9
    77         40
    78          9
    79          4
    80          2
    81          5
    82          9
    83         20
    84         11
    85         28
    86         24
    87         15
    88          3
    89          1
    90          1
    91          1
    92          0
    93          0
    94          0
    95          0
    96          0
    97          3
    98         20
    99          2
   100          2
   101          0
   102          4
   103          2
   104          3
   105          0
   106          0
   107          0
   110          0
   112          6
   114        999
   115         73
   116         53
   117          4
   118          1
   119          0
   125          0
   126          0
   127          0
   128          3
   129          0
   130          7
   131          0
   132          1
   136          0
   140          1
   142          0
   144          0
   146         36
   147         72
   148         12
   149          6
   150          1
   154          0
   158          3
   159          1
   160          0
   162          0
   168          1
   172          5
   173          0
   174          0
   196          2
   197          0
   200          0
   212          0
   229         17
   230          2
   231          1
   232          0