##TITLE=Library Entry 114786
##JCAMP-DX=Revision 4.10 
##DATA TYPE=MASS SPECTRUM
##SAMPLE DESCRIPTION=Humboldt-Universitat zu Berlin, Department of Chemistry
, Analytical Group
##NAMES=HP
##CAS NAME=Morpholine-4-dithiocarboxylic acid, 2-oxocyclopentyl ester
##MOLFORM=C10H15NO2S2
##CAS REGISTRY NO=147723-54-4
##MP= -300
##BP= -300
##MW= 245
##$RETENTION INDEX=0
##$CONDENSED SPECTRUM=NO
##NPOINTS= 135
##XYDATA=(XY..XY) 1 
    12          2
    13          2
    14          5
    15         32
    16          9
    17         30
    18         42
    19          5
    25          1
    26         38
    27        259
    28        224
    29        151
    30         86
    31         17
    32          8
    33          2
    34          1
    35          2
    36          2
    37          2
    38          7
    39         78
    40         15
    41         83
    42         67
    43         53
    44         21
    45        173
    46         15
    47         20
    48          1
    50          6
    51         13
    52          9
    53         49
    54         44
    55        276
    56        153
    57         49
    58        143
    59        133
    60        191
    61         16
    62         10
    63          2
    64          7
    65          4
    66          3
    67          7
    68         16
    69         16
    70         34
    71         34
    72         80
    73         31
    74         10
    75          3
    76         18
    77         71
    78          5
    79          9
    80          2
    81          8
    82          7
    83         84
    84         52
    85         41
    86        867
    87        230
    88        360
    89         22
    90          4
    91          4
    92          1
    93          2
    94          1
    95          4
    96          4
    97          9
    98          5
    99          4
   100          6
   101          3
   102         21
   103          6
   104          2
   105          3
   108          1
   109          3
   110          2
   111          4
   112          4
   113          3
   114         31
   115          4
   116          2
   117          2
   118          2
   119          5
   120          4
   121          4
   123          1
   125          3
   126          2
   127          2
   128         23
   130        999
   131         69
   132         54
   133          4
   134          1
   139          1
   141          1
   144          3
   149          3
   158         66
   159          6
   160          7
   161          2
   162         38
   163         18
   164          7
   165          3
   171          2
   173          1
   174          3
   183          0
   184          1
   188          4
   189          1
   212          3
   245         18
   246          3
   247          1