##TITLE=Library Entry 10350
##JCAMP-DX=Revision 4.10 
##DATA TYPE=MASS SPECTRUM
##SAMPLE DESCRIPTION=Japan AIST/NIMC Database- Spectrum MS-IW-1727
##NAMES=HP
##CAS NAME=3-Acetyl-5-phenoxymethyl-2-oxazolidinone
##MOLFORM=C12H13NO4
##CAS REGISTRY NO=14789-94-7
##MP= -300
##BP= -300
##MW= 235
##$RETENTION INDEX=0
##$CONDENSED SPECTRUM=NO
##NPOINTS= 118
##XYDATA=(XY..XY) 1 
    14          5
    15         55
    26          6
    27         33
    28         55
    29         25
    30         17
    31          5
    37          3
    38         20
    39        125
    40         17
    41         36
    42         54
    43        999
    44         32
    45          4
    50         29
    51        117
    52         12
    53          6
    54         16
    55         29
    56        159
    57         14
    58          9
    60          1
    61          2
    62          9
    63         35
    64         16
    65        108
    66         60
    67          4
    68          4
    69          2
    70          7
    71          7
    72          2
    73          2
    74         10
    75          8
    76         11
    77        393
    78         57
    79        145
    80         10
    81          2
    82         35
    83          3
    84          2
    85          4
    86         19
    87          1
    88          1
    89          1
    90          1
    91         25
    92         10
    93         18
    94        907
    95        208
    96         14
    97          2
    98        155
    99        110
   100         49
   101          3
   103          5
   104          4
   105         16
   106          3
   107        576
   108        122
   109          9
   113          1
   114          1
   115          1
   117          1
   118          3
   119         14
   120         25
   121          6
   128         21
   129          1
   130          1
   131         19
   132         66
   133         18
   134          5
   135          2
   136         24
   137         10
   138          1
   141         26
   142         15
   143          2
   144          1
   146          1
   147          1
   148          5
   149          5
   150         85
   151          9
   158          1
   171          1
   172          1
   176          1
   191          2
   192          2
   193         24
   194          8
   195          1
   206          1
   235        665
   236        112
   237         13
   238          1