##TITLE=Library Entry 27873
##JCAMP-DX=Revision 4.10 
##DATA TYPE=MASS SPECTRUM
##SAMPLE DESCRIPTION=Chemical Concepts
##NAMES=HP
##CAS NAME=3,7-Diazabicyclo[3.3.1]nonan-9-one, 3,7-dimethyl-
##MOLFORM=C9H16N2O
##CAS REGISTRY NO=14789-54-9
##MP= -300
##BP= -300
##MW= 168
##$RETENTION INDEX=0
##$CONDENSED SPECTRUM=NO
##NPOINTS= 118
##XYDATA=(XY..XY) 1 
    25          0
    26         10
    27        131
    28         74
    29         22
    30         34
    31          2
    33          0
    36          0
    37          1
    38          6
    39        113
    40         26
    41        328
    42        687
    43        163
    44        236
    45         11
    46          1
    47          1
    48          1
    49          0
    50          2
    51          7
    52         10
    53         26
    54         36
    55        208
    56         43
    57        232
    58        999
    59         42
    60          2
    61          1
    63          1
    64          2
    65         11
    66         10
    67         31
    68         78
    69         19
    70        249
    71         36
    72          6
    73          2
    75          1
    76          1
    77          3
    78          3
    79          7
    80         16
    81         37
    82        127
    83         72
    84        249
    85         16
    86          1
    87          0
    89          0
    90          0
    91          1
    92          2
    93          4
    94         69
    95         27
    96         90
    97         35
    98         44
    99          7
   100          0
   104          0
   105          0
   106          5
   107          5
   108         53
   109         18
   110        549
   111        126
   112         36
   113          4
   115          0
   118          0
   120          2
   121          1
   122          5
   123          7
   124        127
   125         45
   126          7
   127          0
   128          0
   129          0
   130          0
   131          0
   133          1
   134          0
   135          1
   136          2
   137         12
   138          6
   139          4
   140          0
   143          0
   144          0
   147          1
   149          1
   150          2
   151         11
   152          1
   153          4
   154          1
   155          0
   165          0
   166          0
   167         31
   168        141
   169         13
   170          1