##TITLE=Library Entry 90982
##JCAMP-DX=Revision 4.10 
##DATA TYPE=MASS SPECTRUM
##SAMPLE DESCRIPTION=Darrick Lee, Cayman Chemical, Ann Arbor, MI
##NAMES=HP
##CAS NAME=Indole, 3-(2-(diisopropylamino)ethyl)-
##MOLFORM=C16H24N2
##CAS REGISTRY NO=14780-24-6
##MP= -300
##BP= -300
##MW= 244
##$RETENTION INDEX=0
##$CONDENSED SPECTRUM=NO
##NPOINTS= 102
##XYDATA=(XY..XY) 1 
    41         95
    42         38
    43        127
    44          9
    50         10
    51         17
    52          8
    53          2
    54          6
    55          9
    56         58
    57         15
    58          8
    60          1
    61          2
    62          4
    63         14
    64          4
    65          7
    66          1
    67          1
    68          2
    70         29
    72        283
    73         14
    74          9
    75         14
    76         20
    77         59
    78          9
    79          1
    82          1
    83          1
    84          7
    85          1
    86          9
    87          3
    88          3
    89         14
    90          9
    91          8
    93          1
    94          1
    96          1
    98          7
    99          4
   100          7
   101         11
   102         45
   103         46
   104          7
   105          1
   111          1
   114        999
   115        122
   116         14
   117         21
   118          4
   127          7
   128         29
   129         58
   130        218
   131         26
   132          5
   133          1
   140          2
   141          3
   142         12
   143         36
   144         62
   145          7
   146          1
   154          1
   155          2
   156          2
   157          3
   158          2
   159          2
   160          1
   167          1
   168          1
   169          2
   170          1
   171          1
   172          1
   183          1
   184          1
   185          2
   186          3
   187          1
   199          1
   200          1
   201          1
   213          3
   214          1
   227          3
   228          1
   229          2
   242          1
   243          1
   244          2
   245          1