##TITLE=Library Entry 73944
##JCAMP-DX=Revision 4.10 
##DATA TYPE=MASS SPECTRUM
##SAMPLE DESCRIPTION=RADIAN CORP
##NAMES=HP
##CAS NAME=Butanoic acid, 4-chloro-4-oxo-, ethyl ester
##MOLFORM=C6H9ClO3
##CAS REGISTRY NO=14794-31-1
##MP= -300
##BP= -300
##MW= 164
##$RETENTION INDEX=0
##$CONDENSED SPECTRUM=NO
##NPOINTS= 108
##XYDATA=(XY..XY) 1 
    14          2
    15         10
    25          7
    26         73
    27        248
    28        114
    29        252
    30         15
    31         17
    35          4
    36          4
    37          6
    38          6
    39         10
    40          2
    41         28
    42         55
    43         65
    44         17
    45         77
    46          2
    47          2
    48          3
    49          4
    50          1
    51          3
    52          3
    53         25
    54         25
    55        927
    56        172
    57         39
    58          3
    59          5
    60          3
    61          3
    62          2
    63         82
    64         11
    65         32
    66          3
    67          2
    69          6
    70          2
    71         15
    72         36
    73        119
    74         17
    75          3
    77         10
    78          9
    79          5
    80          2
    81          4
    82         11
    83         19
    84         10
    85         11
    87          2
    88          1
    89          5
    90         11
    91         39
    92         12
    93          3
    94          3
    97          1
    99         39
   100        197
   101        999
   102         50
   103         18
   104         15
   105         10
   106          2
   107         17
   108          9
   109          2
   110          7
   115         24
   116          7
   117         19
   118         19
   119        332
   120         18
   121        109
   122          6
   123          2
   127          4
   128        204
   129        164
   130         15
   131         11
   132          3
   133          2
   135          2
   137          2
   139          1
   141          1
   145          4
   149          1
   151          1
   155          4
   159          3
   161          2
   163          4
   165          1
   167          2