##TITLE=Library Entry 18943
##JCAMP-DX=Revision 4.10 
##DATA TYPE=MASS SPECTRUM
##SAMPLE DESCRIPTION=Chemical Concepts
##NAMES=HP
##CAS NAME=Heptanoic acid, 7-chloro-7-oxo, ethyl ester
##MOLFORM=C9H15ClO3
##CAS REGISTRY NO=14794-32-2
##MP= -300
##BP= -300
##MW= 206
##$RETENTION INDEX=0
##$CONDENSED SPECTRUM=NO
##NPOINTS= 96
##XYDATA=(XY..XY) 1 
    26         35
    27        153
    28         53
    29        163
    30         18
    31         25
    35         64
    36        434
    37         21
    38        134
    39        223
    40         43
    41        420
    42        130
    43        133
    44         43
    45         94
    47          6
    48          8
    49          7
    50          8
    51         14
    52          7
    53         64
    54         71
    55        999
    56         71
    57         51
    58         10
    59         12
    60        273
    61        127
    62          5
    63         12
    65         14
    66          9
    67         95
    68        295
    69        413
    70        158
    71        106
    73        266
    74         17
    75          5
    77          9
    78          6
    79         76
    80         14
    81        109
    82         23
    83         82
    84         15
    85         17
    86         62
    87         25
    88        283
    89         14
    91         10
    93          5
    94          6
    95         25
    96         91
    97        265
    98         72
    99         29
   100          6
   101         86
   102          7
   104          3
   105          7
   107          4
   109          3
   111          7
   112          7
   113         27
   114        104
   115         23
   121          3
   122          4
   123         15
   124         60
   125        260
   126         28
   127         11
   128         16
   129         23
   135          5
   141         26
   142        257
   143         36
   144          4
   161         42
   162          4
   163         20
   170         12
   171         26