##TITLE=Library Entry 48268
##JCAMP-DX=Revision 4.10 
##DATA TYPE=MASS SPECTRUM
##SAMPLE DESCRIPTION=RADIAN CORP
##NAMES=HP
##CAS NAME=Benzenamine, N-hydroxy-N-nitroso-
##MOLFORM=C6H6N2O2
##CAS REGISTRY NO=148-97-0
##MP= -300
##BP= -300
##MW= 138
##$RETENTION INDEX=0
##$CONDENSED SPECTRUM=NO
##NPOINTS= 49
##XYDATA=(XY..XY) 1 
    16          5
    17         15
    26         17
    27         16
    30        269
    31         23
    37         29
    38         52
    39         55
    40          7
    41          9
    43          3
    44          4
    49         21
    50        172
    51        314
    52         50
    53         32
    54          5
    55          4
    60          4
    61         17
    62         26
    63         66
    64         83
    65         43
    66          6
    69          2
    73         21
    74         82
    75         39
    76         40
    77        533
    78        999
    79         69
    80          5
    81          4
    87          3
    88          3
    90          9
    91         58
    92         35
    93         12
   105          2
   107        121
   108        838
   109         87
   110          7
   139         24