##TITLE=Library Entry 29031
##JCAMP-DX=Revision 4.10 
##DATA TYPE=MASS SPECTRUM
##SAMPLE DESCRIPTION=AAFS Toxicology Section MS DB Committee, U. Alberta, Ca
nada
##NAMES=HP
##CAS NAME=Chlorothen
##MOLFORM=C14H18ClN3S
##CAS REGISTRY NO=148-65-2
##MP= -300
##BP= -300
##MW= 295
##$RETENTION INDEX=2134
##$CONDENSED SPECTRUM=NO
##NPOINTS= 180
##XYDATA=(XY..XY) 1 
    37          1
    38          2
    39          7
    40          1
    41          6
    42         51
    43         13
    44          9
    45         22
    46          1
    47          1
    50          3
    51         28
    52         23
    53          6
    54          3
    55          3
    56         21
    58        999
    59         39
    60          1
    61          1
    62          1
    63          3
    64          2
    65          7
    66          4
    67          5
    68          2
    69         18
    70         20
    71        241
    72        269
    73         25
    74          1
    75          3
    76          1
    77          4
    78         93
    79        103
    80         11
    81         11
    82          3
    83          3
    84          2
    85          1
    86          1
    87         22
    88          1
    89          9
    90          1
    91          5
    92          5
    93         10
    94          6
    95         29
    96         14
    97          9
    98          2
    99          1
   100          1
   101          1
   102          1
   103          1
   104          1
   105         13
   106          9
   107         25
   108          3
   109          2
   110          3
   111          2
   112          1
   113          1
   114          1
   115          1
   116          1
   117          3
   118          5
   119         55
   120          7
   121          6
   122          1
   123          1
   124          2
   125          1
   126          1
   127          1
   128          1
   129          1
   131        499
   132         35
   133        194
   134         15
   135         11
   136          1
   137          1
   138          1
   139          1
   141          1
   142          1
   143          2
   144          2
   145         12
   146          3
   147          1
   148          1
   149          1
   153          1
   154          1
   155          5
   156          2
   157          3
   158          1
   159          1
   160          1
   161          1
   162          9
   163          4
   164          1
   165          1
   168          3
   169          2
   171          1
   172          1
   173          1
   174          1
   183          1
   185          1
   186          1
   187         18
   188         10
   189         25
   190          3
   191          2
   193          1
   194          1
   195          1
   196          1
   197          1
   199          1
   200          1
   201          3
   202          1
   203          1
   208          1
   211          1
   212          2
   213          5
   214          1
   215          2
   216          1
   217          1
   223         17
   224         37
   225         91
   226         23
   227         29
   228          4
   229          1
   235          1
   237         11
   238          1
   239          3
   240          1
   249          1
   250          2
   251          2
   252          1
   253          1
   256          1
   259          1
   260          1
   283          1
   293          1
   295         63
   296         14
   297         27
   298          4
   299          1