##TITLE=Library Entry 97923
##JCAMP-DX=Revision 4.10 
##DATA TYPE=MASS SPECTRUM
##SAMPLE DESCRIPTION=MASS SPECTROMETRY CENTER, UNIV. OF UTAH, EPA-PTSEL 7160
##NAMES=HP
##CAS NAME=Dinitolmide
##MOLFORM=C8H7N3O5
##CAS REGISTRY NO=148-01-6
##MP= -300
##BP= -300
##MW= 225
##$RETENTION INDEX=0
##$CONDENSED SPECTRUM=NO
##NPOINTS= 109
##XYDATA=(XY..XY) 1 
    16         13
    17         15
    18          4
    27         72
    28        123
    29         11
    30        288
    36         25
    37         16
    38         79
    39        336
    40         42
    41         19
    42         45
    43        138
    44        547
    45         13
    46         15
    49          1
    50        142
    51        249
    52        143
    53        108
    54         74
    55         13
    59          3
    61         66
    62        253
    63        596
    64        161
    65        109
    66         99
    67         59
    68         13
    69          7
    73          5
    74         89
    75        151
    76        148
    77        213
    78        239
    79         82
    80         56
    81          1
    85         14
    86         79
    87        115
    88        155
    89        920
    90        319
    91        105
    92        103
    93         75
    94         30
    95          1
   102         62
   103         64
   104        243
   105        188
   106        170
   107        102
   108         20
   110          3
   114          2
   115         29
   116        147
   117        238
   118        999
   119        171
   120        165
   121         47
   122         10
   131         97
   132        291
   133        154
   134        220
   135         86
   136        274
   137         36
   144         44
   145        124
   146         16
   148        105
   149         75
   150         58
   151         48
   152         39
   161         21
   162        167
   163        244
   164         98
   165         57
   166         97
   168          1
   177         73
   178         90
   179         11
   180        114
   181         31
   190         69
   191        374
   192         85
   196         12
   197          5
   207         48
   208        118
   209        126
   210          3
   225         16