##TITLE=Library Entry 30307
##JCAMP-DX=Revision 4.10 
##DATA TYPE=MASS SPECTRUM
##SAMPLE DESCRIPTION=A.Pleshkova, Nesmeyanov Inst.Org.Elem.Cpds, Moscow
##NAMES=HP
##CAS NAME=4,4,5,5,5-Pentafluoro-1-pentanol
##MOLFORM=C5H7F5O
##CAS REGISTRY NO=148043-73-6
##MP= -300
##BP= -300
##MW= 178
##$RETENTION INDEX=0
##$CONDENSED SPECTRUM=NO
##NPOINTS= 85
##XYDATA=(XY..XY) 1 
    30         28
    31        328
    32         56
    45        167
    46         39
    47        570
    48         11
    49         49
    50         56
    51        438
    53         26
    54         24
    55         35
    56         35
    57        224
    58         33
    59        999
    60         39
    61        110
    62          4
    63         12
    64        262
    65        225
    66          1
    67         80
    68         10
    69        780
    70         21
    71        298
    72         17
    73         20
    74          3
    75        145
    76         24
    77        810
    78         91
    79         62
    82         25
    83         21
    86          5
    87         39
    88         43
    89        424
    90         63
    91        978
    92         44
    93         37
    95        281
    96          1
    97         39
    99         37
   100        360
   101        107
   102          6
   106         13
   107         51
   108        141
   109        502
   110         23
   111          1
   113         70
   114          2
   117         40
   118          1
   119        143
   120          3
   121        263
   122         17
   123          1
   127         53
   128        129
   137        166
   138         11
   139         43
   140          7
   141        121
   142          2
   157         54
   158         13
   159          1
   175          5
   176         41
   177        188
   178        148
   179          1