##TITLE=Library Entry 64430
##JCAMP-DX=Revision 4.10 
##DATA TYPE=MASS SPECTRUM
##SAMPLE DESCRIPTION=A. Brossi, LC, NIDDK, NIH, Bethesda, MD 20892
##NAMES=HP
##CAS NAME=.alpha.-Tetralone, 5,6-dibenzyloxy-8-fluoro-
##MOLFORM=C24H21FO3
##CAS REGISTRY NO=148083-55-0
##MP= -300
##BP= -300
##MW= 376
##$RETENTION INDEX=0
##$CONDENSED SPECTRUM=NO
##NPOINTS= 145
##XYDATA=(XY..XY) 1 
    41          8
    42          0
    43          1
    49          0
    50          5
    51         13
    52          4
    53          1
    55          3
    56          0
    57          2
    59          0
    61          0
    62          4
    63         24
    64          7
    65        116
    66          6
    68          0
    69          1
    70          1
    71          0
    73          0
    74          1
    75          5
    76          1
    77          7
    78          1
    79          1
    81          6
    82          8
    83          5
    84          0
    85          0
    86          0
    87          0
    88          0
    89         35
    90         20
    91        999
    92        101
    93          4
    94          4
    95          4
    96          2
    97          2
   101          2
   102          0
   103          2
   104          2
   105          4
   106          0
   107          3
   108          0
   109         11
   110         37
   111          3
   112          0
   115          1
   117          0
   118          1
   120          1
   121          1
   122          2
   123          5
   124          0
   125          0
   128          0
   131          0
   133          1
   136          0
   137          3
   138         13
   139          2
   141          0
   145          0
   146          2
   149          1
   150          0
   151          2
   152          2
   153          1
   157          0
   165          6
   166          3
   167          4
   168          0
   170          2
   171          2
   172          0
   178          2
   179          3
   180          4
   181         64
   182         11
   183          3
   184          0
   191          0
   193          0
   194          1
   195          1
   196         10
   197          3
   199          2
   200          0
   201          4
   202          0
   207          2
   208          2
   209          1
   211          0
   213          0
   215          0
   219          0
   227          2
   228          1
   229          0
   237          5
   238          1
   239          1
   241          0
   250          0
   255          0
   256          2
   257          2
   258          0
   265          2
   266          0
   267          1
   268          1
   269          0
   270          1
   271          0
   283          2
   284          9
   285        239
   286         44
   287          5
   288          0
   328          0
   356          2
   376         75
   377         23
   378          4
   379          0