##TITLE=Library Entry 20599
##JCAMP-DX=Revision 4.10 
##DATA TYPE=MASS SPECTRUM
##SAMPLE DESCRIPTION=Japan AIST/NIMC Database- Spectrum MS-NW-8446
##NAMES=HP
##CAS NAME=1,19-Eicosadiene
##MOLFORM=C20H38
##CAS REGISTRY NO=14811-95-1
##MP= -300
##BP= -300
##MW= 278
##$RETENTION INDEX=1985
##$CONDENSED SPECTRUM=NO
##NPOINTS= 126
##XYDATA=(XY..XY) 1 
    14          2
    15          2
    26          4
    27         55
    28         22
    29        152
    30          4
    38          2
    39         81
    40         14
    41        559
    42        110
    43        429
    44         17
    45          2
    47          2
    50          2
    51          5
    52          3
    53         41
    54        215
    55        999
    56        244
    57        340
    58         18
    59          1
    63          2
    65          9
    66         39
    67        387
    68        382
    69        583
    70        183
    71        124
    72          8
    73          6
    74          1
    75          9
    76          1
    77         11
    78          4
    79         19
    80         35
    81        508
    82        752
    83        547
    84         89
    85         61
    86          4
    89          1
    91         23
    92          9
    93          9
    94         21
    95        348
    96        585
    97        391
    98         47
    99          9
   101          1
   103          1
   105          6
   106          7
   107          4
   108          8
   109        186
   110        171
   111         95
   112         30
   113          5
   114          1
   115          1
   117          2
   119          2
   121          4
   122          5
   123         93
   124         86
   125         26
   126          8
   127          2
   129          7
   130          1
   131          1
   132          2
   133          3
   135          3
   136          3
   137         50
   138         46
   139          9
   140          4
   141          1
   145          2
   147          3
   149          1
   151         19
   152         23
   153          5
   154          2
   159          1
   165         10
   166         14
   167          3
   168          1
   173          1
   179          6
   180         10
   181          2
   193          5
   194          9
   195          1
   207          4
   208          8
   209          1
   211          1
   221          3
   222          6
   223          1
   235          3
   236          5
   249          2
   250          8
   251          1
   278          7
   279          1