##TITLE=Library Entry 78676
##JCAMP-DX=Revision 4.10 
##DATA TYPE=MASS SPECTRUM
##SAMPLE DESCRIPTION=A.A.Kutin, Moscow, Russia
##NAMES=HP
##CAS NAME=Benzamide, N-(2-nitro-1-trifluoromethylethyl)-
##MOLFORM=C10H9F3N2O3
##CAS REGISTRY NO=148112-49-6
##MP= -300
##BP= -300
##MW= 262
##$RETENTION INDEX=0
##$CONDENSED SPECTRUM=NO
##NPOINTS= 62
##XYDATA=(XY..XY) 1 
    33          0
    36          1
    38          3
    39         24
    41         21
    42         35
    43          6
    44         12
    46         21
    48          0
    50         51
    51        183
    52         11
    53          3
    54          0
    60          0
    61          2
    62          4
    63          6
    64          5
    65          5
    66          1
    69         25
    74         35
    75         20
    77        601
    78         19
    79          2
    82          0
    83          0
    88          4
    89          2
    90          5
    91          7
    92          4
    95          2
    96          1
   105        999
   106         40
   107          4
   108          0
   111          0
   116          0
   117          0
   118          5
   119          3
   120          0
   138          1
   145          0
   146         71
   147          4
   166          0
   194          0
   196          6
   197          2
   202          0
   212          0
   215        114
   216         23
   217          1
   262         31
   263          1