##TITLE=Library Entry 65907
##JCAMP-DX=Revision 4.10 
##DATA TYPE=MASS SPECTRUM
##SAMPLE DESCRIPTION=RADIAN CORP
##NAMES=HP
##CAS NAME=Silane, chlorodimethyl(3,3,3-trifluoropropyl)-
##MOLFORM=C5H10ClF3Si
##CAS REGISTRY NO=1481-41-0
##MP= -300
##BP= -300
##MW= 190
##$RETENTION INDEX=0
##$CONDENSED SPECTRUM=NO
##NPOINTS= 67
##XYDATA=(XY..XY) 1 
    14          2
    15         19
    26         12
    27         59
    28         12
    29         38
    30          2
    31         16
    33         53
    37          1
    38         10
    39        269
    40         12
    41         15
    42         36
    43        102
    44         13
    45         17
    46          6
    47        141
    48         11
    49         44
    50          8
    51         82
    52          3
    53         40
    54          8
    55         25
    56          8
    57         66
    58         69
    59        384
    60         34
    61         10
    62         15
    63        279
    64         53
    65        268
    66         26
    67         71
    68          7
    69        198
    71          1
    73          3
    74          2
    75         83
    76         49
    85         17
    89         22
    90          8
    91         12
    92         22
    93        999
    94         92
    95        364
    96         53
    97        358
    98         34
    99        113
   100         10
   109         10
   111          5
   113          7
   135         15
   139         12
   175         15
   177          3