##TITLE=Library Entry 62632
##JCAMP-DX=Revision 4.10 
##DATA TYPE=MASS SPECTRUM
##SAMPLE DESCRIPTION=LAC, NIDDK, NIH, Bethesda, MD 20892
##NAMES=HP
##CAS NAME=N-p-toluenesulfonyl-4-keto-l-proline
##MOLFORM=C12H13NO5S
##CAS REGISTRY NO=14811-14-4
##MP= -300
##BP= -300
##MW= 283
##$RETENTION INDEX=0
##$CONDENSED SPECTRUM=NO
##NPOINTS= 106
##XYDATA=(XY..XY) 1 
    41        173
    42         90
    43         25
    44         57
    45         38
    47         22
    48         26
    52         19
    53         10
    54         66
    55        114
    56         88
    57         19
    58         25
    60          3
    62         23
    63         92
    65        362
    67         81
    68        240
    69         43
    70          8
    71         12
    72          2
    73          8
    74          9
    75          8
    76          4
    77         55
    78         17
    79         22
    80         12
    81          1
    82         31
    83         25
    84        264
    85          7
    86         77
    87          6
    88          8
    89        105
    91        999
    92        208
    93         18
    95          4
    97          6
    99          9
   100         18
   104          1
   105         25
   106         11
   107         43
   108         28
   109          6
   110          5
   111         11
   112         11
   114          1
   115          4
   117          6
   118         10
   119         15
   121         10
   122          1
   123          8
   124          6
   126          1
   128         60
   129          5
   130          8
   131         16
   139         66
   140         13
   141          2
   146         18
   149          9
   155        731
   156        142
   157         47
   158         14
   162          5
   172         12
   176          1
   183          6
   184          4
   210         83
   211         10
   212          2
   219         30
   221          9
   222        268
   223        523
   224         77
   225         30
   237          3
   238        319
   239         43
   240         58
   241          6
   242          1
   265         10
   266         66
   267          9
   282          3
   283         14
   284          6