##TITLE=Library Entry 5428
##JCAMP-DX=Revision 4.10 
##DATA TYPE=MASS SPECTRUM
##SAMPLE DESCRIPTION=Chemical Concepts
##NAMES=HP
##CAS NAME=8-Benzylideneamino-1,3,6-triazatricyclo[4.3.1.1(3,8)]undecane
##MOLFORM=C15H20N4
##CAS REGISTRY NO=148122-14-9
##MP= -300
##BP= -300
##MW= 256
##$RETENTION INDEX=0
##$CONDENSED SPECTRUM=NO
##NPOINTS= 92
##XYDATA=(XY..XY) 1 
    33         11
    36         18
    38         67
    39         91
    40        173
    42        999
    43        117
    44         60
    45         17
    50         33
    51         95
    52         19
    53         18
    54         46
    55         70
    56        130
    57        107
    58         53
    60          6
    63          8
    65         24
    67         17
    68         44
    69         70
    70         45
    71         29
    74          7
    76         22
    77        165
    78         42
    80         31
    81         37
    82         85
    83         76
    84         53
    85        115
    89         22
    90         10
    91        119
    92          9
    95         21
    96         11
    97         54
    98         13
    99         13
   102          7
   103        176
   104        178
   105        134
   106         35
   109         10
   110          6
   111         39
   112         57
   113          7
   114         12
   115         40
   116         25
   117         19
   118         64
   119          2
   121          6
   122         76
   123         39
   124          7
   128          6
   130         41
   136          4
   139         10
   142          9
   143        114
   144        119
   145        237
   146         22
   157          6
   158          5
   168         45
   169          5
   170         13
   171         65
   172        131
   173         34
   181          3
   185         17
   186          8
   187          4
   214         32
   228         66
   242          6
   255          8
   256        281
   257         36