##TITLE=Library Entry 86381
##JCAMP-DX=Revision 4.10 
##DATA TYPE=MASS SPECTRUM
##SAMPLE DESCRIPTION=NIST Mass Spectrometry Data Center, 2009
##NAMES=HP
##CAS NAME=Phoxim
##MOLFORM=C12H15N2O3PS
##CAS REGISTRY NO=14816-18-3
##MP= -300
##BP= -300
##MW= 298
##$RETENTION INDEX=0
##$CONDENSED SPECTRUM=NO
##NPOINTS= 166
##XYDATA=(XY..XY) 1 
    15          2
    19          1
    26          6
    27         47
    28         11
    29        120
    30          3
    31          3
    33          1
    35          3
    37          3
    38          5
    39         25
    40          2
    41          3
    42          2
    43         19
    44          3
    45         54
    46          6
    47         26
    48          3
    49          3
    50         43
    51        122
    52         19
    53          6
    54          4
    55          2
    57          2
    58          6
    59         32
    60         20
    61         17
    62         15
    63         30
    64         12
    65        116
    66          6
    69         18
    70          3
    71          2
    72          6
    73          2
    74         11
    75         25
    76         63
    77        146
    78         22
    79          5
    81        461
    82         15
    83         11
    84          5
    85          3
    86          3
    87         21
    88         22
    89         10
    90         33
    91        223
    92          8
    93         31
    94          4
    95          2
    96         10
    97         23
    98          2
    99          3
   100          2
   101          4
   102         20
   103        185
   104        130
   105         14
   106          3
   107         21
   108         42
   109        999
   110         34
   111         22
   112          2
   113         44
   114         20
   115         13
   116          3
   117          2
   119          1
   120          1
   121          3
   122          4
   123         20
   124          4
   125          3
   126          1
   128          2
   129         12
   130         14
   131          5
   132          5
   133         12
   134        189
   135        623
   136         67
   137        152
   138         43
   139         78
   140        186
   141         18
   142         11
   143          2
   147          1
   148          1
   150          4
   151         32
   152          3
   153          2
   155          1
   157         19
   158          3
   159          2
   160         11
   161        120
   162         32
   163          9
   164          2
   166          9
   167         88
   168        168
   169         19
   170         11
   171          1
   173          1
   175          2
   177          1
   180          1
   184          1
   189          3
   190          5
   193          1
   194          1
   195          6
   196         11
   197          1
   198          3
   212          4
   225          9
   226          1
   227          1
   240         20
   241          8
   242          5
   243          2
   244          1
   253          5
   254          2
   255          1
   269          8
   270          7
   271          4
   272          1
   297         35
   298        133
   299         21
   300          8
   301          1