##TITLE=Library Entry 84489
##JCAMP-DX=Revision 4.10 
##DATA TYPE=MASS SPECTRUM
##SAMPLE DESCRIPTION=Dmitri Zagorevskii, University of Ottawa, Ontario, Cana
da
##NAMES=HP
##CAS NAME=1-(2-Hydroxyphenyl)-3-phenylpropane
##MOLFORM=C15H16O
##CAS REGISTRY NO=1481-90-9
##MP= -300
##BP= -300
##MW= 212
##$RETENTION INDEX=0
##$CONDENSED SPECTRUM=NO
##NPOINTS= 66
##XYDATA=(XY..XY) 1 
    27         64
    29         16
    39        108
    40         13
    41         46
    43         37
    50         14
    51         96
    52         34
    53         46
    55          4
    56          4
    60         10
    63         33
    64         13
    65        160
    66         18
    75         10
    76         13
    77        489
    78        118
    79        211
    80         24
    89         31
    90         26
    91        582
    92        829
    93         87
    94         38
    95         11
   102         25
   103        197
   104        201
   105        610
   106         68
   107        999
   108        674
   109         50
   115         46
   116         20
   117         95
   118        240
   119         58
   121        534
   122         51
   128          8
   131          1
   133         12
   134         25
   152         13
   153         12
   155         12
   165         38
   166          7
   178         11
   181         16
   182          4
   183        170
   184         26
   193          4
   209         11
   210         39
   211          5
   212        865
   213        142
   214         12