##TITLE=Library Entry 78651
##JCAMP-DX=Revision 4.10 
##DATA TYPE=MASS SPECTRUM
##SAMPLE DESCRIPTION=Humboldt-Universitat zu Berlin, Department of Chemistry
, Analytical Group
##NAMES=HP
##CAS NAME=N-(4-Fluorophenyl)-.alpha.-phenethylamine
##MOLFORM=C14H14FN
##CAS REGISTRY NO=148254-55-1
##MP= -300
##BP= -300
##MW= 215
##$RETENTION INDEX=0
##$CONDENSED SPECTRUM=NO
##NPOINTS= 124
##XYDATA=(XY..XY) 1 
    30          0
    31         15
    32         20
    33          5
    36          0
    37          7
    38         17
    39         29
    40          5
    41          3
    42          0
    43          1
    44          3
    45          1
    46          0
    49          4
    50         82
    51        245
    52         23
    53          5
    54          1
    55          1
    56          8
    57         65
    58          4
    59          1
    60          0
    61          4
    62         11
    63         23
    64          8
    65          4
    66          1
    67          0
    68          2
    69          4
    70          2
    71          0
    72          0
    73          2
    74         21
    75         32
    76         28
    77        550
    78         41
    79          1
    80          1
    81         11
    82         17
    83         83
    84          9
    85          1
    86          1
    87          1
    88          1
    89          5
    90          2
    91          1
    92          1
    93          1
    94          2
    95         13
    96          1
    97          0
    98          1
    99          1
   100          0
   101          1
   102          1
   103          2
   105        999
   106         74
   107          6
   108          3
   109          9
   110         20
   111         10
   112          2
   113          0
   115          0
   120          0
   121          0
   122          5
   123          0
   126          0
   127          0
   128          0
   130          1
   131          0
   132          0
   133          2
   134          0
   137          1
   138          0
   139          1
   140          1
   146          0
   150          0
   151          0
   157          2
   158          1
   159          0
   164          0
   165          0
   166          1
   167          0
   169          0
   170          1
   171          0
   184          2
   185          6
   186          2
   187          0
   188          0
   196          0
   197          0
   198          3
   199          3
   200          8
   201          1
   213          0
   215        163
   216         24
   217          2