##TITLE=Library Entry 14289
##JCAMP-DX=Revision 4.10 
##DATA TYPE=MASS SPECTRUM
##SAMPLE DESCRIPTION=LAC, NIDDK, NIH, Bethesda, MD 20892
##NAMES=HP
##CAS NAME=Androsterone acetate
##MOLFORM=C21H32O3
##CAS REGISTRY NO=1482-78-6
##MP= -300
##BP= -300
##MW= 332
##$RETENTION INDEX=2580
##$CONDENSED SPECTRUM=NO
##NPOINTS= 161
##XYDATA=(XY..XY) 1 
    41        188
    43        999
    44         27
    45          9
    47          0
    49          4
    51          9
    53         90
    55        296
    56         21
    57         21
    58          3
    61         93
    63          1
    65         44
    67        263
    68         41
    69         47
    71          8
    72          0
    73          0
    74          0
    77        110
    79        280
    80          7
    81        207
    82          3
    83         40
    84          1
    85          7
    86          2
    87          1
    89          1
    91        214
    93        252
    94         69
    95         98
    97         77
    98          5
    99          1
   101          4
   103         12
   105        151
   106         87
   107        161
   108        208
   109         81
   110         13
   111          7
   112          1
   115         18
   117         41
   118          2
   119         94
   120         43
   121         71
   122         55
   123         29
   124          6
   125          3
   127          2
   128          7
   129         16
   131         49
   132          2
   133         71
   134         43
   135         39
   136         26
   137          9
   138          1
   141          4
   142          0
   143         17
   144          4
   145         63
   146         24
   147         76
   148         36
   149         27
   150         29
   151         13
   152          2
   153          1
   155          3
   156          0
   157         12
   158          4
   159         41
   160         23
   161         40
   162         19
   163         11
   164         13
   165          4
   166          0
   167          0
   169          2
   171         10
   172          2
   173         31
   174         21
   175         17
   176         37
   177          8
   178          2
   179          0
   183          3
   185          8
   186          5
   187         18
   188          8
   189          6
   190         27
   191          6
   197          5
   198          0
   199         10
   201        101
   202         19
   203          9
   204          5
   205          2
   211          2
   213         42
   215         65
   216         66
   218        134
   219         14
   220          1
   225          1
   226          1
   228         21
   229         21
   230         24
   231         13
   232          2
   233          0
   239         23
   240          3
   243          6
   244         37
   245          7
   254          9
   255          5
   257        121
   258         20
   259          2
   261          1
   272        440
   273         77
   274          8
   275          0
   276          1
   288          5
   289          1
   290          0
   299          1
   317          2
   332         38
   333          7