##TITLE=Library Entry 59719
##JCAMP-DX=Revision 4.10 
##DATA TYPE=MASS SPECTRUM
##SAMPLE DESCRIPTION=Exported from NIST MS Search
##NAMES=HP
##CAS NAME=Diselenide, bis(phenylmethyl)
##MOLFORM=C14H14Se2
##CAS REGISTRY NO=1482-82-2
##MP= -300
##BP= -300
##MW= 342
##$RETENTION INDEX=0
##$CONDENSED SPECTRUM=NO
##NPOINTS= 62
##XYDATA=(XY..XY) 1 
    27          3
    28          3
    37          3
    38          9
    39        113
    40          3
    41         28
    50         15
    51         47
    52         15
    53          1
    61          3
    62         17
    63         71
    64         18
    65        301
    66         15
    74          1
    75          1
    76          1
    77          9
    78          3
    80          1
    86          1
    87          1
    88          1
    89         56
    90         22
    91        999
    92        160
    93         47
    95          3
   116          5
   156          3
   158          5
   160          3
   165          3
   166          3
   167          9
   168          3
   169         18
   170          1
   171         22
   172          1
   173          3
   181         90
   182         15
   247          1
   248          1
   262          5
   334          3
   335          1
   336          9
   337          7
   338         34
   339         18
   340         56
   341          9
   342         60
   343          9
   344         18
   345          3