##TITLE=Library Entry 58138
##JCAMP-DX=Revision 4.10 
##DATA TYPE=MASS SPECTRUM
##SAMPLE DESCRIPTION=Japan AIST/NIMC Database- Spectrum MS-IW-4434
##NAMES=HP
##CAS NAME=(+)-2-(Ethylamino)-3-phenylpropanol, (R)-
##MOLFORM=C11H17NO
##CAS REGISTRY NO=148260-44-0
##MP= -300
##BP= -300
##MW= 179
##$RETENTION INDEX=0
##$CONDENSED SPECTRUM=NO
##NPOINTS= 103
##XYDATA=(XY..XY) 1 
    15          3
    17          6
    18          2
    27         12
    28         57
    29         24
    30         21
    31          8
    32          1
    38          1
    39         13
    40          2
    41         13
    42         56
    43         38
    44         36
    45          2
    46          1
    50          4
    51         13
    52          4
    53          3
    54          3
    55          5
    56         30
    57          8
    58          8
    59          1
    60        124
    61          3
    62          2
    63          8
    64          2
    65         34
    66          3
    67          2
    68          3
    69          5
    70         44
    71          7
    72          7
    74         20
    75          2
    76          2
    77         34
    78         12
    79          9
    80          1
    81          2
    82          1
    83          2
    84          2
    85          2
    86          9
    87          4
    88        999
    89         59
    90          8
    91        129
    92         26
    93         12
    94          2
    95          2
    96          1
    97          2
   102          9
   103         37
   104         12
   105         40
   106          4
   109          1
   111          1
   114          7
   115          8
   116          9
   117         17
   118         14
   119         38
   120         77
   121          8
   122          1
   123          1
   129          2
   130         14
   131          6
   132          8
   133          3
   134          6
   135          1
   144          2
   146          7
   147          4
   148        327
   149         37
   150          2
   158          1
   160          9
   161          3
   162          1
   164          1
   176          1
   178          4
   180          3