##TITLE=Library Entry 47658
##JCAMP-DX=Revision 4.10 
##DATA TYPE=MASS SPECTRUM
##SAMPLE DESCRIPTION=Japan AIST/NIMC Database- Spectrum MS-IW-7611
##NAMES=HP
##CAS NAME=Diphenyliodinium bromide
##MOLFORM=C12H10BrI
##CAS REGISTRY NO=1483-73-4
##MP= -300
##BP= -300
##MW= 360
##$RETENTION INDEX=0
##$CONDENSED SPECTRUM=NO
##NPOINTS= 65
##XYDATA=(XY..XY) 1 
    25          1
    26          5
    27          9
    28         68
    36          2
    37         10
    38         35
    39         11
    41          1
    43          2
    44          2
    48          1
    49         10
    50        110
    51        201
    52         12
    55          2
    57          3
    61          2
    62          3
    63          1
    69          2
    71          2
    72          1
    73         11
    74         45
    75         31
    76         41
    77        999
    78        100
    79         22
    80         14
    81          5
    82         14
    83          1
    85          1
    95          1
    97          1
   102         36
   110          1
   111          1
   125          1
   127         22
   128         22
   129          2
   130          1
   152          3
   153          3
   154          6
   155          2
   156        324
   157         23
   158        319
   159         19
   162          3
   176          1
   203          2
   204        776
   205         50
   206          1
   232          1
   234          1
   280          3
   281          5
   282          1