##TITLE=Library Entry 111
##JCAMP-DX=Revision 4.10 
##DATA TYPE=MASS SPECTRUM
##SAMPLE DESCRIPTION=NIST Mass Spectrometry Data Center, 1994
##NAMES=HP
##CAS NAME=2-Bromoethyl isothiocyanate
##MOLFORM=C3H4BrNS
##CAS REGISTRY NO=1483-41-6
##MP= -300
##BP= -300
##MW= 165
##$RETENTION INDEX=0
##$CONDENSED SPECTRUM=NO
##NPOINTS= 66
##XYDATA=(XY..XY) 1 
    12         11
    13         11
    15         24
    24          6
    25         36
    26        267
    27        999
    28         98
    29          8
    32          9
    33         11
    34         10
    37          5
    38         28
    39         31
    40         59
    41         13
    42         16
    43          5
    44        102
    45        120
    46         24
    47          6
    50          6
    51         39
    52         39
    53          5
    54          7
    56         15
    57         56
    58        224
    59        242
    60        287
    61         20
    62         13
    70         47
    72        541
    73         21
    74         22
    79         70
    80         22
    81         67
    82         28
    83         13
    84         50
    85         49
    86         76
    87          5
    88          4
    91          9
    92          7
    93         49
    94          9
    95         32
   104          4
   105         13
   107        648
   109        621
   110         16
   113          4
   165        509
   166         21
   167        486
   168         21
   169         22
   170          0