##TITLE=Library Entry 93680
##JCAMP-DX=Revision 4.10 
##DATA TYPE=MASS SPECTRUM
##SAMPLE DESCRIPTION=Chemical Concepts
##NAMES=HP
##CAS NAME=1a,6a-Dihydro-1H-6-thiacyclopropa[a]indene 6,6-dioxide
##MOLFORM=C9H8O2S
##CAS REGISTRY NO=148323-41-5
##MP= -300
##BP= -300
##MW= 180
##$RETENTION INDEX=0
##$CONDENSED SPECTRUM=NO
##NPOINTS= 120
##XYDATA=(XY..XY) 1 
    36          0
    37          6
    38         19
    39         94
    40          7
    41          6
    42          1
    43          9
    44          2
    45         17
    47          0
    48          7
    49          3
    50         56
    51         75
    52         14
    53          6
    54          1
    55          7
    56          2
    57         32
    58         21
    59          3
    60          1
    61         13
    62         51
    63        136
    64         24
    65         53
    66          6
    67          3
    68          1
    69         19
    70          4
    71          4
    72          1
    73          7
    74         33
    75         32
    76         20
    77         36
    78         11
    79          2
    80          0
    81          3
    82          4
    83          2
    84          2
    85          6
    86         15
    87         23
    88         16
    89        120
    90         21
    91         20
    92          2
    93          4
    94          2
    95          3
    96          2
    97          2
    98          3
    99          2
   100          0
   101          2
   102          8
   103         13
   104          8
   105          2
   106          1
   107          1
   108          6
   109         32
   110          5
   111          2
   112          0
   113         14
   114         32
   115        999
   116        578
   117         50
   118          6
   119          2
   120          1
   121         10
   122          9
   123          5
   124          1
   125          0
   129          0
   131         79
   132         90
   133         10
   134         34
   135         43
   136         11
   137         46
   138          5
   139          2
   145          1
   146          1
   147         17
   148          5
   149          3
   150          9
   151         32
   152          5
   153          2
   162          2
   163          5
   164          2
   165          3
   166          7
   167          1
   168          0
   178          4
   179          0
   180         49
   181          6
   182          2