##TITLE=Library Entry 59828
##JCAMP-DX=Revision 4.10 
##DATA TYPE=MASS SPECTRUM
##SAMPLE DESCRIPTION=Chemical Concepts
##NAMES=HP
##CAS NAME=1H-Tetrazol-5-amine, N-(phenylmethyl)-
##MOLFORM=C8H9N5
##CAS REGISTRY NO=14832-58-7
##MP= -300
##BP= -300
##MW= 175
##$RETENTION INDEX=0
##$CONDENSED SPECTRUM=NO
##NPOINTS= 80
##XYDATA=(XY..XY) 1 
    27         18
    29         23
    30          7
    38         10
    39         58
    40          9
    41         48
    42          8
    43         32
    44         17
    45         16
    50         35
    51         56
    52         18
    53         10
    54          9
    55         30
    56         16
    57         31
    60         21
    61          7
    62         15
    63         44
    64         15
    65        158
    66         16
    67         12
    68         10
    69         33
    70         11
    71         18
    73         25
    74         15
    75          8
    76         13
    77         36
    78         18
    79         10
    81         16
    82          8
    83         21
    84         11
    85         11
    87         12
    89         45
    90         24
    91        999
    92        103
    93         12
    95          9
    96         10
    97         18
    98         13
    99          8
   101          8
   103          9
   104         30
   105         29
   106          9
   109          9
   111         10
   112          7
   116         12
   117         22
   118         38
   119         10
   121          7
   123         10
   127          9
   129         15
   130          7
   131         31
   132         15
   141         11
   146        104
   147        157
   148         23
   149          3
   175        124
   176         13