##TITLE=Library Entry 15810
##JCAMP-DX=Revision 4.10 
##DATA TYPE=MASS SPECTRUM
##SAMPLE DESCRIPTION=Japan AIST/NIMC Database- Spectrum MS-IW-3339
##NAMES=HP
##CAS NAME=Norephedrine, (.+/-.)-
##MOLFORM=C9H13NO
##CAS REGISTRY NO=14838-15-4
##MP= -300
##BP= -300
##MW= 151
##$RETENTION INDEX=1347
##$CONDENSED SPECTRUM=NO
##NPOINTS= 59
##XYDATA=(XY..XY) 1 
    15          3
    17          6
    18         14
    27          9
    28         11
    29          6
    30          6
    38          2
    39          9
    40          2
    41          4
    42         22
    43         13
    44        999
    45         40
    50          9
    51         30
    52          8
    53          5
    55          1
    56          1
    57          2
    58          2
    59          1
    60          1
    62          2
    63          6
    64          1
    65          4
    66          1
    73          2
    74          3
    75          2
    76          2
    77         74
    78         16
    79         55
    80          4
    89          5
    90          4
    91         12
    92          2
   103          2
   104          1
   105         23
   106          8
   107         29
   108          6
   115          3
   116          1
   117         10
   118         10
   119          3
   130          1
   131          1
   132          6
   133          3
   134          1
   136          1