##TITLE=Library Entry 11450
##JCAMP-DX=Revision 4.10 
##DATA TYPE=MASS SPECTRUM
##SAMPLE DESCRIPTION=Chemical Concepts
##NAMES=HP
##CAS NAME=1,2,4-Butanetriol, triacetate
##MOLFORM=C10H16O6
##CAS REGISTRY NO=14835-47-3
##MP= -300
##BP= -300
##MW= 232
##$RETENTION INDEX=1399
##$CONDENSED SPECTRUM=NO
##NPOINTS= 62
##XYDATA=(XY..XY) 1 
    26          1
    27          8
    28          3
    29          7
    31          6
    39          7
    40          1
    41         11
    42         19
    43        999
    44         25
    45          6
    47          2
    48          1
    49         12
    51          4
    53          2
    54          5
    55          5
    56          1
    57         80
    58         10
    59          1
    60          3
    61         36
    68          1
    69         15
    70        100
    71         29
    72          5
    73         18
    74          6
    75          3
    82          3
    84          9
    85          1
    86         17
    87         10
    88         12
    89          2
    99         88
   100         13
   101          3
   102          1
   103         33
   104          1
   112         55
   113          9
   114          1
   115          0
   116          2
   117        129
   118          8
   119          1
   129          5
   130          9
   131          2
   145          7
   159         62
   160          5
   161          0
   173          1