##TITLE=Library Entry 47749
##JCAMP-DX=Revision 4.10 
##DATA TYPE=MASS SPECTRUM
##SAMPLE DESCRIPTION=NIST Mass Spectrometry Data Center, 1994
##NAMES=HP
##CAS NAME=2,5-Dimethoxybenzenesulfonyl chloride
##MOLFORM=C8H9ClO4S
##CAS REGISTRY NO=1483-28-9
##MP= -300
##BP= -300
##MW= 236
##$RETENTION INDEX=0
##$CONDENSED SPECTRUM=NO
##NPOINTS= 118
##XYDATA=(XY..XY) 1 
    15        567
    16         13
    18         11
    25         13
    26         58
    27         31
    28         93
    29        108
    30         25
    31         16
    32          6
    35         28
    36         29
    37         62
    38         87
    39        217
    40         29
    41         37
    42         12
    43         20
    44          6
    45         49
    48         53
    49         41
    50        235
    51        643
    52        115
    53        598
    54         77
    55         56
    56         14
    57         49
    58         10
    59         21
    60         10
    61         95
    62        249
    63        519
    64        344
    65        178
    66        143
    67         29
    68         10
    69        153
    70         31
    71         18
    72         10
    73         37
    74         92
    75         85
    76        148
    77        999
    78        134
    79        877
    80         83
    81         37
    82         71
    83         33
    84         29
    85         49
    86         13
    92        495
    93         86
    94        188
    95         58
    96         17
    97         28
    98         20
    99         57
   100         16
   101         18
   105         72
   107        776
   108         80
   109        524
   110        102
   111         43
   112         13
   113         14
   114         22
   122        400
   123         20
   124         23
   125         64
   126         37
   127         21
   128         13
   129        201
   130         20
   131         71
   135         20
   137        404
   139         33
   141         13
   142         52
   143         23
   144         20
   153        110
   154         14
   155          6
   156          6
   157        513
   158         42
   159        176
   160         14
   168         12
   170          8
   171         95
   172         14
   201        129
   202          7
   221         76
   223         36
   236        881
   237         86
   238        330
   239         35
   240         16