##TITLE=Library Entry 78710
##JCAMP-DX=Revision 4.10 
##DATA TYPE=MASS SPECTRUM
##SAMPLE DESCRIPTION=C. DJERASSI
##NAMES=HP
##CAS NAME=Benzenecarbothioic acid, S-ethyl ester
##MOLFORM=C9H10OS
##CAS REGISTRY NO=1484-17-9
##MP= -300
##BP= -300
##MW= 166
##$RETENTION INDEX=0
##$CONDENSED SPECTRUM=NO
##NPOINTS= 31
##XYDATA=(XY..XY) 1 
    44          5
    45          8
    46          2
    50          3
    51        115
    52          7
    58          3
    59          5
    60          2
    61          6
    62          2
    63          2
    65          5
    69          3
    74          8
    75          7
    76          6
    77        355
    78         30
   104          2
   105        999
   106         85
   107          5
   108          2
   109          5
   121          2
   122          1
   138          1
   166        110
   167         10
   168          3