##TITLE=Library Entry 22720
##JCAMP-DX=Revision 4.10 
##DATA TYPE=MASS SPECTRUM
##SAMPLE DESCRIPTION=Chemical Concepts
##NAMES=HP
##CAS NAME=Urea, 1-(3-chloropropyl)-3-cyclohexyl-
##MOLFORM=C10H19ClN2O
##CAS REGISTRY NO=14848-54-5
##MP= -300
##BP= -300
##MW= 218
##$RETENTION INDEX=0
##$CONDENSED SPECTRUM=NO
##NPOINTS= 139
##XYDATA=(XY..XY) 1 
    26         14
    27        100
    28        186
    29        110
    30        388
    31         12
    35          3
    36         22
    37          2
    38         11
    39        114
    40         28
    41        341
    42        111
    43        179
    44        106
    45          9
    46          2
    47          4
    49          8
    50          8
    51         18
    52         12
    53         55
    54        102
    55        276
    56        999
    57        206
    58        128
    59          8
    60          1
    61          4
    62          4
    63          9
    64          3
    65         15
    66          9
    67        111
    68         60
    69         92
    70        125
    71         24
    72        126
    73        239
    74         20
    75          9
    76         26
    77         38
    78         20
    79         38
    80         17
    81        115
    82        151
    83        151
    84         52
    85         19
    86         13
    87          4
    88          2
    89          2
    91         17
    92         13
    93         10
    94         29
    95         14
    96         57
    97        149
    98        315
    99        194
   100        661
   101        809
   102         49
   103          4
   104          4
   105          8
   106          3
   107          4
   108          5
   109          8
   110         11
   111         52
   112         15
   113         23
   114         17
   115          7
   117          2
   119          4
   120          5
   121          5
   122          5
   123          5
   124         14
   125        165
   126         32
   127         76
   128         24
   129          7
   131          3
   133          7
   134          3
   135          6
   136          4
   137        157
   138         13
   139        158
   140         35
   141         24
   142          3
   147          2
   148          2
   151          5
   152          5
   153         82
   154         25
   155         14
   156          9
   157          7
   158          2
   160          8
   161          3
   162          2
   163          3
   164          2
   165          6
   166          2
   167         25
   168          6
   169          7
   170          3
   179          4
   180          3
   181         73
   182        542
   183        122
   217          4
   218        111
   219         16
   220         35
   221          3