##TITLE=Library Entry 31610
##JCAMP-DX=Revision 4.10 
##DATA TYPE=MASS SPECTRUM
##SAMPLE DESCRIPTION=Humboldt-Universitat zu Berlin, Department of Chemistry
, Analytical Group
##NAMES=HP
##CAS NAME=Benzoyl chloride, 4-azido-
##MOLFORM=C7H4ClN3O
##CAS REGISTRY NO=14848-01-2
##MP= -300
##BP= -300
##MW= 181
##$RETENTION INDEX=0
##$CONDENSED SPECTRUM=NO
##NPOINTS= 105
##XYDATA=(XY..XY) 1 
    12         10
    13          5
    14         24
    15          5
    16          4
    17         17
    18         74
    19          0
    24          6
    25         25
    26        103
    27         48
    28        146
    29         21
    31         17
    35         48
    36         52
    37        350
    38        355
    39        396
    40         43
    41         10
    42          8
    45         87
    47          8
    48         12
    49         64
    50        240
    51        106
    52        118
    53         42
    54          3
    55          3
    56          1
    57          2
    59         37
    60         24
    61        160
    62        314
    63        999
    64        299
    65         42
    66         11
    67          2
    68          1
    69          2
    70          2
    71          2
    72          8
    73         39
    74         71
    75         50
    76         36
    77          9
    78          2
    79          2
    80          1
    81          1
    83          1
    84          5
    85          5
    86         13
    87         32
    88         53
    89        109
    90        732
    91         54
    92          6
    93          1
    95          0
    96          0
    97          5
    98         24
    99          6
   100          8
   101          2
   102          1
   103          2
   104          4
   107          1
   111          2
   112          1
   113          1
   117          7
   118        250
   119         20
   120          2
   125        588
   126         47
   127        191
   128         12
   129          0
   135          2
   139          1
   146         86
   147          7
   153         44
   154          4
   155         17
   156          1
   163          0
   181         52
   182          4
   183         15
   184          1