##TITLE=Library Entry 83537
##JCAMP-DX=Revision 4.10 
##DATA TYPE=MASS SPECTRUM
##SAMPLE DESCRIPTION=NIST Mass Spectrometry Data Center, 1994
##NAMES=HP
##CAS NAME=Phenol, 2-bromo-5-methyl-
##MOLFORM=C7H7BrO
##CAS REGISTRY NO=14847-51-9
##MP= -300
##BP= -300
##MW= 186
##$RETENTION INDEX=0
##$CONDENSED SPECTRUM=NO
##NPOINTS= 79
##XYDATA=(XY..XY) 1 
    13          4
    14         12
    15         28
    18          5
    19          5
    25          8
    26         57
    27        146
    28         22
    29         78
    31          6
    32          4
    36         11
    37         86
    38        199
    39        323
    41         16
    42         22
    43         33
    44         17
    48          6
    49         43
    50        248
    51        445
    52        184
    53        219
    54          6
    55         57
    60         10
    61         63
    62        122
    63        181
    64         30
    65         17
    66         30
    67         25
    68          6
    72          3
    73         25
    74         81
    75         44
    76          3
    77        876
    78        367
    79        293
    80         33
    81         58
    82         16
    83          9
    84          6
    85         13
    86         18
    87         18
    88          7
    89         25
    90          6
    91          3
    92          3
    93         30
    94         25
   105        112
   107        999
   108         80
   109          4
   116          6
   117         13
   118          6
   119         12
   130          3
   131          5
   133          4
   157         19
   158          2
   159         18
   169          3
   186        532
   187         77
   188        531
   189         39