##TITLE=Library Entry 53787
##JCAMP-DX=Revision 4.10 
##DATA TYPE=MASS SPECTRUM
##SAMPLE DESCRIPTION=Japan AIST/NIMC Database- Spectrum MS-NW-9203
##NAMES=HP
##CAS NAME=2-(2-Hydroxyethyl)piperidine
##MOLFORM=C7H15NO
##CAS REGISTRY NO=1484-84-0
##MP= -300
##BP= -300
##MW= 129
##$RETENTION INDEX=0
##$CONDENSED SPECTRUM=NO
##NPOINTS= 70
##XYDATA=(XY..XY) 1 
    15          7
    17          1
    18          4
    26          3
    27         30
    28         72
    29         29
    30         92
    31         23
    36          6
    38          3
    39         27
    40          5
    41         60
    42         68
    43         44
    44         44
    45         10
    46          2
    50          2
    51          3
    52          3
    53         11
    54         27
    55         67
    56        147
    57         25
    58          6
    59          1
    65          3
    66          1
    67         16
    68         16
    69          9
    70         27
    71          2
    72         39
    73          2
    74          2
    77          2
    78          1
    79          4
    80          6
    81          8
    82         24
    83         11
    84        999
    85         61
    86          9
    87          1
    93          2
    94          2
    95          1
    96          8
    97          3
    98         45
    99          9
   100          9
   101          4
   106          2
   107          1
   108          3
   109          2
   110         12
   111          9
   112          8
   113          1
   128         15
   129         13
   130          2