##TITLE=Library Entry 38564
##JCAMP-DX=Revision 4.10 
##DATA TYPE=MASS SPECTRUM
##SAMPLE DESCRIPTION=Richard Turcotte. Direction des laboratoires d'expertis
es et d'analyses alimentaires, Quebec, Canada.
##NAMES=HP
##CAS NAME=SPIRODICLOFEN
##MOLFORM=C21H24Cl2O4
##CAS REGISTRY NO=148477-71-8
##MP= -300
##BP= -300
##MW= 410
##$RETENTION INDEX=0
##$CONDENSED SPECTRUM=NO
##NPOINTS= 147
##XYDATA=(XY..XY) 1 
    41         57
    42         23
    43        176
    45          5
    51          6
    52          2
    53         11
    54          4
    55         58
    56         10
    57          4
    58          7
    61          2
    62          3
    65          2
    67          7
    69         26
    70         27
    71        999
    72         58
    73          4
    74          2
    77          5
    78          4
    79          4
    80          2
    81          9
    82          4
    83          5
    86          5
    87         15
    88          2
    96          8
    97          8
    98          2
    99        143
   100          6
   102          2
   103          6
   106          2
   107          8
   108          2
   109         76
   110          9
   111          4
   112          2
   113          2
   117          2
   120          2
   121          4
   122          9
   123         12
   124          3
   125          4
   127          2
   128          4
   129          3
   131          2
   140          2
   147          5
   148          6
   149          3
   150          2
   151          3
   152          3
   153          2
   157         91
   158         11
   159         66
   160          5
   161         16
   162          4
   165          4
   167          2
   169          2
   173          6
   174          2
   175          4
   176          3
   177         13
   178          2
   179          3
   181          6
   183          4
   185         43
   186         12
   187         31
   188          8
   189          3
   194          3
   195          8
   196          2
   197          3
   199          2
   205          2
   210          2
   211          2
   213         29
   214          4
   215         18
   216          4
   217          4
   219          3
   221          6
   223          2
   230          6
   231         13
   232         10
   233          7
   241          5
   243          3
   244          2
   249          5
   250          2
   251          6
   252          2
   256          3
   257          7
   259         43
   260         10
   261         14
   266          3
   267          6
   268          2
   269         13
   271          2
   277         22
   278          4
   279         10
   284          2
   285          2
   294         12
   295          6
   296         11
   297          7
   298          2
   310          2
   312         79
   313         22
   314         52
   315         18
   316         13
   322          2
   323          2
   324          3
   345          3
   356          2