##TITLE=Library Entry 63453
##JCAMP-DX=Revision 4.10 
##DATA TYPE=MASS SPECTRUM
##SAMPLE DESCRIPTION=Japan AIST/NIMC Database- Spectrum MS-NW-8071
##NAMES=HP
##CAS NAME=3-Benzyloxyaniline
##MOLFORM=C13H13NO
##CAS REGISTRY NO=1484-26-0
##MP= -300
##BP= -300
##MW= 199
##$RETENTION INDEX=0
##$CONDENSED SPECTRUM=NO
##NPOINTS= 71
##XYDATA=(XY..XY) 1 
    27          6
    28          8
    30          1
    38          3
    39         28
    40          3
    41         11
    42          2
    50          4
    51         12
    52          9
    53         15
    54          4
    55          1
    62          3
    63         13
    64          6
    65        103
    66          8
    67          1
    68          1
    71          1
    76          1
    77          4
    78          3
    79          2
    80         29
    81          2
    83          1
    84          2
    85          2
    86          1
    89         10
    90          5
    91        999
    92         80
    93          7
    94          2
    97          1
    98          6
    99          9
   100          1
   109          2
   115          1
   121          5
   122         18
   123          1
   128          2
   129          1
   141          1
   143          1
   152          2
   153          4
   154          1
   155          1
   156          1
   167          2
   168          1
   169          1
   170          6
   171          3
   180          2
   181          3
   182          8
   183          2
   196          2
   197          1
   198         23
   199        388
   200         56
   201          4