##TITLE=Library Entry 53783
##JCAMP-DX=Revision 4.10 
##DATA TYPE=MASS SPECTRUM
##SAMPLE DESCRIPTION=Japan AIST/NIMC Database- Spectrum MS-NW-3079
##NAMES=HP
##CAS NAME=2-Ethylpiperidine
##MOLFORM=C7H15N
##CAS REGISTRY NO=1484-80-6
##MP= -300
##BP= -300
##MW= 113
##$RETENTION INDEX=890
##$CONDENSED SPECTRUM=NO
##NPOINTS= 51
##XYDATA=(XY..XY) 1 
    15          5
    26          4
    27         36
    28         81
    29         32
    30         74
    38          2
    39         31
    40          5
    41         67
    42         38
    43         14
    44         12
    50          2
    51          3
    52          3
    53          9
    54         15
    55         49
    56        206
    57         41
    58         11
    65          2
    67         14
    68         10
    69          9
    70         66
    71         13
    72          5
    77          1
    79          1
    80          4
    81          2
    82         14
    83          5
    84        999
    85         66
    86          2
    91          1
    93          1
    94          1
    95          2
    96          4
    97          1
    98         21
    99          2
   110          3
   111          1
   112         38
   113         21
   114          2