##TITLE=Library Entry 40312
##JCAMP-DX=Revision 4.10 
##DATA TYPE=MASS SPECTRUM
##SAMPLE DESCRIPTION=Chemical Concepts
##NAMES=HP
##CAS NAME=3-Hydroxy-N,N-dimethylbut-3-enamide, TMS derivative
##MOLFORM=C9H19NO2Si
##CAS REGISTRY NO=14857-15-9
##MP= -300
##BP= -300
##MW= 201
##$RETENTION INDEX=0
##$CONDENSED SPECTRUM=NO
##NPOINTS= 131
##XYDATA=(XY..XY) 1 
    26          3
    27         23
    28         12
    29         20
    30         15
    31         11
    37          0
    38          4
    39         46
    40          9
    41         12
    42        100
    43         94
    44        135
    45        160
    46         11
    47         73
    48          3
    49          3
    50          0
    51          1
    52          0
    53          6
    54          5
    55         41
    56         35
    57         17
    58         40
    59         60
    60         10
    61         37
    62          1
    63          0
    64          0
    65          0
    66          1
    67          8
    68         10
    69          6
    70         85
    71         12
    72        999
    73        495
    74         47
    75        315
    76         23
    77         15
    78          0
    79          4
    80          4
    81          1
    82          5
    83          3
    84          5
    85         16
    86         12
    87          5
    88          4
    89          3
    90          0
    93          0
    94          4
    95          0
    96          1
    97          5
    98          5
    99         64
   100          9
   101         33
   102        182
   103         18
   104          8
   110          2
   111          4
   112         13
   113         16
   114         16
   115         96
   116         62
   117         12
   118          3
   125          0
   126          4
   127          4
   128          8
   129         15
   130         26
   131          5
   132          0
   139          0
   140          2
   141         27
   142          8
   143         27
   144        207
   145         25
   146         10
   147          0
   152          0
   153          0
   154          0
   155          2
   156          9
   157         85
   158         41
   159        202
   160         25
   161          7
   168          0
   169          0
   170          4
   171          2
   172          3
   173          2
   174          0
   175          0
   181          0
   182          2
   183          1
   184         30
   185         11
   186        600
   187         78
   188         25
   189          2
   198          0
   199          0
   200          8
   201         39
   202          6
   203          0