##TITLE=Library Entry 8728
##JCAMP-DX=Revision 4.10 
##DATA TYPE=MASS SPECTRUM
##SAMPLE DESCRIPTION=Chemical Concepts
##NAMES=HP
##CAS NAME=5-Amino-2-selenoxo-2H-[1,3]dithiolo[4,5-d]pyrimidin-7(6H)-one
##MOLFORM=C5H3N3OS2Se
##CAS REGISTRY NO=148583-84-0
##MP= -300
##BP= -300
##MW= 265
##$RETENTION INDEX=0
##$CONDENSED SPECTRUM=NO
##NPOINTS= 113
##XYDATA=(XY..XY) 1 
    33          9
    36          3
    38         19
    43        999
    44         93
    45         45
    47          2
    50          3
    51          5
    53         60
    54         12
    55         16
    56         14
    57         19
    58         11
    59         21
    60         15
    61          6
    64         16
    66          5
    67         15
    70        260
    71        103
    72         36
    73         51
    74          4
    76         28
    77         19
    80         32
    82         16
    83         10
    84         35
    86         53
    87         32
    88         34
    89          3
    90          5
    91          1
    92          5
    93          7
    94          1
    96         21
    97         10
    98         24
    99         41
   101          6
   102          5
   103          8
   104          2
   105          2
   108          3
   109          5
   110         13
   112         16
   113         13
   114          5
   115          3
   116          1
   118          5
   119          8
   120          9
   121         17
   122         11
   124         51
   125         15
   126          8
   127          6
   128          7
   129          3
   131         31
   132         13
   133          9
   134          4
   136          4
   140          6
   141         29
   142          2
   143          3
   144          2
   145          4
   152         43
   153         73
   155          9
   156          6
   157          8
   158          6
   160          4
   171          4
   173         75
   175          6
   185          3
   186          1
   187          2
   195          1
   201         57
   203          4
   217         13
   218          4
   219          9
   220          4
   221         15
   222          3
   223         11
   224          2
   259          5
   261         49
   262         45
   263        110
   265        234
   266         23
   267         52
   268          4
   269          2