##TITLE=Library Entry 109166
##JCAMP-DX=Revision 4.10 
##DATA TYPE=MASS SPECTRUM
##SAMPLE DESCRIPTION=V.G.Zaikin,TIPS,Russian Acad.Sci.Moscow
##NAMES=HP
##CAS NAME=4-Chlorobenzyl alcohol, TMS derivative
##MOLFORM=C10H15ClOSi
##CAS REGISTRY NO=14856-74-7
##MP= -300
##BP= -300
##MW= 214
##$RETENTION INDEX=0
##$CONDENSED SPECTRUM=NO
##NPOINTS= 117
##XYDATA=(XY..XY) 1 
    26         16
    27         48
    28          6
    29         91
    30          9
    31         29
    35          5
    36         11
    37         12
    38         26
    39        121
    40          8
    41         11
    42         35
    43        208
    44         56
    45        349
    46         19
    47         61
    48          2
    49          3
    50         71
    51         95
    52         14
    53         19
    54          4
    55         19
    57         18
    58         51
    59        131
    60         17
    61         29
    62         33
    63        157
    64         31
    65         28
    67          3
    69         10
    70          2
    71          4
    72          8
    73        488
    74         99
    75        159
    76         19
    77        115
    78         19
    79         33
    80          2
    81          2
    82         36
    83          2
    85          8
    86          8
    87          8
    88          8
    89        222
    90         87
    91         31
    93         59
    95         26
    97          5
    99         88
   100         41
   101         16
   102          4
   103          6
   104          8
   105         25
   106          4
   107         25
   108          4
   109          2
   111         21
   112          3
   113          6
   119          4
   123          8
   124         13
   125        999
   126         81
   127        273
   128         29
   138          2
   139          7
   140          2
   141          4
   142          6
   147          1
   148          1
   149         13
   161          1
   162          1
   163         31
   164          2
   165          4
   168          2
   169        165
   170         34
   171         57
   172          4
   173          2
   179        187
   180         28
   181          7
   197          4
   198         17
   199        457
   200         78
   201        156
   202         29
   203          3
   213         11
   214         35
   215          8
   216         13
   217          3