##TITLE=Library Entry 81763
##JCAMP-DX=Revision 4.10 
##DATA TYPE=MASS SPECTRUM
##SAMPLE DESCRIPTION=Japan AIST/NIMC Database- Spectrum MS-NW-6465
##NAMES=HP
##CAS NAME=N-Benzylbenzamide
##MOLFORM=C14H13NO
##CAS REGISTRY NO=1485-70-7
##MP= -300
##BP= -300
##MW= 211
##$RETENTION INDEX=2039
##$CONDENSED SPECTRUM=NO
##NPOINTS= 96
##XYDATA=(XY..XY) 1 
    16          1
    26          2
    27         11
    28         14
    29          2
    30          5
    37          2
    38          6
    39         25
    40          2
    41          6
    42          1
    43          2
    44          2
    45          1
    46          1
    49          2
    50         32
    51        110
    52         14
    53          4
    54          1
    55          1
    56          1
    57          1
    61          1
    62          4
    63         12
    64          5
    65         39
    66          3
    71          1
    72          2
    73          1
    74         11
    75          9
    76         20
    77        418
    78         53
    79         44
    80          3
    81          1
    85          1
    89         12
    90          7
    91         90
    92          9
    97          1
   102          1
   103         10
   104         37
   105        999
   106        292
   107         33
   108          8
   109          1
   115          1
   116          1
   117          1
   120          1
   127          1
   132          9
   133          8
   134         14
   135          2
   148          9
   149          2
   150          1
   151          1
   152          4
   153          2
   154          1
   155          1
   164          1
   165          9
   166          5
   167          8
   168          2
   180          4
   181         17
   182         13
   183          2
   184          1
   191          1
   192          6
   193          8
   194          9
   195          2
   196          3
   208          1
   209          4
   210        253
   211        814
   212        127
   213         11
   214          1