##TITLE=Library Entry 78107
##JCAMP-DX=Revision 4.10 
##DATA TYPE=MASS SPECTRUM
##SAMPLE DESCRIPTION=Chemical Concepts
##NAMES=HP
##CAS NAME=Cyclohexanamine, N-(benzoyloxy)-
##MOLFORM=C13H17NO2
##CAS REGISTRY NO=1485-75-2
##MP= -300
##BP= -300
##MW= 219
##$RETENTION INDEX=0
##$CONDENSED SPECTRUM=NO
##NPOINTS= 67
##XYDATA=(XY..XY) 1 
    25          3
    26         32
    27        131
    28         74
    29         51
    30         27
    31         29
    39        122
    40         27
    41        284
    42         64
    43         83
    44          8
    45         13
    47          7
    49         13
    50        101
    51        188
    52         43
    53         23
    54        606
    55         91
    56        155
    57         23
    60          4
    61          8
    62          7
    63         12
    64          5
    65         24
    66         16
    67         20
    68        109
    69        178
    70         30
    71          7
    73         13
    74         44
    75         23
    76         40
    77        491
    78         61
    79         18
    80          9
    81         11
    82        119
    83         15
    91         18
    92         11
    93          7
    94         21
    95          7
    96        119
    97        181
    98         21
    99         22
   104         12
   105        999
   106         80
   107          8
   121          7
   122        495
   123         49
   124          9
   129          3
   141          3
   219          6