##TITLE=Library Entry 25201
##JCAMP-DX=Revision 4.10 
##DATA TYPE=MASS SPECTRUM
##SAMPLE DESCRIPTION=V.G. Zaikin, R.S.Borisov, TIPS RAS, Moscow, Russia
##NAMES=HP
##CAS NAME=Carbonic acid, bis(2-ethylhexyl) ester
##MOLFORM=C17H34O3
##CAS REGISTRY NO=14858-73-2
##MP= -300
##BP= -300
##MW= 286
##$RETENTION INDEX=0
##$CONDENSED SPECTRUM=NO
##NPOINTS= 54
##XYDATA=(XY..XY) 1 
    26          2
    27         40
    28         47
    29        118
    30          5
    31          9
    39         31
    40          6
    41        266
    42         62
    43        357
    44         17
    45          3
    53         14
    54         18
    55        276
    56        209
    57        999
    58         40
    59          6
    63          4
    65          1
    67         21
    68         26
    69        171
    70        876
    71        738
    72         39
    73          3
    76         11
    77         16
    81          9
    82         57
    83        346
    84        167
    85         17
    87          1
    95          4
    96          2
    97         44
    98         14
    99          2
   101          2
   110          3
   111         19
   112        529
   113        173
   114         12
   117          8
   125          1
   126          1
   129          4
   131          3
   145          6