##TITLE=Library Entry 2741
##JCAMP-DX=Revision 4.10 
##DATA TYPE=MASS SPECTRUM
##SAMPLE DESCRIPTION=Japan AIST/NIMC Database- Spectrum MS-NW-3494
##NAMES=HP
##CAS NAME=3-Octene, (Z)-
##MOLFORM=C8H16
##CAS REGISTRY NO=14850-22-7
##MP= -300
##BP= -300
##MW= 112
##$RETENTION INDEX=790
##$CONDENSED SPECTRUM=NO
##NPOINTS= 66
##XYDATA=(XY..XY) 1 
    14          2
    15         15
    26         18
    27        249
    28         38
    29        187
    30          5
    31          4
    36          1
    37          6
    38         18
    39        259
    40         49
    41        999
    42        374
    43        176
    44          7
    45          3
    49          2
    50         19
    51         36
    52         17
    53        110
    54         74
    55        953
    56        534
    57        163
    58         11
    59          8
    61          2
    62          4
    63         10
    64          2
    65         22
    66         10
    67        102
    68         65
    69        470
    70        483
    71         63
    72          6
    73          2
    74          2
    75          1
    77         15
    78          3
    79         16
    80          3
    81         26
    82         19
    83        240
    84         73
    85         14
    86          3
    87          1
    91          2
    93          1
    95          6
    97         18
    98          2
   109          1
   110          8
   111          9
   112        357
   113         33
   114          1