##TITLE=Library Entry 16227
##JCAMP-DX=Revision 4.10 
##DATA TYPE=MASS SPECTRUM
##SAMPLE DESCRIPTION=A.A.Kutin, Moscow, Russia
##NAMES=HP
##CAS NAME=Cyclopropane-1,2-dicarboxamide, 1,2-dicyano-3-phenyl-
##MOLFORM=C13H10N4O2
##CAS REGISTRY NO=14853-66-8
##MP= -300
##BP= -300
##MW= 254
##$RETENTION INDEX=0
##$CONDENSED SPECTRUM=NO
##NPOINTS= 183
##XYDATA=(XY..XY) 1 
    33         27
    34          7
    35          2
    36         15
    37         44
    38        118
    39        341
    40        179
    41         84
    42        171
    43        402
    44        999
    45         40
    46         14
    50        237
    51        396
    52        153
    53         68
    54         28
    55         30
    56         22
    57         33
    58         11
    59         10
    60         14
    61         53
    62        148
    63        336
    64        126
    65        117
    66         29
    67         30
    68         55
    69        199
    70         86
    71         35
    72          5
    73         21
    74         85
    75        113
    76        122
    77        332
    78        138
    79        102
    80         21
    81          4
    82         16
    83         27
    84         33
    85         24
    86         64
    87         90
    88        156
    89        183
    90         84
    91         66
    92         32
    93         25
    94         12
    95          9
    96          6
    97          8
    98         19
    99         35
   100         47
   101         70
   102         72
   103         45
   104        111
   105        100
   106        154
   107        334
   108         29
   109          5
   110         16
   111         24
   112         52
   113        272
   114        369
   115        129
   116         36
   117         22
   118         12
   119          9
   120         28
   121         13
   122          4
   123          3
   124          2
   125          7
   126         22
   127         69
   128        104
   129         48
   130         32
   131         15
   132         15
   133         10
   134         21
   135          2
   136          4
   138         66
   139        221
   140        643
   141        472
   142         79
   143         19
   144         10
   145          8
   146          7
   148        378
   149         31
   150          4
   151          4
   152          8
   153         29
   154        102
   155        148
   156         43
   157          9
   158          5
   159          9
   160         52
   161          5
   162         11
   163          3
   164         14
   165         81
   166        251
   167        114
   168         91
   169         46
   170         14
   171         14
   172          4
   174          0
   175          0
   177         97
   178         11
   180         73
   181         58
   182        121
   183        220
   184         60
   185         10
   186          2
   187          0
   191          2
   192          7
   193         17
   194        110
   195         53
   196         21
   197         16
   198         37
   199          6
   201          0
   202          0
   206          7
   208        100
   209        387
   210        593
   211        475
   212        131
   213         18
   216          0
   220          7
   221          2
   224         11
   225         14
   226        129
   227         21
   228          3
   234          1
   235          9
   236         60
   237         86
   238         16
   239          2
   253        108
   254        265
   255         44
   256          6