##TITLE=Library Entry 30743
##JCAMP-DX=Revision 4.10 
##DATA TYPE=MASS SPECTRUM
##SAMPLE DESCRIPTION=V.A.Korolev, Moscow, Russia
##NAMES=HP
##CAS NAME=Methyl 3,4-dimethoxy-5-nitrobenzoate
##MOLFORM=C10H11NO6
##CAS REGISTRY NO=148546-84-3
##MP= -300
##BP= -300
##MW= 241
##$RETENTION INDEX=0
##$CONDENSED SPECTRUM=NO
##NPOINTS= 136
##XYDATA=(XY..XY) 1 
    30         59
    37         64
    38        146
    39        576
    40        162
    41         58
    42         40
    43        160
    44        136
    45        146
    46         62
    47          6
    48          4
    49         83
    50        799
    51        244
    52        111
    53        587
    54         51
    55         68
    56         12
    57         15
    59        999
    60         32
    61        142
    62        361
    63        357
    64        179
    65        318
    66        286
    67         59
    68         26
    69        293
    70         23
    71          1
    73         31
    74        161
    75        470
    76        741
    77        758
    78        527
    79        301
    80        153
    81        102
    82         40
    83         21
    85         36
    86          2
    89          7
    90         45
    91        308
    92        190
    93        348
    94        124
    95         69
    96         34
    97         20
    98          7
    99          9
   101          2
   102         19
   103        261
   104        227
   105        203
   106        271
   107        282
   108        174
   109        161
   110         34
   111         36
   112         24
   113          9
   118         57
   119        560
   120        256
   121        167
   122        123
   123         74
   124         57
   125        161
   126         14
   133        110
   134        113
   135        617
   136        289
   137        205
   138        179
   139         64
   140         36
   141          9
   147          2
   148         54
   149        290
   150        149
   151        202
   152        132
   153        131
   154         86
   155         66
   156          1
   159          1
   161          1
   163        102
   164         42
   165        367
   166        295
   167         85
   168         45
   172          2
   178         29
   179         39
   180        224
   181         50
   182         19
   183         13
   184          9
   190          1
   191          3
   193          1
   194        419
   195         41
   196         15
   198          6
   209         15
   210        346
   211         38
   212          1
   218          1
   221          3
   224          4
   226         25
   227          2
   234          2
   241        912
   242        100
   243         12