##TITLE=Library Entry 19132
##JCAMP-DX=Revision 4.10 
##DATA TYPE=MASS SPECTRUM
##SAMPLE DESCRIPTION=Japan AIST/NIMC Database- Spectrum MS-NW-3367
##NAMES=HP
##CAS NAME=4-Octene, (E)-
##MOLFORM=C8H16
##CAS REGISTRY NO=14850-23-8
##MP= -300
##BP= -300
##MW= 112
##$RETENTION INDEX=784
##$CONDENSED SPECTRUM=NO
##NPOINTS= 56
##XYDATA=(XY..XY) 1 
    15          7
    18          1
    26         10
    27        158
    28         18
    29        141
    30          3
    36          1
    37          3
    38          9
    39        163
    40         24
    41        779
    42        251
    43        115
    44          4
    49          1
    50         10
    51         22
    52         10
    53         64
    54         71
    55        999
    56        433
    57        118
    58          5
    61          1
    62          3
    63          5
    64          1
    65         14
    66          7
    67         76
    68         37
    69        322
    70        422
    71         44
    72          2
    74          1
    77         11
    78          2
    79         11
    80          2
    81         19
    82         18
    83        287
    84         69
    85          5
    91          2
    95          2
    97         13
    98          1
   110          1
   112        332
   113         31
   114          1