##TITLE=Library Entry 32460
##JCAMP-DX=Revision 4.10 
##DATA TYPE=MASS SPECTRUM
##SAMPLE DESCRIPTION=NIST Mass Spectrometry Data Center, 1990.
##NAMES=HP
##CAS NAME=Cyclododecene, (E)-
##MOLFORM=C12H22
##CAS REGISTRY NO=1486-75-5
##MP= -300
##BP= -300
##MW= 166
##$RETENTION INDEX=1306
##$CONDENSED SPECTRUM=NO
##NPOINTS= 43
##XYDATA=(XY..XY) 1 
    27        181
    28         57
    29        193
    39        459
    40        105
    41        899
    42        147
    43        106
    51         51
    52         36
    53        261
    54        573
    55        770
    56        116
    57         54
    65         98
    66        120
    67        999
    68        372
    69        301
    70         45
    77         79
    78         24
    79        148
    80         89
    81        787
    82        649
    83        222
    84         26
    91         29
    93         37
    95        393
    96        436
    97        106
   109        204
   110         96
   111         16
   123         70
   124         41
   137         22
   138         34
   166        232
   167         27