##TITLE=Library Entry 59899
##JCAMP-DX=Revision 4.10 
##DATA TYPE=MASS SPECTRUM
##SAMPLE DESCRIPTION=NIST Mass Spectrometry Data Center, 1994
##NAMES=HP
##CAS NAME=4-Benzyloxybenzoic acid
##MOLFORM=C14H12O3
##CAS REGISTRY NO=1486-51-7
##MP= -300
##BP= -300
##MW= 228
##$RETENTION INDEX=0
##$CONDENSED SPECTRUM=NO
##NPOINTS= 49
##XYDATA=(XY..XY) 1 
    27         14
    29          7
    31          3
    38          4
    39         59
    42          2
    44          4
    45         14
    50         28
    51         46
    52         10
    53         26
    55          8
    61          6
    62         20
    63         64
    64         28
    65        161
    66         11
    74          7
    75          8
    76         12
    77         34
    78          5
    81         30
    82          3
    87          2
    89         29
    91        999
    92         86
    93          4
   105         44
   106          5
   107          9
   109         10
   115          3
   120         27
   121          6
   132          5
   133         21
   134          3
   137          6
   152          3
   153          3
   161         21
   162          3
   179         10
   228         92
   229         14