##TITLE=Library Entry 67024
##JCAMP-DX=Revision 4.10 
##DATA TYPE=MASS SPECTRUM
##SAMPLE DESCRIPTION=Japan AIST/NIMC Database- Spectrum MS-NW-9878
##NAMES=HP
##CAS NAME=2-Vinylfuran
##MOLFORM=C6H6O
##CAS REGISTRY NO=1487-18-9
##MP= -300
##BP= -300
##MW= 94
##$RETENTION INDEX=725
##$CONDENSED SPECTRUM=NO
##NPOINTS= 54
##XYDATA=(XY..XY) 1 
    14          2
    15          1
    25          2
    26         11
    27         42
    28          2
    29         18
    31          9
    32          3
    33          2
    36          3
    37         26
    38         54
    39        281
    40        166
    41          8
    42          6
    43          5
    46          1
    47         19
    48          1
    49          5
    50         20
    51         29
    52          8
    53          7
    54          2
    55         24
    56          1
    58          2
    59          1
    60          3
    61         15
    62         31
    63         62
    64         18
    65        451
    66        254
    67         14
    68         11
    73          1
    74          3
    75          1
    76          1
    77          5
    78         13
    79          8
    80          1
    91          1
    92          3
    93         17
    94        999
    95         71
    96         11