##TITLE=Library Entry 30596
##JCAMP-DX=Revision 4.10 
##DATA TYPE=MASS SPECTRUM
##SAMPLE DESCRIPTION=R RYHAGE MS-LAB KAROLINSKA INSTITUTET STOCKHOLM SWEDEN
##NAMES=HP
##CAS NAME=2,4,6,8,9,10-Hexathiaadamantane, 1,3,5-trimethyl-
##MOLFORM=C7H10S6
##CAS REGISTRY NO=14870-38-3
##MP= -300
##BP= -300
##MW= 286
##$RETENTION INDEX=0
##$CONDENSED SPECTRUM=NO
##NPOINTS= 153
##XYDATA=(XY..XY) 1 
    12          0
    14          0
    15         10
    16          1
    17         10
    18         49
    25          0
    26          2
    27          4
    28          7
    29          1
    32          3
    33          2
    34          4
    36          0
    37          0
    38          0
    39          2
    40          1
    41          2
    42          1
    43          2
    44         10
    45         41
    46          3
    47          4
    50          0
    51          0
    52          0
    53          2
    54          1
    55          2
    56          0
    57          9
    58         49
    59        999
    60         33
    61         43
    62          1
    64          3
    65          0
    66          0
    67          0
    69          1
    70          0
    71          2
    72          1
    73          1
    74          0
    75          0
    76         12
    77          4
    78          2
    79          2
    81          1
    83          0
    84          0
    85          1
    86          1
    87          0
    88          0
    90          0
    91          6
    92          2
    93          3
    94          0
    95          1
    97          0
    98          0
    99          0
   103          5
   104         11
   105          2
   106          1
   107          0
   108          0
   109          1
   111          0
   113          0
   116          0
   117          9
   118         47
   119          4
   120          4
   121          0
   122          0
   123          1
   125          1
   129          0
   130          1
   131         66
   132          4
   133          5
   134          0
   135          3
   136         55
   137          7
   138          7
   139          1
   140          0
   143          0
   144          0
   145         16
   146          1
   147          2
   149          5
   150        103
   151         10
   152         12
   153          1
   154          0
   158          0
   159          0
   160          0
   161          0
   162          0
   163         44
   164          3
   165          5
   166          0
   167          0
   169          1
   171          0
   173          0
   177          1
   181          0
   183          0
   189          0
   194          0
   195         24
   196          2
   197          4
   198          0
   199          0
   207          3
   208          1
   209          2
   210          0
   211          0
   213          0
   221         15
   222          8
   223          4
   224          1
   227          5
   228          0
   229          1
   231          0
   286         83
   287          9
   288         23
   289          2
   290          2