##TITLE=Library Entry 11182
##JCAMP-DX=Revision 4.10 
##DATA TYPE=MASS SPECTRUM
##SAMPLE DESCRIPTION=NIST Mass Spectrometry Data Center
##NAMES=HP
##CAS NAME=(2S,2'S,5R,5'S)-2,5'-Dimethyl-5-(prop-1-en-2-yl)-5'-vinylhexahydr
o-[2,2'-bifuran]-3(2H)-one
##MOLFORM=C15H22O3
##CAS REGISTRY NO=148709-42-6
##MP= -300
##BP= -300
##MW= 250
##$RETENTION INDEX=1536
##$CONDENSED SPECTRUM=NO
##NPOINTS= 110
##XYDATA=(XY..XY) 1 
    26          3
    27         39
    28          9
    29         34
    30          1
    38          3
    39        121
    40         52
    41        292
    42         51
    43        999
    44         34
    45         15
    46          1
    48          1
    50          8
    51         27
    52         20
    53        189
    54         19
    55        641
    56         43
    57         28
    58          4
    59          4
    61          2
    64          2
    65         66
    66         31
    67        383
    68        275
    69        382
    70         40
    71         38
    72         10
    73          3
    76          2
    77        104
    78         13
    79         89
    80         20
    81        204
    82         64
    83        147
    84         16
    85         34
    91        120
    92         16
    93        689
    94         77
    95         99
    96         50
    97        437
    98         37
    99          9
   104          6
   105         23
   107         38
   108         18
   109        133
   110         36
   111        796
   112         91
   113         22
   114          2
   119         21
   120          8
   121         17
   122         21
   123         43
   124         46
   125         62
   126         15
   131          7
   133          8
   134          8
   135         10
   136          4
   137         16
   138         15
   139         74
   140        786
   141         87
   147          8
   149         24
   151         22
   153         12
   154          2
   155          6
   159          4
   164          4
   165          5
   166         17
   167          9
   170          2
   171          2
   173          2
   177          2
   179          2
   185          2
   193          2
   200          1
   217          1
   219          4
   223          5
   224          1
   233          1
   234          7
   235          5
   236          1