##TITLE=Library Entry 47315
##JCAMP-DX=Revision 4.10 
##DATA TYPE=MASS SPECTRUM
##SAMPLE DESCRIPTION=Chemical Concepts
##NAMES=HP
##CAS NAME=4-Methyl-3,6-diphenyl-5,6-dihydro-4H-[1,2,4,5]oxatriazine
##MOLFORM=C15H15N3O
##CAS REGISTRY NO=148758-55-8
##MP= -300
##BP= -300
##MW= 253
##$RETENTION INDEX=0
##$CONDENSED SPECTRUM=NO
##NPOINTS= 150
##XYDATA=(XY..XY) 1 
    37         12
    38         25
    39        107
    40         12
    41         23
    42         28
    43         65
    44         35
    45         14
    46          8
    47          1
    48          2
    49          8
    50        147
    51        405
    52         83
    53         13
    54          4
    55         17
    56         19
    57         18
    58          1
    59          7
    60          5
    61          6
    62         23
    63         82
    64         52
    65         66
    66         11
    67          4
    68          2
    69          6
    70          3
    71          6
    72          4
    73          8
    74         30
    75         52
    76        193
    77        999
    78        138
    79         77
    80          6
    81          2
    82          3
    83         14
    84          3
    85          8
    86          5
    87          3
    88          9
    89        127
    90        163
    91        146
    92        179
    93         16
    94          2
    95          2
    96          1
    97          1
    98          1
    99          2
   100          2
   101          2
   102         23
   103        281
   104        348
   105        147
   106        112
   107         24
   108          1
   109          1
   110          0
   111          1
   112          0
   113          0
   114          0
   115          1
   116         42
   117         27
   118        795
   119         97
   120         17
   121          3
   122          0
   123          0
   124          0
   125          0
   126          1
   127          0
   129          2
   130          2
   131         42
   132         94
   133        963
   134        136
   135          8
   136          1
   139          0
   140          0
   142          0
   143          1
   144          1
   146          0
   147          0
   148          2
   149          1
   150          8
   151          1
   152          1
   153          0
   155          0
   157          1
   158         15
   159          9
   160         37
   161          3
   162          0
   164          0
   165          5
   166          2
   167          0
   168          0
   173          0
   175          4
   176        208
   177         24
   178          2
   190          0
   191          0
   192          3
   193         23
   194          3
   205          1
   206          0
   220          2
   221          2
   229          1
   234          5
   235         42
   236        704
   237        127
   238         10
   239          0
   251          3
   252         42
   253         53
   254          9
   255          1