##TITLE=Library Entry 39539
##JCAMP-DX=Revision 4.10 
##DATA TYPE=MASS SPECTRUM
##SAMPLE DESCRIPTION=Chemical Concepts
##NAMES=HP
##CAS NAME=3-(4-Bromophenyl)-4,6-dimethyl-5,6-dihydro-4H-[1,2,4,5]oxatriazin
e
##MOLFORM=C10H12BrN3O
##CAS REGISTRY NO=148758-46-7
##MP= -300
##BP= -300
##MW= 269
##$RETENTION INDEX=0
##$CONDENSED SPECTRUM=NO
##NPOINTS= 160
##XYDATA=(XY..XY) 1 
    37         10
    38         22
    39         32
    40         10
    41         26
    42        129
    43        157
    44        115
    45         50
    46          3
    48          0
    49          8
    50        165
    51        102
    52         23
    53          2
    54          1
    55         13
    56         30
    57         36
    58          2
    59          4
    60          2
    61          6
    62         22
    63         31
    64         13
    65          8
    66         15
    67          3
    68          1
    69         12
    70         30
    71        999
    72        102
    73         13
    74         51
    75        209
    76        225
    77         50
    78          4
    79          3
    80          3
    81          2
    82          3
    83          2
    85          3
    86          4
    87          7
    88         16
    89         33
    90         56
    91         10
    92          0
    94          0
    95          1
    97          1
    98          1
    99          7
   100         10
   101          9
   102        293
   103         56
   104         10
   105          4
   106          1
   107          0
   108          0
   109          0
   110          0
   111          1
   114          2
   115          3
   116         34
   117        113
   118         11
   119          6
   120          1
   121          0
   122          0
   123          0
   124          1
   125          0
   126          0
   127          1
   128          0
   129          3
   130          1
   131          3
   132         20
   133          2
   134          0
   137          0
   141          0
   143          1
   145          1
   146          0
   147          1
   148          1
   152          1
   153          0
   154          0
   155         87
   156          5
   157         86
   158          8
   167          0
   168          0
   169         15
   170          1
   171         13
   172          2
   173          8
   174          0
   175          9
   176          1
   181         69
   182         55
   183         78
   184         51
   185          9
   186          0
   189          1
   195          3
   196        189
   197         23
   198        186
   199         18
   200          3
   208          0
   209          2
   210          3
   211          5
   212          2
   213          2
   223          0
   227          0
   229          0
   235          1
   236          9
   237         15
   238         13
   239         13
   240          3
   249          0
   250          2
   251          6
   252        217
   253         29
   254        335
   255         37
   256        139
   257         15
   258          0
   268          9
   269         22
   270         12
   271         21
   272          2
   273          0