##TITLE=Library Entry 96458
##JCAMP-DX=Revision 4.10 
##DATA TYPE=MASS SPECTRUM
##SAMPLE DESCRIPTION=CARL DJERASSI DEPT OF CHEM STANFORD UNIV STANFORD CALIF
 94305
##NAMES=HP
##CAS NAME=N-Methylbenzylamine, TMS derivative
##MOLFORM=C11H19NSi
##CAS REGISTRY NO=14884-70-9
##MP= -300
##BP= -300
##MW= 193
##$RETENTION INDEX=1195
##$CONDENSED SPECTRUM=NO
##NPOINTS= 93
##XYDATA=(XY..XY) 1 
    41         60
    42        280
    43        290
    44        290
    45        360
    46         30
    47         30
    50         40
    51        110
    52         40
    53         30
    54         10
    55         30
    56         40
    57         40
    58         70
    59        370
    60         30
    61         20
    62         10
    63         50
    64         10
    65        190
    66         50
    67         10
    69         10
    70         10
    71         10
    72         40
    73        990
    74        100
    75        230
    76         30
    77        100
    78         40
    79         20
    81         10
    82         10
    86         50
    87         20
    88         20
    89         70
    90         20
    91        540
    92         90
    93         20
    95         10
   100         40
   101         10
   102         40
   103         10
   104         20
   105         40
   106         10
   107         10
   114         10
   115         40
   116        999
   117        120
   118         90
   119         40
   120        240
   121        170
   122         20
   131         30
   132         20
   133         20
   134         10
   135        730
   136        100
   137         20
   145         10
   146         20
   147        320
   148         60
   149        290
   150         40
   151         20
   160         20
   161         10
   162         40
   163         10
   164         70
   165         20
   176         60
   177         20
   178        720
   179        140
   180         40
   192        110
   193        530
   194         90
   195         30