##TITLE=Library Entry 73432
##JCAMP-DX=Revision 4.10 
##DATA TYPE=MASS SPECTRUM
##SAMPLE DESCRIPTION=Chemical Concepts
##NAMES=HP
##CAS NAME=Butanedioic acid, cyclohexyl-
##MOLFORM=C10H16O4
##CAS REGISTRY NO=1489-63-0
##MP= -300
##BP= -300
##MW= 200
##$RETENTION INDEX=0
##$CONDENSED SPECTRUM=NO
##NPOINTS= 103
##XYDATA=(XY..XY) 1 
    26          7
    27         98
    28         13
    29         63
    30          1
    31          5
    36          1
    38          2
    39         89
    40         15
    41        171
    42         15
    43         21
    44          4
    45         33
    50          3
    51         11
    52          8
    53         41
    54         47
    55        244
    56         17
    57         11
    58          6
    59          2
    60          9
    61          1
    63          4
    65         16
    66          7
    67        133
    68         19
    69         14
    70          5
    71          8
    72         54
    73         78
    74          5
    75          1
    77         19
    78          5
    79         44
    80         19
    81         86
    82         46
    83         90
    84          9
    85          3
    86          3
    87          2
    91         15
    92          6
    93         29
    94         22
    95         53
    96          5
    97         12
    98          4
    99          8
   100        999
   101         77
   102          7
   103          1
   105          3
   107          7
   108          7
   109         13
   110         14
   111          7
   112          3
   113          1
   116          1
   117          6
   118        813
   119         46
   120          8
   121          3
   122          5
   123         24
   124          2
   125          2
   126          1
   127          2
   128          1
   135          5
   136         27
   137         25
   138          5
   139          2
   140          6
   141        110
   142         10
   143          1
   148          2
   153          4
   154         14
   155          2
   163          1
   164         19
   165          1
   181          2
   182          9
   183          6