##TITLE=Library Entry 50615
##JCAMP-DX=Revision 4.10 
##DATA TYPE=MASS SPECTRUM
##SAMPLE DESCRIPTION=Chemical Concepts
##NAMES=HP
##CAS NAME=2-Cyclohexene-1-carboxylic acid, 1-methyl-4-oxo-, ethyl ester
##MOLFORM=C10H14O3
##CAS REGISTRY NO=1489-55-0
##MP= -300
##BP= -300
##MW= 182
##$RETENTION INDEX=0
##$CONDENSED SPECTRUM=NO
##NPOINTS= 98
##XYDATA=(XY..XY) 1 
    26         34
    27        272
    28         36
    29        593
    30         20
    31          6
    37          6
    38         21
    39        183
    40         43
    41        207
    42         37
    43         58
    44          3
    45         11
    49          2
    50         41
    51         91
    52         93
    53        312
    54         37
    55        117
    56          8
    57          5
    58          2
    59          2
    60          3
    61          5
    62          8
    63         21
    64          7
    65         77
    66         72
    67         56
    68         60
    69         32
    70         22
    71          8
    72          1
    73          3
    74          2
    75          5
    76          2
    77        101
    78         26
    79        316
    80        122
    81        999
    82        102
    83         17
    84          6
    85          3
    86          2
    87          2
    88          1
    89          1
    90          1
    91         18
    92          9
    93         10
    94         14
    95        470
    96         51
    97         52
    98        517
    99         35
   100          9
   107         18
   108         67
   109        891
   110        499
   111         53
   112         10
   113          2
   114          1
   115          1
   121          1
   123         11
   124          1
   125          4
   126        143
   127         13
   128          3
   135          1
   136          6
   137         11
   138          8
   139          4
   140          1
   153          1
   154        294
   155         25
   156          2
   167          9
   168          1
   182         47
   183          5
   184          0