##TITLE=Library Entry 83615
##JCAMP-DX=Revision 4.10 
##DATA TYPE=MASS SPECTRUM
##SAMPLE DESCRIPTION=Japan AIST/NIMC Database- Spectrum MS-IW-1513
##NAMES=HP
##CAS NAME=Benzenemethanol, .alpha.-(1-methylethyl)-, (R)-
##MOLFORM=C10H14O
##CAS REGISTRY NO=14898-86-3
##MP= -300
##BP= -300
##MW= 150
##$RETENTION INDEX=0
##$CONDENSED SPECTRUM=NO
##NPOINTS= 72
##XYDATA=(XY..XY) 1 
    15          2
    17          1
    18          4
    26          1
    27         31
    28          4
    29         14
    31          3
    37          1
    38          4
    39         33
    40          3
    41         23
    42          3
    43         37
    44          1
    45          2
    50         15
    51         56
    52         15
    53         12
    54          1
    55          8
    56          1
    57         11
    58          2
    62          3
    63          9
    64          3
    65          9
    66          2
    71          2
    73          1
    74          4
    75          4
    76          5
    77        187
    78         36
    79        456
    80         30
    81          1
    86          1
    87          1
    89          6
    90          3
    91         28
    92          4
    93          1
   102          2
   103          4
   104          1
   105         59
   106         11
   107        999
   108         80
   109          5
   115         13
   116          4
   117         21
   118          6
   119          1
   120          1
   128          1
   129          1
   131          2
   132          4
   133          6
   134          2
   135          3
   149          1
   150         59
   151          6