##TITLE=Library Entry 85621
##JCAMP-DX=Revision 4.10 
##DATA TYPE=MASS SPECTRUM
##SAMPLE DESCRIPTION=Chemical Concepts
##NAMES=HP
##CAS NAME=3-(2-Acetamidophenoxy)butyric acid, ethyl ester
##MOLFORM=C14H19NO4
##CAS REGISTRY NO=148901-02-4
##MP= -300
##BP= -300
##MW= 265
##$RETENTION INDEX=0
##$CONDENSED SPECTRUM=NO
##NPOINTS= 153
##XYDATA=(XY..XY) 1 
    35          1
    36          1
    37          1
    38          5
    39         54
    40          9
    41        123
    42         51
    43        504
    44         24
    45        105
    46          2
    47          1
    50          7
    51         25
    52         69
    53         66
    54         18
    55         45
    56         77
    57         16
    58          4
    59          5
    60         95
    61          7
    62          1
    63         11
    64         13
    65         40
    66          7
    67         14
    68          6
    69        142
    70         18
    71          6
    72          2
    73        138
    74          7
    75          4
    76          2
    77          9
    78         15
    79         34
    80        195
    81         33
    82         13
    83         17
    84          3
    85          7
    86          5
    87         38
    88          3
    89          2
    90          3
    91         11
    92         18
    93         22
    94          8
    95          3
    96          2
    97          6
    98         49
    99         15
   100          6
   101          1
   102          0
   103         11
   104          3
   105          4
   106          5
   107          4
   108        173
   109        999
   110         77
   111          5
   112          3
   113          1
   114          1
   115         73
   116          6
   117          1
   118          1
   119          2
   120         24
   121          4
   122          7
   123          2
   124          1
   125          1
   126          9
   127          1
   128          0
   129          0
   131          1
   132          1
   133         21
   134         27
   135         16
   136         28
   137         29
   138          3
   139          1
   140         10
   141          8
   142          4
   143          1
   146          0
   147          1
   148          3
   149          3
   150          9
   151         70
   152         33
   153          3
   154          1
   160          3
   161          0
   162          1
   163          1
   164          0
   165          1
   167          0
   168          1
   169          0
   176          4
   177          3
   178         13
   179         21
   180          3
   181          0
   183          0
   185         42
   186          4
   187          0
   190          0
   191          2
   192          1
   205          1
   206          0
   207          0
   208          1
   220         14
   221          2
   222          1
   223         11
   224          2
   236          0
   237          0
   247          0
   251          0
   265        138
   266         26
   267          3