##TITLE=Library Entry 53452
##JCAMP-DX=Revision 4.10 
##DATA TYPE=MASS SPECTRUM
##SAMPLE DESCRIPTION=Japan AIST/NIMC Database- Spectrum MS-NW-4591
##NAMES=HP
##CAS NAME=DL-Proline, 5-oxo-
##MOLFORM=C5H7NO3
##CAS REGISTRY NO=149-87-1
##MP= -300
##BP= -300
##MW= 129
##$RETENTION INDEX=0
##$CONDENSED SPECTRUM=NO
##NPOINTS= 49
##XYDATA=(XY..XY) 1 
    13          1
    14          4
    15          9
    16          1
    17          7
    18         29
    25          3
    26         22
    27         53
    28        273
    29         30
    30         20
    31          2
    32          1
    36          2
    37          4
    38          6
    39         30
    40          9
    41        261
    42         15
    43          6
    44         10
    45         30
    46          3
    51          3
    52          7
    53          4
    54         20
    55         29
    56        131
    57          9
    58          1
    60          1
    66          9
    67          1
    68          4
    69          3
    71          1
    73         15
    74          5
    82          4
    83         10
    84        999
    85         51
    86          4
   101          7
   129         54
   130          3