##TITLE=Library Entry 41680
##JCAMP-DX=Revision 4.10 
##DATA TYPE=MASS SPECTRUM
##SAMPLE DESCRIPTION=NIST Mass Spectrometry Data Center, 1998.
##NAMES=HP
##CAS NAME=Hexanoic acid, 2-ethyl-
##MOLFORM=C8H16O2
##CAS REGISTRY NO=149-57-5
##MP= -300
##BP= -300
##MW= 144
##$RETENTION INDEX=1124
##$CONDENSED SPECTRUM=NO
##NPOINTS= 74
##XYDATA=(XY..XY) 1 
    15          1
    19          1
    26          8
    27        125
    29        151
    30          1
    31         10
    37          1
    38          5
    39        146
    40         23
    41        369
    42         65
    43        188
    44          9
    45        125
    46          1
    47          1
    50          5
    51         13
    52          4
    53         42
    54         14
    55        267
    56         52
    57        356
    58         17
    59         32
    60         21
    61          1
    62          1
    63          1
    65          5
    66          1
    67         12
    68         16
    69         85
    70         35
    71         15
    72          1
    73        999
    74         51
    75          5
    77          3
    79          3
    81          4
    82          1
    83         22
    84          1
    85          5
    86         11
    87        230
    88        922
    89         44
    90          4
    95          1
    97         14
    98         11
    99          5
   100          1
   101        191
   102         12
   103          1
   109          1
   113          1
   115        114
   116        158
   117         11
   118          1
   125          1
   127          2
   129          6
   144          1
   145          1