##TITLE=Library Entry 87038
##JCAMP-DX=Revision 4.10 
##DATA TYPE=MASS SPECTRUM
##SAMPLE DESCRIPTION=L. DUSOLD, FDA, WASHINGTON, D.C., USA
##NAMES=HP
##CAS NAME=Patulin
##MOLFORM=C7H6O4
##CAS REGISTRY NO=149-29-1
##MP= -300
##BP= -300
##MW= 154
##$RETENTION INDEX=0
##$CONDENSED SPECTRUM=NO
##NPOINTS= 44
##XYDATA=(XY..XY) 1 
    27        561
    28        307
    29        361
    37         72
    38        144
    39        153
    41        162
    42        135
    43        371
    44        135
    45         54
    50         63
    51        126
    52        199
    53        678
    54        434
    55        932
    56        162
    57         27
    61         49
    66         81
    69        298
    70        162
    71        217
    80         99
    81         81
    82        533
    83        217
    84        180
    97        280
    98        144
    99         54
   108         90
   109          9
   110        999
   111        117
   112         63
   125        194
   126        574
   127         58
   136        235
   137        122
   154        547
   155         63