##TITLE=Library Entry 31179
##JCAMP-DX=Revision 4.10 
##DATA TYPE=MASS SPECTRUM
##SAMPLE DESCRIPTION=NIST Mass Spectrometry Data Center, 1998.
##NAMES=HP
##CAS NAME=Erythritol
##MOLFORM=C4H10O4
##CAS REGISTRY NO=149-32-6
##MP= -300
##BP= -300
##MW= 122
##$RETENTION INDEX=0
##$CONDENSED SPECTRUM=NO
##NPOINTS= 36
##XYDATA=(XY..XY) 1 
    14          8
    15         38
    27         77
    29        105
    30         22
    31        236
    38          9
    39         13
    41         10
    42        134
    43        560
    44        896
    45        273
    47         28
    55         72
    56        142
    57         36
    58         18
    59         18
    60        163
    61        999
    62         64
    63          6
    69          7
    71         13
    72          8
    73        110
    74        117
    75         37
    76          7
    86          6
    87          5
    90          7
    91        139
   101         19
   104          9