##TITLE=Library Entry 88137
##JCAMP-DX=Revision 4.10 
##DATA TYPE=MASS SPECTRUM
##SAMPLE DESCRIPTION=Chemical Concepts
##NAMES=HP
##CAS NAME=Cyclooctane, tetradecyl-
##MOLFORM=C22H44
##CAS REGISTRY NO=149003-36-1
##MP= -300
##BP= -300
##MW= 308
##$RETENTION INDEX=2340
##$CONDENSED SPECTRUM=NO
##NPOINTS= 134
##XYDATA=(XY..XY) 1 
    26          1
    27         17
    29         59
    30          1
    37          0
    38          0
    39         14
    40          4
    41        162
    42         31
    43        193
    44          5
    50          0
    51          0
    52          0
    53          8
    54         23
    55        286
    56         72
    57        159
    58          7
    61          0
    63          0
    65          2
    66          6
    67         49
    68         40
    69        638
    70         77
    71         65
    72          3
    77          2
    78          0
    79          5
    80          2
    81         44
    82        101
    83        135
    84         30
    85         37
    86          2
    91          1
    92          0
    93          1
    94          0
    95         19
    96         30
    97        110
    98         20
    99          9
   100          0
   105          1
   107          0
   108          0
   109          5
   110        115
   111        999
   112         95
   113          8
   114          0
   117          0
   121          0
   122          0
   123          2
   124          6
   125         24
   126          8
   127          3
   132          1
   133          1
   134          0
   135          0
   136          0
   137          1
   138          4
   139         12
   140          5
   141          1
   145          0
   148          0
   151          0
   152          2
   153          8
   154          4
   155          1
   159          0
   165          0
   166          1
   167          5
   168          3
   169          1
   175          0
   178          0
   180          1
   181          3
   182          2
   183          0
   194          1
   195          2
   196          2
   197          0
   208          1
   209          1
   210          1
   211          0
   213          0
   214          3
   215          0
   218          0
   219          0
   222          1
   223          2
   224          1
   225          0
   230          0
   236          0
   237          1
   238          0
   239          0
   250          0
   251          0
   252          1
   265          0
   266          0
   278          0
   279          0
   280          4
   281          0
   296          0
   306          0
   307          0
   308         14
   309          3
   310          0