##TITLE=Library Entry 24375
##JCAMP-DX=Revision 4.10 
##DATA TYPE=MASS SPECTRUM
##SAMPLE DESCRIPTION=E.D.MCCARTHY CALIFORNIA UNIV., BERKELEY, U.S.A
##NAMES=HP
##CAS NAME=Tetradecane, 2,6,10-trimethyl-
##MOLFORM=C17H36
##CAS REGISTRY NO=14905-56-7
##MP= -300
##BP= -300
##MW= 240
##$RETENTION INDEX=1539
##$CONDENSED SPECTRUM=NO
##NPOINTS= 112
##XYDATA=(XY..XY) 1 
    41        384
    42        102
    43        782
    44         40
    45          1
    53         26
    54         21
    55        282
    56        256
    57        999
    58         49
    59          4
    60          9
    64         14
    65          8
    66          5
    67         37
    68         25
    69        147
    70        109
    71        641
    72         36
    73          9
    74          4
    76          4
    77          8
    78          5
    79         14
    80          6
    81         32
    82         18
    83         62
    84        179
    85        500
    86         32
    87          4
    91         12
    92          5
    93          9
    94          6
    95         25
    96         22
    97         70
    98         36
    99         91
   100          9
   104          4
   105          6
   106          4
   107          6
   108          5
   109         14
   110         10
   111         31
   112         28
   113        128
   114         13
   115          5
   117          4
   118          2
   119          5
   120          4
   121          8
   122          4
   123         12
   124          6
   125         13
   126         31
   127         44
   128          6
   129          4
   133          4
   135          6
   136          4
   137          8
   138          4
   139          5
   140          6
   141         17
   142          4
   143          4
   147          4
   149         10
   150          4
   151          5
   152          4
   153          4
   154         47
   155        134
   156         16
   157          2
   163          4
   165          4
   167          4
   168          5
   169          8
   177          4
   182         20
   183         63
   184         10
   196          4
   197          9
   198          2
   207          2
   210          4
   211          8
   212          2
   225         10
   226          2
   238          1
   239          1
   240          8