##TITLE=Library Entry 85614
##JCAMP-DX=Revision 4.10 
##DATA TYPE=MASS SPECTRUM
##SAMPLE DESCRIPTION=Exported from NIST MS Search
##NAMES=HP
##CAS NAME=3,8-Decanedione, 2,9-dimethyl-
##MOLFORM=C12H22O2
##CAS REGISTRY NO=1490-37-5
##MP= -300
##BP= -300
##MW= 198
##$RETENTION INDEX=0
##$CONDENSED SPECTRUM=NO
##NPOINTS= 36
##XYDATA=(XY..XY) 1 
    41        220
    42         30
    43        950
    44         20
    55        100
    56         10
    57         40
    58         10
    67         70
    68         20
    69         80
    70         20
    71        500
    72         20
    82         20
    84         10
    86         20
    87         50
    88         10
    95        150
    99         10
   100         10
   109        999
   110         80
   112        170
   113         70
   127         30
   128         20
   137         80
   138         10
   155        110
   156         10
   180         20
   181         20
   198        100
   199         20