##TITLE=Library Entry 40751
##JCAMP-DX=Revision 4.10 
##DATA TYPE=MASS SPECTRUM
##SAMPLE DESCRIPTION=E. Zissis, LC, NIDDK, NIH, Bethesda, MD 20892
##NAMES=HP
##CAS NAME=.beta.-D-Glucosyloxyazoxymethane
##MOLFORM=C8H16N2O7
##CAS REGISTRY NO=14901-08-7
##MP= -300
##BP= -300
##MW= 252
##$RETENTION INDEX=0
##$CONDENSED SPECTRUM=NO
##NPOINTS= 59
##XYDATA=(XY..XY) 1 
    41        112
    42        307
    43        753
    44        164
    45        786
    46         74
    47         45
    49         12
    53         48
    55        160
    56         97
    57        285
    59        201
    60        449
    61        250
    62         34
    65         14
    68         14
    69        111
    70         46
    71        206
    72         50
    73        999
    74        135
    75         40
    77         44
    78         14
    80         12
    82         12
    83         51
    84         17
    85        154
    86        120
    87         81
    89         55
    90         16
    91         37
    93         14
    95         12
    97         86
    98         23
    99         45
   101         85
   103        172
   106         12
   113         35
   115         64
   116         13
   119        104
   124         12
   127         45
   131         48
   133         35
   143         47
   144         55
   145         48
   149         55
   163         18
   185         11