##TITLE=Library Entry 38985
##JCAMP-DX=Revision 4.10 
##DATA TYPE=MASS SPECTRUM
##SAMPLE DESCRIPTION=Japan AIST/NIMC Database- Spectrum MS-IW-6818
##NAMES=HP
##CAS NAME=Cyclohexanol, 5-methyl-2-(1-methylethyl)-
##MOLFORM=C10H20O
##CAS REGISTRY NO=1490-04-6
##MP= -300
##BP= -300
##MW= 156
##$RETENTION INDEX=1169
##$CONDENSED SPECTRUM=NO
##NPOINTS= 87
##XYDATA=(XY..XY) 1 
    15          5
    17          2
    18          7
    26          2
    27        104
    28         16
    29        120
    30          3
    31         26
    38          3
    39         97
    40         17
    41        369
    42         60
    43        293
    44         31
    45         23
    46          1
    50          3
    51         11
    52          6
    53         71
    54         42
    55        455
    56        209
    57        260
    58         29
    59         15
    63          3
    64          1
    65         16
    66          8
    67        332
    68        154
    69        368
    70        128
    71        999
    72         65
    73         13
    77         22
    78          5
    79         39
    80        119
    81        923
    82        448
    83        162
    84         38
    85        100
    86         46
    87          6
    91         12
    92          2
    93         34
    94         60
    95        887
    96        348
    97         57
    98          6
    99         47
   100          9
   101          1
   105          2
   107          4
   108          3
   109        136
   110         74
   111         19
   112         29
   113         17
   114          2
   117          1
   119          2
   121          3
   122          1
   123        380
   124         37
   125          5
   136          1
   137         10
   138        302
   139         42
   140          2
   141          9
   142          1
   154          3
   155          3
   156          1