##TITLE=Library Entry 90081
##JCAMP-DX=Revision 4.10 
##DATA TYPE=MASS SPECTRUM
##SAMPLE DESCRIPTION=Exported from NIST MS Search
##NAMES=HP
##CAS NAME=2-Propanethione, 1,1,1,3,3,3-hexafluoro-
##MOLFORM=C3F6S
##CAS REGISTRY NO=1490-33-1
##MP= -300
##BP= -300
##MW= 182
##$RETENTION INDEX=0
##$CONDENSED SPECTRUM=NO
##NPOINTS= 56
##XYDATA=(XY..XY) 1 
    12         41
    19          9
    24          5
    31        225
    32        122
    38          9
    43          7
    44        103
    45          3
    46          5
    47          4
    48          5
    50         56
    51          5
    55          4
    56         12
    62          5
    63        486
    64         21
    65         22
    69        553
    70          6
    74          6
    75         18
    76        142
    77          2
    81         10
    82         65
    83          2
    84          3
    93         32
    94        151
    95          9
    96          7
    97         20
   100         26
   112         13
   113        999
   114         28
   115         45
   119          7
   131         16
   132        121
   133          5
   134          5
   145          5
   147          7
   150         11
   163        177
   164         10
   165          8
   166          1
   181         16
   182        468
   183         17
   184         21