##TITLE=Library Entry 28864
##JCAMP-DX=Revision 4.10 
##DATA TYPE=MASS SPECTRUM
##SAMPLE DESCRIPTION=Japan AIST/NIMC Database- Spectrum MS-NW-6728
##NAMES=HP
##CAS NAME=1-Phenyl-3-(2-thiazolyl)-2-thiourea
##MOLFORM=C10H9N3S2
##CAS REGISTRY NO=14901-16-7
##MP= -300
##BP= -300
##MW= 235
##$RETENTION INDEX=0
##$CONDENSED SPECTRUM=NO
##NPOINTS= 152
##XYDATA=(XY..XY) 1 
    12          2
    13          1
    14          1
    15          2
    24          1
    25          4
    26         20
    27         30
    28          8
    32         73
    33         52
    34        140
    35          3
    36          7
    37         23
    38         52
    39        126
    40         44
    41         30
    42          9
    43          9
    44         36
    45        121
    46         32
    47          8
    48          2
    49          7
    50         76
    51        244
    52         50
    53         21
    54         22
    55         28
    56          8
    57         98
    58        999
    59         68
    60         53
    61         12
    62         20
    63         50
    64         40
    65        141
    66        187
    67         25
    68          3
    69          6
    70         50
    71         21
    72         12
    73         74
    74         26
    75         23
    76         57
    77        412
    78         46
    79          2
    80         11
    81          1
    82          7
    83         14
    84         29
    85        110
    86          9
    87          7
    88          4
    89          3
    90         13
    91         26
    92         67
    93        699
    94         50
    95          2
    96          2
    97          4
    98         13
    99          9
   100        848
   101         48
   102         44
   103         61
   104         33
   105          4
   107          1
   108          6
   109         50
   110          7
   111         12
   112          1
   114          1
   115          1
   116         10
   117         13
   118         38
   119         11
   120          1
   121          2
   122          1
   123          2
   124          9
   125          6
   126         10
   127          1
   128          1
   129         25
   130          4
   131          4
   132          1
   133          1
   134          4
   135         91
   136         66
   137          9
   138          3
   141          1
   142        507
   143         86
   144         72
   145          9
   146          2
   147          3
   148          9
   149          4
   150          2
   156          4
   157          2
   160          2
   161          9
   162          1
   163          2
   168          1
   173          1
   174         16
   175         27
   176          7
   177          2
   193          1
   194          6
   195          1
   199          1
   200         33
   201        727
   202        117
   203         47
   204          6
   207          2
   234          6
   235        213
   236         30
   237         21
   238          3
   239          1