##TITLE=Library Entry 5227
##JCAMP-DX=Revision 4.10 
##DATA TYPE=MASS SPECTRUM
##SAMPLE DESCRIPTION=A.A.Kutin, Moscow, Russia
##NAMES=HP
##CAS NAME=Methanone, (1,3,5-triazaadamantan-7-yl)(4-methoxyphenyl)-
##MOLFORM=C15H19N3O2
##CAS REGISTRY NO=149034-80-0
##MP= -300
##BP= -300
##MW= 273
##$RETENTION INDEX=0
##$CONDENSED SPECTRUM=NO
##NPOINTS= 225
##XYDATA=(XY..XY) 1 
    33         25
    34         12
    35          1
    36          3
    37          2
    38         16
    39         65
    40        197
    41        133
    42        999
    43         66
    44         88
    45          7
    46          1
    47          0
    48          1
    49          1
    50         20
    51         18
    52         11
    53         28
    54         17
    55         46
    56         13
    57         14
    58         12
    59          3
    60          1
    61          2
    62          7
    63         35
    64         49
    65         15
    66         11
    67         26
    68         46
    69         45
    70         12
    71          9
    72          1
    73          1
    74          4
    75          9
    76         24
    77        123
    78         20
    79         13
    80         33
    81         27
    82         38
    83        100
    84         12
    85          5
    86          0
    87          2
    88          1
    89          5
    90          3
    91         17
    92         81
    93         11
    94          9
    95         12
    96         19
    97         11
    98          6
    99          7
   100          1
   101          3
   102          3
   103          6
   104         10
   105          7
   106          6
   107         42
   108         12
   109         33
   110          8
   111         11
   112          3
   113          1
   114          1
   115         10
   116          3
   117          4
   118          2
   119          6
   121        201
   122         18
   123          5
   124         13
   125          3
   126          1
   127          3
   128          2
   129          2
   130          3
   131          5
   132          4
   133          9
   135        313
   136         27
   137          8
   138         59
   139          7
   140          1
   141          1
   142          1
   143          3
   144          6
   145         24
   146          5
   147          4
   148          3
   149          4
   150          4
   151          2
   152          2
   153          1
   154          1
   155          0
   156          0
   157          1
   158          2
   159          7
   160         11
   161          9
   162          4
   163          1
   164          1
   165          1
   166          0
   167          1
   168          0
   169          1
   170          1
   171          3
   172          7
   173          5
   174         13
   175         26
   176         12
   177          5
   178          3
   179          1
   180          2
   181          1
   182          0
   183          0
   184          1
   185          1
   186          8
   187          4
   188         17
   189         12
   190          3
   191          1
   192          0
   194          0
   196          0
   197          0
   198          0
   200          4
   201          5
   202         40
   203         11
   204         36
   205          5
   206          2
   207          0
   208          1
   209          1
   210          0
   211          0
   213          2
   214          5
   215          7
   216         16
   217         10
   218         56
   219          7
   220          0
   221          0
   223          0
   224          1
   225          0
   226          0
   227          1
   228          2
   229          3
   230          6
   231         10
   232          2
   233          0
   234          0
   235          0
   238          0
   240          0
   241          0
   242          2
   243         12
   244         24
   245        116
   246         18
   247          2
   251          0
   252          1
   254          0
   255          0
   257          0
   258          0
   259          0
   264          0
   266          0
   267          0
   268          0
   269          2
   270          4
   271          6
   272         10
   273        199
   274         32
   275          3
   276          0
   278          0