##TITLE=Library Entry 87546
##JCAMP-DX=Revision 4.10 
##DATA TYPE=MASS SPECTRUM
##SAMPLE DESCRIPTION=J.E. DOOLEY, U.S. BUREAU OF MINES, BARTLESVILLE, OKLA.,
 USA
##NAMES=HP
##CAS NAME=Benzene, [(1-methylpropyl)thio]-
##MOLFORM=C10H14S
##CAS REGISTRY NO=14905-79-4
##MP= -300
##BP= -300
##MW= 166
##$RETENTION INDEX=1282
##$CONDENSED SPECTRUM=NO
##NPOINTS= 120
##XYDATA=(XY..XY) 1 
    24          0
    25          1
    26         25
    27        159
    28         22
    29        242
    30          5
    32          1
    33          1
    34          1
    35          1
    36          0
    37          7
    38         19
    39        163
    40         10
    41        165
    42          8
    43          1
    44          0
    45         60
    46          2
    47          5
    48          0
    49          2
    50         34
    51         80
    52          9
    53         13
    54          1
    55         28
    56          9
    57        117
    58         19
    59         43
    60          6
    61          6
    62          6
    63         16
    64          3
    65        109
    66         60
    67          3
    68          0
    69         55
    70          4
    71          9
    72          1
    73          6
    74          8
    75          6
    76          5
    77         57
    78         14
    79          3
    80          0
    81          6
    82         13
    83          8
    84         23
    85          2
    86          1
    87          1
    88          0
    89          1
    90          0
    91          9
    92          0
    93          2
    94          0
    95          1
    96          0
    97          1
   101          0
   102          1
   103         10
   104          9
   105          2
   106          0
   107          1
   108         17
   109        148
   110        999
   111         84
   112         47
   113          3
   114          0
   115          1
   116          0
   117          1
   118          0
   121          3
   122          0
   123         15
   124          1
   125          0
   128          0
   131          0
   133          1
   134          3
   135         13
   136          2
   137        106
   138         10
   139          2
   140          0
   147          0
   148          0
   149          2
   150          0
   151          5
   152          0
   153          0
   163          0
   164          0
   165          1
   166        324
   167         38
   168         16
   169          1