##TITLE=Library Entry 80857
##JCAMP-DX=Revision 4.10 
##DATA TYPE=MASS SPECTRUM
##SAMPLE DESCRIPTION=TNO Volatile Compounds in Food - Chemical Concepts
##NAMES=HP
##CAS NAME=Ylangene
##MOLFORM=C15H24
##CAS REGISTRY NO=14912-44-8
##MP= -300
##BP= -300
##MW= 204
##$RETENTION INDEX=1372
##$CONDENSED SPECTRUM=NO
##NPOINTS= 99
##XYDATA=(XY..XY) 1 
    26          3
    27        168
    29         86
    38          5
    39        170
    41        505
    42         36
    43        207
    50          6
    51         48
    52         19
    53        131
    54         18
    55        279
    56         54
    57         40
    58          4
    63         14
    64          9
    65         98
    66         19
    67        109
    68         19
    69        146
    70         30
    71          8
    74          2
    75          2
    76          3
    77        225
    78         61
    79        200
    80         59
    81        244
    82         21
    83         18
    84          4
    85          3
    89         11
    90          3
    91        456
    92        406
    93        816
    94        152
    95         68
    96          7
    97         10
   102          7
   103         40
   104         29
   105        999
   106        234
   107        286
   108        111
   109         36
   110          8
   115         57
   116         25
   117         76
   118         31
   119        876
   120        761
   121        276
   122         44
   123         19
   127         11
   128         36
   129         37
   130         16
   131         49
   132         21
   133        133
   134         78
   135         31
   136        151
   137         17
   141          9
   142          5
   143          7
   144          4
   145         31
   146         14
   147         73
   148         53
   149         24
   150          7
   157          3
   159         15
   160         16
   161        668
   162         94
   163          9
   175          9
   176          4
   183          2
   189         73
   190         12
   204        243
   205         40