##TITLE=Library Entry 2737
##JCAMP-DX=Revision 4.10 
##DATA TYPE=MASS SPECTRUM
##SAMPLE DESCRIPTION=NIST Mass Spectrometry Data Center, 1990.
##NAMES=HP
##CAS NAME=3-Octene, (E)-
##MOLFORM=C8H16
##CAS REGISTRY NO=14919-01-8
##MP= -300
##BP= -300
##MW= 112
##$RETENTION INDEX=789
##$CONDENSED SPECTRUM=NO
##NPOINTS= 41
##XYDATA=(XY..XY) 1 
    14          6
    15         11
    26         23
    27        250
    28         12
    29        172
    31          4
    37          6
    38         29
    39        361
    40          4
    41        999
    42        300
    43        110
    44         13
    50         23
    51         46
    52         22
    53        114
    54         92
    55        836
    56        437
    57        117
    63         10
    65         29
    66         11
    67        114
    68         62
    69        393
    70        399
    71         37
    77         17
    78          4
    79         16
    81         11
    82         20
    83        164
    84         60
    97         13
   112        258
   113         23