##TITLE=Library Entry 32550
##JCAMP-DX=Revision 4.10 
##DATA TYPE=MASS SPECTRUM
##SAMPLE DESCRIPTION=Japan AIST/NIMC Database- Spectrum MS-NW-2218
##NAMES=HP
##CAS NAME=3-Heptyn-1-ol
##MOLFORM=C7H12O
##CAS REGISTRY NO=14916-79-1
##MP= -300
##BP= -300
##MW= 112
##$RETENTION INDEX=0
##$CONDENSED SPECTRUM=NO
##NPOINTS= 68
##XYDATA=(XY..XY) 1 
    14          1
    15          6
    17          6
    18         30
    26         15
    27        155
    28         14
    29         87
    30          3
    31        188
    32          2
    37          8
    38         17
    39        181
    40         51
    41        301
    42         59
    43         53
    44         10
    45          7
    49          4
    50         36
    51         74
    52         79
    53        320
    54        282
    55        138
    56         21
    57         20
    58          5
    60          1
    61          4
    62          9
    63         19
    64          5
    65         93
    66         62
    67        999
    68         66
    69         45
    70         24
    71         10
    72          1
    73          1
    74          4
    75          3
    77         89
    78         12
    79        175
    80         17
    81        114
    82        155
    83         46
    84         46
    85          3
    91         16
    92          2
    93         16
    94         18
    95          5
    96          2
    97         34
    98          2
    99          1
   110          4
   111          6
   112         85
   113          6