##TITLE=Library Entry 18773
##JCAMP-DX=Revision 4.10 
##DATA TYPE=MASS SPECTRUM
##SAMPLE DESCRIPTION=Japan AIST/NIMC Database- Spectrum MS-NW-3397
##NAMES=HP
##CAS NAME=3-Octyn-1-ol
##MOLFORM=C8H14O
##CAS REGISTRY NO=14916-80-4
##MP= -300
##BP= -300
##MW= 126
##$RETENTION INDEX=0
##$CONDENSED SPECTRUM=NO
##NPOINTS= 92
##XYDATA=(XY..XY) 1 
    14          1
    15         13
    17          2
    18          7
    25          1
    26         23
    27        341
    28         16
    29        135
    30          7
    31        283
    32          4
    33          1
    36          1
    37         11
    38         30
    39        336
    40         90
    41        576
    42         87
    43        186
    44         24
    45         49
    46          2
    49          5
    50         57
    51        137
    52        161
    53        519
    54        999
    55        543
    56        155
    57         48
    58          9
    59          7
    60          2
    61          8
    62         17
    63         45
    64         10
    65        169
    66        154
    67        510
    68        119
    69        311
    70         38
    71         18
    72          3
    73          4
    74          7
    75         16
    76          3
    77        165
    78         33
    79        223
    80         60
    81        325
    82        156
    83        215
    84        604
    85         45
    86          4
    87          1
    89          2
    90          1
    91         72
    92          9
    93        214
    94         26
    95        204
    96         33
    97        124
    98         21
    99          8
   100          1
   103          1
   105          6
   106          1
   107         13
   108         15
   109          8
   110          2
   111         37
   112          6
   113          1
   121          3
   122          1
   123          1
   124          1
   125          5
   126         16
   127          2