##TITLE=Library Entry 87290
##JCAMP-DX=Revision 4.10 
##DATA TYPE=MASS SPECTRUM
##SAMPLE DESCRIPTION=Exported from NIST MS Search
##NAMES=HP
##CAS NAME=2-Hexenoic acid, 3,4,4-trimethyl-5-oxo-, (Z)-
##MOLFORM=C9H14O3
##CAS REGISTRY NO=14919-56-3
##MP= -300
##BP= -300
##MW= 170
##$RETENTION INDEX=0
##$CONDENSED SPECTRUM=NO
##NPOINTS= 89
##XYDATA=(XY..XY) 1 
    37          7
    38         17
    39        202
    40         48
    41        215
    42         59
    43        246
    44         19
    45         24
    47          7
    50         13
    51         30
    52         17
    53         70
    54         39
    55         61
    56         13
    57         30
    58          4
    59          8
    60          7
    61          7
    62          4
    63         13
    64          4
    65         35
    66         17
    67        355
    68         35
    69         33
    70          8
    71         35
    72          7
    73          2
    74          2
    75          1
    76          1
    77         19
    78          6
    79         30
    80          8
    81         70
    82         96
    83         42
    84          8
    85         17
    86         15
    87          4
    88          2
    91         16
    92          2
    93          7
    94          4
    95        589
    96         39
    97          8
    98          1
    99          7
   101          2
   105          8
   106          1
   107          4
   108         15
   109        156
   110        999
   111         83
   112          8
   113          7
   115          1
   117          2
   119          2
   123          5
   124          1
   125          8
   126          1
   127         15
   128          2
   134          2
   136          2
   138          1
   149         15
   150          2
   151          2
   152         74
   153         15
   154          1
   155          7
   156          1
   170          1