##TITLE=Library Entry 53298
##JCAMP-DX=Revision 4.10 
##DATA TYPE=MASS SPECTRUM
##SAMPLE DESCRIPTION=A. Brossi, LC, NIDDK, NIH, Bethesda, MD 20892
##NAMES=HP
##CAS NAME=Eseroline, 1'-naphthylcarbamate (ester)
##MOLFORM=C24H25N3O2
##CAS REGISTRY NO=149140-55-6
##MP= -300
##BP= -300
##MW= 387
##$RETENTION INDEX=0
##$CONDENSED SPECTRUM=NO
##NPOINTS= 232
##XYDATA=(XY..XY) 1 
    41         39
    42         97
    43         42
    44        105
    45         40
    46         12
    47        301
    48        129
    49        102
    50         76
    51         54
    52         24
    53         18
    54          9
    55         33
    56         25
    57         98
    58         24
    59         82
    60         15
    61         13
    62         45
    63        110
    64         31
    65         71
    66         17
    67         16
    68         12
    69         22
    70         33
    71         72
    72         15
    73         41
    74         36
    75         48
    76         32
    77         77
    78         24
    79         20
    80         20
    81         25
    82         76
    83        999
    85        778
    86         40
    87        207
    88         59
    89        110
    90         26
    91         38
    92         12
    93         16
    94         28
    95         14
    96         54
    97         21
    98         13
    99         13
   100         19
   101         67
   102         45
   103         23
   104         13
   105         16
   106         13
   107         14
   108         15
   109         24
   110          7
   111         12
   112          7
   113         92
   114        167
   115        774
   116        156
   117         68
   118         52
   119         30
   120         43
   121         14
   122         26
   123          7
   124          4
   125          7
   126         35
   127         87
   128         79
   129        106
   130         43
   131         42
   132         43
   133         24
   134         13
   135          5
   136          5
   137          2
   138          4
   139         11
   140        220
   141        183
   142        258
   143        270
   144        176
   145         50
   146        103
   147         44
   148         17
   149         12
   150          2
   151          2
   152          2
   153          3
   154         42
   155         41
   156        163
   157         29
   158         31
   159         49
   160        525
   161        367
   162        109
   163         14
   164          2
   165          1
   166          1
   167          3
   168          4
   169        789
   170        156
   171         19
   172         19
   173         29
   174        597
   175        114
   176         35
   177         15
   178          2
   179          1
   180          1
   181          1
   182          1
   183          1
   184          3
   185         18
   186         45
   187         36
   188         85
   189         24
   190         26
   191          6
   192          1
   193          1
   194          0
   195          0
   196          0
   197          1
   198          0
   199          3
   200          6
   201        757
   202        128
   203         64
   204         14
   205          4
   206          1
   207          1
   208          0
   209          0
   210          0
   211          0
   212          0
   213          1
   214          0
   215         91
   216         13
   217         43
   218        609
   219         91
   220          8
   221          1
   222          0
   223          0
   224          0
   225          0
   227          0
   228          0
   229          0
   231          2
   232          9
   233          3
   234          8
   235          1
   236          0
   238          0
   239          0
   241          0
   242          0
   243          0
   245          0
   246          1
   247          0
   248          1
   249          0
   252          0
   253          0
   256          1
   257          0
   260          0
   261          0
   262          3
   263          1
   264          0
   266          0
   267          0
   270          0
   273          0
   276          0
   278          0
   279          0
   280          0
   281          0
   284          0
   285          0
   286          0
   292          0
   296          0
   298          0
   306          0
   308          0
   315          0
   317          0
   387          0