##TITLE=Library Entry 75600
##JCAMP-DX=Revision 4.10 
##DATA TYPE=MASS SPECTRUM
##SAMPLE DESCRIPTION=D.Bornstein ET AL.,Org.Mass Spectrom.,28,230 (1993)
##NAMES=HP
##CAS NAME=2-Methyl-2-bromosuccinic acid, 1-ethyl, 4-methyl ester
##MOLFORM=C8H13BrO4
##CAS REGISTRY NO=149243-29-8
##MP= -300
##BP= -300
##MW= 252
##$RETENTION INDEX=0
##$CONDENSED SPECTRUM=NO
##NPOINTS= 74
##XYDATA=(XY..XY) 1 
    55         44
    57         44
    59        796
    60         23
    67         29
    68         65
    69        529
    70         53
    71         74
    72          8
    73         68
    74         14
    84         53
    85        323
    86         86
    87        206
    88          8
    95          5
    96         11
    97         71
    98         77
    99        497
   100        131
   101        999
   102         68
   103         20
   113        538
   114         77
   115        149
   118          8
   120         41
   121         23
   122         23
   123          5
   126        143
   127        763
   128        236
   129        682
   130         29
   131          8
   137        413
   139        419
   140        137
   141        278
   142         59
   143        137
   144          8
   145         23
   147         41
   149         74
   151         56
   153         17
   157         53
   164          8
   165         65
   166         11
   167         50
   173         17
   177         11
   178         35
   179        874
   180        458
   181        461
   182        892
   183         29
   193        131
   195        137
   207        215
   209        170
   210         11
   221        233
   223        200
   224         29
   251          8