##TITLE=Library Entry 18927
##JCAMP-DX=Revision 4.10 
##DATA TYPE=MASS SPECTRUM
##SAMPLE DESCRIPTION=V.G.Zaikin, Petrochem. Synth. Inst., Moscow
##NAMES=HP
##CAS NAME=Ethyl cyclobutanecarboxylate
##MOLFORM=C7H12O2
##CAS REGISTRY NO=14924-53-9
##MP= -300
##BP= -300
##MW= 128
##$RETENTION INDEX=0
##$CONDENSED SPECTRUM=NO
##NPOINTS= 59
##XYDATA=(XY..XY) 1 
    25         14
    26        188
    27        661
    28        293
    29        753
    30         57
    31         45
    37         14
    38         29
    39        333
    40         41
    41        173
    42         95
    43        246
    44         88
    45        395
    46          9
    49          7
    50         39
    51         59
    52         38
    53        218
    54        349
    55        999
    56        637
    57         89
    58        167
    59         15
    60         25
    67          7
    68         11
    69         76
    70          6
    71         28
    72         89
    73        419
    74         19
    75          2
    78         16
    79         19
    80          4
    81         29
    82        249
    83        675
    84         85
    85         77
    86          9
    87          3
    98         11
    99        175
   100        669
   101        266
   102         18
   112          1
   113         56
   114          4
   127         11
   128         92
   129         28