##TITLE=Library Entry 12741
##JCAMP-DX=Revision 4.10 
##DATA TYPE=MASS SPECTRUM
##SAMPLE DESCRIPTION=P.J. WOOD, FOOD RES. INST., AGRIC. CAN., OTTAWA, CANADA
##NAMES=HP
##CAS NAME=1,2-O-Isopropylidene-.alpha.-d-glucofuranose 3,5-benzeneboronate
##MOLFORM=C15H19BO6
##CAS REGISTRY NO=14927-09-4
##MP= -300
##BP= -300
##MW= 306
##$RETENTION INDEX=0
##$CONDENSED SPECTRUM=NO
##NPOINTS= 105
##XYDATA=(XY..XY) 1 
    39        223
    40         44
    41        347
    42        126
    43        999
    44         69
    45         47
    50         52
    51        105
    52         57
    53         88
    54         27
    55        225
    56        150
    57        247
    58         34
    59        544
    60         37
    67         20
    68         64
    69        105
    70         70
    71        204
    72         18
    73          9
    74         17
    76         19
    77        117
    78         58
    79         37
    83         38
    84         48
    85        183
    86         35
    87         39
    88         12
    89         67
    90         22
    91        186
    92         25
    97         30
    98         22
    99         54
   100         50
   101         79
   102         26
   103        102
   104        254
   105        514
   106         37
   107         10
   112         12
   113         52
   114         10
   115         30
   116         16
   117         66
   118         16
   119         16
   120          7
   127         92
   128         16
   129         30
   130         11
   131         23
   132          6
   145         30
   146        150
   147        352
   148         45
   149          9
   158        197
   159        926
   160        129
   161         27
   171          8
   172         16
   173         19
   174          7
   175         11
   176          6
   185          8
   186          6
   187         10
   188         13
   189         30
   190          8
   191          3
   199          6
   200          5
   201         14
   202          6
   212          5
   213         16
   230         15
   231         64
   232          8
   259          7
   260         20
   261          5
   290         73
   291        250
   292         57
   293         13
   306          2