##TITLE=Library Entry 8672
##JCAMP-DX=Revision 4.10 
##DATA TYPE=MASS SPECTRUM
##SAMPLE DESCRIPTION=Div. of Experiment Therapeutics WRAIR, WRAMC, Washingto
n DC 20307
##NAMES=HP
##CAS NAME=n-Nonane, 1-[1-cycloazapropyl]-
##MOLFORM=C11H23N
##CAS REGISTRY NO=14924-95-9
##MP= -300
##BP= -300
##MW= 169
##$RETENTION INDEX=0
##$CONDENSED SPECTRUM=NO
##NPOINTS= 83
##XYDATA=(XY..XY) 1 
    41        610
    42        491
    43        999
    44        475
    45         31
    46          2
    47         15
    49         85
    51         42
    53         33
    54         50
    55        446
    56        670
    57        373
    58        194
    59         14
    61          6
    63         17
    65          7
    67         41
    68         81
    69        268
    70        778
    71        233
    72         72
    73         13
    74          1
    77         11
    79         14
    80          2
    81         32
    82         62
    83         93
    84        308
    85         70
    86         47
    87          8
    88         15
    92         73
    94         36
    95         10
    96         38
    97        132
    98        321
    99        162
   100         16
   105          2
   106         28
   108         16
   109          2
   110         14
   111          7
   112        129
   113         30
   114          7
   118          5
   122          4
   123          7
   124         14
   125         19
   126         78
   127          6
   128          1
   130          2
   133          1
   138         11
   139         10
   140         48
   141          5
   142          6
   143          1
   145          1
   149          3
   151          6
   152          6
   153          7
   154         34
   155          5
   167          2
   168         34
   169        178
   170         19
   171          5