##TITLE=Library Entry 27650
##JCAMP-DX=Revision 4.10 
##DATA TYPE=MASS SPECTRUM
##SAMPLE DESCRIPTION=Japan AIST/NIMC Database- Spectrum MS-IW-4306
##NAMES=HP
##CAS NAME=Butanoic acid, 2-amino-, (S)-
##MOLFORM=C4H9NO2
##CAS REGISTRY NO=1492-24-6
##MP= -300
##BP= -300
##MW= 103
##$RETENTION INDEX=0
##$CONDENSED SPECTRUM=NO
##NPOINTS= 74
##XYDATA=(XY..XY) 1 
    14          2
    15         12
    16          3
    17         17
    18         41
    24          1
    25          3
    26         31
    27         84
    28        412
    29         75
    30         82
    31          3
    32          2
    34          1
    36          1
    37          7
    38         11
    39         53
    40         35
    41        378
    42         55
    43         68
    44         53
    45         18
    46         28
    47          1
    50          3
    51         11
    52         22
    53         15
    54         83
    55         28
    56        162
    57         58
    58        999
    59         59
    60          3
    63          1
    64          1
    65          1
    66          4
    67         14
    68          8
    69          8
    70         11
    71          4
    72          1
    73          1
    74        338
    75         10
    76          2
    77          1
    78          1
    79          1
    80          1
    81          2
    82          1
    83          3
    84          2
    85          9
    86          4
    87          2
    88          1
    95          2
    96          1
    97          3
    98          1
    99          1
   101          1
   102          1
   103          1
   104          8
   105          1