##TITLE=Library Entry 61231
##JCAMP-DX=Revision 4.10 
##DATA TYPE=MASS SPECTRUM
##SAMPLE DESCRIPTION=Humboldt-Universitat zu Berlin, Department of Chemistry
, Analytical Group
##NAMES=HP
##CAS NAME=N-Benzyloxycarbonyl-O-p-tosyl-l-serinemethyl ester
##MOLFORM=C19H21NO7S
##CAS REGISTRY NO=1492-52-0
##MP= -300
##BP= -300
##MW= 407
##$RETENTION INDEX=0
##$CONDENSED SPECTRUM=NO
##NPOINTS= 198
##XYDATA=(XY..XY) 1 
    12          2
    13          2
    14         11
    15        166
    16          4
    17          6
    18         20
    20          0
    25          1
    26          6
    27         38
    28         88
    29         43
    30         24
    31         11
    32          2
    33          6
    34          0
    36          0
    37          1
    38          9
    39         97
    40         17
    41         52
    42        187
    43         20
    44         15
    45         14
    47          0
    48          1
    49          0
    50         23
    51         67
    52         19
    53          9
    54          2
    55         14
    56          6
    57          4
    58         31
    59         24
    60          5
    61          2
    62          9
    63         40
    64         14
    65        201
    66         12
    67          2
    68          1
    69          4
    70          3
    71          2
    72          1
    73          1
    74          4
    75          3
    76          4
    77         70
    78         17
    79         71
    80          8
    81          1
    82          0
    83          5
    84          1
    85         13
    86        212
    87         16
    88         11
    89         48
    90         30
    91        999
    92        223
    93         15
    94          1
    95          0
    96          1
    97          1
    98          0
   100          2
   101          7
   102          2
   103          1
   104          6
   105         18
   107        415
   108        279
   109         20
   110          1
   111          1
   112          0
   113          0
   114          0
   115          4
   116          1
   117          2
   118          4
   119          2
   120          1
   121          6
   122          2
   123          0
   126          0
   127          0
   128          2
   129          2
   130          3
   131          2
   132         24
   133          6
   134          1
   135          0
   138          0
   139         10
   140          1
   141          1
   142          0
   143          0
   144          2
   145          9
   146          5
   147          0
   148          2
   149          2
   150          0
   151          0
   152          3
   153          1
   155         59
   156         21
   157          8
   158          1
   159          0
   162          2
   163          0
   164          0
   165          6
   166          4
   167          5
   168          1
   169          0
   171          0
   172          6
   173          2
   174          0
   175          0
   176         12
   177          1
   178          2
   179          1
   180          0
   181          1
   182          0
   183          0
   185          0
   187          0
   190          0
   191          0
   192          0
   197          0
   206          1
   207          0
   208          0
   214          4
   215          0
   216          0
   220          0
   234          1
   235         10
   236          1
   237          0
   240          0
   261          0
   262          2
   263          0
   265          0
   269          0
   272          0
   273          0
   274          0
   281          1
   282          0
   283          0
   300         14
   301          2
   302          1
   303          0
   304         10
   305          2
   306          0
   348          1
   349          0
   364          0
   376          0
   407          7
   408          1
   409          0