##TITLE=Library Entry 84723
##JCAMP-DX=Revision 4.10 
##DATA TYPE=MASS SPECTRUM
##SAMPLE DESCRIPTION=I.Korhonen, Org.Mass Spectrom. 23, 729 (1988)
##NAMES=HP
##CAS NAME=Methyl 2-chloro-octanoate
##MOLFORM=C9H17ClO2
##CAS REGISTRY NO=14925-42-9
##MP= -300
##BP= -300
##MW= 192
##$RETENTION INDEX=1250
##$CONDENSED SPECTRUM=NO
##NPOINTS= 84
##XYDATA=(XY..XY) 1 
    39        100
    40         10
    41        327
    42        116
    43        313
    44         65
    45         10
    49          7
    51          7
    52          5
    53         42
    54         13
    55        416
    56         34
    57         87
    58          7
    59        274
    61          7
    62         10
    67         50
    68         10
    69         68
    70         26
    71         44
    72          7
    73          7
    74         50
    75         10
    76         42
    77          7
    78         13
    79          7
    81         44
    82         23
    83         36
    85         23
    86          7
    87        211
    88         18
    89         10
    91         10
    93          7
    95         47
    96         15
    97         73
    98         10
    99          7
   100          7
   101         13
   103         10
   105          7
   106          7
   108        999
   109         50
   110        337
   111         18
   113         58
   115        150
   116         10
   118         10
   121        137
   122          7
   123         50
   125         10
   127         13
   129         81
   130         13
   135         10
   137          7
   141         10
   149         13
   151         10
   156          7
   157        121
   158         13
   161          7
   163        118
   164         10
   165         34
   166         13
   177         10
   179          3
   192         13
   194          4