##TITLE=Library Entry 27653
##JCAMP-DX=Revision 4.10 
##DATA TYPE=MASS SPECTRUM
##SAMPLE DESCRIPTION=Japan AIST/NIMC Database- Spectrum MS-NW-6953
##NAMES=HP
##CAS NAME=3(N,N-Dimethylmyristylammonio)propanesulfonate
##MOLFORM=C19H41NO3S
##CAS REGISTRY NO=14933-09-6
##MP= -300
##BP= -300
##MW= 363
##$RETENTION INDEX=0
##$CONDENSED SPECTRUM=NO
##NPOINTS= 81
##XYDATA=(XY..XY) 1 
    15          2
    26          5
    27         20
    28         58
    29         35
    30         13
    31          1
    32          1
    38          1
    39         10
    40          4
    41         52
    42         29
    43         44
    44         20
    45         13
    46          9
    48          4
    53          3
    54          2
    55         30
    56         10
    57         29
    58        999
    59         39
    64          3
    65          4
    66          2
    67          3
    68          2
    69         11
    70          8
    71          9
    72          5
    73          1
    77          1
    79          1
    81          2
    82          3
    83          6
    84         23
    85          3
    86          1
    91          1
    92          1
    94          1
    95          1
    96          1
    97          3
    98          3
   100          3
   110          3
   111          1
   112          1
   114          3
   121          1
   122          3
   126          1
   128          2
   137          1
   140          1
   142          1
   154          1
   156          1
   165          1
   166          2
   168          1
   170          1
   180         11
   181          1
   182          1
   198          1
   212          1
   226          2
   227          1
   238          2
   239          1
   240         10
   241         18
   242          3
   362          1