##TITLE=Library Entry 84367
##JCAMP-DX=Revision 4.10 
##DATA TYPE=MASS SPECTRUM
##SAMPLE DESCRIPTION=Japan AIST/NIMC Database- Spectrum MS-NW-5224
##NAMES=HP
##CAS NAME=Phenol, 4-pentyl-
##MOLFORM=C11H16O
##CAS REGISTRY NO=14938-35-3
##MP= -300
##BP= -300
##MW= 164
##$RETENTION INDEX=1464
##$CONDENSED SPECTRUM=NO
##NPOINTS= 68
##XYDATA=(XY..XY) 1 
    14          8
    15          1
    26          3
    27         33
    28         11
    29         23
    38          4
    39         34
    40          4
    41         28
    42          2
    43          4
    44          1
    50          5
    51         19
    52         10
    53         15
    54          1
    55         10
    56          1
    57          3
    62          2
    63          9
    64          3
    65         15
    66          5
    67          3
    68          2
    69          2
    74          1
    75          2
    76          1
    77         80
    78         21
    79         14
    80          2
    81          5
    82          2
    89          3
    90          2
    91         13
    92          2
    93          4
    94         14
    95          3
    96          2
   102          1
   103          7
   104          1
   105          4
   106          3
   107        999
   108         85
   109          6
   115          2
   118          1
   119          4
   120          7
   121          7
   122          1
   131          3
   132          1
   133          4
   134          1
   135          1
   164        157
   165         21
   166          2