##TITLE=Library Entry 39113
##JCAMP-DX=Revision 4.10 
##DATA TYPE=MASS SPECTRUM
##SAMPLE DESCRIPTION=Chemical Concepts
##NAMES=HP
##CAS NAME=Cyclononane, 1,1,4,4,7,7-hexamethyl-
##MOLFORM=C15H30
##CAS REGISTRY NO=149331-19-1
##MP= -300
##BP= -300
##MW= 210
##$RETENTION INDEX=0
##$CONDENSED SPECTRUM=NO
##NPOINTS= 103
##XYDATA=(XY..XY) 1 
    26          1
    27         47
    29         99
    30          2
    37          0
    38          0
    39         65
    41        356
    42         51
    43        271
    44          8
    50          1
    51          6
    52          4
    53         64
    54         13
    55        443
    56        144
    57        363
    58         14
    59          0
    61          0
    63          0
    64          0
    65         14
    66          5
    67         74
    68         30
    69        545
    70        565
    71        999
    72         54
    73          1
    75          0
    77         17
    78          4
    79         22
    80          4
    81         41
    82         20
    83        332
    84        153
    85        579
    86         35
    87          1
    89          0
    91         12
    92          2
    93          8
    94          2
    95         47
    96         11
    97        122
    98         24
    99         27
   100          3
   102          0
   103          0
   104          0
   105          2
   106          0
   107          3
   108          0
   109         17
   110          7
   111        118
   112         37
   113         29
   114          2
   117          0
   119          0
   121          0
   122          0
   123         12
   124          2
   125         79
   126         30
   127          1
   128          0
   137          4
   138          9
   139        161
   140        423
   141        235
   142         25
   143          1
   151          0
   153          0
   154          1
   165          0
   166          0
   167          1
   168          0
   181         18
   182          2
   189          0
   193          0
   194          1
   195          7
   196          0
   210         24
   211          3
   212          0