##TITLE=Library Entry 27651
##JCAMP-DX=Revision 4.10 
##DATA TYPE=MASS SPECTRUM
##SAMPLE DESCRIPTION=Japan AIST/NIMC Database- Spectrum MS-IW-7572
##NAMES=HP
##CAS NAME=3-(N,N-Dimethyllaurylammonio)propanesulfonate
##MOLFORM=C17H37NO3S
##CAS REGISTRY NO=14933-08-5
##MP= -300
##BP= -300
##MW= 335
##$RETENTION INDEX=0
##$CONDENSED SPECTRUM=NO
##NPOINTS= 138
##XYDATA=(XY..XY) 1 
    14          1
    15          7
    17          1
    18          3
    25          1
    26         15
    27         34
    28        140
    29         53
    30         36
    31          2
    32          1
    37          1
    38          4
    39         25
    40         10
    41         78
    42         59
    43         51
    44         30
    45         20
    46          9
    48         12
    50          3
    51          4
    52          2
    53          6
    54          7
    55         54
    56         31
    57         57
    58        999
    59         52
    60          1
    63          3
    64         20
    65          6
    66          4
    67          9
    68          9
    69         24
    70         23
    71         14
    72          7
    73          2
    74          1
    75          1
    76          4
    77          5
    78          6
    79          5
    80          4
    81          7
    82          7
    83         11
    84         61
    85          8
    86          1
    89          1
    91          6
    92          3
    93          2
    94          3
    95          4
    96          3
    97          9
    98          6
    99          1
   100          3
   102          1
   103          1
   104          1
   105          2
   106          1
   107          1
   108          1
   109          1
   110          5
   111          3
   112          3
   114          4
   115          6
   116          2
   117          3
   118          1
   119          1
   120          1
   121          3
   122          6
   123          1
   124          1
   125          1
   126          3
   127          2
   128          7
   129          4
   130          2
   131          2
   132          1
   135          1
   139          1
   140          2
   141          5
   142          2
   143          1
   144          1
   150          2
   151          4
   152         15
   153          7
   154          6
   155          2
   156          4
   157          1
   158          1
   165          1
   166          3
   167          1
   168          2
   169          1
   170          1
   179          1
   180          3
   181          1
   182          1
   184          2
   194          1
   195          1
   196          1
   197          1
   198          3
   199          1
   209          1
   210          2
   211          5
   212         14
   213         30
   214          5