##TITLE=Library Entry 83189
##JCAMP-DX=Revision 4.10 
##DATA TYPE=MASS SPECTRUM
##SAMPLE DESCRIPTION=ASES Database, Dalian Institute, P.R. China
##NAMES=HP
##CAS NAME=N-(4-Methylphenyl)-benzenesulfenamide
##MOLFORM=C13H13NS
##CAS REGISTRY NO=14933-93-8
##MP= -300
##BP= -300
##MW= 215
##$RETENTION INDEX=0
##$CONDENSED SPECTRUM=NO
##NPOINTS= 10
##XYDATA=(XY..XY) 1 
    77        251
    91         30
   106        999
   107        269
   109         90
   110        119
   124         10
   182         30
   214         19
   215        458