##TITLE=Library Entry 35923
##JCAMP-DX=Revision 4.10 
##DATA TYPE=MASS SPECTRUM
##SAMPLE DESCRIPTION=Exported from NIST MS Search
##NAMES=HP
##CAS NAME=Methanethiol, trifluoro-
##MOLFORM=CHF3S
##CAS REGISTRY NO=1493-15-8
##MP= -300
##BP= -300
##MW= 102
##$RETENTION INDEX=0
##$CONDENSED SPECTRUM=NO
##NPOINTS= 34
##XYDATA=(XY..XY) 1 
    12         65
    13          2
    19         26
    20         48
    31        165
    32        218
    33        212
    34         12
    35         18
    41          3
    44         53
    45          6
    46          3
    47          1
    48          1
    50         79
    51         26
    52          5
    53          1
    63        450
    64         10
    65         21
    69        999
    70         11
    77          1
    78          1
    82        441
    83        191
    84         23
    85         25
   101         10
   102        966
   103         16
   104         38