##TITLE=Library Entry 21320
##JCAMP-DX=Revision 4.10 
##DATA TYPE=MASS SPECTRUM
##SAMPLE DESCRIPTION=CARL DJERASSI DEPT OF CHEM STANFORD UNIV STANFORD CALIF
 94305
##NAMES=HP
##CAS NAME=5.beta.-Cholest-23-ene, (Z)-
##MOLFORM=C27H46
##CAS REGISTRY NO=14949-12-3
##MP= -300
##BP= -300
##MW= 370
##$RETENTION INDEX=0
##$CONDENSED SPECTRUM=NO
##NPOINTS= 131
##XYDATA=(XY..XY) 1 
    41        494
    42         70
    43        191
    50         10
    51         10
    52         10
    53         90
    54         40
    55        999
    56         60
    57         60
    65         40
    66         10
    67        535
    68        121
    69        434
    70         30
    71         10
    77         90
    78         10
    79        272
    80         60
    81        797
    82        111
    83        272
    84         30
    85         10
    91        171
    92         30
    93        323
    94         90
    95        797
    96         90
    97        191
    98         10
   101         10
   105        101
   106         30
   107        262
   108        171
   109        858
   110         90
   111         60
   112         10
   115         10
   117         20
   118         10
   119         60
   120         40
   121        292
   122        111
   123        393
   124         50
   125         20
   131         10
   132         10
   133         50
   134         20
   135        282
   136         60
   137        383
   138         60
   139         10
   145         10
   146         10
   147         80
   148         40
   149        353
   150         80
   151        252
   152         30
   159         10
   160         10
   161         60
   162         30
   163        353
   164         50
   165        292
   166         30
   173         10
   174         10
   175         50
   176         30
   177        333
   178         60
   179         10
   189         50
   190         20
   191        242
   192         30
   201         10
   203         70
   204         10
   205        101
   206         30
   215         10
   216         10
   217        202
   218         70
   219        101
   220         30
   230         10
   231         80
   232         20
   233         10
   243         10
   244         10
   245         10
   256         70
   257        616
   258        171
   259         40
   260         20
   271         30
   272         10
   285         40
   286         90
   287        636
   288        141
   289         20
   300         20
   301         10
   313         10
   315         20
   316         10
   327         20
   330         20
   355         80
   356         30
   370         40
   371         20