##TITLE=Library Entry 36028
##JCAMP-DX=Revision 4.10 
##DATA TYPE=MASS SPECTRUM
##SAMPLE DESCRIPTION=CARL DJERASSI DEPT OF CHEM STANFORD UNIV STANFORD CALIF
 94305
##NAMES=HP
##CAS NAME=21-Nor-5.alpha.-cholest-24-en-20-one
##MOLFORM=C26H42O
##CAS REGISTRY NO=14949-18-9
##MP= -300
##BP= -300
##MW= 370
##$RETENTION INDEX=0
##$CONDENSED SPECTRUM=NO
##NPOINTS= 150
##XYDATA=(XY..XY) 1 
    41        595
    42         30
    43        131
    45         10
    50         10
    51         10
    52         10
    53         80
    54         20
    55        606
    56         50
    57         40
    65         30
    66         10
    67        505
    68        101
    69        999
    70         70
    71         20
    77         70
    78         10
    79        262
    80         60
    81        555
    82        101
    83        353
    84         60
    85         10
    91        141
    92         40
    93        292
    94        151
    95        595
    96         60
    97        101
    98         60
    99         10
   105        121
   106         50
   107        212
   108         90
   109        565
   110         80
   111        707
   112         70
   113        121
   115         10
   116         10
   117         20
   118         10
   119         80
   120         60
   121        282
   122        121
   123        262
   124         40
   125         10
   126         10
   127         10
   131         30
   132         20
   133         70
   134        141
   135        303
   136         60
   137        151
   138        101
   139        262
   140         30
   143         10
   145         50
   146         20
   147         90
   148         60
   149        525
   150         70
   151         40
   152        151
   153         40
   154         10
   159         40
   160         10
   161         70
   162         40
   163        393
   164         50
   165         10
   171         10
   173         20
   174         10
   175         50
   176         10
   177         90
   178         10
   187         20
   189         40
   192         10
   199         10
   201         10
   203        101
   204         20
   205         10
   213         10
   215         40
   216         20
   217        343
   218         70
   219         10
   229         30
   230         20
   231         10
   232         90
   233         10
   240         10
   241         10
   242         20
   243         80
   244         20
   253         10
   255         10
   256         20
   257         90
   258         70
   259        555
   260        121
   261         20
   269         30
   270         40
   271         10
   273         50
   274         10
   283         10
   285         10
   287        343
   288        151
   289         20
   302         40
   303         10
   313         10
   315         20
   337         50
   338         10
   352         30
   353         10
   355        393
   356        111
   357         20
   370        575
   371        171
   372         30