##TITLE=Library Entry 331
##JCAMP-DX=Revision 4.10 
##DATA TYPE=MASS SPECTRUM
##SAMPLE DESCRIPTION=D.HENNEBERG, MAX-PLANCK INSTITUTE, MULHEIM, WEST GERMAN
Y
##NAMES=HP
##CAS NAME=Iron, tricarbonylbis(trimethyl phosphite-P)-
##MOLFORM=C9H18FeO9P2
##CAS REGISTRY NO=14949-85-0
##MP= -300
##BP= -300
##MW= 388
##$RETENTION INDEX=0
##$CONDENSED SPECTRUM=NO
##NPOINTS= 196
##XYDATA=(XY..XY) 1 
    26         26
    28        999
    29         77
    30         50
    31         36
    32         23
    33          2
    34          0
    37          0
    38          0
    39          2
    40          2
    41          2
    42          1
    43          1
    44         11
    45         32
    46          1
    47         61
    48          7
    49          4
    50          2
    51          2
    52          1
    53          0
    54          0
    55          1
    56          1
    59          0
    61          2
    62         22
    63        218
    64          2
    65          1
    66          0
    67          0
    69          0
    70          0
    71          1
    75          0
    76          1
    77          9
    78          4
    79         72
    80          2
    81          1
    82          0
    83          0
    85          0
    87          1
    88          0
    91          2
    92          4
    93        551
    94        120
    95          6
    96          0
    97          0
   100          0
   103          1
   104          1
   107          0
   108          1
   109        204
   110          5
   111          1
   115          0
   116          0
   117          1
   119          5
   120          1
   121          0
   123          0
   124        166
   125          5
   126          1
   128          0
   129          0
   133          5
   134          3
   135         61
   136          2
   139          0
   146          0
   147          0
   148          0
   149          6
   150          7
   151         11
   152          4
   153          0
   154          1
   155          1
   157          0
   163          9
   164          4
   165        112
   166          6
   167          2
   168          0
   177          1
   178          3
   179         15
   180         61
   181        222
   182         13
   183          3
   184          0
   185          0
   186          0
   191          0
   193          1
   194          0
   195         14
   196          1
   197          5
   198          1
   199          0
   201          0
   202          0
   205          0
   206          1
   207          0
   208         18
   209         53
   210         27
   211        773
   212         53
   213         21
   214          1
   215          0
   225          3
   226          1
   227          1
   228          2
   229          0
   239          0
   240          0
   241          4
   242          2
   243         44
   244          3
   245          0
   256          2
   257          0
   258         28
   259          7
   260          0
   261          0
   262          2
   263          0
   270          0
   271          4
   272          2
   273         59
   274         16
   275          2
   276          0
   277          0
   287          5
   288          0
   289         80
   290          6
   291          1
   298          0
   299          2
   300          0
   301         29
   302         61
   303         16
   304        980
   305         86
   306         16
   307          1
   318          1
   327          3
   329         24
   330          8
   331          1
   332         90
   333          9
   334          2
   355          3
   356          0
   357         60
   358         15
   359          2
   360        105
   361         12
   362          2
   363          0
   386          5
   387          0
   388         92
   389         11
   390          2