##TITLE=Library Entry 30651
##JCAMP-DX=Revision 4.10 
##DATA TYPE=MASS SPECTRUM
##SAMPLE DESCRIPTION=Chemical Concepts
##NAMES=HP
##CAS NAME=1-Silacyclopenta-2,4-diene, 3-ethyl-1,1,2,5-tetramethyl-
##MOLFORM=C10H18Si
##CAS REGISTRY NO=149456-73-5
##MP= -300
##BP= -300
##MW= 166
##$RETENTION INDEX=0
##$CONDENSED SPECTRUM=NO
##NPOINTS= 136
##XYDATA=(XY..XY) 1 
    25          2
    26         14
    27         43
    28          3
    29         31
    30          2
    31         46
    33          1
    36          0
    37          1
    38          3
    39         49
    40         21
    41         42
    42         13
    43        334
    44         34
    45        123
    46          6
    47          4
    48          0
    49          0
    50          6
    51         19
    52          8
    53         70
    54         17
    55         93
    56          8
    57         30
    58         52
    59        999
    60         70
    61         36
    62          2
    63          6
    64          2
    65         14
    66         17
    67        101
    68         19
    69        127
    70         16
    71         48
    72         28
    73        572
    74         54
    75         28
    76          1
    77         25
    78         11
    79         29
    80          5
    81         53
    82         14
    83        222
    84         22
    85         61
    86         25
    87         87
    88          8
    89         13
    90          2
    91        106
    92         26
    93         30
    94          4
    95        128
    96         25
    97        188
    98         48
    99         23
   100          2
   101          1
   102          0
   103          4
   104          1
   105         48
   106        176
   107        157
   108         16
   109        196
   110         37
   111        183
   112         35
   113         10
   114          1
   115          1
   116          0
   117          5
   118          1
   119          9
   120          3
   121         49
   122         11
   123        320
   124         52
   125         29
   126          8
   127          1
   128          0
   129          0
   130          0
   131          3
   132          1
   133         10
   134          3
   135         50
   136         15
   137        195
   138         42
   139         11
   140          1
   141          0
   143          0
   145          3
   146          0
   147          9
   148          1
   149         39
   150         18
   151        730
   152        103
   153         31
   154          2
   155          0
   159          0
   161          0
   162          0
   163          1
   164          1
   165          7
   166        788
   167        131
   168         36
   169          4