##TITLE=Library Entry 30851
##JCAMP-DX=Revision 4.10 
##DATA TYPE=MASS SPECTRUM
##SAMPLE DESCRIPTION=Exported from NIST MS Search
##NAMES=HP
##CAS NAME=Guanidine, cyclohexyl-
##MOLFORM=C7H15N3
##CAS REGISTRY NO=14948-83-5
##MP= -300
##BP= -300
##MW= 141
##$RETENTION INDEX=0
##$CONDENSED SPECTRUM=NO
##NPOINTS= 41
##XYDATA=(XY..XY) 1 
    17         20
    18        200
    26         20
    27         60
    28         80
    29         40
    30        100
    41        130
    42         60
    43        540
    44        100
    45         80
    53         30
    54         50
    55        100
    56        460
    57         30
    59        320
    60        999
    61         20
    67         60
    68         20
    69         30
    70         70
    71         20
    81         60
    82         30
    83         20
    84         60
    85         60
    86         60
    98        360
    99        100
   112         60
   113         30
   124         20
   126         40
   139         20
   140         30
   141        290
   142         30