##TITLE=Library Entry 47003
##JCAMP-DX=Revision 4.10 
##DATA TYPE=MASS SPECTRUM
##SAMPLE DESCRIPTION=A.A.Kutin, Moscow, Russia
##NAMES=HP
##CAS NAME=Boron, difluoro(1,3-diphenyl-1,3-propanedionato)-
##MOLFORM=C15H11BF2O2
##CAS REGISTRY NO=14947-61-6
##MP= -300
##BP= -300
##MW= 272
##$RETENTION INDEX=0
##$CONDENSED SPECTRUM=NO
##NPOINTS= 188
##XYDATA=(XY..XY) 1 
    33          1
    34          2
    35          0
    36          0
    37          6
    39        157
    40         37
    41         18
    42          8
    43          9
    44         10
    46          7
    47         12
    49        131
    50        231
    51        521
    52         54
    53         32
    54          2
    55          9
    56          2
    57          3
    58          0
    59          0
    61          8
    62         33
    63         70
    65         99
    66          8
    67          3
    69         38
    70          3
    71          2
    73          7
    74         93
    75        102
    77        999
    78         56
    79         10
    80          1
    81          2
    82          1
    83          1
    84          1
    85          2
    86         14
    87         23
    89        111
    90         29
    91          5
    92          6
    93         12
    94          1
    95          1
    96          0
    98         17
    99         13
   101         53
   102         82
   103         19
   105        730
   106         47
   107          3
   108          0
   109          1
   110          7
   111         12
   112         10
   113         25
   114          4
   115          4
   116          2
   117          5
   118          9
   119          5
   121          8
   122          9
   123          3
   124          5
   125         18
   126         25
   128          3
   129          9
   130          3
   131          8
   132          0
   133          0
   134          1
   135          4
   136          7
   137         17
   138         23
   139         48
   140          5
   141          2
   142          2
   143          0
   144          0
   145          0
   146          0
   147          1
   148          1
   149          2
   150          7
   151         15
   152         14
   153          4
   154          0
   155          0
   157          0
   161          0
   162          1
   163          3
   164          3
   165         16
   166          9
   167          2
   168          1
   169          2
   170          0
   171          0
   173          0
   174          2
   175          4
   176         14
   177         18
   178         30
   179         20
   180          3
   181          2
   182          0
   185          0
   187          1
   188          0
   189          1
   190          0
   193          4
   194         20
   195         50
   196          4
   197          5
   198          1
   199          0
   200          1
   201          1
   202          0
   203          0
   205          8
   206          5
   207         12
   208          2
   209          0
   210          0
   211          0
   212          1
   213          3
   214          1
   215          0
   216          0
   217          0
   221          0
   222          1
   223          4
   224          2
   225          2
   226          0
   228          0
   229          5
   230          0
   239          0
   240          0
   241          0
   242          3
   243          5
   244          4
   245          1
   249          0
   250          1
   251          3
   252          9
   253         31
   254          4
   255          1
   270        107
   271        379
   272        218
   273         31
   274          3