##TITLE=Library Entry 62669
##JCAMP-DX=Revision 4.10 
##DATA TYPE=MASS SPECTRUM
##SAMPLE DESCRIPTION=Japan AIST/NIMC Database- Spectrum MS-IW-5586
##NAMES=HP
##CAS NAME=2-Tosylamino-4-(trifluoromethyl)benzenesulfonamide
##MOLFORM=C14H13F3N2O4S2
##CAS REGISTRY NO=1494-37-7
##MP= -300
##BP= -300
##MW= 394
##$RETENTION INDEX=0
##$CONDENSED SPECTRUM=NO
##NPOINTS= 164
##XYDATA=(XY..XY) 1 
    16          1
    20          2
    26          1
    27          6
    28         20
    32          1
    34          2
    37          1
    38          3
    39         24
    40          2
    41         10
    43          1
    44          3
    45          6
    46          1
    48          7
    50          6
    51         12
    52          7
    53          3
    55          1
    57          3
    60          1
    61          1
    62          7
    63         28
    64         34
    65        117
    66          8
    67          3
    69          6
    70          1
    71          1
    74          1
    75          5
    76          3
    77         13
    78          7
    79          8
    80          3
    81          2
    82          2
    83          2
    87          1
    88          4
    89         26
    90         20
    91        999
    92         94
    93          4
    94          1
    95          3
    96          1
    97          1
    98          2
    99          1
   100          1
   101          4
   102          1
   105          3
   106          4
   107         13
   108         18
   109          5
   110          1
   111          3
   112          1
   113          7
   114          2
   115          1
   119          1
   120          4
   121          4
   122          2
   123          6
   124         17
   125          2
   126          5
   127          2
   128          3
   129          3
   130          1
   131          1
   132          7
   133          4
   138          3
   139         31
   140         19
   141          3
   145          2
   146          4
   147          1
   148         11
   149          2
   151          1
   152          2
   153          2
   154          5
   155        904
   156         79
   157         49
   158          8
   159         10
   160         13
   161          2
   164          2
   165          1
   166          1
   167          1
   170          1
   172         13
   173          2
   174          4
   175          6
   176         12
   177          3
   178          3
   179          2
   180          5
   181          3
   182          1
   185          2
   190          1
   192          1
   193          1
   204          1
   205          7
   206          8
   207          2
   208          2
   221          1
   222          2
   223         13
   224          2
   228          1
   230          1
   234          1
   235          4
   240         10
   241          6
   242          1
   247          1
   248         17
   249         15
   250          4
   251          1
   264          1
   311          1
   313          3
   314          1
   315          4
   329          1
   330          3
   375         27
   376          5
   377         10
   378          2
   379          1
   394        382
   395         68
   396         42
   397          6
   398          1