##TITLE=Library Entry 60687
##JCAMP-DX=Revision 4.10 
##DATA TYPE=MASS SPECTRUM
##SAMPLE DESCRIPTION=Chemical Concepts
##NAMES=HP
##CAS NAME=9-Borabicyclo[3.3.1]nonane, 9-benzylthio-
##MOLFORM=C15H21BS
##CAS REGISTRY NO=149557-78-8
##MP= -300
##BP= -300
##MW= 244
##$RETENTION INDEX=0
##$CONDENSED SPECTRUM=NO
##NPOINTS= 127
##XYDATA=(XY..XY) 1 
    26          1
    27         16
    29         15
    30          0
    36          0
    37          3
    38          1
    39         37
    40          2
    41         62
    42          2
    43          5
    44          0
    45          5
    47          0
    49          0
    50          3
    51         12
    52          4
    53         11
    54          4
    55         25
    57          1
    58          2
    59          6
    60          0
    61          1
    62          2
    63         10
    64          3
    65         64
    66          8
    67         36
    68          4
    69         12
    70          4
    71         12
    72          1
    73          1
    74          0
    75          0
    76          4
    77         18
    78          4
    79         13
    80         14
    81         10
    82          2
    83          7
    84          1
    85          5
    86          0
    87          1
    88          1
    89         12
    90          6
    91        999
    92        174
    93         15
    94          4
    95         18
    96          2
    97          8
    98          1
    99          2
   100          0
   101          0
   102          0
   103          1
   104          1
   105          1
   106          0
   107          3
   108          8
   109          6
   110         10
   111         26
   112          2
   113          1
   114          0
   115          1
   116          1
   117          3
   118          6
   119          9
   120          2
   121          4
   122          0
   123          2
   124          5
   125          4
   126          1
   127          0
   128          0
   129          0
   130          0
   131          0
   132          0
   133          1
   134          3
   135          0
   136          0
   137          0
   139          0
   141          0
   145          0
   146          0
   149          0
   151          4
   152         22
   153         29
   154          3
   155          1
   159          0
   160          0
   162          0
   174          0
   175          0
   178          0
   187          0
   188          0
   201          0
   243         29
   244        128
   245         23
   246          6
   247          0