##TITLE=Library Entry 57242
##JCAMP-DX=Revision 4.10 
##DATA TYPE=MASS SPECTRUM
##SAMPLE DESCRIPTION=FOOD RESEARCH REPORT 120, K.E. MURRAY & COLLEAGUES, DIV
. OF FOOD RESEARCH, CSIRO, AUSTRALIA
##NAMES=HP
##CAS NAME=2-Nonenoic acid, methyl ester, (E)-
##MOLFORM=C10H18O2
##CAS REGISTRY NO=14952-06-8
##MP= -300
##BP= -300
##MW= 170
##$RETENTION INDEX=0
##$CONDENSED SPECTRUM=NO
##NPOINTS= 66
##XYDATA=(XY..XY) 1 
    26         40
    27        480
    29        560
    30         20
    31         40
    38         30
    39        420
    40        150
    41        890
    42        290
    43        830
    45         50
    50         20
    51         40
    52         30
    53        220
    54        170
    55        910
    56        250
    57         60
    58         10
    59        340
    60         10
    65         30
    66         30
    67        160
    68        280
    69        390
    70         90
    71        100
    72         40
    73         30
    74        390
    75         40
    77         20
    79         40
    80         20
    81        260
    82         80
    83         60
    84        110
    85         90
    87        999
    88         60
    94         50
    95         80
    96        370
    97        110
    99         20
   100        180
   101        140
   102         30
   109         60
   110         50
   111         20
   113        250
   114         70
   115         30
   123         20
   127         50
   128         30
   138        170
   139        180
   140         20
   141         20
   170         10