##TITLE=Library Entry 9552
##JCAMP-DX=Revision 4.10 
##DATA TYPE=MASS SPECTRUM
##SAMPLE DESCRIPTION=J. Klune, Insect Chem. Ecol. Lab., USDA, Beltsville, MD
 20705
##NAMES=HP
##CAS NAME=cis-7-Dodecen-1-yl acetate
##MOLFORM=C14H26O2
##CAS REGISTRY NO=14959-86-5
##MP= -300
##BP= -300
##MW= 226
##$RETENTION INDEX=1598
##$CONDENSED SPECTRUM=NO
##NPOINTS= 116
##XYDATA=(XY..XY) 1 
    41        498
    42         91
    43        999
    44         27
    45          6
    47          6
    48          3
    52          6
    53         81
    54        277
    55        471
    56         63
    57         55
    58          4
    59          1
    60          0
    61         58
    62          1
    63          1
    65         27
    66         50
    67        548
    68        268
    69        204
    70         29
    71         43
    72          4
    73         19
    75          1
    77         18
    78          4
    79         64
    80         56
    81        726
    82        566
    83        196
    84         32
    85         34
    86         10
    87          3
    88          1
    89          4
    91         13
    92          1
    93         23
    94         35
    95        488
    96        518
    97        227
    98         23
    99          8
   100          1
   101         20
   102          1
   103          1
   105          3
   106          1
   107          8
   108          5
   109        361
   110        297
   111        153
   112         15
   113          4
   114          3
   115          3
   119          1
   120          1
   121          6
   122         12
   123        149
   124        108
   125         42
   126          5
   127          2
   128          1
   129          1
   135          5
   136          7
   137         86
   138         93
   139         15
   140          1
   141          1
   149          3
   150          2
   151         21
   152          6
   153          3
   155          1
   156          0
   163          3
   164         14
   165         97
   166        622
   167        233
   168         24
   169          2
   170          0
   173          1
   177          2
   178          0
   179          5
   180          3
   181          4
   182          1
   183          9
   184          2
   185          7
   186          1
   223          2
   224         16
   225         22
   226        538
   227         82
   228          8