##TITLE=Library Entry 81811
##JCAMP-DX=Revision 4.10 
##DATA TYPE=MASS SPECTRUM
##SAMPLE DESCRIPTION=A.A.Kutin, Moscow, Russia
##NAMES=HP
##CAS NAME=1H-Indole, 1-benzoyl-
##MOLFORM=C15H11NO
##CAS REGISTRY NO=1496-76-0
##MP= -300
##BP= -300
##MW= 221
##$RETENTION INDEX=0
##$CONDENSED SPECTRUM=NO
##NPOINTS= 85
##XYDATA=(XY..XY) 1 
    37          2
    38          6
    39         18
    40          1
    42          0
    50         30
    51         93
    52          7
    53          1
    59          0
    61          2
    62         16
    63         42
    64          8
    65          3
    66          1
    69          0
    73          0
    74          9
    75         12
    77        468
    78         37
    79          0
    81          0
    82          0
    86          2
    87          4
    88         10
    89         72
    90         21
    91          1
    95          0
    96          2
   100          0
   101          1
   105        999
   106        109
   107          7
   108          0
   110          0
   111          0
   113          1
   114          4
   115          0
   116         38
   117         11
   118          1
   119          0
   125          0
   126          0
   137          1
   138          1
   139          3
   143          0
   150          0
   151          0
   152          0
   153          0
   161          0
   162          1
   163          7
   164          8
   165         12
   166          2
   167          0
   175          0
   176          0
   177          0
   178          0
   181          0
   188          0
   189          1
   190         10
   191         12
   192          4
   193          1
   202          0
   203          0
   204          0
   205          0
   219          7
   221        616
   222        123
   223         12
   224          0