##TITLE=Library Entry 15033
##JCAMP-DX=Revision 4.10 
##DATA TYPE=MASS SPECTRUM
##SAMPLE DESCRIPTION=A.A.Kutin, Moscow, Russia
##NAMES=HP
##CAS NAME=4H-Benzo[b]pyran-4-one, 5-acetoxy-2-(3,4-diacetoxyphenyl)-3,6,7-t
rimethoxy-
##MOLFORM=C24H22O11
##CAS REGISTRY NO=14965-19-6
##MP= -300
##BP= -300
##MW= 486
##$RETENTION INDEX=0
##$CONDENSED SPECTRUM=NO
##NPOINTS= 227
##XYDATA=(XY..XY) 1 
    33          3
    39         15
    40         62
    41         27
    43        999
    44         60
    45          7
    51          9
    52          9
    53         29
    54          4
    55         16
    56          6
    57         13
    59         16
    60          3
    63          7
    64          3
    65         12
    66         11
    67          6
    69         90
    70          7
    71          7
    75          8
    76          6
    77         24
    78          5
    79         14
    81         20
    82         14
    83         15
    84          6
    85          8
    89          4
    91         14
    92         12
    93         28
    94          8
    95          8
    96          2
    97          5
    99          4
   103          5
   105         56
   106          7
   107          7
   108          9
   109         25
   110          5
   111          7
   112          2
   113          4
   115          6
   117          5
   119          6
   120          5
   121         28
   122         11
   123         11
   124          4
   125         14
   126          3
   127          4
   129          2
   131          7
   133          9
   134         19
   135         17
   136         21
   137         71
   138          7
   139         10
   141          3
   143          4
   145          8
   146         26
   147         56
   148         18
   149         24
   150         36
   151         13
   152         10
   153         54
   154          7
   157          2
   158          3
   159          8
   160          7
   161         11
   162          6
   163         10
   164         11
   165         17
   167         75
   168          7
   169          4
   171          8
   173          5
   179         17
   181         50
   182         11
   183          7
   185          3
   186          2
   187          4
   188          3
   189         16
   190         32
   191          3
   195         11
   196         11
   197         20
   198          3
   199          3
   201          4
   202          4
   203          5
   213          4
   214          4
   215          4
   217          5
   222          9
   225          2
   227         10
   228          6
   229          4
   230          2
   231          4
   239          5
   241          4
   243          9
   244          8
   245         13
   246          3
   255          6
   256          6
   257          8
   259         11
   260          2
   268          4
   269          4
   270          7
   271          9
   272          4
   273         14
   274          6
   281          5
   283          6
   284         10
   285         11
   286          6
   287         11
   288          4
   289          3
   295          3
   296          6
   297          4
   298         10
   299         14
   300          8
   301         30
   302         25
   303         11
   310          3
   311          6
   312         29
   313         31
   314         26
   315         26
   316         11
   317         35
   318          7
   324         10
   325         11
   326          6
   327         22
   328         13
   329         18
   330         25
   331         36
   332          6
   338          6
   341        129
   342        100
   343         41
   344         28
   345         75
   346         16
   347          2
   354          3
   355          5
   356         12
   357         11
   359        232
   360         88
   361         16
   367          6
   369          2
   372          3
   373          8
   382          2
   383         30
   384         53
   385         60
   387        111
   388         22
   389          3
   399          2
   400          9
   401        103
   402        127
   403         24
   404          4
   426          3
   427          2
   429         34
   430         15
   441          6
   443         70
   444        595
   445        127
   446         29
   485          2
   486         86
   487         15
   488          3