##TITLE=Library Entry 14902
##JCAMP-DX=Revision 4.10 
##DATA TYPE=MASS SPECTRUM
##SAMPLE DESCRIPTION=G.SCHULZ SCHERING AG, BERLIN, E.GERMANY.
##NAMES=HP
##CAS NAME=Androsta-3,5-diene-2,7-dione, 3-chloro-17.beta.-hydroxy-, acetate
##MOLFORM=C21H25ClO4
##CAS REGISTRY NO=14962-87-9
##MP= -300
##BP= -300
##MW= 376
##$RETENTION INDEX=0
##$CONDENSED SPECTRUM=NO
##NPOINTS= 136
##XYDATA=(XY..XY) 1 
    27         25
    28        110
    29         50
    31         33
    32         20
    36         20
    39         30
    41        140
    42         15
    43        999
    44         75
    45         10
    53         40
    55        124
    57         40
    58         30
    60          7
    65         40
    66          8
    67         54
    68         10
    69         34
    71         10
    77         74
    78         10
    79        100
    80         15
    81        136
    82         16
    83         10
    91        190
    92         20
    93        100
    94         40
    95         55
   103         10
   105         60
   106         10
   107         80
   108         13
   109         13
   115         40
   116         10
   117         25
   119         80
   120         10
   121         27
   127         15
   128         24
   129         29
   131         30
   132         12
   133         86
   134         30
   135         10
   141         25
   143         10
   145         40
   146         28
   147         29
   153         12
   154         15
   155         50
   156         10
   157         24
   158         10
   159         25
   160         10
   161         70
   162         10
   165         12
   167         12
   169         12
   173         10
   174         10
   175         10
   179         17
   181         30
   182         30
   183         23
   184         10
   187         16
   193         18
   194         10
   195         20
   196          9
   197          6
   205         10
   207        214
   208         55
   209        216
   210         40
   211         50
   221         60
   222        410
   223        112
   224        150
   225         30
   233         12
   235        398
   236        178
   237        150
   238         55
   245         10
   247         13
   249         13
   259         10
   261         12
   263         10
   278         12
   279         18
   281         40
   287         16
   288         11
   289         11
   290         15
   291         10
   299         10
   301        213
   302         40
   303         70
   304         10
   314          4
   315         20
   316        360
   317         90
   318        122
   319         50
   333         10
   334         56
   335          7
   336         13
   376        640
   377         87
   378        220
   379         28