##TITLE=Library Entry 4037
##JCAMP-DX=Revision 4.10 
##DATA TYPE=MASS SPECTRUM
##SAMPLE DESCRIPTION=CARL DJERASSI DEPT OF CHEM STANFORD UNIV STANFORD CALIF
 94305
##NAMES=HP
##CAS NAME=Carbazic acid, 3-(1-propylbutylidene)-, methyl ester
##MOLFORM=C9H18N2O2
##CAS REGISTRY NO=14978-96-2
##MP= -300
##BP= -300
##MW= 186
##$RETENTION INDEX=0
##$CONDENSED SPECTRUM=NO
##NPOINTS= 78
##XYDATA=(XY..XY) 1 
    41        999
    42        290
    43        470
    44        120
    45         40
    46         20
    50         10
    51         20
    52         10
    53         60
    54        240
    55        360
    56        170
    57        130
    58        100
    59        150
    60         10
    64         10
    65         10
    66         20
    67         50
    68        140
    69        200
    70        410
    71         40
    72         10
    73         20
    75         10
    76        100
    77         10
    79         10
    80         10
    81         20
    82         30
    83         90
    84         40
    85         40
    88         10
    89        110
    90         40
    91         10
    94         10
    95         10
    96        110
    97         30
    98        620
    99         30
   102         20
   103         10
   109         10
   110         10
   111        380
   112         90
   113         20
   114         10
   115         70
   116         10
   125         20
   126        170
   127         20
   130        960
   131         70
   132         10
   139        170
   140         20
   143        190
   144         20
   153         20
   154         30
   155         10
   157         10
   158        280
   159         30
   171        340
   172         40
   185         20
   186        300
   187         40