##TITLE=Library Entry 29538
##JCAMP-DX=Revision 4.10 
##DATA TYPE=MASS SPECTRUM
##SAMPLE DESCRIPTION=Exported from NIST MS Search
##NAMES=HP
##CAS NAME=3-Heptanol, 4-methyl-
##MOLFORM=C8H18O
##CAS REGISTRY NO=14979-39-6
##MP= -300
##BP= -300
##MW= 130
##$RETENTION INDEX=0
##$CONDENSED SPECTRUM=NO
##NPOINTS= 88
##XYDATA=(XY..XY) 1 
    13          1
    14          3
    15         24
    16          1
    17          1
    18          4
    19          1
    25          1
    26         29
    27        251
    28         48
    29        229
    30         14
    31        242
    32          3
    33          1
    36          1
    37          3
    38          7
    39        102
    40         18
    41        240
    42         54
    43        225
    44         12
    45        112
    46          3
    47          1
    48          1
    49          1
    50          3
    51          7
    52          3
    53         20
    54          5
    55        166
    56         19
    57        136
    58        197
    59        999
    60         35
    61          4
    62          1
    63          2
    64          1
    65          3
    66          1
    67          6
    68          3
    69         30
    70         75
    71         51
    72          7
    73         17
    74          1
    75          1
    77          1
    78          1
    79          1
    80          1
    81          2
    82          2
    83        139
    84         12
    85          6
    86         15
    87          5
    88          1
    91          1
    93          1
    95          1
    96          1
    97          6
    98          1
    99          4
   100          4
   101        110
   102          7
   103          1
   109          1
   111          1
   112          6
   113          2
   115          2
   116          1
   128          1
   129          2
   130          1