##TITLE=Library Entry 1797
##JCAMP-DX=Revision 4.10 
##DATA TYPE=MASS SPECTRUM
##SAMPLE DESCRIPTION=A.A.Kutin, Moscow, Russia
##NAMES=HP
##CAS NAME=Pyrido[1,2-a]pyrimidin-4(5H)-one, 9-hydroxy-2-methyl-8-nitro-
##MOLFORM=C9H7N3O4
##CAS REGISTRY NO=149775-27-9
##MP= -300
##BP= -300
##MW= 221
##$RETENTION INDEX=0
##$CONDENSED SPECTRUM=NO
##NPOINTS= 110
##XYDATA=(XY..XY) 1 
    33          8
    34          8
    36          9
    37        116
    38        359
    39        999
    40         50
    41        148
    42        205
    43         89
    44        108
    45         42
    46         37
    50         49
    51        112
    52        287
    53        315
    54        208
    55        165
    56         25
    57         26
    59         19
    60         15
    62          9
    63         49
    64        149
    65        177
    66        170
    67        621
    68        219
    69         77
    70         25
    71         13
    73         20
    75         15
    76         43
    77        109
    78        149
    79        137
    80         97
    81         72
    82         35
    83         34
    84         12
    90         22
    91        125
    92        164
    93        162
    94        125
    95         29
    96         15
    97         35
    98          6
   102          7
   103         20
   104         24
   105         65
   106         28
   107         79
   108         39
   109         86
   110         32
   111         18
   117         28
   118         99
   119        381
   120         85
   121         21
   122         11
   123          7
   124         13
   125          5
   131         29
   132         24
   133         41
   134         51
   135        433
   136         56
   137          6
   145         22
   146         43
   147        104
   148         31
   149         18
   150          8
   154          6
   158          7
   159         15
   160         25
   161          7
   162         15
   163        292
   164         34
   165          3
   174         62
   175         25
   176         40
   177          5
   179          2
   180         12
   191        210
   192         27
   193        109
   194          9
   204         11
   205          8
   206          5
   221        410
   222         47
   223          5