##TITLE=Library Entry 90022
##JCAMP-DX=Revision 4.10 
##DATA TYPE=MASS SPECTRUM
##SAMPLE DESCRIPTION=Japan AIST/NIMC Database- Spectrum MS-NW-6669
##NAMES=HP
##CAS NAME=.alpha.-Methyl-.alpha.-propylsuccinimide
##MOLFORM=C8H13NO2
##CAS REGISTRY NO=1497-19-4
##MP= -300
##BP= -300
##MW= 155
##$RETENTION INDEX=0
##$CONDENSED SPECTRUM=NO
##NPOINTS= 78
##XYDATA=(XY..XY) 1 
    14          3
    15          9
    16          2
    17          1
    18          3
    26          7
    27         79
    28         28
    29         81
    30          4
    31          1
    32          3
    36          1
    37          3
    38         10
    39        113
    40         32
    41        214
    42         91
    43         38
    44         24
    45          2
    50          6
    51          9
    52          7
    53         30
    54         11
    55        151
    56        597
    57         29
    58          2
    59          9
    61          1
    62          2
    63          3
    64          2
    65          6
    66          5
    67         21
    68         13
    69        180
    70         15
    71          3
    72          3
    73          2
    77          3
    78          1
    79          2
    80          2
    81          3
    82          5
    83          9
    84         64
    85        126
    86          8
    92          1
    93          1
    94          6
    95          5
    96          3
    97          4
    98         47
    99          4
   100          1
   108          1
   109          3
   110          2
   111          2
   112         36
   113        999
   114         65
   115          8
   122          1
   126         14
   127          2
   140          2
   141          1
   155          1