##TITLE=Library Entry 31008
##JCAMP-DX=Revision 4.10 
##DATA TYPE=MASS SPECTRUM
##SAMPLE DESCRIPTION=Chemical Concepts
##NAMES=HP
##CAS NAME=1-Butanol, 4-mercapto-
##MOLFORM=C4H10OS
##CAS REGISTRY NO=14970-83-3
##MP= -300
##BP= -300
##MW= 106
##$RETENTION INDEX=0
##$CONDENSED SPECTRUM=NO
##NPOINTS= 64
##XYDATA=(XY..XY) 1 
    23          1
    26         37
    27        329
    29        163
    30          6
    31        699
    33         14
    34         21
    35         57
    36          1
    37          9
    38         22
    39        222
    40         20
    41        399
    42        290
    43        161
    44        551
    45        216
    46        290
    47        555
    48         49
    49         28
    50         11
    51         12
    52          2
    53         57
    54        291
    55        528
    56         20
    57         69
    58         40
    59         96
    60        999
    61        126
    62         49
    63         16
    64          2
    65          2
    66          0
    69          6
    70          2
    71         13
    72          8
    73        105
    74          7
    75         13
    76          1
    77          1
    78          0
    79          1
    83          0
    85         13
    86          2
    87         46
    88        709
    89         49
    90         35
    91          1
   104          1
   106        173
   107          9
   108          8
   109          0