##TITLE=Library Entry 98333
##JCAMP-DX=Revision 4.10 
##DATA TYPE=MASS SPECTRUM
##SAMPLE DESCRIPTION=NIST Mass Spectrometry Data Center
##NAMES=HP
##CAS NAME=.alpha.-Methyl-.alpha.-phenylsuccinimide
##MOLFORM=C11H11NO2
##CAS REGISTRY NO=1497-17-2
##MP= -300
##BP= -300
##MW= 189
##$RETENTION INDEX=1698
##$CONDENSED SPECTRUM=NO
##NPOINTS= 75
##XYDATA=(XY..XY) 1 
    15          1
    26          1
    27          8
    28          2
    29          1
    37          1
    38          6
    39         42
    40          7
    41         10
    42          5
    43          6
    44          5
    45          1
    49          2
    50         33
    51         85
    52         21
    53          7
    54          1
    55          1
    58         78
    61          2
    62         11
    63         31
    64          6
    65         27
    66          3
    67          1
    70          9
    73          8
    74         14
    75         15
    76         20
    77        121
    78        115
    79          9
    85          1
    86          3
    87          5
    88          2
    89         19
    90          7
    91         91
    92          8
    94          1
    98          2
    99          1
   101          4
   102         38
   103        201
   104         21
   105          3
   113          1
   115         95
   116         23
   117        439
   118        999
   119         99
   120          4
   128          1
   129          1
   130          1
   131          2
   132          1
   142          1
   144          2
   145          1
   146          5
   147          1
   160          1
   161          1
   189        126
   190         16
   191          1