##TITLE=Library Entry 15155
##JCAMP-DX=Revision 4.10 
##DATA TYPE=MASS SPECTRUM
##SAMPLE DESCRIPTION=Chemical Concepts
##NAMES=HP
##CAS NAME=Ethylamine, 2-diethylboryloxy-
##MOLFORM=C6H16BNO
##CAS REGISTRY NO=149894-26-8
##MP= -300
##BP= -300
##MW= 129
##$RETENTION INDEX=0
##$CONDENSED SPECTRUM=NO
##NPOINTS= 67
##XYDATA=(XY..XY) 1 
    26         16
    27         98
    28         69
    29         63
    30        465
    31          6
    32          0
    35          0
    36          4
    37         14
    38         10
    39         38
    40         43
    41         78
    42        139
    43         58
    44        999
    45         27
    46          0
    49          1
    50          2
    51          3
    52          4
    53         12
    54          6
    55         11
    56         11
    57         14
    58          1
    59          0
    60          0
    61          1
    63          0
    64          0
    65          1
    66          1
    67          2
    68          8
    69         22
    70         23
    71         11
    72          2
    81          0
    82          2
    83          4
    84          1
    85          0
    86          0
    88          0
    96          0
    97          3
    98         14
    99         84
   100        337
   101         14
   102          0
   111          0
   112          2
   113          0
   114          0
   124          0
   125          0
   126          0
   128          1
   129          4
   130          0
   131          0