##TITLE=Library Entry 5791
##JCAMP-DX=Revision 4.10 
##DATA TYPE=MASS SPECTRUM
##SAMPLE DESCRIPTION=NIST Mass Spectrometry Data Center, 1990.
##NAMES=HP
##CAS NAME=Ethyl 2-bromotetradecanoate
##MOLFORM=C16H31BrO2
##CAS REGISTRY NO=14980-92-8
##MP= -300
##BP= -300
##MW= 334
##$RETENTION INDEX=0
##$CONDENSED SPECTRUM=NO
##NPOINTS= 197
##XYDATA=(XY..XY) 1 
    15         11
    16          2
    18          7
    19          3
    26         20
    27        267
    28         97
    29        884
    30         24
    31         14
    39        155
    41        929
    42        195
    43        999
    44         39
    45         64
    46          5
    47          4
    51          6
    52          9
    53         93
    54        106
    55        857
    56        168
    57        593
    58         32
    59         15
    60         24
    61         23
    62          3
    65         16
    66         14
    67        179
    68         85
    69        435
    70        125
    71        212
    72          3
    73        558
    74         25
    75          6
    76          2
    77          9
    78          2
    79         33
    80         25
    81        179
    82         56
    83        266
    84         89
    85        111
    86         30
    87         63
    88        150
    89         26
    91          8
    92          3
    93         28
    94         15
    95        173
    96         75
    97        226
    98        128
    99        114
   100          3
   101        496
   102         46
   103          3
   105          7
   106          9
   107         32
   108         22
   109        124
   110         45
   111        114
   112         31
   113         64
   114         14
   115        110
   116         15
   118          3
   119         14
   120         12
   121         48
   122         13
   123         65
   124         44
   125         60
   126         12
   127         47
   128         13
   129         61
   130         10
   131          3
   133         14
   134         12
   135         51
   136          7
   137         52
   138        145
   139         38
   140        136
   141         17
   142         11
   143         56
   144         27
   147         10
   148          5
   149         27
   150          5
   151         52
   152         17
   153         46
   154          5
   155         19
   156          5
   157        170
   158         26
   159          4
   161          6
   162          5
   163         12
   164         15
   165          4
   166        564
   167          4
   168        501
   169         26
   170          4
   171        133
   172         18
   175          7
   176          2
   177          8
   178          2
   179         62
   180         11
   181         60
   182          5
   183          4
   184          2
   185         57
   186         10
   189          7
   190          8
   191         72
   192          9
   193         25
   195         17
   197          3
   199         35
   200          7
   205          5
   207         21
   208         46
   209         73
   210         28
   211         15
   212          3
   213        154
   214         22
   221        131
   222         18
   223        134
   224         15
   225          4
   226          4
   227        268
   228         40
   229          5
   235        122
   236         18
   237        133
   238         12
   249          3
   251          5
   255        682
   256        114
   257         14
   263         14
   264          3
   265         18
   277         42
   278          6
   279         37
   280          6
   289          5
   291         36
   292          5
   293         31
   294          5
   305          2
   307          3
   334         39
   335         10
   336         40
   337         10