##TITLE=Library Entry 64779
##JCAMP-DX=Revision 4.10 
##DATA TYPE=MASS SPECTRUM
##SAMPLE DESCRIPTION=Organic Synthesis Lab, MSU, Moscow.TRC 873
##NAMES=HP
##CAS NAME=3-(Phenylmethoxy)estra-1,3,5(10)-trien-17.beta.-ol
##MOLFORM=C25H30O2
##CAS REGISTRY NO=14982-15-1
##MP= -300
##BP= -300
##MW= 362
##$RETENTION INDEX=0
##$CONDENSED SPECTRUM=NO
##NPOINTS= 110
##XYDATA=(XY..XY) 1 
    27          2
    29          5
    39          6
    40          0
    41         17
    42          0
    43         10
    44          0
    51          1
    53          5
    55         15
    57          4
    63          1
    65         21
    66          0
    67          6
    68          1
    69          2
    71          0
    77          7
    78          1
    79          7
    81          5
    89          2
    90          1
    91        999
    92         73
    93          8
    94          0
    95          2
    97          0
   102          0
   103          2
   104          0
   105          4
   107         11
   108          0
   109          0
   115         11
   116          4
   117          4
   119          0
   121          2
   127          2
   128          8
   129          8
   130          2
   131          3
   132          1
   133         11
   134          0
   141          4
   142          0
   143          1
   144          3
   145          7
   146          4
   147          1
   152          0
   153          1
   154          0
   155          1
   156          0
   157          8
   158          7
   159         11
   160          5
   161          0
   165          1
   167          1
   169          0
   170          0
   171          3
   172          2
   173          0
   179          0
   183          2
   184          0
   185          2
   186          0
   195          1
   196          7
   197          4
   198          2
   199          2
   209          0
   210          0
   211          2
   212          0
   213          1
   223          0
   225          0
   227          0
   236          0
   249          0
   251          0
   252          0
   253          4
   254          0
   270          0
   271          2
   272          3
   303          0
   344          2
   345          0
   360          6
   361          1
   362        186
   363         49
   364          5