##TITLE=Library Entry 2130
##JCAMP-DX=Revision 4.10 
##DATA TYPE=MASS SPECTRUM
##SAMPLE DESCRIPTION=ALPHA Chemicals / NIST MS Data Center.
##NAMES=HP
##CAS NAME=Allylphosphonic dichloride
##MOLFORM=C3H5Cl2OP
##CAS REGISTRY NO=1498-47-1
##MP= -300
##BP= -300
##MW= 158
##$RETENTION INDEX=0
##$CONDENSED SPECTRUM=NO
##NPOINTS= 84
##XYDATA=(XY..XY) 1 
    12          1
    13          3
    14          5
    15         11
    17          0
    18          0
    25          3
    26         15
    27         31
    28         26
    29          8
    31          9
    32          3
    33          2
    35         12
    36          5
    37         36
    38         89
    39        483
    40          2
    41        999
    42         28
    44          5
    45          9
    47        148
    48          4
    49          6
    51          1
    53          1
    55          4
    56          6
    57          8
    58          2
    61          1
    66         15
    67          5
    68         15
    69          8
    70          1
    71          1
    75         11
    76          8
    77          4
    78          3
    79          3
    80          1
    82         13
    83         24
    84          4
    85          6
    86          4
    87         16
    88          1
    93          1
    94          1
    96          7
    97         18
    98          3
    99          5
   101         11
   102          3
   103          7
   104          2
   105          1
   115          1
   117         22
   118         12
   119         16
   120          8
   121          4
   122          5
   123         32
   124          2
   125         10
   128          2
   130         86
   132        128
   134         53
   135          1
   136          8
   158         68
   160         39
   161          3
   162          7