##TITLE=Library Entry 5256
##JCAMP-DX=Revision 4.10 
##DATA TYPE=MASS SPECTRUM
##SAMPLE DESCRIPTION=Dennis Rohrbaugh, CBDCOM/ERDEC, Edgewood, MD
##NAMES=HP
##CAS NAME=Phosphoramidothioic dichloride, dimethyl-
##MOLFORM=C2H6Cl2NPS
##CAS REGISTRY NO=1498-65-3
##MP= -300
##BP= -300
##MW= 177
##$RETENTION INDEX=0
##$CONDENSED SPECTRUM=NO
##NPOINTS= 38
##XYDATA=(XY..XY) 1 
    15        245
    30         19
    41        596
    42        999
    43        530
    44        645
    59         18
    60        109
    61         10
    63        179
    76         20
    94         19
    98         29
    99         49
   100         10
   101         80
   103         38
   107          9
   111        142
   112         50
   133        110
   134         20
   135         69
   136          9
   137          9
   142         40
   143          9
   144        820
   145         19
   146        251
   147          9
   148         70
   176          9
   177        390
   178         29
   179        279
   180          9
   181         49