##TITLE=Library Entry 60632
##JCAMP-DX=Revision 4.10 
##DATA TYPE=MASS SPECTRUM
##SAMPLE DESCRIPTION=ASES Database, Dalian Institute, P.R. China
##NAMES=HP
##CAS NAME=Benzyl phosphine
##MOLFORM=C7H9P
##CAS REGISTRY NO=14990-01-3
##MP= -300
##BP= -300
##MW= 124
##$RETENTION INDEX=0
##$CONDENSED SPECTRUM=NO
##NPOINTS= 15
##XYDATA=(XY..XY) 1 
    39         79
    51         29
    52          9
    63          9
    65        120
    77         30
    78         50
    90         20
    91        999
    92        341
    93         19
    94         20
   122         20
   124        220
   125         40