##TITLE=Library Entry 4698
##JCAMP-DX=Revision 4.10 
##DATA TYPE=MASS SPECTRUM
##SAMPLE DESCRIPTION=M. Garraffo, LBC, NIDDK, NIH, Bethesda, MD 20892
##NAMES=HP
##CAS NAME=17a-Ethyl-3.beta.-methoxy-17a-aza-D-homoandrost-5-ene-17-one
##MOLFORM=C22H35NO2
##CAS REGISTRY NO=149942-11-0
##MP= -300
##BP= -300
##MW= 345
##$RETENTION INDEX=0
##$CONDENSED SPECTRUM=NO
##NPOINTS= 232
##XYDATA=(XY..XY) 1 
    42        999
    43        334
    44        387
    45        139
    46        104
    47         14
    49          8
    51         24
    52         18
    53        144
    54         76
    55        589
    56        110
    57        116
    58        131
    59         46
    60          9
    61         14
    63          8
    65         83
    66         35
    67        176
    68         68
    69        102
    70        193
    71        369
    72         92
    73         23
    74          7
    77        179
    78         42
    79        242
    80         62
    81        172
    82         84
    83         58
    84         99
    85        113
    86         44
    87         68
    88         16
    89         11
    91        281
    92         44
    93        129
    94         64
    95         96
    96         83
    97         44
    98        128
    99         23
   100         28
   101         46
   102         10
   103         34
   104         19
   105        158
   106         42
   107         97
   108         64
   109         56
   110         73
   111         49
   112         99
   113         28
   114          9
   115         70
   116         28
   117         69
   118         24
   119         85
   120         37
   121         62
   122         63
   123         59
   124         72
   125         30
   126         47
   127         26
   128         63
   129         69
   130         25
   131         62
   132         23
   133         49
   134         42
   135         51
   136         53
   137         38
   138        116
   139         84
   140         44
   141         48
   142         34
   143         59
   144         23
   145         59
   146         23
   147         36
   148         28
   149         29
   150         42
   151         24
   152         72
   153         28
   154         31
   155         35
   156         21
   157         55
   158         33
   159         43
   160         20
   161         41
   162         22
   163         16
   164         37
   165         34
   166         41
   167         21
   168         17
   169         21
   170         13
   171         25
   172         15
   173         29
   174         21
   175         20
   176         29
   177         24
   178         65
   179         23
   180         16
   181         17
   182         12
   183         19
   184         11
   185         18
   186         12
   187         20
   188         18
   189         14
   190         17
   191         16
   192         47
   193         99
   194         46
   195         18
   196         15
   197         17
   198         12
   199         19
   200         11
   201         13
   202         11
   203          8
   204         12
   205          7
   206         15
   207         11
   208         12
   209         24
   210         16
   211         16
   212         11
   213         14
   214         10
   215          9
   216          9
   218          9
   219          7
   220         15
   221          8
   222          9
   223         12
   224          9
   225         12
   226          9
   227         11
   228          9
   229          8
   230          8
   237          7
   238          9
   239          9
   240          8
   241         11
   242          9
   243          6
   244          7
   246          7
   251          7
   254          7
   255          7
   256         10
   257          7
   258          7
   259          8
   260          7
   270          9
   274          7
   283          7
   284         10
   286          7
   288          7
   294         12
   296         34
   297          9
   298         10
   300          8
   302         22
   311         27
   312         28
   313          8
   314         14
   316         24
   317          7
   318          8
   326          8
   327         12
   328         43
   329         12
   330        134
   331         34
   332         16
   334          6
   342         17
   343         24
   344        108
   345        231
   346         69
   347         17
   348          2