##TITLE=Library Entry 6651
##JCAMP-DX=Revision 4.10 
##DATA TYPE=MASS SPECTRUM
##SAMPLE DESCRIPTION=M. Garraffo, LBC, NIDDK, NIH, Bethesda, MD 20892
##NAMES=HP
##CAS NAME=17a-Ethyl-3.beta.-acetoxy-17a-aza-D-homoandrost-5-ene-17-one
##MOLFORM=C23H35NO3
##CAS REGISTRY NO=149942-07-4
##MP= -300
##BP= -300
##MW= 373
##$RETENTION INDEX=0
##$CONDENSED SPECTRUM=NO
##NPOINTS= 231
##XYDATA=(XY..XY) 1 
    42        556
    43        999
    44        294
    45         23
    46         91
    47         13
    49         10
    50          1
    51          9
    52          5
    53         70
    54         40
    55        358
    56         73
    57        105
    58        139
    59          9
    60         14
    61          8
    63          2
    64          1
    65         37
    66         15
    67        128
    68         35
    69         57
    70        110
    71         52
    72         62
    73         13
    74          2
    75          1
    77         90
    78         22
    79        144
    80         28
    81        122
    82         51
    83         35
    84         80
    85         67
    86         32
    87         83
    88         13
    89          2
    91        188
    92         31
    93         83
    94         32
    95         45
    96         50
    97         22
    98         72
    99         11
   100         23
   101         17
   102          3
   103         18
   104         12
   105        140
   106         28
   107         53
   108         35
   109         23
   110         40
   111         17
   112        103
   113         21
   115         37
   116         15
   117         57
   118         17
   119         60
   120         39
   121         31
   122         33
   123         27
   124         42
   125         10
   126         36
   127         10
   128         35
   129         43
   130         17
   131         53
   132          1
   133         38
   134         13
   135         15
   136         29
   137         18
   138        109
   139         25
   140         16
   141         19
   142         19
   143         50
   144         14
   145         48
   146         12
   147         18
   148         11
   149         22
   150         20
   151          8
   152         32
   153          8
   154         10
   155         14
   156          8
   157         36
   158         38
   159         29
   160          9
   161          8
   162          6
   163          5
   164         24
   165         12
   166          6
   167          7
   168          6
   169          9
   170          4
   171         12
   172          6
   173         10
   174          5
   175          4
   176          9
   177         10
   178         41
   179          7
   180          3
   181          4
   182          2
   183          7
   184          3
   185          9
   186          4
   187          5
   188          4
   189          3
   190          4
   191          4
   192          8
   193        148
   194         24
   195          6
   196          2
   197          6
   198          3
   199         11
   200          4
   201          4
   202          3
   203          2
   204          3
   205          1
   206          1
   207          1
   208          1
   209          6
   210          1
   211         13
   212          4
   213          7
   214          5
   215          1
   216          2
   218          2
   220          1
   223          1
   224          1
   225          4
   226          6
   227          7
   228          3
   229          1
   230          2
   231          1
   232          1
   235          2
   237          2
   239          2
   240          1
   241          2
   242          3
   244          1
   246          1
   251          2
   252          1
   253         12
   254          3
   255          3
   256          2
   258          1
   259          6
   260          1
   267          1
   268          1
   269          3
   270         15
   271          3
   272          1
   282          1
   284          4
   285          9
   286          3
   288          1
   296          2
   297          1
   298        371
   299         84
   300         10
   301          1
   312          4
   313        144
   314         36
   315          5
   316          3
   330          3
   344          5
   345          1
   358         93
   359         22
   360          5
   372          2
   373         17
   374         11
   375          3