##TITLE=Library Entry 79313
##JCAMP-DX=Revision 4.10 
##DATA TYPE=MASS SPECTRUM
##SAMPLE DESCRIPTION=L. Tsai, LB, NHLBI, NIH, Bethesda, MD 20892
##NAMES=HP
##CAS NAME=N-Benzoylglycine ethyl ester
##MOLFORM=C11H13NO3
##CAS REGISTRY NO=1499-53-2
##MP= -300
##BP= -300
##MW= 207
##$RETENTION INDEX=1726
##$CONDENSED SPECTRUM=NO
##NPOINTS= 47
##XYDATA=(XY..XY) 1 
    41          1
    42          5
    43          8
    44          2
    45          4
    50         29
    51         93
    52          7
    53          2
    56          5
    57          3
    63          2
    65          2
    67          0
    74         11
    75          9
    76         23
    77        316
    78         24
    79          3
    82          1
    91          5
    93          3
   103          2
   105        999
   106         79
   107          5
   108          1
   110          2
   120          3
   132          1
   134        284
   135         31
   136          4
   148          3
   149          0
   161         62
   162         45
   163          4
   166          7
   180          2
   189          0
   190          2
   194          6
   207        221
   208         30
   209          3