##TITLE=Library Entry 32492
##JCAMP-DX=Revision 4.10 
##DATA TYPE=MASS SPECTRUM
##SAMPLE DESCRIPTION=Chemical Concepts
##NAMES=HP
##CAS NAME=2,2'-Azinobis(bicyclo[2.1.1]hexane
##MOLFORM=C12H16N2
##CAS REGISTRY NO=149932-29-6
##MP= -300
##BP= -300
##MW= 188
##$RETENTION INDEX=0
##$CONDENSED SPECTRUM=NO
##NPOINTS= 114
##XYDATA=(XY..XY) 1 
    30         13
    31          0
    32          9
    36          1
    37          8
    38         21
    39        453
    40         84
    41        828
    42        120
    43         33
    44         32
    45          1
    48         14
    49          1
    50         18
    51         67
    52         75
    53        193
    54        362
    55        104
    56         11
    57          8
    58          0
    59         22
    60          1
    62          1
    63         19
    64         10
    65        107
    66        150
    67        999
    68        174
    69         29
    70          6
    71          6
    72         36
    73          2
    74          1
    75          4
    76          2
    77        104
    78         37
    79        172
    80        201
    81         70
    82         15
    83          5
    84          6
    85          3
    86          0
    89          0
    91         27
    92         24
    93        102
    94        499
    95         83
    96         23
    97          4
    98          6
    99          0
   103          2
   104          5
   105         11
   106         39
   107         30
   108         23
   109         27
   110          3
   111          5
   112          1
   113          1
   115          2
   116          1
   117         11
   118         20
   119         33
   120         97
   121         39
   122          7
   123          1
   128          1
   129          1
   130          4
   131          8
   132         14
   133         19
   134         33
   135         15
   136          1
   144          3
   145         14
   146         10
   147         62
   148          7
   149          0
   156          0
   157          1
   158          3
   159         14
   160         14
   161         12
   162          2
   165          0
   170          1
   171          1
   172          1
   173         44
   174          4
   186          6
   187        201
   188        363
   189         46
   190          2