##TITLE=Library Entry 8549
##JCAMP-DX=Revision 4.10 
##DATA TYPE=MASS SPECTRUM
##SAMPLE DESCRIPTION=NIST Mass Spectrometry Data Center
##NAMES=HP
##CAS NAME=6-Octen-1-ol, 3,7-dimethyl-, acetate
##MOLFORM=C12H22O2
##CAS REGISTRY NO=150-84-5
##MP= -300
##BP= -300
##MW= 198
##$RETENTION INDEX=1354
##$CONDENSED SPECTRUM=NO
##NPOINTS= 98
##XYDATA=(XY..XY) 1 
    14          6
    15         46
    16          1
    17          1
    18          4
    19          1
    25          1
    26          6
    27        111
    28         36
    29        120
    30          4
    31         12
    32          1
    37          1
    38          5
    39        177
    40         44
    41        770
    42        111
    43        999
    44         30
    45         10
    50          6
    51         21
    52         12
    53        128
    54         46
    55        432
    56        126
    57         74
    58          4
    59          4
    60          2
    61         53
    62          2
    63          5
    64          1
    65         35
    66         18
    67        636
    68        366
    69        905
    70        107
    71         30
    72          5
    73         25
    74          1
    77         34
    78          7
    79         64
    80         61
    81        855
    82        624
    83        128
    84         11
    85         10
    86          2
    87          7
    88          2
    89          1
    91         25
    92          4
    93         33
    94         58
    95        842
    96        177
    97         21
    98          3
    99          7
   100          1
   101          1
   103          1
   105          5
   106          1
   107         13
   108          7
   109        315
   110         86
   111         16
   112          2
   113          3
   114          1
   115          5
   116          1
   117          1
   119          2
   121         13
   123        644
   124         64
   125          4
   135          1
   136          1
   137         12
   138        385
   139         43
   140          2
   155          1