##TITLE=Library Entry 91027
##JCAMP-DX=Revision 4.10 
##DATA TYPE=MASS SPECTRUM
##SAMPLE DESCRIPTION=RADIAN CORP
##NAMES=HP
##CAS NAME=Glycine, N-[2-[bis(carboxymethyl)amino]ethyl]-N-(2-hydroxyethyl)-
##MOLFORM=C10H18N2O7
##CAS REGISTRY NO=150-39-0
##MP= -300
##BP= -300
##MW= 278
##$RETENTION INDEX=0
##$CONDENSED SPECTRUM=NO
##NPOINTS= 163
##XYDATA=(XY..XY) 1 
    15          8
    16          2
    17          3
    18         11
    26          4
    27         20
    28        118
    29         33
    30         29
    31         20
    36          2
    38          3
    39         13
    40         16
    41         90
    42        459
    43        102
    44        401
    45         53
    46          4
    49          4
    50          3
    51          6
    52          8
    53          7
    54         45
    55         70
    56        425
    57         70
    58        115
    59         16
    60         59
    61          3
    63         10
    65          4
    66          4
    67          7
    68         23
    69         28
    70         93
    71         35
    72         29
    73         10
    74         51
    75          4
    76          2
    77         10
    78          5
    79          6
    80          6
    81          9
    82         19
    83         31
    84         39
    85         28
    86        618
    87         42
    88        334
    89         16
    90          3
    91          3
    92          3
    93          5
    94          7
    95          7
    96          9
    97         25
    98         47
    99         96
   100         50
   101         45
   102        224
   103         14
   104          3
   105         10
   106          4
   107          5
   108          5
   109          5
   110          6
   111         13
   112          8
   113         27
   114        999
   115        124
   116         20
   117          4
   118         31
   119          4
   120          4
   121          4
   122          6
   123         14
   124          5
   125         10
   126         12
   127        107
   128         79
   129         32
   130          8
   131          2
   132          5
   133          6
   134          2
   135          2
   136          3
   137          4
   138          3
   139          6
   140          6
   141         13
   142         12
   143        156
   144         14
   145          4
   146        366
   147         26
   148          6
   149          4
   150          3
   151          5
   152          2
   153          4
   154          3
   155          6
   156          3
   157         20
   158         11
   159         14
   160          5
   161          2
   162          2
   163          4
   164          3
   165          3
   166          2
   167          1
   168          3
   169          7
   170          7
   171        355
   172         34
   173         21
   174          3
   175          1
   181          1
   182          1
   183          2
   184          3
   185          3
   186          2
   187          2
   200          2
   201          1
   202         18
   203          3
   213          3
   214          5
   215          7
   242         24
   243          3
   260         23
   261          3