##TITLE=Library Entry 40349
##JCAMP-DX=Revision 4.10 
##DATA TYPE=MASS SPECTRUM
##SAMPLE DESCRIPTION=Japan AIST/NIMC Database- Spectrum MS-NW-1946
##NAMES=HP
##CAS NAME=Urea, N'-(4-chlorophenyl)-N,N-dimethyl-
##MOLFORM=C9H11ClN2O
##CAS REGISTRY NO=150-68-5
##MP= -300
##BP= -300
##MW= 198
##$RETENTION INDEX=1533
##$CONDENSED SPECTRUM=NO
##NPOINTS= 86
##XYDATA=(XY..XY) 1 
    15         34
    26          1
    27          4
    28          2
    29          2
    30          5
    36          1
    37          6
    38          9
    39         12
    40          4
    41          4
    42         35
    43         12
    44        107
    45         50
    46          1
    47          1
    49          2
    50          9
    51          6
    52          4
    56         13
    57          1
    58          1
    60          1
    61          5
    62         10
    63         28
    64         13
    65          5
    69          1
    71          3
    72        999
    73         38
    74          7
    75         16
    76          4
    77          2
    78          1
    81          3
    85          2
    86          1
    87          1
    88          2
    89          7
    90         33
    91          7
    92          2
    97          1
    98          4
    99         21
   100          3
   101          7
   102          1
   111          9
   112          1
   113          3
   119          1
   120          1
   124          1
   125         41
   126         15
   127         19
   128          7
   129          2
   133          2
   140          8
   141          1
   142          4
   146          4
   147          2
   153         94
   154         10
   155         31
   156          3
   161          1
   162          9
   163          3
   164          1
   183          2
   197          3
   198        234
   199         25
   200         76
   201          8