##TITLE=Library Entry 44812
##JCAMP-DX=Revision 4.10 
##DATA TYPE=MASS SPECTRUM
##SAMPLE DESCRIPTION=Japan AIST/NIMC Database- Spectrum MS-NW- 741
##NAMES=HP
##CAS NAME=DL-Phenylalanine
##MOLFORM=C9H11NO2
##CAS REGISTRY NO=150-30-1
##MP= -300
##BP= -300
##MW= 165
##$RETENTION INDEX=0
##$CONDENSED SPECTRUM=NO
##NPOINTS= 80
##XYDATA=(XY..XY) 1 
    15          5
    16          2
    17          3
    18         10
    26          3
    27         14
    28        141
    29         11
    30         25
    37          4
    38          9
    39         65
    40          7
    41         22
    42         35
    43         19
    44          9
    45          7
    46         56
    47          2
    49          2
    50         24
    51         58
    52         14
    53          7
    54          3
    55          2
    56          9
    57          3
    58         15
    59         32
    60         45
    61          5
    62         11
    63         38
    64         10
    65        125
    66          9
    67          2
    73          2
    74        999
    75         32
    76          9
    77         73
    78         18
    79          6
    80          3
    85          1
    86          3
    87          3
    88          1
    89         27
    90         19
    91        634
    92        201
    93         35
    94          3
   101          1
   102         10
   103         94
   104         34
   105          4
   107          1
   115          1
   116          5
   117         19
   118         45
   119         37
   120        594
   121         54
   122          2
   129          2
   130          4
   131          4
   132          1
   146          2
   147          8
   148          4
   165         23
   166          4