##TITLE=Library Entry 39112
##JCAMP-DX=Revision 4.10 
##DATA TYPE=MASS SPECTRUM
##SAMPLE DESCRIPTION=H. Fales, LC, NHLBI, NIH, Bethesda, MD 20892
##NAMES=HP
##CAS NAME=Tetrahydrofurfuryl oleate
##MOLFORM=C23H42O3
##CAS REGISTRY NO=150-81-2
##MP= -300
##BP= -300
##MW= 366
##$RETENTION INDEX=0
##$CONDENSED SPECTRUM=NO
##NPOINTS= 184
##XYDATA=(XY..XY) 1 
    41        197
    42         55
    43        360
    44         13
    45          7
    49          8
    51          1
    53         18
    54         58
    55        262
    56         55
    57        135
    58          7
    59          5
    60          7
    65          7
    66          8
    67        153
    68         56
    69        140
    70         64
    71        999
    72         42
    73         12
    74          9
    77          6
    78          3
    79         35
    80         26
    81        112
    82         89
    83        126
    84        358
    85        433
    86         28
    87         12
    91         14
    92          5
    93         22
    94         23
    95         86
    96         73
    97         81
    98        175
    99         26
   100         58
   101         17
   102          1
   103         24
   105          7
   106          4
   107         15
   108         20
   109         48
   110         44
   111         42
   112         70
   113         14
   114          7
   115          4
   119          9
   120          5
   121         20
   122         13
   123         39
   124         26
   125         18
   126         16
   127          9
   129          5
   133         11
   134          9
   135         18
   136          9
   137         49
   138         26
   139         13
   140          8
   141          7
   142          6
   143          2
   144         38
   145          6
   147          8
   148          7
   149         11
   150          9
   151         40
   152         34
   153         12
   154          7
   155         22
   156          2
   157         37
   158          5
   161          6
   162          4
   163          7
   164          8
   165         22
   166         28
   167         11
   168          5
   169         10
   171          9
   175          3
   177          6
   178          4
   179         12
   180         19
   181          9
   182          5
   183         11
   185          4
   191          4
   192          4
   193         10
   194          7
   195          6
   196          1
   197          6
   199          5
   206          1
   207         15
   208          9
   209          9
   210          3
   211         11
   213         11
   214          5
   220          6
   221         22
   222          9
   223          6
   225          3
   227          5
   228          5
   229          1
   234          3
   235         12
   236         21
   237          8
   239          7
   241          4
   246          6
   249          5
   250          5
   251          3
   253          5
   255          6
   256          4
   257         10
   262         19
   263          9
   264        207
   265         65
   266         10
   267          7
   269          7
   270          5
   277          1
   278          5
   279          5
   280          4
   281          6
   282          4
   283         12
   284          8
   285          2
   292          2
   295          4
   297          5
   298          4
   309          6
   311          3
   323          8
   337          2
   338          7
   339          3
   364          5
   365          8
   366         97
   367         44
   368          9