##TITLE=Library Entry 56031
##JCAMP-DX=Revision 4.10 
##DATA TYPE=MASS SPECTRUM
##SAMPLE DESCRIPTION=Japan AIST/NIMC Database- Spectrum MS-NW-6453
##NAMES=HP
##CAS NAME=1,2-Ethanediamine, N,N,N',N'-tetraethyl-
##MOLFORM=C10H24N2
##CAS REGISTRY NO=150-77-6
##MP= -300
##BP= -300
##MW= 172
##$RETENTION INDEX=1092
##$CONDENSED SPECTRUM=NO
##NPOINTS= 38
##XYDATA=(XY..XY) 1 
    15          5
    26          2
    27         15
    28         25
    29         37
    30         70
    31          1
    39          1
    40          1
    41          6
    42         30
    43          6
    44         21
    54          3
    55          2
    56         27
    57          9
    58         73
    59          3
    68          1
    70         10
    71         11
    72         11
    73          1
    84          9
    85          5
    86        999
    87         60
    88          2
    98          2
    99          6
   100         19
   101          2
   113          2
   127          2
   141          3
   172         12
   173          1