##TITLE=Library Entry 40292
##JCAMP-DX=Revision 4.10 
##DATA TYPE=MASS SPECTRUM
##SAMPLE DESCRIPTION=Association of Official Racing Chemists
##NAMES=HP
##CAS NAME=Alverine
##MOLFORM=C20H27N
##CAS REGISTRY NO=150-59-4
##MP= -300
##BP= -300
##MW= 281
##$RETENTION INDEX=2142
##$CONDENSED SPECTRUM=NO
##NPOINTS= 71
##XYDATA=(XY..XY) 1 
    50          5
    51         20
    52          6
    53          4
    54          5
    55          4
    56         35
    57         26
    58         89
    59          6
    62          3
    63         10
    65         55
    66          4
    68          3
    69          0
    70         14
    72        999
    73         49
    74          3
    77         42
    78         19
    79         26
    80          2
    84         23
    85          9
    86          4
    89         11
    91        398
    92         30
    96          0
    98          3
   102          4
   103         22
   104         17
   105         13
   106          2
   112          2
   115         26
   116          8
   117         33
   118          8
   119          4
   128          1
   130          2
   131          4
   132          2
   133          0
   141          2
   146          4
   147          3
   148          2
   160          6
   161          2
   162         21
   163          9
   172          1
   174         19
   176        832
   177        104
   178          7
   179          2
   188          2
   190          2
   208          0
   252          5
   266         11
   267          0
   281         77
   282         15
   283          3