##TITLE=Library Entry 59583
##JCAMP-DX=Revision 4.10 
##DATA TYPE=MASS SPECTRUM
##SAMPLE DESCRIPTION=NIST Mass Spectrometry Data Center, 1990.
##NAMES=HP
##CAS NAME=Disulfide, bis(phenylmethyl)
##MOLFORM=C14H14S2
##CAS REGISTRY NO=150-60-7
##MP= -300
##BP= -300
##MW= 246
##$RETENTION INDEX=2070
##$CONDENSED SPECTRUM=NO
##NPOINTS= 97
##XYDATA=(XY..XY) 1 
    15          0
    25          0
    26          2
    27          7
    28          7
    29          0
    32          1
    34          0
    36          0
    37          2
    38         11
    39         70
    40          5
    41         15
    42          0
    45        117
    46          4
    47          5
    48          0
    49          1
    50         18
    51         52
    52         12
    53          3
    57          0
    58          1
    59          0
    60          0
    61          3
    62         13
    63         42
    64         17
    65        163
    66          8
    67          0
    69          6
    70          1
    71          2
    72          0
    73          0
    74          3
    75          3
    77         52
    78         12
    79         12
    80          0
    81          0
    82          1
    83          0
    84          1
    85          0
    86          1
    87          1
    89         29
    91        999
    92         84
    93          3
    94          0
    95          1
    96          0
    97          2
    98          0
   103          0
   105          5
   106          5
   107          0
   108          1
   109          0
   110          0
   115          0
   121         25
   122         10
   123         18
   124          4
   125          1
   126          0
   135          0
   141          0
   153          4
   154          0
   155          0
   165          1
   166          1
   167          1
   178          0
   179          1
   181         52
   182          8
   183          0
   214          5
   215          0
   216          0
   246         83
   247         13
   248          8
   249          1
   250          0