##TITLE=Library Entry 17252
##JCAMP-DX=Revision 4.10 
##DATA TYPE=MASS SPECTRUM
##SAMPLE DESCRIPTION=Japan AIST/NIMC Database- Spectrum MS-NW-1159
##NAMES=HP
##CAS NAME=Triethyl borate
##MOLFORM=C6H15BO3
##CAS REGISTRY NO=150-46-9
##MP= -300
##BP= -300
##MW= 146
##$RETENTION INDEX=0
##$CONDENSED SPECTRUM=NO
##NPOINTS= 81
##XYDATA=(XY..XY) 1 
    13          2
    14          9
    15         32
    16          1
    25          3
    26         31
    27        169
    28         56
    29        134
    30         15
    31        289
    32          9
    39          2
    40          2
    41          8
    42         15
    43         52
    44        240
    45        999
    46         59
    47          4
    51          1
    53          1
    54          1
    55          5
    56         16
    57         22
    58         38
    59         35
    60          1
    62          1
    63          4
    65          2
    69          3
    70          6
    71         30
    72        205
    73        706
    74         19
    75         14
    77          1
    78          2
    79          2
    84          2
    85          8
    86         55
    87        214
    88         36
    89        133
    90         20
    91          7
    93          1
    94          1
    98          1
    99          5
   100        174
   101        664
   102         40
   103         42
   104          2
   105          2
   113          1
   114          6
   115         12
   116         94
   117        396
   118         47
   119         11
   128          1
   129          4
   130        111
   131        451
   132         26
   133          4
   142          1
   143          1
   144          9
   145         77
   146        141
   147          9
   148          1