##TITLE=Library Entry 82847
##JCAMP-DX=Revision 4.10 
##DATA TYPE=MASS SPECTRUM
##SAMPLE DESCRIPTION=NIST Mass Spectrometry Data Center
##NAMES=HP
##CAS NAME=1,2-Dianilinoethane
##MOLFORM=C14H16N2
##CAS REGISTRY NO=150-61-8
##MP= -300
##BP= -300
##MW= 212
##$RETENTION INDEX=0
##$CONDENSED SPECTRUM=NO
##NPOINTS= 55
##XYDATA=(XY..XY) 1 
    15          2
    18          4
    26          4
    27         22
    28         28
    29          5
    30         21
    37          5
    38         17
    39         66
    40         11
    41         10
    42          7
    44          1
    50         38
    51        154
    52         32
    53         10
    54          5
    61          2
    62          6
    63         20
    64         16
    65         47
    66         20
    67          4
    74         10
    75         10
    77        336
    78         66
    79        122
    80         11
    89          5
    90          7
    91         33
    92         12
    93         24
    94          3
   102          2
   104         72
   106        999
   107        587
   108         47
   116          2
   117          9
   118         24
   119         11
   120          4
   135          1
   207         11
   208          8
   209          2
   210          2
   212        138
   213         19