##TITLE=Library Entry 85366
##JCAMP-DX=Revision 4.10 
##DATA TYPE=MASS SPECTRUM
##SAMPLE DESCRIPTION=Japan AIST/NIMC Database- Spectrum MS-IW-6639
##NAMES=HP
##CAS NAME=Urea, (4-ethoxyphenyl)-
##MOLFORM=C9H12N2O2
##CAS REGISTRY NO=150-69-6
##MP= -300
##BP= -300
##MW= 180
##$RETENTION INDEX=0
##$CONDENSED SPECTRUM=NO
##NPOINTS= 88
##XYDATA=(XY..XY) 1 
    15          2
    16          3
    17          6
    18         19
    26          8
    27         35
    28         25
    29         29
    30          3
    37          2
    38          6
    39         23
    40          3
    41          8
    42         16
    43         87
    44         33
    45          1
    46          1
    47          3
    50          6
    51         17
    52         53
    53         73
    54         16
    55          8
    56          1
    61          7
    62          6
    63         19
    64         16
    65         44
    66          9
    67          2
    68          6
    69          1
    74          2
    75          2
    76          2
    77          4
    78         11
    79         22
    80        158
    81         83
    82         12
    83          1
    89          1
    90          6
    91          9
    92         17
    93         10
    94          8
    95          1
   104          1
   105          1
   106          9
   107         44
   108        999
   109        771
   110         57
   111          4
   118          2
   119          5
   120          3
   121          1
   122          3
   123          1
   133          3
   134         19
   135        151
   136         21
   137        650
   138         68
   139          4
   147          1
   148          1
   149          1
   150          1
   151         14
   152          7
   162          7
   163        112
   164         11
   165          2
   179          6
   180        965
   181        110
   182          9