##TITLE=Library Entry 9875
##JCAMP-DX=Revision 4.10 
##DATA TYPE=MASS SPECTRUM
##SAMPLE DESCRIPTION=Japan AIST/NIMC Database- Spectrum MS-NW-6656
##NAMES=HP
##CAS NAME=3-Hydroxy-3-methylvaleric acid
##MOLFORM=C6H12O3
##CAS REGISTRY NO=150-96-9
##MP= -300
##BP= -300
##MW= 132
##$RETENTION INDEX=2288
##$CONDENSED SPECTRUM=NO
##NPOINTS= 81
##XYDATA=(XY..XY) 1 
    12          2
    13          5
    14         46
    15         51
    16          2
    17          7
    18         24
    24          2
    25          3
    26         18
    27         95
    28         33
    29        166
    30          5
    31         31
    32          7
    37          4
    38          8
    39         56
    40          9
    41         85
    42        129
    43        999
    44         33
    45         46
    46          1
    49          2
    50          6
    51          7
    52          4
    53         23
    54          5
    55        143
    56          9
    57        257
    58         17
    59          4
    60         34
    61         43
    62          2
    63          2
    65          2
    66          1
    67         12
    68         18
    69         39
    70         25
    71         25
    72         88
    73        255
    74         12
    75          8
    77          2
    79          1
    81          6
    83          1
    84          4
    85        314
    86         15
    87          4
    88          2
    91          1
    95          4
    96         10
    97          9
    98          1
    99         69
   100          4
   102          3
   103        170
   104          9
   105          2
   111          4
   112          1
   113          2
   114         22
   115          7
   116          1
   117         39
   118          3
   131          4