##TITLE=Library Entry 38432
##JCAMP-DX=Revision 4.10 
##DATA TYPE=MASS SPECTRUM
##SAMPLE DESCRIPTION=NIST Mass Spectrometry Data Center, 2010
##NAMES=HP
##CAS NAME=Phytol
##MOLFORM=C20H40O
##CAS REGISTRY NO=150-86-7
##MP= -300
##BP= -300
##MW= 296
##$RETENTION INDEX=2114
##$CONDENSED SPECTRUM=NO
##NPOINTS= 131
##XYDATA=(XY..XY) 1 
    26          1
    27         26
    28          5
    29         81
    30          2
    31          8
    38          1
    39         36
    40          9
    41        274
    42         42
    43        361
    44         16
    45          5
    50          1
    51          4
    52          3
    53         40
    54         13
    55        299
    56        158
    57        333
    58         20
    59          3
    63          1
    65         10
    66          7
    67        115
    68        225
    69        278
    70        146
    71        999
    72         53
    73          4
    74          1
    77         15
    78          3
    79         41
    80         33
    81        271
    82        167
    83        179
    84         88
    85         94
    86         42
    87          9
    88          1
    91          7
    92          3
    93         16
    94         19
    95        182
    96         78
    97        141
    98         34
    99         30
   100          5
   101          1
   105          5
   106          1
   107          7
   108          4
   109         80
   110         35
   111         96
   112         31
   113         14
   114          2
   115          1
   121         10
   122         16
   123        273
   124         76
   125         41
   126         70
   127         18
   128          2
   135          3
   136          2
   137         28
   138         16
   139         10
   140         17
   141          9
   142          2
   149          4
   150          2
   151         10
   152          6
   153          4
   154          2
   155          1
   156          2
   157          1
   163          2
   164          1
   165          5
   166          2
   167          2
   168          2
   169          1
   179          8
   180          2
   181          2
   182          4
   183          1
   191          1
   193          5
   194          2
   196         13
   197          2
   199          1
   207          1
   208          2
   209          1
   210          2
   211          1
   221          1
   222          1
   224          1
   235          1
   236          1
   249          2
   250          1
   252          1
   253          1
   263          3
   278         10
   279          2
   280          1
   296          2