##TITLE=Library Entry 14012
##JCAMP-DX=Revision 4.10 
##DATA TYPE=MASS SPECTRUM
##SAMPLE DESCRIPTION=Chemical Concepts
##NAMES=HP
##CAS NAME=N-[4-Acetyl-5-(4-nitrophenyl)-5-phenyl-4,5-dihydro[1,3,4]thiadiaz
ol-2-yl]acetamide
##MOLFORM=C18H16N4O4S
##CAS REGISTRY NO=150007-10-6
##MP= -300
##BP= -300
##MW= 384
##$RETENTION INDEX=0
##$CONDENSED SPECTRUM=NO
##NPOINTS= 230
##XYDATA=(XY..XY) 1 
    33          0
    36          0
    38          2
    39         12
    40          4
    41         12
    42         68
    43        999
    44         35
    45         11
    46          2
    50         41
    51         58
    52          7
    53          0
    54          0
    55          2
    56          2
    57          3
    58         18
    59         71
    60         19
    61          1
    62          3
    63         18
    64          9
    65         19
    66          7
    67          1
    68          0
    69          2
    70          3
    71          0
    72          4
    73         36
    74         12
    75         25
    76        113
    77        181
    78         17
    79          3
    80          0
    81          1
    82          1
    83          1
    84          0
    85          2
    86          8
    87          9
    88          4
    89          8
    90          4
    91          9
    92         13
    93         26
    94          1
    95          0
    96          0
    97          0
    98          2
    99          2
   100          1
   101         29
   102         20
   103         22
   104         22
   105         26
   106          1
   107          0
   108          1
   109          0
   110          0
   111          0
   112          0
   113          5
   114          3
   115         32
   116          6
   117         26
   118         18
   119         16
   120          4
   121          8
   122          1
   123          0
   125          1
   126          7
   127          6
   128          3
   129          2
   130          1
   131          0
   133          1
   134          0
   135          1
   136          1
   137          2
   138          3
   139         28
   140          9
   141          5
   142          1
   143          3
   144          0
   145          0
   146          0
   147          0
   148          0
   149          3
   150          8
   151         18
   152         30
   153         13
   154          3
   155          1
   156          0
   157          3
   158          2
   159          4
   160          1
   161         11
   162          4
   163         52
   164         61
   165         94
   166         33
   167         36
   168         12
   169          5
   170          0
   171          0
   175          1
   176          2
   177         15
   178         50
   179        216
   180         45
   181         12
   182          4
   183          1
   184          0
   185          0
   189          0
   190          0
   191          1
   192          6
   193         24
   194        151
   195         53
   196         11
   197          3
   198          0
   199          0
   200          0
   201          0
   203          0
   204          1
   205          5
   206          9
   207          3
   208          3
   209         12
   210         20
   211         15
   212         12
   213          2
   214          0
   217          0
   218          0
   219          1
   220         67
   221          9
   222          6
   223         14
   224         35
   225        206
   226         32
   227         20
   228          2
   229          0
   235          0
   236          1
   237          0
   238          1
   239          5
   240        157
   241        394
   242         58
   243         10
   244          2
   245          0
   249          0
   250          0
   251          0
   252          0
   253          5
   254          1
   255          0
   256          0
   257          1
   258          1
   262          2
   263          0
   265         45
   266          7
   267         14
   268         13
   269          6
   270          0
   281          0
   282         15
   283        342
   284         62
   285         13
   286          0
   295          0
   299          1
   300          2
   307          1
   309          7
   310          1
   325          3
   326          1
   341          6
   342         68
   343         13
   344          4
   384         52
   385         11
   386          3