##TITLE=Library Entry 48078
##JCAMP-DX=Revision 4.10 
##DATA TYPE=MASS SPECTRUM
##SAMPLE DESCRIPTION=A.A.Kutin, Moscow, Russia
##NAMES=HP
##CAS NAME=Pyridine, 2-nitro-
##MOLFORM=C5H4N2O2
##CAS REGISTRY NO=15009-91-3
##MP= -300
##BP= -300
##MW= 124
##$RETENTION INDEX=0
##$CONDENSED SPECTRUM=NO
##NPOINTS= 57
##XYDATA=(XY..XY) 1 
    34          2
    36          6
    37         27
    38         45
    39         68
    40        116
    41         25
    42         11
    43         27
    44         52
    45          2
    46         54
    48          4
    49         35
    50        144
    51        521
    52        174
    53         22
    54          1
    55         24
    56          7
    57         25
    62          3
    63          8
    64         12
    66         63
    67         17
    69          8
    70         19
    71          9
    73          2
    75         41
    76         49
    77         27
    78        999
    79         60
    80          3
    81          7
    82          7
    83         12
    84          7
    85          3
    86          2
    92          4
    94         73
    95         11
    97          3
    98          1
   105          9
   106          2
   107          1
   110          2
   111         11
   119          3
   122          2
   124         36
   125          3