##TITLE=Library Entry 46885
##JCAMP-DX=Revision 4.10 
##DATA TYPE=MASS SPECTRUM
##SAMPLE DESCRIPTION=Chemical Concepts
##NAMES=HP
##CAS NAME=1-(2',2'-Dimethylcyclopropylideno)-2-chloroethylene
##MOLFORM=C7H9Cl
##CAS REGISTRY NO=150010-70-1
##MP= -300
##BP= -300
##MW= 128
##$RETENTION INDEX=0
##$CONDENSED SPECTRUM=NO
##NPOINTS= 78
##XYDATA=(XY..XY) 1 
    26         33
    27        189
    28         49
    29         34
    30          1
    31          1
    35         14
    36         21
    37         50
    38         86
    39        440
    40         63
    41        270
    42         21
    43         41
    44          5
    45         17
    46          2
    47          6
    48          7
    49         46
    50        225
    51        491
    52         86
    53        183
    54         14
    55         21
    56          9
    57          1
    59          1
    60         12
    61         31
    62         52
    63         92
    64         25
    65        199
    66         22
    67         23
    68          1
    71          1
    72          6
    73         48
    74         38
    75         46
    77        999
    78        167
    79         13
    80          1
    84          8
    85         18
    86         72
    87         24
    88         25
    89         14
    91        516
    92         74
    93        569
    94         29
    95          1
    96          1
    97          6
    98          2
    99         12
   100          5
   101          4
   102          1
   111          7
   112         10
   113         96
   114          8
   115         27
   116          1
   125          2
   127         17
   128         98
   129          9
   130         29
   131          2