##TITLE=Library Entry 31611
##JCAMP-DX=Revision 4.10 
##DATA TYPE=MASS SPECTRUM
##SAMPLE DESCRIPTION=Humboldt-Universitat zu Berlin, Department of Chemistry
, Analytical Group
##NAMES=HP
##CAS NAME=4-Azido-benzenesulfonyl chloride
##MOLFORM=C6H4ClN3O2S
##CAS REGISTRY NO=15001-44-2
##MP= -300
##BP= -300
##MW= 217
##$RETENTION INDEX=0
##$CONDENSED SPECTRUM=NO
##NPOINTS= 133
##XYDATA=(XY..XY) 1 
    12          2
    13          1
    14          8
    15          5
    16          9
    17         44
    18        164
    19          1
    24          1
    25          6
    26         49
    27         30
    28         66
    29         16
    30          2
    31         10
    32         13
    33          2
    34          1
    35         27
    36         31
    37        162
    38        192
    39        405
    40         35
    41         15
    42          5
    43          6
    44         17
    45         72
    46          2
    47          4
    48         83
    49         28
    50        170
    51         96
    52        119
    53         12
    54          4
    55          5
    56          3
    57         15
    58          6
    59          8
    60         10
    61         95
    62        283
    63        999
    64        332
    65         31
    66          5
    67          2
    68          9
    69         53
    70         12
    71          7
    72          3
    73         21
    74         50
    75         33
    76         29
    77          8
    78         21
    79          7
    80        176
    81         14
    82          6
    83         64
    84          6
    85         23
    86          8
    87         26
    88         52
    89        142
    90        896
    91         67
    92          6
    93          5
    94          9
    95          5
    96         31
    97          8
    98         18
    99         11
   100          5
   101          4
   104          1
   105          1
   106         20
   107          5
   108          2
   109          1
   110          2
   111          3
   112          2
   113          2
   118          6
   119          1
   120          1
   121          1
   122          2
   123          1
   124         12
   125        509
   126         39
   127        160
   128         12
   129          1
   138          3
   139          1
   140          2
   141          2
   149          1
   154         13
   155          3
   156          2
   157          1
   167          0
   171          0
   182        169
   183         15
   184         10
   185          1
   189        247
   190         21
   191         96
   192          7
   193          4
   217        150
   218         13
   219         58
   220          5
   221          2