##TITLE=Library Entry 82510
##JCAMP-DX=Revision 4.10 
##DATA TYPE=MASS SPECTRUM
##SAMPLE DESCRIPTION=John Halket,Royal Holloway, University of London, UK
##NAMES=HP
##CAS NAME=N'-(3-Pyridinylmethylene)isonicotinohydrazide
##MOLFORM=C12H10N4O
##CAS REGISTRY NO=15017-31-9
##MP= -300
##BP= -300
##MW= 226
##$RETENTION INDEX=0
##$CONDENSED SPECTRUM=NO
##NPOINTS= 97
##XYDATA=(XY..XY) 1 
    15          1
    25          2
    26         21
    27         15
    28         52
    29          8
    30          1
    36          1
    37         18
    38         77
    39        118
    40         14
    41         16
    42          9
    43          7
    44         12
    45          1
    48          1
    49         16
    50        183
    51        555
    52        104
    53         19
    54          3
    55          1
    60          1
    61          9
    62         36
    63        184
    64        117
    65         84
    66         66
    67         10
    68          2
    69          1
    74          2
    75         17
    76         37
    77         40
    78        854
    79        191
    80         12
    81          1
    86          1
    87          1
    88          1
    89          2
    90          3
    91         44
    92         57
    93         35
    94         17
    95          3
   101          1
   103         20
   104         22
   105        161
   106        999
   107         81
   108          6
   114          1
   115          2
   116          1
   117          1
   118          1
   119          5
   120         61
   122        552
   123        112
   124          8
   128          1
   131          1
   135          2
   140          1
   141          2
   142          2
   143          1
   145          1
   148         19
   149          2
   155          1
   167          1
   168          4
   169          3
   170          2
   171          1
   181          1
   182          1
   196          1
   197          3
   198          2
   199          1
   209          1
   225         16
   226         23
   227          4
   228          1