##TITLE=Library Entry 63917
##JCAMP-DX=Revision 4.10 
##DATA TYPE=MASS SPECTRUM
##SAMPLE DESCRIPTION=A.A.Kutin, Moscow, Russia
##NAMES=HP
##CAS NAME=Pyrimidine-4,6(3H,5H)-dione, 5-benzyl-2-mercapto-
##MOLFORM=C11H10N2O2S
##CAS REGISTRY NO=15018-53-8
##MP= -300
##BP= -300
##MW= 234
##$RETENTION INDEX=0
##$CONDENSED SPECTRUM=NO
##NPOINTS= 124
##XYDATA=(XY..XY) 1 
    33          4
    34          1
    36          0
    37          3
    39         77
    41         38
    42         10
    43         26
    44         10
    45          8
    46          4
    47          4
    48          3
    49          3
    50         30
    51         72
    52         18
    53          8
    55         36
    56          4
    57          3
    59         42
    60         26
    61          5
    62         10
    63         30
    65        134
    66          7
    69         43
    70          3
    71          1
    73          3
    74         12
    75         14
    77        113
    78         52
    79          6
    80          2
    81          0
    82          1
    83          0
    84          1
    86         17
    87          3
    88          3
    89         30
    91        999
    92         54
    94          0
    95          1
    96          0
    97          1
    98          2
    99          0
   101          9
   102         28
   103         86
   104         38
   105          9
   106          3
   107          2
   109          0
   110          0
   112          0
   113          0
   115         10
   116          1
   117          3
   118          3
   119          4
   121          2
   123          1
   124          0
   125          0
   127          1
   128         21
   129         12
   131        135
   132         20
   133          2
   134          1
   135          2
   136          5
   137          0
   143          1
   144          1
   146         50
   147          6
   148          3
   149          0
   154          0
   156          7
   157          4
   158          3
   159          1
   160          0
   161          0
   162          1
   163          4
   164          2
   165          0
   171          0
   172          0
   173          2
   174          2
   175          1
   177          1
   188          0
   189          0
   190          4
   191          4
   192          0
   201          0
   202          0
   203          0
   205          2
   206          4
   207          0
   208          0
   217          0
   234        268
   235         34
   236         13
   237          1