##TITLE=Library Entry 99729
##JCAMP-DX=Revision 4.10 
##DATA TYPE=MASS SPECTRUM
##SAMPLE DESCRIPTION=A.A.Kutin, Moscow, Russia
##NAMES=HP
##CAS NAME=Benzamide, 4-methyl-N-2-thiazolyl-
##MOLFORM=C11H10N2OS
##CAS REGISTRY NO=150175-93-2
##MP= -300
##BP= -300
##MW= 218
##$RETENTION INDEX=0
##$CONDENSED SPECTRUM=NO
##NPOINTS= 84
##XYDATA=(XY..XY) 1 
    34          4
    38          3
    39         34
    40         12
    41         13
    42          1
    43          8
    44         26
    45         31
    46          3
    47          1
    50          8
    51         15
    52          6
    53          2
    54          0
    55         30
    56          3
    57          8
    58         11
    59          3
    61          1
    62          6
    63         28
    64         12
    65        115
    66          7
    69          1
    70          4
    71          5
    72          2
    73          1
    74          3
    75          2
    76          3
    77          1
    78          1
    81          0
    83          1
    84          2
    85          1
    86          0
    87          1
    89         36
    90         21
    91        311
    92         19
    93          1
    95          2
    96          0
    98          0
    99          7
   100          2
   101          0
   105          1
   112          0
   115          0
   119        999
   120         85
   121          7
   122          1
   123          1
   127          0
   133          0
   134          1
   135          1
   136          2
   139          1
   141          0
   144          0
   152          0
   170          2
   171          4
   180          2
   189          2
   190         51
   191          4
   192          3
   217         11
   218        183
   219         23
   220         11
   221          0
   222          1