##TITLE=Library Entry 90782
##JCAMP-DX=Revision 4.10 
##DATA TYPE=MASS SPECTRUM
##SAMPLE DESCRIPTION=NIST Mass Spectrometry Data Center
##NAMES=HP
##CAS NAME=Diethyl 2-acetylglutarate
##MOLFORM=C11H18O5
##CAS REGISTRY NO=1501-06-0
##MP= -300
##BP= -300
##MW= 230
##$RETENTION INDEX=0
##$CONDENSED SPECTRUM=NO
##NPOINTS= 101
##XYDATA=(XY..XY) 1 
    15         27
    16          1
    19          1
    26         15
    27        151
    29        331
    30         11
    31         23
    37          1
    38          4
    39         71
    40         16
    41         93
    42        173
    43        931
    44         33
    45         73
    46          3
    47          1
    50          1
    51          2
    52          1
    53         11
    54          6
    55        337
    56         17
    57         15
    58         17
    59          4
    60         50
    61         32
    62          1
    65          3
    66          2
    67          8
    68         38
    69         81
    70         32
    71         28
    72          5
    73        131
    74          4
    75          1
    81          2
    82         31
    83         23
    84         54
    85        171
    86        168
    87         81
    88         46
    89          5
    95         13
    96          6
    97        106
    98          8
    99         32
   100          5
   101        134
   102         21
   103          4
   109          1
   110         64
   111         45
   112         22
   113         86
   114        999
   115        154
   116         12
   117          1
   123          2
   127         69
   128         31
   129          5
   130         46
   131          9
   137          5
   138          5
   139        644
   140         52
   141         65
   142        427
   143        198
   144         16
   145          2
   155          3
   156         88
   157         12
   158          1
   159          2
   169         25
   170          2
   173          2
   184         18
   185        216
   186         21
   187         21
   188        248
   189         24
   190          3
   230          3