##TITLE=Library Entry 78697
##JCAMP-DX=Revision 4.10 
##DATA TYPE=MASS SPECTRUM
##SAMPLE DESCRIPTION=Japan AIST/NIMC Database- Spectrum MS-NW-6325
##NAMES=HP
##CAS NAME=Benzenepentanoic acid, .delta.-oxo-
##MOLFORM=C11H12O3
##CAS REGISTRY NO=1501-05-9
##MP= -300
##BP= -300
##MW= 192
##$RETENTION INDEX=0
##$CONDENSED SPECTRUM=NO
##NPOINTS= 95
##XYDATA=(XY..XY) 1 
    14          4
    15          4
    17          1
    18          3
    26          6
    27         45
    28          5
    29          5
    31          4
    37          3
    38          9
    39         39
    40          6
    41         29
    42         19
    43         15
    44          2
    45         28
    49          2
    50         48
    51        156
    52         12
    53          4
    55         36
    56          1
    57          2
    58          2
    59          2
    60          5
    61          2
    62          4
    63          9
    64          3
    65          9
    66          2
    68          2
    69          4
    70          3
    71          1
    72          1
    73          4
    74         14
    75         11
    76         22
    77        451
    78         46
    79          4
    82          1
    83          1
    85          1
    86          2
    87          7
    88          1
    89          4
    90          1
    91         13
    92          2
    97          1
    98          1
   101          1
   102          6
   103          7
   104         10
   105        999
   106         78
   107          6
   111          1
   115          9
   116          3
   117          7
   118          1
   119          1
   120         99
   121         10
   122          1
   127          3
   128          3
   129          5
   130          2
   131         10
   132         23
   133         15
   134          2
   144          1
   145          8
   146         29
   147          8
   148          1
   173          1
   174         36
   175          9
   176          1
   192        105
   193         13
   194          2