##TITLE=Library Entry 32625
##JCAMP-DX=Revision 4.10 
##DATA TYPE=MASS SPECTRUM
##SAMPLE DESCRIPTION=Japan AIST/NIMC Database- Spectrum MS-NW-2817
##NAMES=HP
##CAS NAME=Cyclododecene
##MOLFORM=C12H22
##CAS REGISTRY NO=1501-82-2
##MP= -300
##BP= -300
##MW= 166
##$RETENTION INDEX=1303
##$CONDENSED SPECTRUM=NO
##NPOINTS= 113
##XYDATA=(XY..XY) 1 
    14          4
    15          8
    16          1
    26          9
    27        197
    28         19
    29        213
    30          5
    36          1
    37          1
    38          8
    39        283
    40         53
    41        862
    42        145
    43        211
    44          7
    50          9
    51         28
    52         18
    53        159
    54        768
    55        975
    56        206
    57        120
    58          6
    62          2
    63          8
    64          2
    65         42
    66         78
    67        999
    68        535
    69        503
    70        122
    71         26
    72          1
    74          1
    75          1
    76          1
    77         38
    78         12
    79         94
    80         74
    81        782
    82        902
    83        419
    84         73
    85         15
    86          1
    89          1
    91         22
    92          6
    93         34
    94         43
    95        538
    96        681
    97        200
    98         40
    99          4
   103          2
   104          7
   105          7
   106          3
   107         14
   108         16
   109        333
   110        152
   111         45
   112         15
   113          1
   115          3
   116          1
   117          6
   118          2
   119          5
   120          3
   121         20
   122          9
   123        105
   124         69
   125         16
   126          6
   127          1
   128          1
   129          2
   130          2
   131          4
   132          1
   133          5
   134          4
   135          8
   136          6
   137         37
   138         64
   139          9
   140         11
   141          1
   145          1
   147          2
   149          2
   151          4
   157          1
   158          3
   160          6
   161          1
   162          6
   164          6
   165          1
   166        362
   167         49
   168         20
   169          2