##TITLE=Library Entry 6533
##JCAMP-DX=Revision 4.10 
##DATA TYPE=MASS SPECTRUM
##SAMPLE DESCRIPTION=NIST Mass Spectrometry Data Center, 1994
##NAMES=HP
##CAS NAME=Pentanedioic acid, monomethyl ester
##MOLFORM=C6H10O4
##CAS REGISTRY NO=1501-27-5
##MP= -300
##BP= -300
##MW= 146
##$RETENTION INDEX=0
##$CONDENSED SPECTRUM=NO
##NPOINTS= 55
##XYDATA=(XY..XY) 1 
    12         12
    13         24
    14         69
    15        554
    16         13
    17          5
    18         32
    19          5
    26        111
    27        545
    28        165
    29        360
    30         51
    31        248
    32         18
    33         42
    35         18
    37         27
    38         87
    39        508
    40        103
    41        721
    42        943
    43        999
    44        118
    45        938
    46         24
    49         16
    50         12
    53         18
    55        584
    56         43
    57         42
    58        188
    59        614
    60        109
    68         41
    69         84
    70         43
    71         19
    72         50
    73         42
    74        245
    85         99
    86        471
    87        821
    88         42
    97         53
   100        692
   101         75
   114        347
   115        501
   116         25
   128         77
   129         28