##TITLE=Library Entry 61162
##JCAMP-DX=Revision 4.10 
##DATA TYPE=MASS SPECTRUM
##SAMPLE DESCRIPTION=NIST Mass Spectrometry Data Center
##NAMES=HP
##CAS NAME=Dibenzyl malonate
##MOLFORM=C17H16O4
##CAS REGISTRY NO=15014-25-2
##MP= -300
##BP= -300
##MW= 284
##$RETENTION INDEX=0
##$CONDENSED SPECTRUM=NO
##NPOINTS= 69
##XYDATA=(XY..XY) 1 
    12          3
    13          3
    14          6
    16          2
    19          1
    25          1
    26          1
    27         16
    28         11
    30          3
    37          9
    38         32
    39        161
    40         18
    41         43
    42         55
    43         48
    44         14
    50         60
    51        167
    52         47
    53         15
    54          1
    55          1
    60          1
    61          5
    62         19
    63         68
    65        265
    66         17
    69         20
    70          1
    74          2
    75         11
    77        218
    78         64
    79        230
    80         20
    81          1
    85          1
    87         81
    89         80
    91        999
    92        115
    93          7
   103          3
   105         46
   107        819
   108        135
   109          8
   118         25
   119          4
   120          2
   130          1
   131          2
   147          5
   148          2
   152          2
   165          4
   166          1
   167          3
   176          3
   177          1
   178          3
   180         46
   181          7
   193         95
   194         12
   195          2