##TITLE=Library Entry 22163
##JCAMP-DX=Revision 4.10 
##DATA TYPE=MASS SPECTRUM
##SAMPLE DESCRIPTION=NIST Mass Spectrometry Data Center, 1992
##NAMES=HP
##CAS NAME=Cyclododecylamine
##MOLFORM=C12H25N
##CAS REGISTRY NO=1502-03-0
##MP= -300
##BP= -300
##MW= 183
##$RETENTION INDEX=0
##$CONDENSED SPECTRUM=NO
##NPOINTS= 93
##XYDATA=(XY..XY) 1 
    15         10
    26          6
    27         75
    28         16
    29        119
    30        218
    31          4
    37          0
    39         74
    40         20
    41        222
    42         95
    43        251
    44         38
    45          5
    46          0
    47          0
    48          0
    50          0
    51          4
    52          3
    53         22
    54         26
    55        133
    56        999
    57         77
    58          6
    59          0
    63          0
    65          5
    66          6
    67         48
    68         19
    69         27
    70         98
    71          6
    72          1
    73          0
    77          4
    78          1
    79          7
    80          5
    81         36
    82         45
    83         12
    84         47
    85          5
    86          3
    87          0
    91          1
    92          0
    93          2
    94          2
    95         18
    96         35
    97          9
    98         47
    99          7
   100          1
   105          0
   106          0
   107          0
   108          1
   109          9
   110         10
   111          0
   112        119
   113         12
   114          1
   121          0
   122          1
   123          5
   124          5
   125          0
   126         45
   127          4
   128          0
   136          0
   137          3
   138          5
   139          0
   140         74
   141          8
   142          0
   152          0
   154         19
   155          2
   166         26
   167          3
   168          1
   182          7
   183         13
   184          2