##TITLE=Library Entry 85912
##JCAMP-DX=Revision 4.10 
##DATA TYPE=MASS SPECTRUM
##SAMPLE DESCRIPTION=A. Brossi, LC, NIDDK, NIH, Bethesda, MD 20892
##NAMES=HP
##CAS NAME=Quinuclidin-3-amine, N-formyl-N-[2-[3,4-dichlorophenyl]ethyl]-
##MOLFORM=C16H20Cl2N2O
##CAS REGISTRY NO=150208-85-8
##MP= -300
##BP= -300
##MW= 326
##$RETENTION INDEX=0
##$CONDENSED SPECTRUM=NO
##NPOINTS= 132
##XYDATA=(XY..XY) 1 
    41        178
    42        391
    43        110
    44        168
    49         14
    50         73
    51         68
    52         12
    53         94
    54         66
    55        153
    56        172
    57         74
    58        129
    62         18
    63         59
    65         47
    67         73
    68        119
    69         89
    70        135
    71         82
    72         13
    73         42
    74         43
    75         83
    76         16
    77         77
    78         14
    79         52
    80         78
    81        106
    82        518
    83         90
    84        111
    85         37
    86         29
    87         24
    89         77
    91         30
    92         11
    93         40
    94         87
    95         53
    96        486
    97        166
    98         80
    99         50
   101        133
   102        189
   103         78
   104         12
   106         39
   107         34
   108        159
   109        999
   110        261
   111         93
   112         50
   113         18
   115         12
   117         19
   118         32
   120         55
   121         33
   122         52
   123         68
   124         85
   125         68
   126         49
   127         24
   129         14
   131         30
   132         35
   133         29
   134         27
   135         46
   136         69
   137        197
   138         95
   139        226
   140         42
   144         34
   145        246
   146         98
   147        107
   148         45
   149         24
   150         14
   151         31
   153         90
   154         35
   159        298
   160         55
   161        153
   162         31
   163         35
   165         11
   167        170
   168         16
   172        440
   173        187
   174        287
   175        120
   176         62
   177         38
   196         11
   199         12
   203         35
   206         12
   215         13
   217         29
   219         25
   228         58
   230         36
   240         14
   242         61
   243         30
   244         29
   245         12
   254         58
   255         15
   256         50
   297         45
   298         13
   299         46
   325         11
   326        163
   327         74
   328        107
   329         47
   330         26