##TITLE=Library Entry 98374
##JCAMP-DX=Revision 4.10 
##DATA TYPE=MASS SPECTRUM
##SAMPLE DESCRIPTION=V.Zaikin,Inst.Petrochem.Synth.,RAS,Moscow
##NAMES=HP
##CAS NAME=2-Chlorobenzoic acid, 3-phenylpropyl ester
##MOLFORM=C16H15ClO2
##CAS REGISTRY NO=150272-44-9
##MP= -300
##BP= -300
##MW= 274
##$RETENTION INDEX=0
##$CONDENSED SPECTRUM=NO
##NPOINTS= 87
##XYDATA=(XY..XY) 1 
    26          2
    27         22
    28          2
    29         15
    39         37
    40          5
    41         31
    42          4
    43         12
    50         46
    51         61
    52         10
    53          7
    54          2
    55          9
    56          6
    57          9
    61          5
    62          7
    63         21
    64          7
    65         49
    66          6
    69          5
    70         13
    71          3
    73          6
    74         21
    75         76
    76         26
    77         55
    78         33
    79         25
    80          3
    83          6
    84          5
    85         14
    86          2
    87          5
    89         14
    90         14
    91        210
    92         27
    93          3
    94          2
    95          2
    97          3
   102          3
   103         27
   104         55
   105         40
   106          3
   107          5
   110          4
   111        102
   112         16
   113         35
   114          5
   115         22
   116         55
   117        400
   118        999
   119         97
   120          8
   121          2
   122          3
   130          2
   131          3
   133          3
   134          2
   135          7
   136          3
   137          3
   139        222
   140         15
   141         73
   142          7
   147          2
   152          5
   156         18
   157         17
   158          7
   159          4
   161          3
   169          3
   178          3
   184          2