##TITLE=Library Entry 90104
##JCAMP-DX=Revision 4.10 
##DATA TYPE=MASS SPECTRUM
##SAMPLE DESCRIPTION=NIST Mass Spectrometry Data Center, 1998.
##NAMES=HP
##CAS NAME=1-[2-(3,4-Dichlorophenyl)ethyl]-4-methylpiperazine
##MOLFORM=C13H18Cl2N2
##CAS REGISTRY NO=150208-28-9
##MP= -300
##BP= -300
##MW= 272
##$RETENTION INDEX=0
##$CONDENSED SPECTRUM=NO
##NPOINTS= 41
##XYDATA=(XY..XY) 1 
    27          4
    29          9
    30          3
    41         19
    42        242
    43        109
    44         30
    54         18
    55         20
    56         69
    57         15
    58         19
    63         10
    70        609
    71         43
    75         12
    77          9
    82          8
    85          3
    89         14
    97          6
    98         61
    99         16
   101         28
   102         38
   103         17
   111         32
   112         11
   113        999
   114         69
   123         19
   124          3
   135          3
   137         16
   138         13
   139          3
   159         27
   161         19
   172         13
   173         10
   174          3