##TITLE=Library Entry 54081
##JCAMP-DX=Revision 4.10 
##DATA TYPE=MASS SPECTRUM
##SAMPLE DESCRIPTION=Chemical Concepts
##NAMES=HP
##CAS NAME=Cycloartanol, TBDMS derivative
##MOLFORM=C36H66OSi
##CAS REGISTRY NO=150243-57-5
##MP= -300
##BP= -300
##MW= 542
##$RETENTION INDEX=0
##$CONDENSED SPECTRUM=NO
##NPOINTS= 166
##XYDATA=(XY..XY) 1 
    25         13
    26        107
    27        158
    29        223
    30         60
    31         26
    38         28
    39        184
    41        544
    42         84
    43        378
    44         56
    45         29
    49         78
    50        166
    51         45
    52         81
    53         54
    55        504
    56        173
    57        682
    58         45
    59         61
    60         86
    61         33
    63         46
    65         99
    67        158
    68         58
    69        465
    70        109
    71        231
    73        354
    74         63
    75        659
    76         60
    77        280
    78         71
    79        546
    80         58
    81        217
    82         75
    83        239
    84        999
    85        209
    86        336
    89         49
    90         54
    91        790
    92         91
    93        124
    94         44
    95        397
    96         92
    97        180
    98         46
    99         50
   101         40
   105        121
   107        388
   108        413
   109        228
   110         45
   111        149
   112         39
   113         55
   115         44
   117         90
   118         22
   119         96
   120         37
   121        164
   122         47
   123        115
   124         27
   125         82
   126         24
   127         24
   129         99
   130         24
   131         57
   135        144
   137         79
   139         50
   141         33
   143         47
   145         70
   147         83
   148         39
   149        106
   150         24
   151         66
   152         28
   153         29
   155         27
   157         33
   158         27
   159         80
   161         68
   162         29
   163         55
   165         46
   167         38
   168        229
   169         44
   171         73
   173         60
   174         52
   175        122
   176         31
   177         50
   179         28
   181         23
   183         36
   185         39
   186         94
   187         82
   189         59
   191         28
   192        261
   193         58
   197        175
   198         35
   199         39
   201         54
   202         45
   203         92
   204         33
   205         50
   206         45
   207         60
   209         64
   213         30
   225         39
   227         27
   229         27
   233         33
   241         32
   247         25
   256         29
   261         20
   265         19
   273         35
   277         22
   288        119
   289         37
   297         63
   298         18
   333         46
   341        167
   342         53
   355        126
   357         44
   395        212
   396         77
   397         15
   409         74
   410        336
   411        135
   412         26
   485        150
   486         60
   487         47
   527         51
   528         21
   542         26