##TITLE=Library Entry 22234
##JCAMP-DX=Revision 4.10 
##DATA TYPE=MASS SPECTRUM
##SAMPLE DESCRIPTION=Div. of Experiment Therapeutics WRAIR, WRAMC, Washingto
n DC 20307
##NAMES=HP
##CAS NAME=3-[4-Acetoxybutyl]-2-oxazolidinone
##MOLFORM=C9H15NO4
##CAS REGISTRY NO=15026-73-0
##MP= -300
##BP= -300
##MW= 201
##$RETENTION INDEX=0
##$CONDENSED SPECTRUM=NO
##NPOINTS= 55
##XYDATA=(XY..XY) 1 
    41        172
    43        855
    44         89
    45         18
    51          8
    54        183
    56        999
    57         53
    58         21
    59          3
    61         22
    62          1
    63          1
    65          2
    68         31
    69         87
    71        202
    73         30
    74          4
    77          4
    80          5
    82         29
    84         52
    86         41
    88        165
    89          2
    91         14
    96         22
    97        151
    98         66
   100        577
   101         40
   102          2
   103          1
   105          1
   113        324
   114         93
   115         39
   116          2
   126         21
   128          7
   129         45
   130          1
   131          2
   140          1
   141         37
   142         14
   143          3
   155          4
   158         43
   159         22
   160          6
   200          1
   201          5
   202          0