##TITLE=Library Entry 2289
##JCAMP-DX=Revision 4.10 
##DATA TYPE=MASS SPECTRUM
##SAMPLE DESCRIPTION=Asinex Ltd, Moscow, Russia
##NAMES=HP
##CAS NAME=Propanenitrile, 3-(1-azepanyl)-3-oxo-
##MOLFORM=C9H14N2O
##CAS REGISTRY NO=15029-31-9
##MP= -300
##BP= -300
##MW= 166
##$RETENTION INDEX=0
##$CONDENSED SPECTRUM=NO
##NPOINTS= 55
##XYDATA=(XY..XY) 1 
    15        110
    16          6
    26         26
    27        265
    29        165
    30        207
    39        259
    40        264
    41        999
    42        980
    43        688
    44        296
    45          8
    53         41
    54        106
    55        471
    56        363
    57        107
    58         33
    60          5
    67        129
    68        245
    69        124
    70        178
    71         41
    72         32
    73         17
    81         61
    82        158
    83        125
    84        147
    85         44
    86          4
    87         35
    95         29
    96        115
    97        178
    98        217
    99         19
   109         41
   110         57
   111         90
   112         38
   123        140
   124         77
   126        342
   127         17
   137         38
   138          6
   139         10
   151        246
   152         11
   165         34
   166        342
   167         35