##TITLE=Library Entry 33388
##JCAMP-DX=Revision 4.10 
##DATA TYPE=MASS SPECTRUM
##SAMPLE DESCRIPTION=J.E. WILKINSON S-CUBED, SAN DIEGO, CA.
##NAMES=HP
##CAS NAME=4-(Cyanoacetyl)morpholine
##MOLFORM=C7H10N2O2
##CAS REGISTRY NO=15029-32-0
##MP= -300
##BP= -300
##MW= 154
##$RETENTION INDEX=0
##$CONDENSED SPECTRUM=NO
##NPOINTS= 35
##XYDATA=(XY..XY) 1 
    41        136
    42        513
    43        239
    44         49
    45         14
    52          1
    54         66
    55         74
    56        532
    57        244
    58         34
    68        999
    69         49
    70        166
    72          4
    81         44
    82        171
    83         71
    84         25
    85          4
    86        266
    87         10
    96         49
    97         29
   110          3
   111         38
   112         13
   114         39
   123          1
   124         62
   125          1
   139        241
   140          1
   154        205
   155          3