##TITLE=Library Entry 26685
##JCAMP-DX=Revision 4.10 
##DATA TYPE=MASS SPECTRUM
##SAMPLE DESCRIPTION=V.Zaikin,Inst.Petrochem.Synth.,RAS,Moscow
##NAMES=HP
##CAS NAME=Pivalic acid, 2-chlorophenyl ester
##MOLFORM=C11H13ClO2
##CAS REGISTRY NO=150272-51-8
##MP= -300
##BP= -300
##MW= 212
##$RETENTION INDEX=0
##$CONDENSED SPECTRUM=NO
##NPOINTS= 71
##XYDATA=(XY..XY) 1 
    26         10
    27         57
    28         21
    29        163
    30          2
    39        117
    40         22
    41        270
    42         37
    43          8
    50         19
    51         17
    52         14
    53         17
    54          2
    55         32
    56         33
    57        999
    58         49
    61          3
    62         16
    63         66
    64         51
    65         25
    66          2
    67          3
    69         29
    70         13
    72          3
    73         50
    74          9
    75         39
    76          5
    77          3
    78          3
    79         17
    80          3
    83          3
    85        222
    86         11
    87          3
    91          3
    92         12
    93          5
    94          9
    99         58
   100          6
   101         22
   102          2
   108          5
   111         21
   112          2
   113         11
   119          3
   125          3
   127         11
   128        908
   129         75
   130        310
   131         27
   141          2
   143          3
   144          3
   155          3
   169         20
   170          3
   171          7
   212         33
   213          4
   214         11
   215          2