##TITLE=Library Entry 19487
##JCAMP-DX=Revision 4.10 
##DATA TYPE=MASS SPECTRUM
##SAMPLE DESCRIPTION=D.HENNEBERG, MAX-PLANCK INSTITUTE, MULHEIM, WEST GERMAN
Y
##NAMES=HP
##CAS NAME=Cyclodecanone
##MOLFORM=C10H18O
##CAS REGISTRY NO=1502-06-3
##MP= -300
##BP= -300
##MW= 154
##$RETENTION INDEX=1385
##$CONDENSED SPECTRUM=NO
##NPOINTS= 101
##XYDATA=(XY..XY) 1 
    24          1
    25          3
    26         24
    27        305
    28         34
    29        276
    31         10
    34          1
    38         12
    39        367
    40         78
    41        918
    42        434
    43        322
    44         13
    45          7
    46          2
    48          3
    49          2
    50          9
    51         28
    52         16
    53        113
    54        148
    55        999
    56        361
    57        113
    58        325
    59         79
    60          3
    63         11
    64          4
    65         28
    66         26
    67        197
    68        133
    69        287
    70        242
    71        212
    72         34
    73          3
    74          1
    76          1
    77         29
    78         15
    79        106
    80         53
    81        179
    82        102
    83        313
    84        334
    85         42
    86         16
    87          0
    89          1
    90          1
    91         22
    92          6
    93         74
    94        142
    95         77
    96        154
    97        385
    98        491
    99         48
   100          5
   101          0
   103          0
   104          3
   105          1
   106          1
   107         58
   108         20
   109          6
   110         20
   111        533
   112        164
   113         20
   114          0
   115          1
   117          0
   121         25
   122          3
   123          1
   125        114
   126         11
   127          1
   128          2
   129          1
   130          0
   132          0
   134          1
   135          4
   136         21
   137          2
   139          8
   152          0
   153          1
   154        152
   155         41
   156          2