##TITLE=Library Entry 3020
##JCAMP-DX=Revision 4.10 
##DATA TYPE=MASS SPECTRUM
##SAMPLE DESCRIPTION=NIST Mass Spectrometry Data Center, 1990.
##NAMES=HP
##CAS NAME=Diallyl carbonate
##MOLFORM=C7H10O3
##CAS REGISTRY NO=15022-08-9
##MP= -300
##BP= -300
##MW= 142
##$RETENTION INDEX=0
##$CONDENSED SPECTRUM=NO
##NPOINTS= 34
##XYDATA=(XY..XY) 1 
    14          6
    15         27
    16          2
    18          4
    26         55
    27        128
    28         69
    29        230
    30         14
    31         44
    37         13
    38         48
    39        347
    40         88
    41        999
    42         94
    43         16
    44         17
    45          8
    53          4
    54         31
    55         36
    56          4
    57        465
    58         17
    59          2
    67          3
    68          1
    69         14
    70          3
    79          6
    80          8
    83          7
   101         12