##TITLE=Library Entry 84915
##JCAMP-DX=Revision 4.10 
##DATA TYPE=MASS SPECTRUM
##SAMPLE DESCRIPTION=Japan AIST/NIMC Database- Spectrum MS-IW- 720
##NAMES=HP
##CAS NAME=N-Carbobenzyloxy-2-methylalanine
##MOLFORM=C12H15NO4
##CAS REGISTRY NO=15030-72-5
##MP= -300
##BP= -300
##MW= 237
##$RETENTION INDEX=0
##$CONDENSED SPECTRUM=NO
##NPOINTS= 82
##XYDATA=(XY..XY) 1 
    15          8
    17          1
    18          1
    26          2
    27         12
    28          8
    29          1
    30          1
    37          2
    38          6
    39         42
    40          9
    41         31
    42        119
    43          9
    44         22
    45          6
    49          1
    50         16
    51         51
    52         14
    53         17
    54          4
    55          2
    56          3
    57         77
    58         41
    59          4
    61          1
    62          5
    63         18
    64          5
    65         79
    66          9
    69          2
    70          7
    73          6
    74          5
    75          3
    76          4
    77        161
    78         39
    79        358
    80         31
    81          2
    84          6
    85          1
    86          2
    87          7
    88         12
    89         41
    90         47
    91        966
    92         80
    93          3
    96         12
   100          3
   101          4
   102         54
   103          2
   105         20
   106          8
   107        349
   108        999
   109         75
   110          4
   114         12
   115          1
   129         15
   130          2
   146          1
   148        118
   149         13
   150          1
   163          1
   191          2
   192         59
   193          8
   194          2
   237         65
   238         11
   239          1