##TITLE=Library Entry 78568
##JCAMP-DX=Revision 4.10 
##DATA TYPE=MASS SPECTRUM
##SAMPLE DESCRIPTION=NIST Mass Spectrometry Data Center, 1994
##NAMES=HP
##CAS NAME=4-Cyanobenzophenone
##MOLFORM=C14H9NO
##CAS REGISTRY NO=1503-49-7
##MP= -300
##BP= -300
##MW= 207
##$RETENTION INDEX=0
##$CONDENSED SPECTRUM=NO
##NPOINTS= 72
##XYDATA=(XY..XY) 1 
    17          1
    18          5
    26          6
    27         40
    28          1
    37          9
    38         18
    39         30
    40          1
    49         11
    50        164
    51        387
    52         33
    53          8
    61          6
    62         15
    63         17
    64          6
    65          2
    72          1
    73          9
    74         53
    75        136
    76        105
    77        483
    78         33
    79          1
    85          2
    86          7
    87          8
    88          6
    90         16
    98          5
    99         12
   100          8
   101          2
   102        275
   103         24
   104          2
   105        999
   106         76
   107          5
   109          1
   110          1
   111          3
   112          1
   113          2
   123          1
   124          1
   125          3
   126          3
   127          3
   128          1
   130        203
   131         20
   140          1
   149          2
   150         10
   151         17
   152          7
   153          2
   163          1
   175          1
   176          3
   177         12
   178         11
   179         13
   180          3
   190          3
   207        325
   208         53
   209          4