##TITLE=Library Entry 114837
##JCAMP-DX=Revision 4.10 
##DATA TYPE=MASS SPECTRUM
##SAMPLE DESCRIPTION=Humboldt-Universitat zu Berlin, Department of Chemistry
, Analytical Group
##NAMES=HP
##CAS NAME=1-Methyl-3-amino-5-(3-mercaptopropylthio)-1,2,4-triazole
##MOLFORM=C6H12N4S2
##CAS REGISTRY NO=150366-96-4
##MP= -300
##BP= -300
##MW= 204
##$RETENTION INDEX=0
##$CONDENSED SPECTRUM=NO
##NPOINTS= 158
##XYDATA=(XY..XY) 1 
    12          3
    13          6
    14         17
    15        223
    16         17
    17         54
    18        172
    25          2
    26         17
    27        109
    28        230
    29         57
    30         55
    31         11
    32         16
    33         13
    34         12
    35         17
    36          3
    37          5
    38         13
    39        152
    40         21
    41        292
    42        415
    43        698
    44         60
    45        246
    46        103
    47        297
    48         13
    49         14
    50          2
    51          2
    52          3
    53         37
    54         19
    55         85
    56         42
    57         84
    58         86
    59         89
    60        111
    61         36
    62         12
    63          3
    64         12
    65          4
    66          3
    67          8
    68          9
    69         32
    70         84
    71         79
    72         46
    73         63
    74         44
    75         26
    76          8
    77          8
    78          8
    79         12
    80          4
    81         10
    82         14
    83         15
    84         17
    85        183
    86        107
    87        268
    88         34
    89         20
    90          5
    91          4
    92          2
    93          3
    94          4
    95          7
    97        178
    98         48
    99        905
   100         51
   101         11
   102         18
   103          5
   104          2
   105          6
   106        180
   107         36
   108         18
   109          7
   111        212
   112         34
   113          9
   114          4
   115         13
   116          8
   117          7
   118          5
   119          5
   120          1
   121          2
   122          2
   123         17
   124          5
   125         23
   126          9
   127         12
   129        283
   130        999
   131        133
   132         50
   133          7
   134          5
   135          2
   136          2
   137         11
   138          7
   139          6
   140          4
   141          3
   142          6
   143         43
   144        501
   145         34
   146         22
   147          2
   149          6
   150          1
   151          1
   152          1
   153          1
   155          9
   157        388
   158         33
   159         22
   160          2
   161          8
   162         15
   163          2
   164          1
   165          1
   167          1
   168          1
   169          3
   170          2
   171         21
   172          3
   173          2
   183          2
   185          2
   200          1
   201          1
   204        195
   205         19
   206         19
   207          3
   208          1