##TITLE=Library Entry 43082
##JCAMP-DX=Revision 4.10 
##DATA TYPE=MASS SPECTRUM
##SAMPLE DESCRIPTION=O A MAMER, MCGILL UNIVERSITY, MONTRE
##NAMES=HP
##CAS NAME=Ricinoleic acid, 2TMS derivative
##MOLFORM=C24H50O3Si2
##CAS REGISTRY NO=150367-80-9
##MP= -300
##BP= -300
##MW= 442
##$RETENTION INDEX=0
##$CONDENSED SPECTRUM=NO
##NPOINTS= 115
##XYDATA=(XY..XY) 1 
    15         23
    16          1
    17          4
    18         17
    26         10
    27         23
    28         51
    29         30
    32          7
    39         19
    40          6
    41         77
    42         16
    43         65
    44         21
    45         59
    47         22
    52          6
    53         10
    54         22
    55        274
    56         22
    57         23
    58          9
    59         42
    60          7
    61         30
    67         71
    68         16
    69         64
    70          9
    71         12
    72         24
    73        999
    74         95
    75        368
    76         26
    77         23
    79         28
    80          8
    81         60
    82         12
    83         27
    84          8
    85         14
    87          6
    89          9
    91         25
    93         18
    95         40
    96         13
    97        112
    98         17
    99         12
   101         22
   103        176
   104         18
   105         15
   107         10
   109         19
   111          9
   113          8
   115         20
   116         20
   117         47
   118          6
   119          8
   121          9
   123         11
   129        102
   130         16
   131         17
   132         15
   133         18
   135         12
   137          7
   143         13
   145         15
   147         62
   148         11
   149         21
   150          5
   155          7
   156          5
   171          8
   173          5
   177         15
   187        984
   188        169
   189         51
   190          6
   204         18
   207         25
   208          6
   217         36
   218          9
   221         15
   245          6
   263          9
   267          6
   281         13
   282          4
   295          6
   328        144
   329         43
   330         16
   337         21
   339          6
   357         22
   358          7
   369          4
   397          7
   411         23
   413          4
   427         22