##TITLE=Library Entry 15
##JCAMP-DX=Revision 4.10 
##DATA TYPE=MASS SPECTRUM
##SAMPLE DESCRIPTION=Humboldt-Universitat zu Berlin, Department of Chemistry
, Analytical Group
##NAMES=HP
##CAS NAME=N-Methyl-2-[1,1-dicyano-2-(4-methoxyphenyl)-vinylimino]pyrrolidin
##MOLFORM=C16H16N4O
##CAS REGISTRY NO=150356-94-8
##MP= -300
##BP= -300
##MW= 280
##$RETENTION INDEX=0
##$CONDENSED SPECTRUM=NO
##NPOINTS= 210
##XYDATA=(XY..XY) 1 
    12          6
    13          7
    15        999
    16         17
    17         10
    18         73
    26         47
    27        230
    28        354
    29        130
    30        194
    31         16
    32          3
    37         14
    38         75
    39        349
    40         86
    41        570
    42        926
    43        236
    44        306
    45         10
    50         95
    51         98
    52         62
    53        102
    54        355
    55        805
    56        125
    57        115
    58         10
    61         26
    62         82
    63        190
    64        171
    65         63
    66         65
    67        368
    68        234
    69         54
    70        103
    71         10
    73          6
    74         36
    75         86
    76        104
    77        208
    78         78
    79         44
    80         93
    81        123
    82        135
    83         80
    84          9
    85         25
    86         32
    87        100
    88        100
    89         83
    90        103
    91         65
    92        135
    93         34
    94         33
    95         39
    96         15
    97        142
    98         57
    99         39
   100         53
   101         85
   102         70
   103         86
   104         36
   105         27
   106         21
   107         63
   108         32
   109        267
   110         27
   111          9
   112         31
   113        113
   114        200
   115         48
   116         73
   117         38
   118         30
   119         53
   120         29
   121         88
   122         41
   123         30
   124         15
   125         22
   126         44
   127         54
   128         80
   129         24
   130         15
   131         13
   132         23
   133        105
   134         98
   135          9
   136          3
   139         55
   140        154
   141         63
   142         47
   143         23
   144         25
   145         17
   146         47
   147         71
   148         41
   149          5
   151          5
   152         20
   153         19
   154         17
   155         20
   156         15
   157         44
   158         51
   159         27
   160         12
   161          5
   162          2
   165          4
   166         11
   167         11
   168         63
   169         20
   170         27
   171        171
   172         59
   173         39
   174         12
   175          2
   178          2
   179          4
   180          7
   181          8
   182         10
   183         58
   184         23
   185         18
   186         15
   187         23
   188          6
   192          2
   193          3
   194          8
   195          7
   196         10
   197         18
   198         18
   199         14
   200         32
   201          8
   202          2
   203          5
   204          2
   205          2
   206          3
   207          4
   208          7
   209         10
   210         14
   211         14
   212         21
   213         24
   214          8
   215        130
   216         18
   217          2
   220          2
   221          7
   222          8
   223          8
   224         10
   225         18
   226         21
   227         10
   228          2
   234          1
   235          4
   236         11
   237         13
   238         28
   240        245
   241         41
   242          5
   248          2
   249         17
   250         10
   251          7
   252         18
   253         13
   254         47
   255          7
   263          1
   264          7
   265         34
   266          5
   279         65
   280        261
   281         53
   282          6