##TITLE=Library Entry 65337
##JCAMP-DX=Revision 4.10 
##DATA TYPE=MASS SPECTRUM
##SAMPLE DESCRIPTION=LAC, NIDDK, NIH, Bethesda, MD 20892
##NAMES=HP
##CAS NAME=Crixivan
##MOLFORM=C36H47N5O4
##CAS REGISTRY NO=150378-17-9
##MP= -300
##BP= -300
##MW= 613
##$RETENTION INDEX=0
##$CONDENSED SPECTRUM=NO
##NPOINTS= 195
##XYDATA=(XY..XY) 1 
    41        291
    42        242
    43        157
    44         70
    46         30
    48          4
    51        159
    52         26
    53          9
    54        138
    55        138
    56        169
    57        223
    58         88
    59          9
    60         15
    62         20
    63         88
    65        243
    66         15
    68         61
    70        122
    72         57
    73          7
    74         21
    75         11
    77        206
    78         46
    79         78
    80         11
    81         17
    82         94
    83         82
    84         52
    85         29
    86         29
    87          2
    88          1
    89         35
    91         71
    92        999
    93        191
    94        106
    95         34
    97        869
    98         83
    99         17
   103        475
   104        256
   106        410
   107         30
   109         18
   110          9
   111          8
   112          6
   113         10
   115        125
   117        151
   118         41
   119         65
   121        137
   122          2
   123         39
   124          1
   125          6
   126         23
   127         12
   128          2
   130        245
   131        361
   132        198
   133        145
   134          4
   135         41
   136          1
   137          3
   138          1
   139          4
   140          8
   141          9
   143         20
   145         35
   147        160
   149        165
   150         18
   151          1
   152          1
   153          4
   154          2
   155         21
   156          1
   157         26
   158          5
   159         10
   160          7
   161         10
   162         13
   168          1
   170         15
   171          8
   172          2
   174        219
   175         72
   176         67
   177          3
   180          1
   181          7
   182          5
   184          4
   186         11
   188         99
   189          5
   190         59
   192         17
   196          3
   197          2
   198         17
   199          1
   201          5
   202          6
   204          4
   206          9
   214         12
   215          1
   216         15
   218         15
   227          3
   228          1
   229          1
   230          2
   232          6
   233          5
   234         20
   235          1
   244         28
   245         10
   246          7
   247         29
   248          1
   258          2
   259          7
   260          2
   262          2
   263          1
   271         27
   272        149
   273         34
   274          3
   276          5
   277          5
   287          1
   289         35
   290          8
   294          2
   302          1
   305          2
   306         30
   307          5
   315          1
   318          2
   319          5
   320          4
   324          8
   330          1
   336          4
   337          1
   338          7
   344         41
   345          8
   349          3
   362          2
   363          5
   364        461
   365        103
   366         14
   367          5
   385          1
   403         27
   404          6
   421        337
   422         84
   423         13
   437          1
   464         11
   465         26
   466          8
   477          1
   495         30
   496          7
   513        145
   514         43
   515          8
   596          1
   613          6
   614          1