##TITLE=Library Entry 67394
##JCAMP-DX=Revision 4.10 
##DATA TYPE=MASS SPECTRUM
##SAMPLE DESCRIPTION=E. S. WAIGHT IMPERIAL COLLEGE, LONDON
##NAMES=HP
##CAS NAME=2(1H)-Pyridinone, 1,6-dimethyl-
##MOLFORM=C7H9NO
##CAS REGISTRY NO=15031-43-3
##MP= -300
##BP= -300
##MW= 123
##$RETENTION INDEX=0
##$CONDENSED SPECTRUM=NO
##NPOINTS= 16
##XYDATA=(XY..XY) 1 
    27         85
    28         68
    38         79
    39        418
    42         59
    53        103
    54         50
    56        138
    65         62
    80         68
    93         50
    94        999
    95        309
   108        156
   123        950
   124         91