##TITLE=Library Entry 52473
##JCAMP-DX=Revision 4.10 
##DATA TYPE=MASS SPECTRUM
##SAMPLE DESCRIPTION=Chemical Concepts
##NAMES=HP
##CAS NAME=N,N-Dicyclohexyl-2-(2-(2-[(dicyclohexylcarbamoyl)-methoxy]-ethoxy
)-ethoxy)-acetamide
##MOLFORM=C32H56N2O5
##CAS REGISTRY NO=150369-69-0
##MP= -300
##BP= -300
##MW= 548
##$RETENTION INDEX=0
##$CONDENSED SPECTRUM=NO
##NPOINTS= 332
##XYDATA=(XY..XY) 1 
    25          0
    26          6
    27         27
    28         31
    29         49
    30         83
    31         18
    36          2
    38          2
    39         28
    40          5
    41        194
    42         35
    43         72
    44         76
    45         78
    46          5
    50          2
    51          3
    52          2
    53         21
    54         49
    55        521
    56        109
    57         44
    58         94
    59         37
    60         56
    61          6
    62          0
    63          0
    65          5
    66          4
    67         69
    68         35
    69         42
    70         29
    71         24
    72         15
    73        102
    74         26
    75         17
    76         16
    77          6
    78          2
    79         22
    80         14
    81         91
    82         62
    83        999
    84         78
    85         15
    86          9
    87         12
    88         18
    89         11
    90          2
    91          4
    92          1
    93          4
    94          8
    95         21
    96         28
    97         32
    98        144
    99         21
   100         15
   101          4
   102        188
   103         28
   104          4
   105          2
   106          1
   107          3
   108          7
   109         10
   110         51
   111         15
   112         36
   113          8
   114          8
   115          2
   116          2
   117          2
   118          5
   119          5
   120          6
   121          3
   122          5
   123          7
   124         15
   125         12
   126        377
   127         32
   128         11
   129          3
   130          6
   131         25
   132          4
   133          4
   134          1
   135          1
   136         10
   137          7
   138         33
   139         20
   140        110
   141         38
   142         29
   143          4
   144          1
   145          2
   146          2
   147         27
   148          6
   149         17
   150          7
   151          4
   152          5
   153          3
   154         20
   155         19
   156         93
   157         17
   158         26
   159          4
   160          2
   161          1
   162          1
   163          2
   164          6
   165          3
   166          8
   167          5
   168          8
   169          3
   170         13
   171          8
   172          3
   173          0
   174          0
   175          1
   176          2
   177          3
   178         31
   179         21
   180        285
   181         48
   182         47
   183         21
   184        170
   185         26
   186          5
   187          0
   188          0
   189          0
   190          2
   191          2
   192          9
   193          5
   194         15
   195          2
   196          2
   197          0
   198          1
   199          0
   200          9
   201          2
   202          6
   203          1
   204          1
   205          2
   206          5
   207          9
   208        154
   209         25
   210          4
   211          1
   212          1
   213          1
   214         11
   215          3
   216          1
   217          0
   218          0
   219          1
   220          2
   221         36
   222         51
   223         40
   224          8
   225          1
   226          2
   227          1
   228         12
   229          6
   230          2
   231          0
   232          0
   233          0
   234          0
   235          1
   236          4
   237         11
   238        161
   239         67
   240         14
   241          2
   242          0
   243          0
   244          2
   245          0
   246          3
   247          0
   248          0
   249          0
   250          0
   251          0
   252          9
   253         33
   254          6
   255          0
   256          1
   257          1
   258          5
   259          7
   260          1
   261          0
   262          0
   263          0
   264          3
   265         86
   266        197
   267         60
   268         10
   269          1
   270          0
   271          0
   272          0
   273          0
   274          1
   275          0
   279          1
   280          3
   281         12
   282         14
   283         18
   284         11
   285          3
   286          1
   287          0
   288          0
   295          8
   296         22
   297         10
   298          2
   299          0
   300          0
   301          0
   302          0
   303          2
   304          0
   308          0
   309          4
   310          6
   311         30
   312          6
   313          0
   321          0
   323          0
   324          0
   325          0
   326         18
   327          4
   328          6
   329          1
   330          3
   331          0
   332          1
   333          0
   339         11
   340          9
   341         17
   342          5
   343          1
   355         13
   356          5
   357          3
   358          0
   365          0
   367          0
   368          0
   369          4
   370          1
   371          0
   383         14
   384          3
   385          5
   386          1
   393          0
   399          0
   401          1
   413          3
   414          1
   415          1
   416          0
   417          0
   421         13
   422          4
   423          2
   424          0
   429          9
   430          3
   431          2
   432          0
   437          0
   443          0
   465         23
   466          8
   467          3
   468          0
   475          0
   489          0
   503          4
   504         16
   505          7
   506          1
   519          0
   548         32
   549         14
   550          3
   551          0