##TITLE=Library Entry 31476
##JCAMP-DX=Revision 4.10 
##DATA TYPE=MASS SPECTRUM
##SAMPLE DESCRIPTION=United States Army Criminal Investigation Laboratory (U
SACIL)
##NAMES=HP
##CAS NAME=N-(2-Hydroxyethyl)7Z,10Z,13Z,16Z-docosatetraenamide
##MOLFORM=C24H41NO2
##CAS REGISTRY NO=150314-35-5
##MP= -300
##BP= -300
##MW= 375
##$RETENTION INDEX=0
##$CONDENSED SPECTRUM=NO
##NPOINTS= 235
##XYDATA=(XY..XY) 1 
    39        130
    40         12
    41        553
    42         97
    43        231
    44        200
    45         78
    51         15
    52         15
    53        147
    54        127
    55        584
    56         77
    57        105
    58         11
    59         14
    60        208
    61         25
    62        999
    63         28
    65        140
    66        119
    67        824
    68        118
    69        227
    70        143
    71         36
    72         71
    74         16
    75         15
    77        362
    78        110
    79        948
    80        463
    81        430
    82         87
    83        102
    84         30
    85        479
    86         82
    87          8
    88         38
    90         10
    91        694
    92        163
    93        553
    94        171
    95        247
    96         63
    97         58
    98        684
    99        142
   100         17
   102          4
   103        456
   104         65
   105        355
   106        117
   107        208
   108         55
   109         85
   110         20
   111         24
   112         76
   113         18
   114          5
   115         53
   116        387
   117        189
   118         36
   119        247
   120         98
   121        188
   122         46
   123         25
   124         94
   125         50
   126         59
   127         15
   128         44
   129         49
   130         81
   131        128
   132         24
   133         86
   134         62
   135        119
   136         62
   137         22
   138         73
   139         25
   140         70
   141         11
   142         22
   143         26
   144         68
   145         85
   146         25
   147        108
   148         33
   149         80
   150        129
   151         14
   152        147
   153         29
   154         38
   155          4
   156         17
   157         20
   158         38
   159         50
   160         14
   161        113
   162         37
   163         96
   164         65
   165         18
   166        154
   167         33
   168          9
   169          6
   170         53
   171         11
   172         14
   173         29
   174          8
   175         60
   176         55
   177         88
   178         69
   179         27
   180        108
   181         19
   182         10
   183          8
   184         26
   185         40
   186         28
   187         24
   188          7
   189         67
   190         28
   192         93
   193         29
   194         36
   195         17
   196         10
   197         12
   198         13
   199          9
   200          7
   201         12
   202          4
   203        113
   204         48
   205         14
   206        167
   210         16
   211          4
   212         21
   213          3
   215         11
   217         42
   218         46
   219         19
   220        118
   221         18
   222         12
   223          3
   224         18
   225          5
   226         30
   227          3
   229          3
   231         29
   232         83
   233          8
   234          4
   236         16
   237          9
   238         12
   240          7
   244          3
   245         13
   246        194
   247         44
   248         11
   250         19
   251          3
   254          7
   255          2
   257          3
   258         11
   260         33
   261          5
   262          9
   264         19
   267          4
   272         53
   273          5
   274         39
   275          3
   276          8
   277          5
   278         15
   279          3
   282         20
   283          7
   286         53
   287          7
   290         27
   300         89
   301         10
   304          7
   307          4
   313          3
   314         52
   315         24
   316         16
   318          6
   328         18
   331         12
   332          7
   341          3
   342          3
   343          7
   344         12
   346          4
   355          4
   356         31
   357        108
   358         13
   375         19
   405         12
   406          4