##TITLE=Library Entry 44846
##JCAMP-DX=Revision 4.10 
##DATA TYPE=MASS SPECTRUM
##SAMPLE DESCRIPTION=Exported from NIST MS Search
##NAMES=HP
##CAS NAME=Manganese, pentacarbonyl(2,3,3,4,4-pentafluoro-1-cyclobuten-1-yl)
-
##MOLFORM=C9F5MnO5
##CAS REGISTRY NO=15043-65-9
##MP= -300
##BP= -300
##MW= 338
##$RETENTION INDEX=0
##$CONDENSED SPECTRUM=NO
##NPOINTS= 38
##XYDATA=(XY..XY) 1 
    31        400
    32        150
    55        900
    67        120
    69        300
    74        999
    79        120
    82        200
    86        470
    93         80
    98        220
   102        300
   105        999
   110        100
   111        120
   113         80
   118         50
   124         70
   130         50
   139        130
   148        180
   167         50
   168         70
   179        280
   194         50
   195         70
   198        999
   207         50
   221        120
   226        470
   235        100
   250         50
   254        670
   263        100
   282        370
   291        300
   319        130
   338        999