##TITLE=Library Entry 4372
##JCAMP-DX=Revision 4.10 
##DATA TYPE=MASS SPECTRUM
##SAMPLE DESCRIPTION=Chemical Concepts
##NAMES=HP
##CAS NAME=5-Silaspiro[4.4]nona-1,3,6,8-tetraene, 3,8-bis(diethylboryl)-2,7-
diethyl-1,4,6,9-tetraphenyl-
##MOLFORM=C44H50B2Si
##CAS REGISTRY NO=150479-86-0
##MP= -300
##BP= -300
##MW= 628
##$RETENTION INDEX=0
##$CONDENSED SPECTRUM=NO
##NPOINTS= 445
##XYDATA=(XY..XY) 1 
    26         29
    27         97
    28         36
    29         23
    37          5
    38          2
    39         26
    40        266
    41        999
    42         23
    43         12
    44          5
    45          4
    50          2
    51          9
    52          2
    53         28
    54          2
    55         16
    56          5
    57         15
    59         25
    61          2
    63          1
    65          6
    67          6
    68         56
    69        255
    70         11
    71          3
    73         16
    74          1
    75          2
    76          1
    77         13
    78          6
    79          7
    80          3
    81         10
    83          2
    85          9
    87         19
    88         22
    89         63
    90          1
    91         36
    92          4
    93         11
    97          1
   101          8
   102         15
   103         37
   104          3
   105        121
   106         18
   107         53
   108          8
   109          4
   111          6
   112         22
   113         91
   114         18
   115         32
   116         14
   117         39
   118          6
   119          9
   121         41
   122          5
   125          1
   126         13
   127         15
   128         16
   129        309
   130         56
   131         90
   132         20
   133         14
   135         52
   136          7
   137          9
   138          1
   139         14
   140         20
   141         76
   142         19
   143         31
   144          9
   145         38
   146          9
   147         12
   149          3
   150          7
   151          9
   152          9
   153         41
   154         11
   155         26
   156          6
   157         26
   158          8
   159         56
   160          6
   161          9
   162          2
   163         26
   164         13
   165         30
   166          8
   167         13
   168         10
   169         25
   170         13
   171         18
   172          4
   173         12
   175          7
   176          8
   177         12
   178         16
   179         14
   180         11
   181         22
   182         10
   183         51
   184         10
   185         10
   186          2
   187         25
   188         10
   189         23
   190          9
   191         19
   192          2
   193         15
   194          8
   195         23
   196          7
   197         11
   198          3
   199         14
   200         17
   201         24
   202         43
   203         20
   204         15
   205         30
   206          8
   207         61
   208         16
   209         18
   210          4
   211         21
   212         13
   213         44
   214         21
   215         41
   216         15
   217         19
   218         12
   219         19
   220         12
   221         17
   222          9
   223          8
   224          8
   225          9
   226         13
   227         16
   228         16
   229         41
   230         29
   231        136
   232         37
   233         25
   234         10
   235         16
   236          7
   237         14
   238          8
   239         18
   240         16
   241         39
   242         25
   243         57
   244         20
   245         41
   246         13
   247         14
   248          9
   249         14
   250          8
   251         14
   252         13
   253         14
   254         21
   255         33
   256         16
   257         33
   258         15
   259         53
   260         23
   261         19
   262          9
   263         12
   264          8
   265         17
   266         15
   267         33
   268         16
   269         36
   270         23
   271         50
   272         22
   273         17
   274          9
   275          9
   276          9
   277         10
   278          7
   279         11
   280          6
   281         18
   282         13
   283         30
   284         14
   285         14
   286         14
   287         16
   288         11
   289         12
   290          4
   291         15
   292         10
   293         12
   294         11
   295         25
   296         17
   297         14
   298         12
   299         22
   300         19
   301         22
   302         18
   303         14
   304         10
   305         12
   306          6
   307         38
   308         12
   309         12
   310          8
   311         18
   312         14
   313         13
   314         11
   315         13
   316         10
   317         16
   318         10
   319         15
   320         12
   321         13
   322          9
   323         14
   324         13
   325         12
   326         10
   327         13
   328         17
   329         29
   330         16
   331         58
   332         27
   333         26
   334         13
   335         12
   336          8
   337          9
   338         10
   339         16
   340         13
   341         23
   342         21
   343         46
   344         29
   345         23
   346         16
   347         14
   348         10
   349          9
   350          8
   351         10
   352         12
   353         17
   354         14
   355         30
   356         15
   357         19
   358          9
   359         14
   360         16
   361         30
   362         19
   363          9
   364         10
   365         10
   366         10
   367         16
   368         14
   369         23
   370         17
   371         32
   372         29
   373         32
   374         17
   375         11
   376          6
   377         11
   378          6
   379          9
   380          6
   381         14
   382          9
   383         13
   384         10
   385         13
   386          4
   387          7
   388          8
   389         19
   390         10
   391          5
   392          4
   393          8
   394          9
   395         12
   396         11
   397         14
   398         13
   399         11
   400         21
   401         37
   402         16
   403          8
   405          9
   407          9
   408          1
   409          8
   410          6
   411         12
   412          8
   413          9
   414          3
   415          2
   416          1
   417          4
   418          2
   419          2
   423          4
   424          2
   425         13
   426          6
   427          6
   428          3
   429         19
   430         13
   431         30
   432         47
   433         26
   434         15
   435         10
   436          4
   437          3
   439          4
   440          8
   441          7
   442          5
   443         10
   444         11
   445         15
   446          5
   447          2
   452          2
   453          7
   454          2
   456          1
   457          2
   462          7
   464          4
   465          8
   470          2
   471          5
   472         15
   473         25
   474         15
   475          7
   485          5
   486          5
   487          2
   493          5
   500          4
   501         25
   502         50
   503         24
   504         14
   505          4
   509          2
   511          2
   512          8
   513         17
   514         17
   515         10
   516          2
   529         12
   530         54
   531         32
   532         29
   533         11
   534          4
   540          4
   541         17
   542         37
   543         17
   544         11
   559          2
   560          9
   561          4
   569         12
   570         44
   571         76
   572        137
   573         54
   574         18
   598         32
   599        215
   600        509
   601        244
   602         75
   603         17
   626          4
   627         42
   628        115
   629         50
   630         16