##TITLE=Library Entry 76934
##JCAMP-DX=Revision 4.10 
##DATA TYPE=MASS SPECTRUM
##SAMPLE DESCRIPTION=Chemical Concepts
##NAMES=HP
##CAS NAME=Benzamide, N-diethylboryl-
##MOLFORM=C11H16BNO
##CAS REGISTRY NO=150465-95-5
##MP= -300
##BP= -300
##MW= 189
##$RETENTION INDEX=0
##$CONDENSED SPECTRUM=NO
##NPOINTS= 87
##XYDATA=(XY..XY) 1 
    25          0
    26          4
    27         25
    28          7
    29         28
    30          1
    36          2
    37          6
    38          3
    39         20
    40         12
    41         21
    42          2
    43          2
    44          6
    45          0
    49          0
    50         36
    51        150
    52         19
    53         10
    54         28
    55          4
    75         10
    76         27
    77        515
    78         40
    79          4
    80          2
    81          0
    82          4
    83          0
    84          6
    85         13
    86          1
    87          3
    88          2
    89          8
    90          1
    91          3
    92          1
    97          0
   100          0
   101          0
   102          4
   103         26
   104        999
   105        484
   106         29
   107          2
   108          0
   129          3
   130         11
   131         16
   132         62
   133          8
   134          4
   135          0
   137          0
   139          0
   141          0
   142          0
   143          1
   144          3
   145          8
   146         19
   147          1
   148          0
   157          0
   158          4
   159         26
   160         87
   161          8
   170          0
   171          6
   172         10
   173         20
   174         72
   175          7
   176          0
   186          0
   187         72
   188        353
   189        349
   190         36
   191          3
   192          0