##TITLE=Library Entry 52978
##JCAMP-DX=Revision 4.10 
##DATA TYPE=MASS SPECTRUM
##SAMPLE DESCRIPTION=V.G.Zaikin, TIPS RAS, Moscow, Russia
##NAMES=HP
##CAS NAME=3-Methyl-2-butenoic acid, 2-pentyl ester
##MOLFORM=C10H18O2
##CAS REGISTRY NO=150462-84-3
##MP= -300
##BP= -300
##MW= 170
##$RETENTION INDEX=1049
##$CONDENSED SPECTRUM=NO
##NPOINTS= 51
##XYDATA=(XY..XY) 1 
    26         29
    27        231
    28         79
    29        229
    30          6
    31          8
    37         14
    38         38
    39        276
    40         47
    41        185
    42         95
    43        268
    44         46
    45         65
    49          6
    50         32
    51         41
    52         22
    53         89
    54         38
    55        345
    56         31
    57         22
    58          4
    59         19
    65          6
    67         22
    69         29
    70        109
    71         51
    72          9
    73          6
    77          6
    78          4
    79         12
    81          4
    82        145
    83        999
    84         69
    85         65
    86          8
    87         43
    88          6
   100        391
   101        178
   102         11
   127          8
   128          1
   170          6
   171          1