##TITLE=Library Entry 58920
##JCAMP-DX=Revision 4.10 
##DATA TYPE=MASS SPECTRUM
##SAMPLE DESCRIPTION=James Little,Eastman Chem.Co.,Kingsport,TN
##NAMES=HP
##CAS NAME=2-Methyl-3-phenyl-2-propen-1-ol
##MOLFORM=C10H12O
##CAS REGISTRY NO=1504-55-8
##MP= -300
##BP= -300
##MW= 148
##$RETENTION INDEX=1343
##$CONDENSED SPECTRUM=NO
##NPOINTS= 43
##XYDATA=(XY..XY) 1 
    27        292
    29        254
    31        780
    39        282
    43        271
    45        278
    46        129
    50        129
    51        273
    55        194
    62         80
    63        187
    64         52
    65        194
    74         54
    75         55
    76         48
    77        236
    78        340
    79        199
    89        117
    91        999
    92        268
   102         56
   103         97
   104         60
   105        352
   106         44
   115        510
   116        117
   117        203
   128         78
   129        143
   130         63
   131         76
   132         75
   133        184
   145         27
   146         19
   147         63
   148        376
   149         44
   150         15