##TITLE=Library Entry 73942
##JCAMP-DX=Revision 4.10 
##DATA TYPE=MASS SPECTRUM
##SAMPLE DESCRIPTION=Chemical Concepts
##NAMES=HP
##CAS NAME=5-Hydroxy-pentanoic acid, [5-(5-hydroxy-pentanoylamino)-pentyl]-a
mide
##MOLFORM=C15H30N2O4
##CAS REGISTRY NO=150581-52-5
##MP= -300
##BP= -300
##MW= 302
##$RETENTION INDEX=0
##$CONDENSED SPECTRUM=NO
##NPOINTS= 166
##XYDATA=(XY..XY) 1 
    26         21
    27        158
    28         82
    29        124
    30        160
    31        208
    37          6
    38         12
    39        124
    40         28
    41        420
    42        319
    43        269
    44        109
    45         93
    46          6
    50          9
    51         12
    52          7
    53         27
    54        102
    55        600
    56        266
    57        169
    58         74
    59        141
    60        301
    61         12
    63          4
    65         12
    67         15
    68         16
    69         68
    70         83
    71         55
    72        102
    73         72
    74         18
    75          3
    76         10
    77         12
    79          7
    80          4
    81         17
    82         77
    83        298
    84        318
    85         45
    86         98
    87         72
    88         76
    89          9
    90          6
    91         20
    92          5
    93          7
    94          4
    95          7
    96         10
    97         18
    98         26
    99         68
   100        488
   101        999
   102         63
   103         11
   104          9
   105          9
   107          8
   108          6
   109          7
   110          6
   111         10
   112         44
   113         48
   114         74
   115         45
   116          7
   117         12
   118          6
   119         40
   120          4
   121          5
   122          4
   123          4
   124          4
   125          6
   126         65
   127         70
   128         56
   129         58
   130         14
   131         92
   132          8
   133          3
   138          5
   139          4
   140         58
   141         53
   142         24
   143         22
   144         76
   145         43
   146          5
   152          7
   153          4
   154         61
   155         16
   156          6
   157         34
   158         96
   159         84
   160         24
   165          6
   166         11
   167         10
   168         31
   169          7
   170          4
   171         33
   172        137
   173         65
   174          8
   178          3
   181          9
   182          4
   183         18
   184        139
   185         40
   186         58
   187         11
   199         21
   200          9
   201         66
   202         17
   203         33
   204          4
   211         41
   212          6
   213         15
   214          5
   226         12
   227          7
   229         21
   230         10
   239         31
   240         10
   244         51
   245          7
   253         25
   254          7
   257         70
   258         26
   259          7
   262         14
   266          5
   267          7
   271         51
   272         28
   273          5
   283          6
   284         29
   285         14
   302         60
   303         21
   304          4