##TITLE=Library Entry 81436
##JCAMP-DX=Revision 4.10 
##DATA TYPE=MASS SPECTRUM
##SAMPLE DESCRIPTION=NIST Mass Spectrometry Data Center, 1994
##NAMES=HP
##CAS NAME=p-Methylhydrocinnamic acid
##MOLFORM=C10H12O2
##CAS REGISTRY NO=1505-50-6
##MP= -300
##BP= -300
##MW= 164
##$RETENTION INDEX=0
##$CONDENSED SPECTRUM=NO
##NPOINTS= 72
##XYDATA=(XY..XY) 1 
     4          4
    14          1
    15          7
    18          1
    26          7
    27         60
    28          9
    29          9
    31          8
    37          2
    38         13
    39         92
    40         11
    41         31
    42         11
    43          6
    44          2
    45         59
    46          1
    50         30
    51         72
    52         20
    53         24
    54          1
    55          8
    58         13
    60          1
    61          4
    62         20
    63         50
    64         13
    65         79
    66          7
    67          2
    72          2
    73          3
    74          9
    75         11
    76          1
    77        140
    78         48
    79        104
    80          8
    81          6
    86          4
    87          5
    89         29
    91        133
    92         40
    93         14
   101          3
   102         18
   103         82
   104          3
   105        999
   106         85
   107         27
   108          2
   115         51
   116         12
   117         94
   118        168
   119         45
   120          5
   121          6
   131          3
   145          2
   147          2
   162          1
   164        220
   165         25
   166          2