##TITLE=Library Entry 903
##JCAMP-DX=Revision 4.10 
##DATA TYPE=MASS SPECTRUM
##SAMPLE DESCRIPTION=NIST Mass Spectrometry Data Center
##NAMES=HP
##CAS NAME=3-Fluoro-5-(trifluoromethyl)benzylamine
##MOLFORM=C8H7F4N
##CAS REGISTRY NO=150517-77-4
##MP= -300
##BP= -300
##MW= 193
##$RETENTION INDEX=0
##$CONDENSED SPECTRUM=NO
##NPOINTS= 111
##XYDATA=(XY..XY) 1 
    14          7
    15          1
    16         12
    17          2
    19          6
    26         10
    28        987
    29        443
    30        999
    31         73
    32         24
    37         19
    38         29
    39         31
    40          1
    41         15
    44          8
    45          7
    48         23
    49         13
    50         96
    51         73
    52         26
    53          6
    54         14
    56         16
    57         60
    61         29
    62         42
    63         59
    68         49
    69        183
    70         29
    71         12
    72          5
    73         16
    74         67
    75        175
    76         30
    77         30
    78          8
    79          7
    80         16
    81         42
    82         11
    83          7
    85         16
    87         43
    88         17
    92         20
    93         54
    94         73
    95         90
    96         51
    97         53
    98         10
    99         28
   100         14
   101         32
   102         12
   103          6
   104         15
   105         17
   106         16
   107         54
   108         13
   112         17
   113         63
   114         43
   115          6
   117         10
   119         10
   120         10
   122         50
   124        399
   125        110
   126         26
   127        128
   128         10
   132          8
   134         14
   137         22
   138          8
   139          4
   143         63
   144         42
   145        299
   146         38
   150          4
   151          7
   152         33
   153         15
   154         50
   155          8
   156         15
   157         11
   158          6
   163         93
   164         32
   165          5
   170         13
   172        121
   173        522
   174        258
   175         28
   176         13
   177         85
   190         90
   192        706
   193        308
   194         25