##TITLE=Library Entry 71307
##JCAMP-DX=Revision 4.10 
##DATA TYPE=MASS SPECTRUM
##SAMPLE DESCRIPTION=Japan AIST/NIMC Database- Spectrum MS-NW-7910
##NAMES=HP
##CAS NAME=2-Hydroxycyclohexyl p-toluenesulfonate
##MOLFORM=C13H18O4S
##CAS REGISTRY NO=15051-90-8
##MP= -300
##BP= -300
##MW= 270
##$RETENTION INDEX=0
##$CONDENSED SPECTRUM=NO
##NPOINTS= 118
##XYDATA=(XY..XY) 1 
    14          1
    15          7
    26          5
    27         91
    28         20
    29         65
    30          4
    31         49
    32          4
    34          1
    36          1
    37          4
    38          8
    39        132
    40         19
    41        339
    42         61
    43         64
    44         22
    45         11
    46          1
    47         16
    48          2
    49          1
    50         16
    51         37
    52         15
    53         35
    54         43
    55         78
    56         19
    57        118
    58          7
    59          2
    61          3
    62         10
    63         48
    64         16
    65        229
    66         16
    67        130
    68         21
    69        345
    70        316
    71         28
    72          2
    73          5
    74          4
    75          5
    76          3
    77         53
    78         13
    79        354
    80         66
    81         38
    82          5
    83        110
    84          7
    85          6
    86          3
    87         10
    88          2
    89         55
    90         37
    91        635
    92        456
    93         53
    94          4
    95          5
    96          3
    97        820
    98        999
    99         73
   100          5
   105          3
   106          1
   107         86
   108         77
   109          9
   110          1
   111          3
   112          1
   113          1
   114          1
   115        435
   116         29
   117          3
   119          2
   121         11
   122          3
   123          2
   124          2
   131          1
   137          2
   138          2
   139         56
   140          9
   141          4
   142          1
   154          3
   155         87
   156         65
   157         75
   158          9
   159          5
   161          2
   170          4
   171          9
   172         86
   173         74
   174         10
   175          4
   213          1
   228          4
   241          5
   269         14
   270          4
   271          1