##TITLE=Library Entry 49813
##JCAMP-DX=Revision 4.10 
##DATA TYPE=MASS SPECTRUM
##SAMPLE DESCRIPTION=G. Lange, Inst. Org. Chem., Univ. Wurzburg, Germany
##NAMES=HP
##CAS NAME=2,3-Diazabicyclo[2.2.1]hept-2-ene, 4-methyl-1-(pent-4-en-1-yl)-
##MOLFORM=C11H18N2
##CAS REGISTRY NO=150667-99-5
##MP= -300
##BP= -300
##MW= 178
##$RETENTION INDEX=0
##$CONDENSED SPECTRUM=NO
##NPOINTS= 48
##XYDATA=(XY..XY) 1 
    38          3
    39        138
    40         25
    41        228
    42         20
    43         22
    44          1
    49          6
    50          4
    51         19
    52         13
    53        101
    54         38
    55        119
    56          8
    57          2
    63          4
    65         32
    66         16
    67        147
    68         30
    69         16
    77         81
    78         15
    79        189
    80         40
    81        999
    82         66
    83          7
    84          3
    91         47
    92          7
    93        132
    94        105
    95         44
    96         25
   105          6
   106          2
   107        190
   108         41
   109         10
   121         15
   122          4
   135         30
   136          3
   149          2
   150          2
   151          1