##TITLE=Library Entry 31970
##JCAMP-DX=Revision 4.10 
##DATA TYPE=MASS SPECTRUM
##SAMPLE DESCRIPTION=Chemical Concepts
##NAMES=HP
##CAS NAME=2-Oxabicyclo[4.3.0]non-8-en-3-one, cis-
##MOLFORM=C8H10O2
##CAS REGISTRY NO=150620-57-8
##MP= -300
##BP= -300
##MW= 138
##$RETENTION INDEX=0
##$CONDENSED SPECTRUM=NO
##NPOINTS= 76
##XYDATA=(XY..XY) 1 
    25          2
    26         43
    27        200
    28         46
    29         34
    30          0
    31          4
    33          0
    36          0
    37         13
    38         37
    39        277
    40         75
    41        112
    42         46
    43         11
    44          2
    45          2
    46          0
    49          3
    50         27
    51         49
    52         24
    53         69
    54         43
    55        106
    56          5
    57          0
    58          0
    60          2
    61          4
    62         11
    63         22
    64          5
    65         61
    66        999
    67        124
    68         40
    69         15
    70          2
    73          0
    74          2
    75          0
    76          0
    77         44
    78         15
    79         58
    80          5
    81         53
    82         97
    83         26
    84          2
    86          0
    87          0
    89          1
    91         17
    92          6
    93          7
    94          6
    95         39
    96         16
    97         16
    98          1
   107          0
   108          1
   109         13
   110         26
   111          2
   119          0
   120          2
   121          2
   123          0
   137          3
   138         77
   139         12
   140          0