##TITLE=Library Entry 47004
##JCAMP-DX=Revision 4.10 
##DATA TYPE=MASS SPECTRUM
##SAMPLE DESCRIPTION=Chemical Concepts
##NAMES=HP
##CAS NAME=N-[1-(4-Hydroxy-5-hydroxymethyltetrahydrofuran-2-yl)-4-oxo-1,4-di
hydropyrimidin-2-yl]benzamide
##MOLFORM=C16H17N3O5
##CAS REGISTRY NO=150668-57-8
##MP= -300
##BP= -300
##MW= 331
##$RETENTION INDEX=0
##$CONDENSED SPECTRUM=NO
##NPOINTS= 119
##XYDATA=(XY..XY) 1 
    25          6
    26         48
    27        107
    28         77
    29        142
    30         12
    31        100
    37         15
    38         43
    39        122
    40        207
    41        105
    42         87
    43        134
    44         69
    45         50
    46          2
    47         10
    49          9
    50        152
    51        393
    52         48
    53         53
    54         21
    55         77
    56         18
    57         52
    58          6
    59          3
    60          7
    61         10
    62          7
    63         14
    64          8
    65         14
    66         13
    67         45
    68         54
    69        135
    70         70
    71         45
    72          5
    73         53
    74         54
    75         46
    76         67
    77        999
    78         80
    79          7
    80          3
    81         36
    82         19
    83         13
    84          4
    85         12
    86          3
    87          5
    88          2
    89          3
    90          7
    91          7
    92          3
    93          5
    94          6
    95         52
    96         11
    97         55
    98         30
    99         29
   100          5
   102          3
   103          7
   104         14
   105        959
   106         78
   107          5
   108          2
   109          3
   110          3
   111         18
   112          4
   113          3
   114          3
   115         10
   116         10
   117         34
   118          5
   119          2
   120          2
   121          2
   122          9
   123          3
   126          3
   127          2
   129          2
   136          8
   137          3
   138         64
   139          4
   144          2
   145          7
   146          4
   147          2
   148          4
   149          3
   150          3
   171          2
   172          3
   173          2
   185          5
   186         41
   187         67
   188          9
   189          2
   213          4
   214         46
   215         81
   216         14
   221          4