##TITLE=Library Entry 72888
##JCAMP-DX=Revision 4.10 
##DATA TYPE=MASS SPECTRUM
##SAMPLE DESCRIPTION=Japan AIST/NIMC Database- Spectrum MS-NW- 499
##NAMES=HP
##CAS NAME=Ethyltri-n-propylammonium iodide
##MOLFORM=C11H26IN
##CAS REGISTRY NO=15066-80-5
##MP= -300
##BP= -300
##MW= 299
##$RETENTION INDEX=0
##$CONDENSED SPECTRUM=NO
##NPOINTS= 103
##XYDATA=(XY..XY) 1 
    15         36
    26         30
    27        352
    28         63
    29        150
    30        187
    31          7
    36          8
    37          5
    38         11
    39         94
    40         17
    41        350
    42        114
    43        760
    44         66
    45          5
    52          4
    54         14
    55         19
    56         42
    57         31
    58        334
    59         11
    60          6
    61          4
    65          4
    66          5
    67         12
    68         13
    69         21
    70         22
    71         12
    72        203
    73         10
    77          3
    79          4
    80          6
    81         12
    82          9
    83         11
    84         35
    85         11
    86        102
    87          4
    89          4
    91          6
    92          5
    93          3
    94          3
    95          9
    96          9
    97          8
    98         20
    99          5
   100        999
   101         84
   102          3
   107          5
   108          3
   109          4
   110          5
   111          7
   112          9
   113          6
   114        534
   115         53
   117          4
   119          3
   121          4
   122          4
   123          4
   124          3
   126          3
   127         79
   128         35
   129         75
   130          6
   133          3
   134          4
   135          3
   136          5
   138          4
   139          4
   141         18
   142          6
   143         43
   144          4
   147          4
   148          3
   149          4
   152          7
   153          3
   154          3
   155          7
   156        135
   157          4
   166          3
   167          3
   168          6
   170        203
   171          9
   172          9