##TITLE=Library Entry 49371
##JCAMP-DX=Revision 4.10 
##DATA TYPE=MASS SPECTRUM
##SAMPLE DESCRIPTION=Japan AIST/NIMC Database- Spectrum MS-IW-1625
##NAMES=HP
##CAS NAME=Salicylaldehyde (2-pyridylcarbonyl)hydrazone
##MOLFORM=C13H11N3O2
##CAS REGISTRY NO=15075-87-3
##MP= -300
##BP= -300
##MW= 241
##$RETENTION INDEX=0
##$CONDENSED SPECTRUM=NO
##NPOINTS= 111
##XYDATA=(XY..XY) 1 
    26          5
    27         20
    28         11
    29          1
    37          2
    38          7
    39         40
    40          3
    41          3
    42          1
    43          4
    44          3
    49          1
    50         25
    51        118
    52        128
    53         31
    54          3
    55          3
    57          1
    61          1
    62          5
    63         22
    64         14
    65         19
    66          7
    67          9
    68          2
    69          1
    71          1
    74          2
    75          6
    76          9
    77         73
    78        499
    79        999
    80        102
    81          7
    83          1
    89          3
    90         10
    91         20
    92          7
    93          8
    94         10
    95          1
    97          1
   102          9
   103          2
   104          7
   105        152
   106        244
   107         65
   108          9
   109          1
   115          1
   117          7
   118          3
   119         56
   120         28
   121         21
   122        419
   123        303
   124         21
   125          1
   127          1
   128          1
   129          1
   130          3
   134          3
   135         10
   136          1
   137          1
   139          1
   140          1
   141          1
   142          1
   146          1
   148          4
   149          1
   154          6
   155          2
   156          9
   157          1
   163         10
   164          1
   166          2
   167          9
   168         12
   169          2
   170          1
   181          2
   182          1
   183          3
   184         10
   185          2
   195          9
   196          9
   197          2
   212          4
   213          1
   222          1
   223          2
   224         36
   225          9
   226          1
   239          2
   240         11
   241        508
   242         90
   243          9