##TITLE=Library Entry 20542
##JCAMP-DX=Revision 4.10 
##DATA TYPE=MASS SPECTRUM
##SAMPLE DESCRIPTION=CARL DJERASSI DEPT OF CHEM STANFORD UNIV STANFORD CALIF
 94305
##NAMES=HP
##CAS NAME=5.alpha.-Cholest-22-ene, (Z)-
##MOLFORM=C27H46
##CAS REGISTRY NO=15076-93-4
##MP= -300
##BP= -300
##MW= 370
##$RETENTION INDEX=0
##$CONDENSED SPECTRUM=NO
##NPOINTS= 124
##XYDATA=(XY..XY) 1 
    41        410
    42         40
    43        310
    44         10
    50         10
    53         90
    54         40
    55        999
    56         60
    57         70
    65         30
    66         20
    67        580
    68        180
    69        540
    70         40
    71         10
    77         90
    78         20
    79        320
    80         90
    81        790
    82        140
    83        240
    84         20
    91        150
    92         40
    93        330
    94        150
    95        750
    96        100
    97        100
    98         10
   101         10
   103         10
   105        100
   106         40
   107        260
   108        140
   109        740
   110        100
   111         90
   112         10
   115         10
   117         20
   118         10
   119         60
   120         40
   121        220
   122        170
   123        300
   124         40
   125         10
   129         10
   131         20
   132         10
   133         60
   134         50
   135        340
   136         70
   137        150
   138         60
   139         10
   145         20
   146         10
   147         90
   148         80
   149        770
   150        130
   151         50
   152         40
   159         10
   160         10
   161         70
   162         50
   163        570
   164         90
   165         20
   173         10
   175         60
   176         60
   177        130
   178         20
   187         10
   189         50
   190         20
   191         20
   201         10
   202         10
   203        120
   204         30
   205         10
   206         10
   215         20
   216         40
   217        170
   218         60
   219         20
   229         20
   230         20
   231         30
   232         20
   233         10
   243         50
   244         50
   245         20
   256         20
   257        390
   258        210
   259        700
   260        160
   261         20
   271        230
   272         50
   273         20
   285         20
   286        530
   287        140
   288         20
   355        110
   356         40
   370        220
   371         70
   372         20