##TITLE=Library Entry 33937
##JCAMP-DX=Revision 4.10 
##DATA TYPE=MASS SPECTRUM
##SAMPLE DESCRIPTION=Humboldt-Universitat zu Berlin, Department of Chemistry
, Analytical Group
##NAMES=HP
##CAS NAME=N-Methyl-2-[2-cyano-2-(4-nitrophenyl)-1-(4-methoxyphenyl)-vinylim
ino]-piperidine
##MOLFORM=C22H22N4O3
##CAS REGISTRY NO=150832-21-6
##MP= -300
##BP= -300
##MW= 390
##$RETENTION INDEX=0
##$CONDENSED SPECTRUM=NO
##NPOINTS= 347
##XYDATA=(XY..XY) 1 
    12          6
    13          3
    14          7
    15        101
    16         11
    17         42
    18        171
    26         16
    27         91
    28        135
    29        125
    30        209
    31         13
    32         11
    36          5
    37          3
    38         13
    39        101
    40         15
    41        161
    42        344
    43         71
    44        208
    45         15
    46          4
    50         35
    51         33
    52         16
    53         53
    54        101
    55        285
    56        107
    57         82
    58         49
    59          3
    61          5
    62         13
    63         55
    64         38
    65         26
    66         16
    67         63
    68        999
    69        137
    70        171
    71         15
    72          6
    73          3
    74         11
    75         27
    76         47
    77         64
    78         24
    79         17
    80         22
    81         33
    82        127
    83         61
    84         79
    85          9
    86         12
    87         24
    88         40
    89         38
    90         33
    91         28
    92         40
    93         89
    94         62
    95        103
    96        300
    97         80
    98         33
    99        256
   100         30
   101         24
   102         27
   103         40
   104         18
   105         11
   106         12
   107         20
   108         24
   109         26
   110         12
   111         63
   112         21
   113         27
   114         73
   115         57
   116         26
   117         33
   118         23
   119         27
   120         15
   121        222
   122         39
   123         72
   124         32
   125         16
   126         20
   127         32
   128         30
   129         26
   130         19
   131         19
   132         32
   133         90
   134         79
   135         23
   136         25
   137         52
   138         21
   139         37
   140         44
   141         18
   142         27
   143         21
   144         15
   145         15
   146         20
   147         22
   148         35
   149         27
   150         32
   151         60
   152         35
   153         16
   154         10
   155         16
   156         17
   157         33
   158         34
   159         22
   160         30
   161         18
   162         27
   163         92
   164         75
   165         35
   166         14
   167         13
   168         11
   169         13
   170         24
   172         80
   174         21
   175         31
   176         41
   177         65
   178         57
   179         19
   180         15
   181          9
   182          7
   183          8
   184          7
   185         16
   186         38
   187         34
   188         74
   189         75
   190        269
   191         59
   192         18
   193         10
   194         14
   195         20
   196          7
   197          7
   198         15
   199         16
   200         15
   201         74
   202         50
   203         57
   204         29
   205         26
   206         27
   207         16
   208         14
   209         12
   210         10
   211          9
   212          7
   213         19
   214         58
   215         31
   216         20
   217         30
   218         37
   219         22
   220         20
   221         22
   222          9
   223          8
   224          7
   225          7
   226         17
   227         39
   228         32
   229        419
   230         77
   231         22
   232         25
   233         28
   234         14
   235         11
   236         14
   237         26
   238          8
   239          9
   240         10
   241         11
   242         11
   243         11
   244         26
   245         20
   246         36
   247         21
   248          8
   249          5
   250          7
   251          5
   252          6
   254        264
   255         50
   256         15
   257         13
   258         10
   259          7
   260          8
   261         10
   262         15
   263          7
   264          4
   265          3
   266          8
   267         19
   268        171
   269         37
   270          6
   271          5
   272          7
   273          7
   274          6
   275         13
   276          6
   277          4
   278          2
   279         22
   280          7
   281         31
   282         10
   283         79
   284         16
   285          6
   286          7
   287          7
   288          4
   289          4
   290          3
   291         12
   292         26
   293          7
   294          6
   295          3
   296          1
   297          1
   298          2
   299          3
   300          5
   301          6
   302          4
   303          3
   304         13
   305          4
   306          3
   307          2
   308          5
   309          5
   310          2
   311          1
   312          1
   313          2
   314          5
   315          5
   316          4
   317          3
   318          3
   319          2
   320          5
   321          1
   322          9
   323          3
   324          1
   325          0
   326          0
   327          1
   328          7
   329          8
   330          4
   331          5
   332          4
   333          4
   334          6
   335          2
   336          8
   337          3
   338          0
   341          0
   342          6
   343         18
   344         13
   345          5
   346          2
   347          9
   348         11
   350         97
   351         24
   352          3
   356          0
   357          1
   358          7
   359         19
   360         40
   361         34
   362         19
   363         13
   364         20
   365          4
   366          0
   371          0
   372          1
   373          7
   374         12
   375         39
   376          9
   377          1
   386          0
   387          4
   389        224
   390        910
   391        236
   392         35
   393          3
   394          0