##TITLE=Library Entry 65630
##JCAMP-DX=Revision 4.10 
##DATA TYPE=MASS SPECTRUM
##SAMPLE DESCRIPTION=Patti Price, Georgia Bureau of Investigation, Decatur,
 Georgia
##NAMES=HP
##CAS NAME=Tropicamide
##MOLFORM=C17H20N2O2
##CAS REGISTRY NO=1508-75-4
##MP= -300
##BP= -300
##MW= 284
##$RETENTION INDEX=2330
##$CONDENSED SPECTRUM=NO
##NPOINTS= 129
##XYDATA=(XY..XY) 1 
    42          2
    43          1
    44         41
    49          1
    50          6
    51         24
    52         14
    53          6
    54          3
    56          6
    57          1
    58         18
    62          2
    63         12
    64          9
    65        118
    66         13
    67          3
    68          1
    70          7
    71          1
    72          2
    73          1
    75          2
    76          1
    77         71
    78         23
    79         31
    80         14
    85          1
    86          1
    87          1
    88          1
    89         31
    90         50
    91        149
    92        999
    93        154
    94         13
    96          1
    98          1
   101          1
   102          4
   103        145
   104        105
   105         23
   106         15
   107         53
   108          8
   109          1
   111          1
   116          1
   117          3
   118         44
   119         16
   120         20
   121        101
   122          8
   123          1
   127          1
   128          1
   129          1
   130          1
   131         27
   132         13
   133         11
   134          5
   135         51
   136          6
   137          7
   138          1
   143          1
   144          1
   145          1
   146          2
   147          3
   148          3
   149          9
   150          1
   151          1
   152          1
   160          1
   161          1
   162          9
   163        168
   164         14
   165          3
   166          1
   167          1
   168          8
   169          2
   170          1
   174          2
   175          1
   176          1
   179          1
   180          3
   181          1
   182          7
   183          9
   184          1
   188          1
   189          3
   191          1
   192          4
   193          1
   194          2
   195          2
   196          1
   197          1
   207          1
   209          1
   225         12
   226          2
   251          7
   252          1
   253          8
   254        348
   255         62
   256          6
   265         13
   266         56
   267         11
   268          1
   281          1
   282          1
   283          1
   284          4
   285          1