##TITLE=Library Entry 4376
##JCAMP-DX=Revision 4.10 
##DATA TYPE=MASS SPECTRUM
##SAMPLE DESCRIPTION=Humboldt-Universitat zu Berlin, Department of Chemistry
, Analytical Group
##NAMES=HP
##CAS NAME=3-Aza-2-(4-chlorophenyl)-1,1-dicyano-3-(1-methylpyrrolidin-2-ylid
en)propene
##MOLFORM=C15H13ClN4
##CAS REGISTRY NO=150832-18-1
##MP= -300
##BP= -300
##MW= 284
##$RETENTION INDEX=0
##$CONDENSED SPECTRUM=NO
##NPOINTS= 229
##XYDATA=(XY..XY) 1 
    12          7
    13          6
    15        582
    16         12
    17         13
    18         71
    26         68
    27        278
    28        370
    29         72
    30        169
    31          6
    32          5
    35         13
    36          6
    37         21
    38         63
    39        303
    40        109
    41        561
    42        999
    43        238
    44        290
    45         23
    46          9
    47         11
    49         20
    50        146
    51        110
    52         55
    53         70
    54        306
    55        508
    56         94
    57         72
    58         10
    60          7
    61         23
    62         30
    63         42
    64         32
    65         18
    66         36
    67        165
    68        115
    69         32
    70         48
    71          6
    72          8
    73         33
    74         65
    75        232
    76         75
    77         29
    78         18
    79         19
    80         56
    81         74
    82         89
    83         48
    84         16
    85         32
    86         25
    87         32
    88         26
    89         14
    90         11
    91         16
    92         21
    93         12
    94         16
    95         28
    96          9
    97         64
    98         35
    99         59
   100         70
   101         33
   102         71
   103         13
   104         10
   105         13
   106         15
   107         28
   109        159
   110         32
   111        139
   112         28
   113         57
   114         18
   115         13
   116         10
   117         30
   118         11
   119         30
   120         30
   121         11
   122         21
   123         43
   124         80
   125         75
   126         49
   127         30
   128         15
   129          8
   130          7
   131          6
   132          4
   133          5
   134         23
   135          7
   136         14
   137         73
   138         63
   139         43
   140         42
   141         11
   142          6
   143          5
   144          8
   145          7
   146         19
   147         39
   148         55
   149         13
   150         25
   151         57
   152        152
   153         34
   154         11
   155         18
   156          9
   157          5
   159          4
   160         24
   161         49
   162         33
   163         29
   164         16
   165         15
   166         13
   167         10
   168          5
   169          5
   171          5
   172          8
   173         52
   174         19
   175        102
   176         20
   177         39
   178         18
   179         10
   180          9
   181          9
   182          9
   183          6
   184          8
   186         10
   187         39
   188         13
   189         24
   190         15
   191         23
   192         12
   193         13
   194         13
   195          6
   196          8
   199          5
   200          3
   201          5
   202         11
   203         11
   204          8
   205          7
   206         15
   207         12
   208          5
   209          5
   214          5
   215         10
   216         14
   217         26
   218         12
   219         78
   220         16
   221         37
   222         11
   223          5
   227          3
   228          6
   229          9
   230         16
   231         11
   232          7
   233          4
   234          9
   235          2
   236          2
   240          2
   241          4
   242         15
   244         93
   245         16
   246         29
   247          7
   248          5
   249         11
   250          2
   254          5
   255          5
   256         14
   257         10
   258         41
   259          8
   260         13
   261          1
   267          1
   268          2
   269          2
   270          1
   281          0
   283         51
   284        137
   285         48
   286         45
   287         10
   288          1