##TITLE=Library Entry 15095
##JCAMP-DX=Revision 4.10 
##DATA TYPE=MASS SPECTRUM
##SAMPLE DESCRIPTION=Humboldt-Universitat zu Berlin, Department of Chemistry
, Analytical Group
##NAMES=HP
##CAS NAME=3-(4-Bromobenzoyl)-2-(.gamma.-methylaminopropyl)-imidazo[1,2-a]py
ridine
##MOLFORM=C18H18BrN3O
##CAS REGISTRY NO=150832-62-5
##MP= -300
##BP= -300
##MW= 371
##$RETENTION INDEX=0
##$CONDENSED SPECTRUM=NO
##NPOINTS= 245
##XYDATA=(XY..XY) 1 
    12         10
    14          5
    15         49
    16         43
    17        206
    18        753
    26         13
    27         68
    28        182
    29         52
    30         77
    31          6
    32          6
    35          5
    36         23
    37          7
    38         24
    39         91
    40         21
    41         57
    42        122
    43         56
    44        999
    45         40
    46          4
    50         68
    51        168
    52         79
    53         35
    54         19
    55         20
    56         50
    57         54
    58         34
    59          3
    60          4
    61          4
    62         17
    63         49
    64         25
    65         29
    66         27
    67         27
    68         11
    69          8
    70         17
    71          8
    72          6
    73          5
    74         17
    75        104
    76        146
    77         62
    78        417
    79        176
    80        121
    81         50
    82        106
    83          6
    84          6
    85          5
    86          9
    87          8
    88         14
    89         30
    90         46
    91         18
    92          9
    93         10
    94         19
    95          9
    96          6
    97          5
    98          6
    99          8
   100          5
   101         14
   102         27
   103         34
   104         41
   105         53
   106          6
   107          5
   108          5
   109          7
   110          5
   111          4
   112          5
   113          9
   114         17
   115         28
   116         30
   117         19
   118         30
   119         20
   121         12
   122          4
   125          4
   126         10
   127         19
   128         19
   129         26
   130         15
   131         76
   132         32
   133          9
   137          4
   138         15
   139         13
   140         11
   141          8
   142         15
   143         60
   144         19
   145         80
   146         10
   147          5
   151         12
   152         10
   153          8
   155        160
   156         28
   157        193
   158         24
   159         26
   160          6
   164         13
   165         11
   166          9
   167          8
   168          7
   169         11
   170          6
   171         28
   172         20
   173         10
   177          7
   178          9
   179          8
   180          6
   181          5
   183        130
   184         16
   185        131
   186         23
   187         15
   188         52
   189          9
   190          8
   191         16
   192         30
   193         15
   194          4
   195          6
   198          4
   200          4
   203          6
   204         10
   205        114
   206         97
   207         66
   208         20
   209          4
   210          9
   216          8
   217         13
   218         40
   219         88
   220         28
   221         17
   222          4
   229          4
   230          3
   231          6
   232          6
   233         42
   234        106
   235         53
   236         10
   244          2
   245          4
   246          5
   247         50
   248         32
   249         11
   250          2
   259          1
   260          1
   261          1
   262          1
   272          4
   273          1
   274          2
   283          4
   285        143
   286         54
   287        136
   288         46
   289          5
   296          1
   297          9
   298          6
   299         95
   300         21
   301         85
   302         17
   303          4
   309          1
   310          1
   311          6
   313        686
   314        436
   315        730
   316        395
   317         66
   318          5
   323          1
   324          1
   325          8
   327         88
   328         21
   329         84
   330         18
   331          2
   338          1
   339          2
   340          2
   341          7
   342          2
   343          6
   344          1
   345          1
   353          1
   354          2
   355          1
   356          3
   357          1
   358          1
   369          1
   370          1
   371         34
   372          9
   373         34
   374          7
   375          1