##TITLE=Library Entry 56284
##JCAMP-DX=Revision 4.10 
##DATA TYPE=MASS SPECTRUM
##SAMPLE DESCRIPTION=Japan AIST/NIMC Database- Spectrum MS-NW-6140
##NAMES=HP
##CAS NAME=D-Alloisoleucine
##MOLFORM=C6H13NO2
##CAS REGISTRY NO=1509-35-9
##MP= -300
##BP= -300
##MW= 131
##$RETENTION INDEX=0
##$CONDENSED SPECTRUM=NO
##NPOINTS= 65
##XYDATA=(XY..XY) 1 
    14          1
    15         11
    16          1
    17         12
    18         37
    26          9
    27         83
    28        216
    29        214
    30        335
    31          6
    37          2
    38          7
    39         62
    40          9
    41        214
    42         32
    43         29
    44        118
    45         17
    46         51
    47          1
    50          5
    51          7
    52          6
    53         12
    54         20
    55         26
    56         90
    57        311
    58         55
    59          3
    63          1
    65          2
    66          2
    67          7
    68          6
    69        125
    70         37
    71          6
    72          6
    73          1
    74        284
    75        383
    76         16
    77          3
    78          1
    80          1
    81          3
    82          1
    83          2
    84         11
    85          3
    86        999
    87         66
    88          2
    95          1
    97          1
    98          1
    99          4
   100          1
   102          6
   103          1
   116          1
   131          2