##TITLE=Library Entry 18539
##JCAMP-DX=Revision 4.10 
##DATA TYPE=MASS SPECTRUM
##SAMPLE DESCRIPTION=Japan AIST/NIMC Database- Spectrum MS-NW-4994
##NAMES=HP
##CAS NAME=3,4-Dibromotetrahydrothiophene-1,1-dioxide
##MOLFORM=C4H6Br2O2S
##CAS REGISTRY NO=15091-30-2
##MP= -300
##BP= -300
##MW= 276
##$RETENTION INDEX=0
##$CONDENSED SPECTRUM=NO
##NPOINTS= 121
##XYDATA=(XY..XY) 1 
    12          2
    14          2
    15          3
    16          1
    17          1
    18          3
    25          5
    26         77
    27        510
    28         81
    29          9
    32          7
    33          2
    34          1
    35          2
    36          6
    37         11
    38         23
    39        243
    40         31
    41        245
    42         12
    43          9
    44         10
    45         48
    46          3
    47          3
    48         30
    49         11
    50         79
    51        144
    52         62
    53        999
    54        206
    55         13
    57          6
    58         12
    59         14
    60          2
    61         19
    62          1
    63          3
    64         32
    65          5
    66          4
    67          3
    68        137
    69         29
    70          3
    71         10
    72          2
    73          4
    75          4
    76          4
    77          1
    78          3
    79         66
    80        191
    81         57
    82        186
    83          3
    84          8
    85          6
    86          3
    87         24
    88          2
    89         51
    90          2
    91          4
    93          8
    95          8
    99         16
   100          2
   101          1
   103          2
   104          2
   105          7
   106         82
   107         15
   108         75
   109          9
   116         40
   117        106
   118          7
   119         23
   120          1
   121         68
   122          2
   123         48
   124          2
   127          1
   128          2
   130          2
   131          4
   132         36
   133        653
   134         66
   135        618
   136         26
   149         22
   150          1
   151         22
   152          1
   169          1
   170          3
   172          2
   196          5
   197         46
   198          7
   199         46
   200          3
   201          2
   211         11
   212          3
   213         20
   214          7
   215         10
   216          4
   276          7
   278         12
   280          7