##TITLE=Library Entry 78766
##JCAMP-DX=Revision 4.10 
##DATA TYPE=MASS SPECTRUM
##SAMPLE DESCRIPTION=P.A. Leclercq, Lab. Instrum. Anal., Tech. Univ. Eindhov
en, Netherlands
##NAMES=HP
##CAS NAME=Benzoic acid, 2-methylene-3-butenyl ester
##MOLFORM=C12H12O2
##CAS REGISTRY NO=150967-24-1
##MP= -300
##BP= -300
##MW= 188
##$RETENTION INDEX=0
##$CONDENSED SPECTRUM=NO
##NPOINTS= 75
##XYDATA=(XY..XY) 1 
    12          0
    13          0
    14          2
    15          8
    16          0
    17          0
    18          2
    27        193
    28         23
    29         42
    30          1
    31          2
    37          9
    38         30
    39        220
    40         59
    41        156
    42          5
    43          4
    44          0
    45          1
    50        115
    51        300
    52         34
    53         32
    54          6
    55         18
    56          0
    61          1
    62          5
    63          9
    65         62
    66         34
    67         17
    68          0
    69          0
    74         20
    75         17
    77        623
    78         42
    79         21
    80          1
    81          1
    82          1
    83          5
    84          0
    89          0
    91          5
    92          1
    94          0
   101          0
   105        999
   106        136
   107          8
   115          4
   116          1
   117          0
   122          1
   123          9
   124          0
   127          3
   128         15
   129          8
   130          0
   131          0
   135          0
   141          3
   142          1
   143          5
   144          0
   147          1
   159          0
   169          0
   188         16
   189          1