##TITLE=Library Entry 83143
##JCAMP-DX=Revision 4.10 
##DATA TYPE=MASS SPECTRUM
##SAMPLE DESCRIPTION=P. Vainiotalo, Dep. Chem., Univ. Joensuu, Joensuu, Finl
and
##NAMES=HP
##CAS NAME=2H-3,1-Benzoxazine, octahydro-2-phenyl-, trans-
##MOLFORM=C14H19NO
##CAS REGISTRY NO=150949-86-3
##MP= -300
##BP= -300
##MW= 217
##$RETENTION INDEX=0
##$CONDENSED SPECTRUM=NO
##NPOINTS= 90
##XYDATA=(XY..XY) 1 
    27         31
    29         27
    30         25
    31          9
    39         44
    40          9
    41        112
    42         16
    43         49
    46         16
    50          8
    51         30
    52         11
    53         29
    54         45
    55         59
    56         36
    57         11
    63         10
    65         17
    66          8
    67         98
    68         31
    69         21
    70         15
    76          9
    77        114
    78         30
    79        112
    80         17
    81         39
    82         39
    83         16
    84          7
    89         26
    90         32
    91        119
    92         13
    93         12
    94          7
    95         90
    96         50
    97          6
   103         19
   104        134
   105        218
   106        999
   107        113
   108         14
   110         26
   111          7
   115          8
   117         32
   118         24
   119         18
   120         12
   122         10
   126         11
   129          8
   130         27
   131         12
   132         57
   133         13
   134          6
   135         41
   136          5
   140        159
   141         18
   143          8
   144         84
   145         22
   146         32
   147          6
   156          8
   158         45
   159         15
   160         10
   172         22
   173          5
   174         27
   175          5
   186        159
   187        497
   188         85
   189         11
   200         15
   201          3
   216        158
   217         51
   218         11