##TITLE=Library Entry 26696
##JCAMP-DX=Revision 4.10 
##DATA TYPE=MASS SPECTRUM
##SAMPLE DESCRIPTION=Japan AIST/NIMC Database- Spectrum MS-NW-6566
##NAMES=HP
##CAS NAME=Hexanedioic acid, dinonyl ester
##MOLFORM=C24H46O4
##CAS REGISTRY NO=151-32-6
##MP= -300
##BP= -300
##MW= 398
##$RETENTION INDEX=2484
##$CONDENSED SPECTRUM=NO
##NPOINTS= 184
##XYDATA=(XY..XY) 1 
    14          1
    15          4
    17          3
    18         11
    26          2
    27         30
    28         19
    29         99
    30          2
    31          5
    32          1
    38          2
    39         32
    40          9
    41        237
    42         63
    43        148
    44          9
    45          4
    50          1
    51          3
    52          1
    53         16
    54         12
    55        260
    56        103
    57        999
    58         50
    59         14
    60          3
    61          1
    63          1
    65          3
    66          1
    67         21
    68         22
    69        225
    70        325
    71        351
    72         21
    73         14
    74          1
    77          3
    79          4
    80          1
    81         10
    82         10
    83        109
    84         73
    85         24
    86          3
    87          9
    88          1
    91          2
    93          3
    94          3
    95         34
    96          7
    97         21
    98         23
    99          7
   100         32
   101         56
   102         11
   103          3
   107          2
   108          2
   109         10
   110         26
   111        112
   112         57
   113         15
   114          9
   115        230
   116         17
   117          2
   123          2
   124          5
   125          7
   126         88
   127         64
   128         13
   129        553
   130         41
   131          6
   135          1
   137          1
   138          2
   139          1
   140          1
   141          2
   143          5
   144          3
   145          3
   146          1
   147         30
   148          2
   149          2
   152          4
   153          1
   154          1
   155          2
   156          8
   157          9
   158          1
   169          1
   170         21
   171          7
   172          1
   173          1
   174          4
   175          1
   180          3
   181          1
   183          6
   184          1
   185          4
   187          1
   197          1
   198         13
   199         30
   200          5
   201          1
   203          1
   212          4
   213         28
   214          5
   216          2
   217          7
   218          2
   219          1
   221          1
   225          1
   226         83
   227         18
   228         15
   229          3
   238          2
   239         27
   240          5
   241         13
   242          2
   243          1
   245          2
   246          1
   253          1
   254          2
   255        308
   256         52
   257          9
   258          1
   259          7
   260          1
   269          1
   270          2
   271          1
   272          2
   273        166
   274         30
   275          3
   286          2
   287          1
   299          7
   300         17
   301          3
   313          1
   314          1
   324          1
   327          9
   328          7
   329          2
   341          8
   342        104
   343         37
   344          7
   345          1
   369          2
   370          1
   383         41
   384         12
   385          2
   398         26
   399          8
   400          1