##TITLE=Library Entry 48596
##JCAMP-DX=Revision 4.10 
##DATA TYPE=MASS SPECTRUM
##SAMPLE DESCRIPTION=NIST Mass Spectrometry Data Center
##NAMES=HP
##CAS NAME=Methohexital
##MOLFORM=C14H18N2O3
##CAS REGISTRY NO=151-83-7
##MP= -300
##BP= -300
##MW= 262
##$RETENTION INDEX=1768
##$CONDENSED SPECTRUM=NO
##NPOINTS= 198
##XYDATA=(XY..XY) 1 
    15          9
    25          1
    26         11
    27        132
    28         35
    29         53
    30         19
    31          6
    37          4
    38         18
    39        345
    40         59
    41        678
    42         90
    43         61
    44         48
    45          5
    46          1
    49          2
    50         54
    51        192
    52        152
    53        889
    54        106
    55        190
    56         76
    57         43
    58        127
    59          5
    60          1
    61          3
    62         17
    63         65
    64         22
    65        236
    66        170
    67        161
    68         56
    69         49
    70         61
    71          6
    72          2
    73          2
    74         10
    75         16
    76         14
    77        377
    78        115
    79        999
    80        213
    81        632
    82        108
    83         36
    84          7
    85          5
    86          3
    87          5
    88          3
    89         19
    90         13
    91        271
    92         67
    93        382
    94         76
    95         40
    96         74
    97        100
    98         54
    99         10
   100          2
   101          6
   102         11
   103         45
   104         26
   105        160
   106         98
   107         96
   108        257
   109         87
   110         96
   111         45
   112         53
   113         17
   114          4
   115         44
   116         22
   117         61
   118         45
   119         97
   120        196
   121        132
   122         56
   123         32
   124        142
   125         16
   126         12
   127         10
   128         10
   129         12
   130         11
   131         24
   132         34
   133         77
   134         86
   135         25
   136         32
   137         24
   138         99
   139         19
   140          4
   141          2
   142          9
   143         26
   144         12
   145         32
   146         32
   147         89
   148         69
   149         54
   150         36
   151          9
   152          2
   153          7
   154          9
   155        143
   156         19
   157          3
   158          9
   159         51
   160        115
   161        130
   162         87
   163         79
   164        340
   165         67
   166        100
   167        146
   168         23
   169         16
   170          3
   171          1
   172          6
   173         26
   174         10
   175          8
   176         52
   177         57
   178        392
   179         61
   180         18
   181        240
   182        112
   183         19
   184          2
   186          2
   187          5
   188         12
   189          5
   190         38
   191         31
   192          8
   193         12
   194          4
   195          2
   201          1
   202          3
   203          5
   204         27
   205         80
   206         36
   207         17
   208          4
   215          2
   216          2
   217          7
   218          3
   219         75
   220         68
   221        642
   222         80
   223          8
   224          1
   229          3
   230          1
   231          2
   233        306
   234         64
   235          8
   236          1
   243          1
   244          2
   245          7
   247        297
   248         43
   249          5
   261         88
   262         26
   263          4