##TITLE=Library Entry 11472
##JCAMP-DX=Revision 4.10 
##DATA TYPE=MASS SPECTRUM
##SAMPLE DESCRIPTION=Japan AIST/NIMC Database- Spectrum MS-NW-5273
##NAMES=HP
##CAS NAME=Benzeneethanol, .alpha.,.alpha.-dimethyl-, acetate
##MOLFORM=C12H16O2
##CAS REGISTRY NO=151-05-3
##MP= -300
##BP= -300
##MW= 192
##$RETENTION INDEX=1298
##$CONDENSED SPECTRUM=NO
##NPOINTS= 86
##XYDATA=(XY..XY) 1 
    12          1
    13          3
    14         15
    15         33
    16          3
    17          3
    18         13
    25          1
    26          5
    27         32
    28         26
    29         17
    31         11
    37          3
    38         11
    39        119
    40          9
    41         53
    42         47
    43        999
    44         23
    45         96
    46          1
    49          2
    50         30
    51         79
    52         19
    53         26
    54         16
    55         28
    56          3
    57         22
    58          9
    59        258
    60         71
    61          6
    62         16
    63         54
    64         29
    65        136
    66         12
    67          2
    73          2
    74          9
    75          9
    76          9
    77         48
    78         44
    79         12
    80          1
    85          2
    86          4
    87          5
    88          3
    89         36
    90         13
    91        496
    92         91
    93          8
    98          1
   101         88
   102         15
   103         25
   104         24
   105         26
   106          3
   107          1
   113          3
   114          3
   115        178
   116         66
   117        666
   118         69
   119          4
   126          2
   127         10
   128         20
   129         26
   130          8
   131        111
   132        582
   133         89
   134         53
   135         57
   136          6
   177          1