##TITLE=Library Entry 97731
##JCAMP-DX=Revision 4.10 
##DATA TYPE=MASS SPECTRUM
##SAMPLE DESCRIPTION=Japan AIST/NIMC Database- Spectrum MS-IW-6270
##NAMES=HP
##CAS NAME=Halothane
##MOLFORM=C2HBrClF3
##CAS REGISTRY NO=151-67-7
##MP= -300
##BP= -300
##MW= 196
##$RETENTION INDEX=570
##$CONDENSED SPECTRUM=NO
##NPOINTS= 83
##XYDATA=(XY..XY) 1 
    13          1
    25          1
    28          3
    31         37
    32          9
    35          3
    36          3
    37          1
    38          1
    43          2
    44         11
    47         25
    48         28
    49          9
    50         15
    51         33
    62          2
    63         13
    66          9
    67        182
    68          5
    69        113
    70          1
    71          1
    72          1
    78          2
    79         19
    80          3
    81         19
    82         15
    85          8
    87          2
    91         11
    92         13
    93         11
    94         13
    97          6
    98        172
    99          5
   100         54
   101          1
   110          5
   111         45
   112          6
   113         43
   114          1
   116          9
   117        999
   118         24
   119        320
   120          7
   122          1
   124          1
   126          5
   127        177
   128          9
   129        235
   130          4
   131         58
   141          2
   142          8
   143          2
   144          8
   145          6
   147          8
   149          2
   160          2
   161          8
   162          3
   163          8
   176          2
   177         91
   178          5
   179        120
   180          3
   181         28
   195          1
   196        474
   197         12
   198        613
   199         13
   200        147
   201          3