##TITLE=Library Entry 19618
##JCAMP-DX=Revision 4.10 
##DATA TYPE=MASS SPECTRUM
##SAMPLE DESCRIPTION=Leung Pu, NIH, Bethesda, Maryland, U.S.
##NAMES=HP
##CAS NAME=n-Butyl ricinoleate
##MOLFORM=C22H42O3
##CAS REGISTRY NO=151-13-3
##MP= -300
##BP= -300
##MW= 354
##$RETENTION INDEX=0
##$CONDENSED SPECTRUM=NO
##NPOINTS= 232
##XYDATA=(XY..XY) 1 
    41        772
    42        157
    43        804
    44         98
    45         88
    49         34
    51         18
    53         58
    54        133
    55        999
    56        428
    57        661
    58         57
    59         41
    60        138
    61         38
    65         16
    66         23
    67        346
    68        188
    69        468
    70        119
    71        233
    72         25
    73        167
    74         18
    77         23
    79        117
    80         78
    81        384
    82        217
    83        410
    84        204
    85        226
    86         50
    87         81
    89         45
    91         39
    93         97
    94         73
    95        300
    96        220
    97        365
    98        232
    99        172
   100         49
   101        116
   102         17
   105         29
   106         17
   107         83
   108         56
   109        195
   110        140
   111        199
   112         72
   113        368
   114         72
   115        103
   116         33
   117         31
   119         42
   120         21
   121         85
   122         70
   123        191
   124        143
   125        172
   126         47
   127        106
   128         30
   129        120
   130         24
   131         40
   133         35
   134         17
   135         78
   136         57
   137        108
   138        117
   139        152
   140         50
   141        156
   142         37
   143         82
   144         21
   145         44
   147         39
   148         39
   149         61
   150         74
   151         75
   152         92
   153         81
   154         49
   155        282
   156         59
   157        197
   158         28
   159         24
   161         20
   163         37
   164         80
   165         80
   166        156
   167        107
   168         57
   169         62
   170         42
   171        246
   172         55
   173         60
   175         22
   177         24
   178         39
   179         46
   180         35
   181         77
   182         56
   183         77
   184         50
   185        111
   186         41
   187         22
   189         20
   191         22
   192         18
   193         49
   194         27
   195         61
   196         33
   197         49
   198         28
   199         86
   200         37
   201         28
   207         30
   208         33
   209         59
   210         34
   211         73
   212         44
   213        195
   214         36
   215         42
   217         17
   219         20
   220         33
   221         30
   222         26
   223         40
   224         32
   225         45
   226         28
   227        220
   228         46
   229        187
   230         35
   231         36
   234         16
   235         22
   236         20
   237         33
   238         48
   239         64
   240         49
   241         73
   242         28
   243         27
   244         15
   245         47
   249         20
   250         16
   251         30
   252         19
   253         36
   254         23
   255         63
   256         27
   257         34
   261         19
   262        156
   263        113
   264         42
   265         35
   266         19
   267         65
   268         25
   269         36
   271         24
   277         26
   278         25
   279        120
   280        213
   281         81
   282         27
   283         33
   284         18
   285         31
   291         17
   293         30
   294         19
   295         47
   296         27
   297         46
   298         18
   299         17
   307         21
   308         17
   309         30
   310         16
   311         22
   312         17
   313         20
   323         24
   325         27
   327         23
   334         18
   335         39
   336        340
   337        158
   338         39
   339         28
   340         14
   341          1
   350          1
   351          2
   352          4
   353         22
   354         73
   355         21
   356          1