##TITLE=Library Entry 40916
##JCAMP-DX=Revision 4.10 
##DATA TYPE=MASS SPECTRUM
##SAMPLE DESCRIPTION=Exported from NIST MS Search
##NAMES=HP
##CAS NAME=3-Octanol, 3,6-dimethyl-
##MOLFORM=C10H22O
##CAS REGISTRY NO=151-19-9
##MP= -300
##BP= -300
##MW= 158
##$RETENTION INDEX=1990
##$CONDENSED SPECTRUM=NO
##NPOINTS= 95
##XYDATA=(XY..XY) 1 
    12          1
    13          1
    14          2
    15         22
    16          1
    17          5
    18         16
    19          3
    25          1
    26         23
    27        218
    28         46
    29        298
    30          8
    31         35
    32          2
    33          1
    36          1
    37          2
    38          5
    39         97
    40         17
    41        240
    42         45
    43        344
    44         12
    45         69
    46          2
    47          1
    48          1
    49          1
    50          4
    51         10
    52          5
    53         35
    54         13
    55        351
    56         37
    57         97
    58         49
    59         25
    60          1
    62          1
    63          2
    64          1
    65          5
    66          3
    67         18
    68          7
    69        298
    70        181
    71         97
    72         33
    73        999
    74         44
    75          3
    77          4
    78          1
    79          4
    80          1
    81          6
    82          9
    83         93
    84         20
    85         16
    86          1
    87          2
    88          1
    91          2
    92          1
    93          1
    94          1
    95          5
    96          6
    97          4
    99          2
   100          1
   101          1
   109          3
   111         60
   112          6
   113          1
   123          1
   125          4
   126          1
   127          1
   129        121
   130         11
   131          1
   138          1
   139          1
   140         28
   141          5
   143         38
   144          4