##TITLE=Library Entry 90506
##JCAMP-DX=Revision 4.10 
##DATA TYPE=MASS SPECTRUM
##SAMPLE DESCRIPTION=O.Berdeaux ET AL.JAOCS,73,1323(1996)
##NAMES=HP
##CAS NAME=2-Oxazoline,4,4-dimethyl-2-(nonadeca-4,10,13,16-tetraenyl)-,(Z,Z,
Z,Z)
##MOLFORM=C24H39NO
##CAS REGISTRY NO=151060-62-7
##MP= -300
##BP= -300
##MW= 357
##$RETENTION INDEX=0
##$CONDENSED SPECTRUM=NO
##NPOINTS= 139
##XYDATA=(XY..XY) 1 
   101          2
   104          5
   105         62
   106         15
   107         80
   108         52
   109         74
   110         39
   111         18
   113        999
   114        158
   115         15
   117          4
   118         12
   119         37
   120         24
   121         91
   122         33
   123         53
   124         11
   126        434
   127         99
   128         10
   129          6
   131         23
   132          8
   133         35
   134         25
   135         57
   136        108
   137         76
   138         27
   139         22
   140         30
   141          7
   143          4
   144          4
   145          7
   146         10
   147         36
   148         15
   149        114
   150         40
   151          5
   152         84
   153        204
   154         40
   155         15
   157          9
   159         14
   161         21
   162          9
   163         35
   164         18
   165          8
   166        151
   167         42
   168          8
   171          4
   173          7
   175          6
   176         18
   177         25
   178         21
   179         27
   180        180
   181         37
   182          8
   183          5
   189         18
   190         10
   191         20
   192         30
   193         11
   194         93
   195         18
   203         21
   204         12
   205          7
   206         24
   207         18
   208         89
   209         21
   215          5
   216          7
   217         10
   218         11
   219         12
   220         26
   221         12
   222         31
   229          5
   230          7
   231         10
   232         18
   233          9
   234         52
   235         13
   236          5
   246         12
   248        104
   249         51
   250         21
   251          3
   260         21
   261          7
   262         52
   263         11
   264          7
   265          5
   272         12
   273         18
   274         48
   275         32
   276         12
   277          7
   281          2
   286         10
   288        118
   289         37
   290         10
   291          4
   299          9
   300         12
   302         56
   303         22
   304          4
   314         30
   315         10
   316         21
   327          5
   328         63
   329         19
   341         32
   342         89
   343         21
   356         37
   357         90
   358         37