##TITLE=Library Entry 35623
##JCAMP-DX=Revision 4.10 
##DATA TYPE=MASS SPECTRUM
##SAMPLE DESCRIPTION=Chemical Concepts
##NAMES=HP
##CAS NAME=Phenylacetic acid, 3-methylbut-2-enyl ester
##MOLFORM=C13H16O2
##CAS REGISTRY NO=151091-17-7
##MP= -300
##BP= -300
##MW= 204
##$RETENTION INDEX=1549
##$CONDENSED SPECTRUM=NO
##NPOINTS= 83
##XYDATA=(XY..XY) 1 
    26          3
    27         40
    28         20
    29         31
    30          1
    31          1
    37          2
    38          9
    39         97
    40         25
    41        360
    42         26
    43         16
    44          6
    45          2
    46          1
    49          1
    50         11
    51         32
    52         11
    53         70
    54         10
    55         19
    56          3
    57         10
    61          2
    62          8
    63         33
    64         11
    65        128
    66         14
    67        108
    68        166
    69        999
    70         76
    71          6
    74          2
    75          2
    76          3
    77          8
    78          4
    79          4
    81          2
    82          2
    83          7
    84          2
    85         45
    86          5
    87          2
    88          2
    89         35
    90         35
    91        681
    92        126
    93          8
    94          1
    95          2
   104          4
   105          3
   107          2
   109          2
   113         11
   117          4
   118         27
   119         12
   120          2
   121          2
   129          2
   136         27
   137          6
   138          1
   143         11
   144          2
   145          9
   146          1
   149         26
   150          3
   151          1
   152          2
   153          2
   204         90
   205         16
   206          2