##TITLE=Library Entry 357
##JCAMP-DX=Revision 4.10 
##DATA TYPE=MASS SPECTRUM
##SAMPLE DESCRIPTION=Humboldt-Universitat zu Berlin, Department of Chemistry
, Analytical Group
##NAMES=HP
##CAS NAME=4-(4-Fluorophenyl)-3-morpholin-4-yl-1H-pyrrol-2-carboxylic acid,
 ethyl ester
##MOLFORM=C17H19FN2O3
##CAS REGISTRY NO=151054-91-0
##MP= -300
##BP= -300
##MW= 318
##$RETENTION INDEX=0
##$CONDENSED SPECTRUM=NO
##NPOINTS= 233
##XYDATA=(XY..XY) 1 
    12          5
    13          3
    14         18
    15         94
    16          7
    17          3
    18          9
    19         23
    20          1
    26         75
    27        431
    28        338
    29        999
    30         48
    31         84
    32          3
    33          7
    34          1
    37          1
    38          6
    39         27
    40         32
    41         47
    42         48
    43         55
    44         29
    45         55
    46          3
    47          1
    50          9
    51         13
    52         13
    53         11
    54         20
    55         11
    56         14
    57         28
    59         84
    60          3
    61          2
    62          6
    63         13
    64          4
    65          6
    66          9
    67          7
    68          5
    69          5
    70         12
    71          2
    72          2
    73          2
    74         11
    75         20
    76          5
    77          4
    78          4
    80         12
    81         11
    82          4
    83         13
    84          5
    85          2
    86          6
    87          7
    88          4
    89          3
    90          2
    91          2
    93         12
    94         19
    95         16
    96          6
    97          2
    98          4
    99         12
   100         14
   101         16
   102          3
   103          1
   104          2
   105          6
   106         13
   107         30
   108         11
   109          8
   110          1
   111          2
   112          2
   113          6
   114          5
   115          6
   116          2
   117          2
   118          4
   119         11
   120         54
   121         21
   122          6
   123          2
   124          2
   125          7
   126         37
   127         12
   128          4
   129          4
   130          5
   131         28
   132         50
   133        121
   134         28
   135         10
   136          3
   137          1
   138          2
   139          5
   140         16
   141          3
   142          2
   143          1
   144          5
   145         24
   146         49
   147         19
   148         12
   149          2
   150          1
   151          1
   152          2
   153          1
   154          3
   155          1
   156          2
   158         90
   159         50
   160         35
   161         15
   162          6
   163          1
   164          0
   165          2
   166          4
   167          4
   168          3
   169          2
   170          2
   171          8
   172         21
   173         15
   174         20
   175          5
   176          4
   177          0
   179          1
   180          0
   181          2
   182          1
   183          2
   184          6
   185         44
   186         75
   187         87
   188         20
   189          6
   190          1
   192          0
   193          1
   194          2
   195          4
   196          1
   197          2
   198          5
   199         15
   200         15
   201         39
   202          8
   203          3
   204          1
   210          1
   211          3
   213        169
   214         84
   215         61
   216         12
   217          2
   218          1
   223          2
   224          1
   225          4
   226          3
   227         17
   228         17
   229         14
   230          3
   231          4
   232          1
   239          1
   241         24
   242          8
   243         45
   244          8
   245         19
   246          4
   247          3
   248          0
   253          3
   254          2
   255          1
   256          0
   257          4
   259         46
   260          8
   261          3
   262          0
   269          0
   271         16
   272          9
   273         15
   274         30
   275          9
   276          1
   287         21
   288          4
   289         17
   290          3
   291          0
   299          4
   300          5
   301          1
   303          0
   318         44
   319         10
   320          1