##TITLE=Library Entry 47993
##JCAMP-DX=Revision 4.10 
##DATA TYPE=MASS SPECTRUM
##SAMPLE DESCRIPTION=Pu Leung, NIH, Bethesda, MD
##NAMES=HP
##CAS NAME=Hydrocyansalide
##MOLFORM=C22H16N2O3
##CAS REGISTRY NO=15108-19-7
##MP= -300
##BP= -300
##MW= 356
##$RETENTION INDEX=0
##$CONDENSED SPECTRUM=NO
##NPOINTS= 138
##XYDATA=(XY..XY) 1 
    41         50
    42         12
    43         53
    44         21
    45         25
    47         61
    48         15
    49        282
    50        104
    51        763
    52        159
    53         47
    55         64
    56         15
    57         27
    62         36
    63        101
    64         61
    65        115
    66         32
    67         17
    69         32
    70          9
    71         13
    73          4
    74         13
    75         65
    76        174
    77        999
    78        399
    79         46
    82          9
    84        170
    86        106
    87          5
    88         47
    89        121
    90         80
    91        106
    92         35
    93         29
    94         12
    95         17
    97          5
   100         18
   102        110
   103         76
   104        113
   105        255
   106         49
   107         69
   109          4
   113          9
   114         24
   115         38
   116         17
   117         10
   118         43
   119         56
   120         85
   121         82
   122         11
   126         19
   127         27
   128         15
   129          4
   130         44
   131         11
   132         68
   133         51
   139         27
   140         26
   141         20
   144         11
   146         20
   147        196
   148         58
   149         10
   150         11
   151         48
   152         96
   153         48
   154         22
   155         24
   157         12
   163         13
   164         81
   165         60
   166         18
   167         21
   168         11
   169         28
   177         18
   178        135
   179         21
   180        141
   181        139
   182         19
   183         21
   190         34
   191         15
   193          7
   194          4
   195         18
   196         42
   197         12
   205          4
   206         43
   207         93
   208         59
   209         52
   210        484
   211         70
   219          6
   220        112
   221         38
   222          5
   223         21
   224        151
   225         35
   233          4
   235        350
   236        194
   237         54
   238         10
   249         25
   250         46
   261         24
   263        217
   264         36
   311          9
   312          4
   327          5
   339          7
   355         52
   356        923
   357        216
   358         30