##TITLE=Library Entry 46573
##JCAMP-DX=Revision 4.10 
##DATA TYPE=MASS SPECTRUM
##SAMPLE DESCRIPTION=Humboldt-Universitat zu Berlin, Department of Chemistry
, Analytical Group
##NAMES=HP
##CAS NAME=3-Cyanmethylamino-2-phenyl-thiocrotonanilide
##MOLFORM=C18H17N3S
##CAS REGISTRY NO=151055-07-1
##MP= -300
##BP= -300
##MW= 307
##$RETENTION INDEX=0
##$CONDENSED SPECTRUM=NO
##NPOINTS= 256
##XYDATA=(XY..XY) 1 
    12         14
    13          9
    14         22
    15        145
    16          6
    17         11
    18         87
    24          4
    26         64
    27        226
    28        319
    29         68
    30        156
    31          7
    32         39
    33          9
    34          9
    35          3
    36          6
    37         39
    38        113
    39        586
    40        514
    41        285
    42        699
    43         71
    44         38
    45        152
    46         18
    47         20
    48          5
    50        226
    51        842
    52        158
    53         87
    54        795
    55         80
    56         41
    57         15
    58         34
    59         50
    60         16
    61         19
    62         70
    63        230
    64        106
    65        407
    66         99
    67         19
    69         76
    70         30
    71         18
    72         12
    73         13
    74         47
    75         68
    77        999
    78        198
    79         40
    81        657
    82         63
    83         27
    84         15
    85          7
    86         14
    87         24
    88         46
    89        325
    90        142
    91        385
    92        108
    93        247
    94         28
    95         15
    96          7
    97          6
    98          5
    99         13
   100          9
   101         23
   102         56
   103        132
   104        109
   105         38
   106         13
   107          7
   108         47
   109        118
   110         26
   111         12
   113         19
   114         44
   115        295
   116        132
   117        135
   118         44
   119         12
   120         13
   121         77
   122         18
   123         15
   124         19
   126         17
   127         26
   128         65
   129         48
   130        148
   131         97
   132         96
   133         47
   134         88
   135         96
   136         60
   137         13
   138          7
   139         23
   140         67
   141         23
   142         35
   143         25
   144        108
   145         30
   146         17
   147         46
   148         20
   149         14
   150          4
   151          4
   152         14
   153          8
   154         26
   155         29
   156         23
   157         24
   158          9
   159         14
   160         11
   161          9
   162         10
   163          8
   164         10
   165         66
   166         15
   167          9
   168          6
   169         30
   170         15
   171         57
   172        164
   173         38
   174         23
   175          8
   176         12
   177          5
   178          7
   179          4
   180          5
   181         16
   182         25
   183          6
   184          2
   185          1
   186          7
   187          4
   188         12
   189          6
   190         10
   191         12
   192         18
   193         46
   194         18
   195          4
   196          5
   197         13
   198          6
   199          3
   200          1
   201          7
   202          4
   203          5
   204          7
   205          3
   206         11
   207          2
   208          1
   210          1
   212          1
   213          5
   215         50
   216         12
   217         10
   218          8
   219          4
   220          5
   221          2
   222          3
   223         12
   224          9
   225          6
   226         12
   227          9
   228          1
   229          1
   230          2
   231          2
   232          4
   233        100
   234         23
   235          5
   236         11
   237          3
   238          4
   239          1
   245          4
   246          1
   247         21
   248          7
   249          4
   250          5
   251          2
   252          1
   253          0
   254          0
   256          0
   257          1
   258          1
   259          3
   260          0
   262          0
   265          4
   266          4
   267          7
   268          1
   269          2
   270          0
   271          0
   272         11
   273         14
   274        372
   275         79
   276          7
   277          2
   278          0
   279          4
   280          3
   281          2
   282          0
   283          0
   291          0
   304          0
   305          1
   306          4
   307         49
   308         10
   309          3
   310          0