##TITLE=Library Entry 4498
##JCAMP-DX=Revision 4.10 
##DATA TYPE=MASS SPECTRUM
##SAMPLE DESCRIPTION=W.T.RAINEY OAK RIDGE NATIONAL LABORATORY,OAK RIDGE,TN.U
SA
##NAMES=HP
##CAS NAME=Piperidine, 4-methyl-1-nitroso-
##MOLFORM=C6H12N2O
##CAS REGISTRY NO=15104-03-7
##MP= -300
##BP= -300
##MW= 128
##$RETENTION INDEX=0
##$CONDENSED SPECTRUM=NO
##NPOINTS= 43
##XYDATA=(XY..XY) 1 
    30        312
    37         12
    38         31
    39        296
    40         62
    41        759
    42        999
    43        156
    44        121
    45          9
    50         21
    51         31
    52         21
    53         71
    54         93
    55        312
    56        437
    57         37
    58          6
    65         12
    66         12
    67         28
    68         46
    69        312
    70         81
    71          6
    73         31
    79          9
    80         15
    81         15
    82         62
    83         37
    84          9
    86         12
    93         12
    96         24
    97         53
    98        112
    99         12
   111         40
   113         12
   128        562
   129         43