##TITLE=Library Entry 69357
##JCAMP-DX=Revision 4.10 
##DATA TYPE=MASS SPECTRUM
##SAMPLE DESCRIPTION=Japan AIST/NIMC Database- Spectrum MS-NW-4397
##NAMES=HP
##CAS NAME=Propane, 1,1,2,3,3-pentachloro-
##MOLFORM=C3H3Cl5
##CAS REGISTRY NO=15104-61-7
##MP= -300
##BP= -300
##MW= 214
##$RETENTION INDEX=1119
##$CONDENSED SPECTRUM=NO
##NPOINTS= 82
##XYDATA=(XY..XY) 1 
    12          2
    13          2
    14          1
    24          2
    25          9
    26         33
    27          5
    28          1
    35         32
    36         39
    37         62
    38         60
    39         44
    40          2
    44          3
    47         47
    48         37
    49         79
    50         12
    51         23
    53          6
    54         10
    55          5
    59          2
    60         28
    61         61
    62          9
    63         21
    70          2
    71         11
    72         37
    73         95
    74         13
    75         29
    76          1
    82         14
    83        771
    84         16
    85        493
    86          7
    87         75
    94          3
    95        125
    96        999
    97        109
    98        659
    99         31
   100        106
   101          4
   106          2
   107         20
   108          3
   109         53
   110          3
   111         27
   112          1
   113          5
   117          6
   119          5
   121          2
   130          7
   131        112
   132         10
   133        102
   134          5
   135         34
   136          1
   137          4
   143        684
   144         24
   145        650
   146         24
   147        206
   148          8
   149         23
   178          1
   179         14
   180          3
   181         18
   182          2
   183          9
   185          2