##TITLE=Library Entry 16269
##JCAMP-DX=Revision 4.10 
##DATA TYPE=MASS SPECTRUM
##SAMPLE DESCRIPTION=NIST Mass Spectrometry Data Center
##NAMES=HP
##CAS NAME=2,3-Dibromopropionamide
##MOLFORM=C3H5Br2NO
##CAS REGISTRY NO=15102-42-8
##MP= -300
##BP= -300
##MW= 229
##$RETENTION INDEX=0
##$CONDENSED SPECTRUM=NO
##NPOINTS= 69
##XYDATA=(XY..XY) 1 
    15          1
    16          7
    17          3
    24          1
    25          9
    26         66
    27        172
    29          6
    30          4
    37          2
    38          3
    39          3
    40          5
    41         11
    42         14
    43         45
    44        999
    45         18
    46          2
    50          1
    51          6
    52         16
    53         27
    54         14
    55        160
    56          5
    70         48
    71         14
    79         35
    80         14
    81         34
    82         14
    91          2
    92          3
    93          7
    94          4
    95          6
   103          1
   104          6
   105         56
   106        207
   107         83
   108        195
   109         28
   110          2
   120          2
   122          6
   123          5
   124          4
   125          3
   132          2
   133         29
   134          3
   135         29
   136          1
   149         30
   150        417
   151         45
   152        398
   153         14
   158          1
   160          4
   162          2
   185          6
   186          4
   187         13
   188          6
   189          6
   190          2