##TITLE=Library Entry 50318
##JCAMP-DX=Revision 4.10 
##DATA TYPE=MASS SPECTRUM
##SAMPLE DESCRIPTION=NIST Mass Spectrometry Data Center, 1994
##NAMES=HP
##CAS NAME=Ethyl 3-cyclohexenecarboxylate
##MOLFORM=C9H14O2
##CAS REGISTRY NO=15111-56-5
##MP= -300
##BP= -300
##MW= 154
##$RETENTION INDEX=0
##$CONDENSED SPECTRUM=NO
##NPOINTS= 79
##XYDATA=(XY..XY) 1 
    15         94
    17          1
    18          3
    24          0
    26         93
    27        656
    28        135
    29        622
    30         47
    31         31
    37          6
    39        365
    40         53
    41        299
    42         32
    43         70
    44         10
    45         24
    46          6
    47         32
    50         55
    51        126
    52         78
    53        266
    54        150
    55        116
    56          7
    57         13
    58          0
    60          3
    61          1
    62          4
    63         14
    64          0
    65         57
    66         66
    67         78
    68         16
    69         25
    70          7
    71          4
    72          2
    73          6
    74          2
    75          3
    76          1
    77        189
    78          0
    79        758
    80        836
    81        999
    82         67
    83         22
    84         11
    85          5
    86          1
    88          1
    91          1
    92          1
    93          4
    94          1
    95          4
    97         91
    98          9
    99          2
   105          1
   108        281
   109        138
   110         12
   111         17
   112          1
   123          1
   125         18
   126         13
   127          1
   139          1
   154         97
   155         10
   156          1