##TITLE=Library Entry 18099
##JCAMP-DX=Revision 4.10 
##DATA TYPE=MASS SPECTRUM
##SAMPLE DESCRIPTION=Exported from NIST MS Search
##NAMES=HP
##CAS NAME=Methane, bromodifluoro-
##MOLFORM=CHBrF2
##CAS REGISTRY NO=1511-62-2
##MP= -300
##BP= -300
##MW= 130
##$RETENTION INDEX=359
##$CONDENSED SPECTRUM=NO
##NPOINTS= 28
##XYDATA=(XY..XY) 1 
    12         31
    13         35
    19         17
    20          2
    31        217
    32        114
    40          1
    41          1
    50         53
    51        999
    55          1
    56          1
    79        152
    80         21
    81        148
    82         21
    91         15
    92          8
    93         14
    94          8
   110         10
   111        124
   112         10
   113        121
   129          9
   130        157
   131          8
   132        153