##TITLE=Library Entry 11208
##JCAMP-DX=Revision 4.10 
##DATA TYPE=MASS SPECTRUM
##SAMPLE DESCRIPTION=Chemical Concepts
##NAMES=HP
##CAS NAME=Ethanone, 1-(6-methyl-7-oxabicyclo[4.1.0]hept-1-yl)-
##MOLFORM=C9H14O2
##CAS REGISTRY NO=15120-94-2
##MP= -300
##BP= -300
##MW= 154
##$RETENTION INDEX=0
##$CONDENSED SPECTRUM=NO
##NPOINTS= 82
##XYDATA=(XY..XY) 1 
    26         15
    27        125
    28          8
    29         66
    31         12
    38         10
    39        152
    40         29
    41        331
    42         38
    43        999
    44         45
    45         19
    49          5
    50         10
    51         18
    52         10
    53         61
    54         31
    55        572
    56         47
    57         24
    58         29
    59          8
    61          4
    62          4
    63          5
    65         19
    66         13
    67         96
    68         50
    69        310
    70         45
    71        131
    72         11
    77         34
    78          9
    79         56
    80          9
    81         49
    82         22
    83        219
    84        274
    85         19
    86          7
    87         12
    91         29
    92          8
    93         54
    94         34
    95         29
    96         13
    97        347
    98         39
    99          7
   100          8
   105          6
   107          7
   108         10
   109         13
   110         13
   111        252
   112        731
   113         62
   114          5
   120          1
   121          9
   122          3
   123          8
   124          1
   125         21
   126         26
   127         10
   128          1
   136          5
   137          2
   138          0
   139          5
   140          0
   153          5
   154         20
   155          2