##TITLE=Library Entry 85330
##JCAMP-DX=Revision 4.10 
##DATA TYPE=MASS SPECTRUM
##SAMPLE DESCRIPTION=Japan AIST/NIMC Database- Spectrum MS-IW- 939
##NAMES=HP
##CAS NAME=3-Hydroxy-6-methyl-2-nitropyridine
##MOLFORM=C6H6N2O3
##CAS REGISTRY NO=15128-90-2
##MP= -300
##BP= -300
##MW= 154
##$RETENTION INDEX=0
##$CONDENSED SPECTRUM=NO
##NPOINTS= 73
##XYDATA=(XY..XY) 1 
    14          1
    15          5
    16          1
    17          1
    25          1
    26         25
    27         96
    28         10
    29          3
    30         69
    31          2
    37          9
    38         17
    39         74
    40         10
    41         14
    42         13
    43         59
    44          6
    46          3
    49          3
    50         26
    51         85
    52        356
    53        487
    54         56
    55         30
    56          4
    57          1
    61          1
    62          3
    63         14
    64         19
    65          6
    66         23
    67          9
    68         11
    69          4
    70          1
    75          2
    76          5
    77          5
    78         49
    79        196
    80        192
    81         43
    82          8
    88          1
    90          2
    91          1
    93          2
    94          1
    95          8
    96         82
    97          6
   105          1
   106         48
   107        244
   108        999
   109         73
   110         15
   111          1
   120          1
   122          4
   123          2
   124         11
   125          3
   138          1
   139          3
   152          5
   154        579
   155         53
   156          5