##TITLE=Library Entry 40165
##JCAMP-DX=Revision 4.10 
##DATA TYPE=MASS SPECTRUM
##SAMPLE DESCRIPTION=V.A.KOPTYUG, ATLAS OF MASS SPECTRA OF ORGANIC COMPOUNDS
##NAMES=HP
##CAS NAME=2,2-Dimethyl-1-oxa-2-silacyclohexanone-6
##MOLFORM=C6H12O2Si
##CAS REGISTRY NO=15129-96-1
##MP= -300
##BP= -300
##MW= 144
##$RETENTION INDEX=0
##$CONDENSED SPECTRUM=NO
##NPOINTS= 33
##XYDATA=(XY..XY) 1 
    39         20
    41         40
    42         30
    43         60
    44        130
    45         70
    55         20
    57         30
    58        100
    59        130
    60         30
    61         70
    72        999
    73        100
    74         50
    75        160
    76         40
    77         30
    85         80
    86         10
    87         10
    88         80
   100        350
   101        699
   102         70
   103         20
   116        979
   117        100
   118         40
   129        120
   130         10
   143         10
   144         20