##TITLE=Library Entry 68511
##JCAMP-DX=Revision 4.10 
##DATA TYPE=MASS SPECTRUM
##SAMPLE DESCRIPTION=A.A.Kutin, Moscow, Russia
##NAMES=HP
##CAS NAME=2-Butyne-1,4-diol, 1,4-bis(2-furyl)-
##MOLFORM=C12H10O4
##CAS REGISTRY NO=151232-03-0
##MP= -300
##BP= -300
##MW= 218
##$RETENTION INDEX=0
##$CONDENSED SPECTRUM=NO
##NPOINTS= 136
##XYDATA=(XY..XY) 1 
    33         10
    34          4
    37        116
    38        288
    39        811
    40        174
    41        349
    42         52
    43         38
    44         55
    45         11
    46          2
    47          4
    48          2
    50        242
    51        438
    52        140
    53        319
    55        382
    57         70
    58         41
    59         12
    61         50
    62        116
    63        273
    64        110
    65        308
    66        177
    67        118
    68        136
    69        154
    70         16
    71         19
    72         43
    74        155
    75        158
    76        120
    77        383
    78        141
    79        153
    81        378
    82         47
    83         42
    84         21
    85         25
    86         62
    87         81
    88         40
    89        162
    90         71
    91        236
    92         99
    93        128
    95        999
    97        497
    98         49
    99         26
   100         29
   101         52
   102         71
   103        111
   105        434
   106         45
   107         45
   108         42
   109         48
   110         24
   111         10
   113         30
   115        961
   116        293
   117        136
   118         92
   119         50
   121        239
   122         99
   123         31
   124          4
   126         50
   127        103
   128         49
   129         22
   131        105
   132        205
   133        147
   134         48
   135         11
   136          9
   137         10
   138          1
   139          0
   140          0
   141          3
   143        172
   144        363
   145         85
   146         18
   147         32
   148         11
   149         13
   150         11
   153          1
   155         55
   156          5
   157          3
   158          3
   159         11
   160         22
   161        100
   162         15
   163          3
   164          1
   165          0
   168          0
   171        364
   172        115
   173         43
   174          9
   175          5
   176          1
   184         73
   185          9
   187         14
   189         85
   190          9
   191          0
   199         12
   200         27
   201         14
   202          5
   203          0
   215          0
   216          6
   218        563
   219         64
   220          8