##TITLE=Library Entry 66921
##JCAMP-DX=Revision 4.10 
##DATA TYPE=MASS SPECTRUM
##SAMPLE DESCRIPTION=Japan AIST/NIMC Database- Spectrum MS-NW-6547
##NAMES=HP
##CAS NAME=3-Pyridinol, 2-nitro-
##MOLFORM=C5H4N2O3
##CAS REGISTRY NO=15128-82-2
##MP= -300
##BP= -300
##MW= 140
##$RETENTION INDEX=0
##$CONDENSED SPECTRUM=NO
##NPOINTS= 70
##XYDATA=(XY..XY) 1 
    12          2
    13          2
    14          3
    15          4
    16          2
    18          2
    24          2
    25          7
    26         38
    27         28
    28         56
    29         21
    30         59
    32          3
    33          1
    36          6
    37         54
    38        226
    39        506
    40         47
    41          6
    42          9
    43         12
    44         21
    45          1
    46          8
    48          2
    49          7
    50         11
    51         19
    52         24
    53         30
    54         64
    55         16
    56          1
    62          4
    63         14
    64        101
    65        281
    66        247
    67        135
    68          9
    69          3
    70          2
    75          7
    76         21
    77          4
    78          2
    79          1
    80          3
    81          7
    82        104
    83          7
    92          2
    93        183
    94        999
    95         61
    96          5
    97          4
   106          1
   107          1
   108          1
   109          1
   110         10
   111          1
   122          1
   124          1
   140        394
   141         26
   142          3