##TITLE=Library Entry 57685
##JCAMP-DX=Revision 4.10 
##DATA TYPE=MASS SPECTRUM
##SAMPLE DESCRIPTION=Chemical Concepts
##NAMES=HP
##CAS NAME=12-Oxododecanoic acid, ethyl ester
##MOLFORM=C14H26O3
##CAS REGISTRY NO=151271-75-9
##MP= -300
##BP= -300
##MW= 242
##$RETENTION INDEX=0
##$CONDENSED SPECTRUM=NO
##NPOINTS= 173
##XYDATA=(XY..XY) 1 
    26          6
    27        107
    28         45
    29        334
    30          8
    31         18
    38          0
    39         76
    40         17
    41        470
    42        100
    43        322
    44         73
    45        105
    46          2
    47          3
    50          2
    51          2
    52          1
    53         40
    54         58
    55        603
    56         84
    57        242
    58         17
    59         25
    60        202
    61        213
    62          5
    63          1
    64          0
    65         13
    66          9
    67        208
    68         83
    69        426
    70        300
    71        122
    72         13
    73        233
    74         33
    75          7
    76          3
    77         12
    78          4
    79         62
    80         35
    81        255
    82         98
    83        281
    84        199
    85         84
    86         10
    87         43
    88        999
    89        177
    90         11
    91         31
    92          8
    93         69
    94         50
    95        263
    96         73
    97        189
    98        299
    99         42
   100          8
   101        404
   102         35
   103          4
   104          8
   105         16
   106          7
   107         44
   108         23
   109         94
   110         39
   111        138
   112        168
   113         35
   114          5
   115         77
   116          8
   117          4
   118          1
   119         18
   120          6
   121         36
   122         15
   123         35
   124         20
   125         56
   126         22
   127         13
   128          5
   129         52
   130          7
   131          6
   132         10
   133         16
   134         16
   135        162
   136         43
   137         36
   138          7
   139         19
   140          7
   141         11
   142          7
   143         81
   144         11
   145          8
   146          1
   147          6
   148          3
   149        116
   150         28
   151         18
   152         15
   153        262
   154         36
   155         11
   156          3
   157         83
   158         12
   159          9
   160          6
   161         39
   162          7
   163          9
   164          2
   165          6
   166          3
   167         40
   168         17
   169         10
   170          3
   171         55
   172          8
   173          2
   174          0
   175          1
   176          1
   177          9
   178         42
   179         37
   180          5
   181          3
   182          1
   183          4
   184          0
   185         17
   186         26
   187          7
   188          1
   189          2
   190          0
   191          9
   192          2
   193          5
   194          1
   195          7
   196         16
   197        197
   198         30
   199        334
   200         46
   201          6
   214         90
   215         12
   241          6
   242          1
   243          7