##TITLE=Library Entry 36308
##JCAMP-DX=Revision 4.10 
##DATA TYPE=MASS SPECTRUM
##SAMPLE DESCRIPTION=Exported from NIST MS Search
##NAMES=HP
##CAS NAME=Imidosulfurous difluoride, (trifluoromethyl)-
##MOLFORM=CF5NS
##CAS REGISTRY NO=1512-14-7
##MP= -300
##BP= -300
##MW= 153
##$RETENTION INDEX=0
##$CONDENSED SPECTRUM=NO
##NPOINTS= 37
##XYDATA=(XY..XY) 1 
    12          9
    14          6
    19         12
    20         10
    26          8
    27          3
    31         55
    32         43
    33          1
    34          2
    36          4
    38          1
    45         16
    46        451
    47          5
    48         11
    50         33
    51         58
    53          3
    65        317
    66          3
    67         18
    69        999
    70        173
    71          2
    72         10
    84          2
    86          2
    96          3
   115         48
   117          2
   134        484
   135         10
   136         21
   153        444
   154         10
   155         21