##TITLE=Library Entry 93218
##JCAMP-DX=Revision 4.10 
##DATA TYPE=MASS SPECTRUM
##SAMPLE DESCRIPTION=NIST Mass Spectrometry Data Center
##NAMES=HP
##CAS NAME=2,6-Difluoropyridine
##MOLFORM=C5H3F2N
##CAS REGISTRY NO=1513-65-1
##MP= -300
##BP= -300
##MW= 115
##$RETENTION INDEX=0
##$CONDENSED SPECTRUM=NO
##NPOINTS= 55
##XYDATA=(XY..XY) 1 
    12          7
    13          2
    18          1
    19          2
    20          1
    24          5
    25         13
    26         32
    28          4
    31        157
    32          6
    33         12
    35          1
    36         15
    37         73
    38         98
    39        114
    40          6
    44         55
    45          5
    46         22
    48         10
    49         39
    50        116
    51         88
    52         24
    55          5
    56         29
    57         72
    61          1
    62          8
    63         14
    64         92
    65         80
    66          4
    68         79
    69        117
    70        244
    71         15
    75         51
    76         70
    77          4
    82          6
    83          2
    84         10
    88        329
    89         27
    93          3
    95         76
    96         74
    97          3
   112          1
   115        999
   116         46
   117          1