##TITLE=Library Entry 7659
##JCAMP-DX=Revision 4.10 
##DATA TYPE=MASS SPECTRUM
##SAMPLE DESCRIPTION=LAC, NIDDK, NIH, Bethesda, MD 20892
##NAMES=HP
##CAS NAME=2,2-Difluoroheptacosanoic acid, ethyl(ester)
##MOLFORM=C16H30F2O2
##CAS REGISTRY NO=151309-48-7
##MP= -300
##BP= -300
##MW= 292
##$RETENTION INDEX=0
##$CONDENSED SPECTRUM=NO
##NPOINTS= 203
##XYDATA=(XY..XY) 1 
    41        636
    42        240
    43        999
    44         20
    45        101
    46          3
    47         51
    48          1
    49          1
    50          1
    51         31
    53         73
    54         35
    55        481
    56        226
    57        684
    58         22
    59        130
    60         16
    61         24
    62          2
    63          3
    64         14
    65         24
    66          7
    67         67
    68         41
    69        187
    70        111
    71        290
    73        121
    74         16
    75         17
    77         73
    78         11
    79         39
    80          9
    81         47
    82         38
    83         90
    84         44
    85        131
    86          9
    87        104
    88         14
    89          9
    90          5
    91         33
    93         23
    94          9
    95         29
    96         51
    97         60
    98         33
    99         63
   100          1
   101         94
   102          9
   103         15
   104          3
   105         29
   106          6
   107         19
   108          5
   109         15
   110         20
   111         28
   112         24
   113         39
   114          3
   115         58
   116         14
   117         30
   118          6
   119         22
   120         21
   121         19
   122          5
   123         13
   124         25
   125         18
   126         15
   127         18
   128          0
   129        158
   131        193
   132          8
   133         19
   134         23
   135         14
   136          3
   137         19
   138         69
   139         12
   140          9
   141         16
   143        181
   144         31
   145         78
   146          8
   147         28
   148          9
   149         13
   151        321
   152         44
   153          8
   154          3
   155         12
   157         97
   158         20
   159         21
   160          0
   161         22
   162          7
   163          5
   164          0
   165        241
   166         36
   167         11
   168         14
   169          6
   170          2
   171         71
   172         17
   173         17
   174          3
   175         11
   176          5
   177          4
   178          2
   179        137
   180         16
   181          5
   182          1
   183          2
   185        147
   186         21
   187         13
   188          2
   189          6
   190          2
   191          0
   192          0
   193        116
   194         11
   195          2
   196          0
   197          6
   199         44
   200         11
   201          6
   202          1
   203          3
   204          1
   205          0
   206          1
   207         70
   208          8
   209          1
   211          0
   213         41
   214          7
   215          4
   216          0
   217          1
   218          0
   219          0
   221         36
   222          4
   223          0
   224          0
   225          0
   226          1
   227          6
   228         15
   229          3
   235         21
   236          3
   237          0
   242          0
   243          1
   244          1
   245          1
   246         17
   247          2
   249         12
   250          1
   259          1
   260          0
   262          0
   263          6
   264        170
   265         37
   266          4
   267          0
   273          2
   277          2
   278          0
   291          0
   292         52
   293         20
   294          3
   295          0