##TITLE=Library Entry 29526
##JCAMP-DX=Revision 4.10 
##DATA TYPE=MASS SPECTRUM
##SAMPLE DESCRIPTION=NIST Mass Spectrometry Data Center
##NAMES=HP
##CAS NAME=Methyl 2-chloro-2,2-difluoroacetate
##MOLFORM=C3H3ClF2O2
##CAS REGISTRY NO=1514-87-0
##MP= -300
##BP= -300
##MW= 144
##$RETENTION INDEX=0
##$CONDENSED SPECTRUM=NO
##NPOINTS= 53
##XYDATA=(XY..XY) 1 
    12         12
    13         12
    14         53
    15        632
    16          9
    18          2
    19          2
    20          1
    24          1
    26          1
    28         46
    29        225
    30         51
    31        186
    32          6
    33          2
    35         45
    36          4
    37         13
    40          4
    42          1
    43          3
    44         18
    45         52
    47         36
    48          2
    49         21
    50        200
    51         18
    52          1
    56          1
    59        999
    60         20
    61          6
    63         10
    65         70
    66         46
    67          2
    68         14
    78         43
    79          2
    81         62
    82          1
    85        395
    87        130
    88          1
    94          5
    97         18
    99          5
   109        174
   110          5
   111          1
   115          1