##TITLE=Library Entry 85137
##JCAMP-DX=Revision 4.10 
##DATA TYPE=MASS SPECTRUM
##SAMPLE DESCRIPTION=Japan AIST/NIMC Database- Spectrum MS-NW-2386
##NAMES=HP
##CAS NAME=Ethanol, 2-(4-methylphenoxy)-
##MOLFORM=C9H12O2
##CAS REGISTRY NO=15149-10-7
##MP= -300
##BP= -300
##MW= 152
##$RETENTION INDEX=0
##$CONDENSED SPECTRUM=NO
##NPOINTS= 78
##XYDATA=(XY..XY) 1 
    14          3
    15         13
    16          1
    17          1
    18          4
    25          1
    26          8
    27         51
    28         11
    29         42
    30          1
    31         12
    32          2
    37          3
    38          9
    39         52
    40          5
    41         10
    42          6
    43         27
    44         23
    45         82
    46          2
    49          2
    50         23
    51         49
    52         25
    53         27
    54          4
    55          8
    61          3
    62          9
    63         28
    64          9
    65         76
    66          8
    67          2
    68          2
    73          1
    74          4
    75          3
    76          3
    77        102
    78         26
    79         86
    80         58
    81          7
    82          1
    85          1
    86          1
    87          1
    89         23
    90         64
    91        196
    92         17
    93         21
    94          3
   103          2
   105          6
   106          5
   107        531
   108        999
   109        102
   110          6
   119          1
   120          2
   121         46
   122          5
   131          3
   132          3
   133          2
   134          2
   136          1
   150          7
   151          2
   152        352
   153         34
   154          2