##TITLE=Library Entry 82657
##JCAMP-DX=Revision 4.10 
##DATA TYPE=MASS SPECTRUM
##SAMPLE DESCRIPTION=A.A.Kutin, Moscow, Russia
##NAMES=HP
##CAS NAME=Pyridine-4-carbohydrazide, N2-[1-(4,4-dimethyl-2,6-dioxocyclohexy
lideno)ethyl]-
##MOLFORM=C16H19N3O3
##CAS REGISTRY NO=151454-02-3
##MP= -300
##BP= -300
##MW= 301
##$RETENTION INDEX=0
##$CONDENSED SPECTRUM=NO
##NPOINTS= 179
##XYDATA=(XY..XY) 1 
    33         15
    34          3
    36          4
    38          9
    39        117
    40         82
    41         93
    42         54
    43         93
    44         10
    45          1
    48          0
    51        259
    52         32
    53         38
    55         92
    56         29
    57         10
    59          7
    63         10
    64         14
    65         73
    66         18
    67         55
    68         15
    69         18
    70         12
    71          3
    75          3
    78        619
    79        106
    81         29
    82         39
    83         62
    84          5
    85          2
    89          3
    91         22
    92          8
    93         17
    94         15
    95         12
    96          7
    97          8
    98          2
    99          3
   102          0
   103          5
   106        999
   107         71
   108         11
   109         10
   111         36
   112          2
   113          1
   115          3
   116          2
   117          0
   118          4
   119          5
   120         12
   123        409
   124         45
   125         20
   126          1
   129          0
   130          2
   131          2
   133          7
   134         23
   135         28
   136          7
   137          8
   138          2
   139          1
   142          0
   144          0
   145          1
   146          2
   147          4
   148          4
   149         21
   150          6
   151          3
   152          2
   153          5
   154          0
   156          2
   158          2
   159          3
   160          3
   161          9
   162         26
   163         10
   164         17
   165          5
   166          3
   167          3
   168          9
   169          0
   170          8
   171          4
   172          6
   173          8
   174          3
   175         12
   177        200
   179        289
   180        436
   181         46
   182          8
   183          1
   185          9
   186          4
   188          3
   190          0
   195          3
   196          2
   197          9
   199        192
   200         39
   201         13
   202          7
   203          6
   204         19
   205          4
   206          3
   207          0
   210          3
   211          0
   212          5
   213          2
   216          1
   217          7
   218          1
   222          0
   223          2
   224          5
   226        103
   227         72
   228         13
   230         12
   231          1
   238          0
   240         23
   241          8
   242          9
   243          0
   245         43
   246          5
   253          0
   254         15
   255         66
   256         13
   257          0
   258          1
   264          2
   265          4
   268        359
   269         50
   270          5
   273          1
   275          4
   278          0
   280          4
   281          5
   282        108
   283        444
   284        103
   285         19
   286         60
   287          8
   288          0
   291          3
   292         11
   293          1
   301         90
   302         15
   303          0