##TITLE=Library Entry 99613
##JCAMP-DX=Revision 4.10 
##DATA TYPE=MASS SPECTRUM
##SAMPLE DESCRIPTION=Chemical Concepts
##NAMES=HP
##CAS NAME=4-Methylphthalaldehyde
##MOLFORM=C9H8O2
##CAS REGISTRY NO=15158-36-8
##MP= -300
##BP= -300
##MW= 148
##$RETENTION INDEX=0
##$CONDENSED SPECTRUM=NO
##NPOINTS= 87
##XYDATA=(XY..XY) 1 
    20          1
    25          1
    26         14
    27         55
    28         33
    29         31
    30          3
    31          1
    32          2
    36          4
    37         22
    38         54
    39        241
    40         24
    41         44
    42          2
    43         15
    44         13
    45         38
    46          2
    49         10
    50        102
    51        200
    52         35
    53         21
    54          1
    55          5
    57          3
    58          1
    59         13
    60          2
    61         28
    62         86
    63        199
    64         56
    65        239
    66         15
    67          2
    69          8
    70          1
    71          2
    72          1
    73         38
    74         34
    75         28
    76         16
    77         51
    78         27
    79          4
    81          1
    83          2
    84          1
    85          8
    86         17
    87         18
    88         12
    89        149
    90        118
    91        657
    92         52
    93          2
    95          2
    96          5
    97          3
    98          3
    99          1
   101          1
   102          7
   103         20
   104          7
   105         12
   106          1
   107          1
   109          1
   117          2
   118         44
   119        999
   120        114
   121          8
   133         28
   134          4
   135          1
   146          3
   147        152
   148        441
   149         45
   150          3