##TITLE=Library Entry 114990
##JCAMP-DX=Revision 4.10 
##DATA TYPE=MASS SPECTRUM
##SAMPLE DESCRIPTION=ORMSBG,10(1)81(1975); J-L. DEROCQUE
##NAMES=HP
##CAS NAME=Benzene, 1,3-butadienyl-
##MOLFORM=C10H10
##CAS REGISTRY NO=1515-78-2
##MP= -300
##BP= -300
##MW= 130
##$RETENTION INDEX=1150
##$CONDENSED SPECTRUM=NO
##NPOINTS= 23
##XYDATA=(XY..XY) 1 
    39        500
    40         80
    50        310
    51        530
    52        130
    62         80
    63        220
    64         90
    65        120
    74         90
    75         70
    76         90
    77        210
    78        120
    89         80
    91         80
   102        120
   103         60
   115        630
   127        270
   128        570
   129        990
   130        999