##TITLE=Library Entry 8627
##JCAMP-DX=Revision 4.10 
##DATA TYPE=MASS SPECTRUM
##SAMPLE DESCRIPTION=Exported from NIST MS Search
##NAMES=HP
##CAS NAME=1,3-Butadien-1-ol, acetate
##MOLFORM=C6H8O2
##CAS REGISTRY NO=1515-76-0
##MP= -300
##BP= -300
##MW= 112
##$RETENTION INDEX=0
##$CONDENSED SPECTRUM=NO
##NPOINTS= 79
##XYDATA=(XY..XY) 1 
    12          5
    13          5
    14         38
    15        110
    16          8
    17          4
    18         21
    19          1
    24          1
    25          1
    26         19
    27         62
    28        208
    29         35
    30          2
    31          5
    32          1
    33          1
    34          1
    35          1
    36          2
    37          9
    38         23
    39        143
    40         34
    41        143
    42        122
    43        999
    44         43
    45          4
    46          1
    47          1
    48          1
    49          3
    50         16
    51         20
    52         14
    53         18
    54          3
    55         15
    56         13
    57          1
    58          1
    60          1
    61          1
    62          1
    63          1
    64          1
    65          1
    66          1
    67          1
    68          8
    69        124
    70        343
    71         16
    72          1
    73          1
    74          1
    75          1
    76          1
    77          2
    78          9
    79          1
    80          1
    81          1
    82          1
    83          1
    84          1
    85          1
    91          1
    92          1
    93          1
    94          1
    95          1
    96          1
    97          1
   112        133
   113          9
   114          1