##TITLE=Library Entry 69912
##JCAMP-DX=Revision 4.10 
##DATA TYPE=MASS SPECTRUM
##SAMPLE DESCRIPTION=Chemical Concepts
##NAMES=HP
##CAS NAME=Bicyclo[3.3.1]nonan-1-ol
##MOLFORM=C9H16O
##CAS REGISTRY NO=15158-56-2
##MP= -300
##BP= -300
##MW= 140
##$RETENTION INDEX=0
##$CONDENSED SPECTRUM=NO
##NPOINTS= 57
##XYDATA=(XY..XY) 1 
    27         26
    28          6
    29         29
    31          6
    36          4
    39         35
    40         10
    41         76
    42         16
    43         54
    44         24
    45          6
    51          6
    52          4
    53         21
    54         17
    55         85
    56         12
    57         18
    58         30
    59          3
    60          5
    64          5
    65          9
    66          7
    67         47
    68         17
    69         33
    70         35
    71         10
    77         17
    78          8
    79         63
    80         51
    81         45
    82         16
    83         23
    84         12
    85          5
    91         20
    92         11
    93         21
    94         15
    95         16
    96         17
    97        999
    98         80
    99          7
   107         11
   109          5
   111          6
   112          6
   122         32
   123          6
   139          3
   140         49
   141          5