##TITLE=Library Entry 70156
##JCAMP-DX=Revision 4.10 
##DATA TYPE=MASS SPECTRUM
##SAMPLE DESCRIPTION=Exported from NIST MS Search
##NAMES=HP
##CAS NAME=1-Docosanol, formate
##MOLFORM=C23H46O2
##CAS REGISTRY NO=15155-62-1
##MP= -300
##BP= -300
##MW= 354
##$RETENTION INDEX=2522
##$CONDENSED SPECTRUM=NO
##NPOINTS= 240
##XYDATA=(XY..XY) 1 
    15          2
    16          5
    17         35
    18        180
    26          2
    27         12
    28         22
    29         51
    30          3
    31         13
    39         12
    40          4
    41        160
    42         51
    43        390
    44        130
    45          6
    46          2
    47          5
    50          2
    53         10
    54          6
    55        440
    56        290
    57        620
    58         33
    59          5
    60          5
    62          2
    64          3
    65          3
    66         14
    67        110
    68        180
    69        580
    70        370
    71        450
    72         27
    73          8
    74          8
    75          2
    76          2
    77          2
    79          9
    80         10
    81        100
    82        450
    83        860
    84        280
    85        320
    86         22
    87          9
    88          2
    91          5
    92          2
    93          5
    94          6
    95         68
    96        290
    97        999
    98        230
    99        110
   100         10
   101          5
   102         16
   103          2
   104          2
   105          3
   107          3
   108          4
   109         37
   110        130
   111        640
   112        190
   113         82
   114          9
   115          4
   116          2
   119          3
   120          2
   121          5
   122          8
   123         31
   124        100
   125        420
   126        150
   127         61
   128          8
   129          5
   130          2
   131          2
   133          2
   134          2
   135          4
   136          6
   137         24
   138         87
   139        260
   140        120
   141         44
   142          6
   143          4
   144          2
   145          2
   147          2
   148          2
   149          3
   150          4
   151          9
   152         68
   153        180
   154        100
   155         39
   156          5
   157          3
   158          2
   161          2
   163          2
   164          2
   165          6
   166         61
   167        140
   168         90
   169         32
   170          5
   171          4
   172          2
   173          2
   175          2
   177          2
   178          2
   179          4
   180         56
   181        120
   182         78
   183         27
   184          4
   185          5
   186          2
   189          2
   191          2
   192          2
   193          4
   194         52
   195         96
   196         71
   197         22
   198          3
   199          4
   200          6
   201          4
   202          6
   203          2
   204          2
   205          2
   206          2
   207          5
   208         46
   209         78
   210         67
   211         18
   212          4
   213          4
   214          4
   215          2
   220          2
   221          3
   222         42
   223         67
   224         70
   225         22
   226          4
   227          2
   228          4
   229          2
   235          2
   236         38
   237         48
   238         55
   239         19
   240          5
   241          2
   242          6
   243          2
   250         20
   251         47
   252         42
   253         11
   254          4
   256          2
   257          9
   258          3
   261          2
   262          2
   263          2
   264         23
   265         41
   266         30
   267          9
   268          4
   269          2
   270          8
   271          2
   277          2
   278         14
   279         34
   280        140
   281         36
   282          5
   283          2
   284          6
   285          2
   291          3
   292          3
   293          4
   294          2
   295          2
   296          2
   297          5
   298          2
   304          2
   305          2
   306         26
   307          9
   308        500
   309        130
   310         17
   311          2
   312          3
   318          3
   322          2
   323          2
   324          2
   336         85
   337         24
   338          4
   353          3
   354         22
   355          8
   356          2