##TITLE=Library Entry 81520
##JCAMP-DX=Revision 4.10 
##DATA TYPE=MASS SPECTRUM
##SAMPLE DESCRIPTION=Chemical Concepts
##NAMES=HP
##CAS NAME=Benzophenone, 4'-(ethoxycarbonyl)-
##MOLFORM=C16H14O3
##CAS REGISTRY NO=15165-27-2
##MP= -300
##BP= -300
##MW= 254
##$RETENTION INDEX=0
##$CONDENSED SPECTRUM=NO
##NPOINTS= 138
##XYDATA=(XY..XY) 1 
    25          0
    26          3
    27         31
    28          0
    29         36
    30          1
    38          1
    39         10
    40          2
    41          1
    42          0
    43          2
    44          1
    45          5
    46          0
    49          0
    50         48
    51         82
    52          7
    53          4
    54          0
    55          0
    57          2
    58          0
    62          2
    63          9
    64          1
    65         67
    66          3
    67          0
    69          0
    71          0
    72          0
    73          0
    74         12
    75         31
    76        104
    77        350
    78         25
    79          2
    81          0
    83          0
    85          0
    86          0
    87          1
    88          0
    89          1
    90          1
    91          1
    92          0
    93         10
    94          0
    95          0
    98          1
    99          1
   100          0
   101          1
   102          2
   103         36
   104         60
   105        999
   106         84
   107          4
   109          0
   111          0
   113          1
   114          0
   115          1
   116          0
   118          0
   119          0
   120          0
   121         47
   122          4
   123          0
   125          1
   126          3
   127          3
   128          0
   131          0
   132          1
   133          1
   137          0
   138          0
   139          1
   140          0
   141          1
   142          0
   148          0
   149        119
   150         11
   151         19
   152         66
   153         58
   154          6
   155          1
   162          0
   163          1
   164          0
   165          1
   166          1
   167          0
   168          0
   169          0
   177        401
   178         41
   179          5
   180          6
   181        113
   182         22
   183          4
   184          0
   194          0
   196          0
   197          0
   198          3
   207          2
   208          2
   209        266
   210         47
   211          5
   212          0
   216          0
   224          0
   225         13
   226         66
   227         12
   228          1
   236          0
   237          0
   238          0
   239          1
   240          0
   253          8
   254        376
   255         72
   256          8
   257          0