##TITLE=Library Entry 58767
##JCAMP-DX=Revision 4.10 
##DATA TYPE=MASS SPECTRUM
##SAMPLE DESCRIPTION=MINISTRY OF DEFENCE ERDE, WALTHAM ABBEY, ESSEX, UK
##NAMES=HP
##CAS NAME=Benzene, 1-azido-3-nitro-
##MOLFORM=C6H4N4O2
##CAS REGISTRY NO=1516-59-2
##MP= -300
##BP= -300
##MW= 164
##$RETENTION INDEX=0
##$CONDENSED SPECTRUM=NO
##NPOINTS= 36
##XYDATA=(XY..XY) 1 
    26         30
    27         40
    28        130
    29         20
    30         90
    37        140
    38        160
    39        640
    40         50
    45         10
    46         20
    49         20
    50        150
    51        110
    52         60
    53         10
    61         60
    62        130
    63        770
    64        320
    65         30
    74         30
    75         30
    76         30
    77         10
    78         20
    87         20
    88         30
    89         20
    90        999
    91        100
    92         20
   136        200
   137         20
   164        160
   165         10