##TITLE=Library Entry 32020
##JCAMP-DX=Revision 4.10 
##DATA TYPE=MASS SPECTRUM
##SAMPLE DESCRIPTION=NIST Mass Spectrometry Data Center, 1994
##NAMES=HP
##CAS NAME=2,4-Hexadienenitrile
##MOLFORM=C6H7N
##CAS REGISTRY NO=1516-01-4
##MP= -300
##BP= -300
##MW= 93
##$RETENTION INDEX=0
##$CONDENSED SPECTRUM=NO
##NPOINTS= 43
##XYDATA=(XY..XY) 1 
    12          5
    13          4
    14          9
    15         25
    18          4
    25         11
    26         81
    27        176
    28         49
    29          6
    37         99
    38        149
    39        345
    40        135
    41         91
    42          8
    44          2
    46          3
    47          5
    49         23
    50         83
    51        126
    52         69
    53         72
    54         38
    60          7
    61         35
    62         46
    63         82
    64         91
    65        227
    66        999
    67         95
    75         20
    76         22
    77          5
    78         29
    87          5
    88          4
    91          9
    92         42
    93        273
    94         20