##TITLE=Library Entry 83443
##JCAMP-DX=Revision 4.10 
##DATA TYPE=MASS SPECTRUM
##SAMPLE DESCRIPTION=Japan AIST/NIMC Database- Spectrum MS-IW-5126
##NAMES=HP
##CAS NAME=2-Pyridinecarbaldehyde 4-isopropyl-3-thiosemicarbazone
##MOLFORM=C10H14N4S
##CAS REGISTRY NO=151671-82-8
##MP= -300
##BP= -300
##MW= 222
##$RETENTION INDEX=0
##$CONDENSED SPECTRUM=NO
##NPOINTS= 152
##XYDATA=(XY..XY) 1 
    15          7
    16          1
    25          1
    26         12
    27         75
    28         55
    29          4
    30          6
    31          1
    32         13
    33          7
    34         16
    36          2
    37          8
    38         17
    39         88
    40         21
    41        179
    42        120
    43        326
    44         66
    45          7
    46          2
    47          4
    48          6
    49          5
    50         37
    51         88
    52         90
    53         23
    54          5
    55          4
    56          6
    57         43
    58        411
    59         42
    60        132
    61          8
    62         10
    63         20
    64         28
    65        184
    66         40
    67         16
    68          3
    69         26
    70          6
    71          3
    72          5
    73          4
    74         12
    75         27
    76         24
    77         69
    78        138
    79        235
    80         45
    81          3
    82          2
    83         53
    84         22
    85          9
    86         21
    87          2
    88          2
    89          1
    90          9
    91         28
    92        289
    93         89
    94         22
    95          3
    97          2
    99          1
   100         10
   101        103
   102         47
   103         14
   104        153
   105         64
   106         54
   107        999
   108         82
   109          4
   110          2
   111          5
   112          1
   115         25
   116         29
   117         38
   118         18
   119         26
   120        246
   121         54
   122          9
   123          5
   124         28
   125         63
   126          6
   127          3
   128          1
   131          1
   132          3
   133          4
   134          2
   135          8
   136          6
   137          6
   138          4
   139          1
   142          1
   143         13
   144         33
   145          3
   146          3
   147         10
   148         10
   149          2
   150          3
   151          2
   158          1
   159          3
   160          1
   161          3
   162          4
   163         10
   164          9
   165         27
   166          9
   167          2
   173          2
   175          3
   176          1
   178          2
   179          4
   180          1
   181          1
   185          1
   188          1
   189         99
   190         11
   191          1
   193          1
   200          4
   207          9
   208          1
   220          2
   221          2
   222        259
   223         36
   224         13
   225          1