##TITLE=Library Entry 39805
##JCAMP-DX=Revision 4.10 
##DATA TYPE=MASS SPECTRUM
##SAMPLE DESCRIPTION=Chemical Concepts
##NAMES=HP
##CAS NAME=Isoxazolidine-5-carboxylic acid, methyl ester
##MOLFORM=C5H9NO3
##CAS REGISTRY NO=15166-59-3
##MP= -300
##BP= -300
##MW= 131
##$RETENTION INDEX=0
##$CONDENSED SPECTRUM=NO
##NPOINTS= 66
##XYDATA=(XY..XY) 1 
    25          5
    26         36
    27        260
    28        354
    29        200
    30        128
    31         75
    33         60
    37          7
    38         16
    39         96
    40         37
    41        179
    42        281
    43        274
    44        486
    45        213
    46         48
    51          4
    52          9
    53         10
    54         21
    55        569
    56         33
    57         23
    58         41
    59        292
    60         17
    61          8
    67          4
    68         39
    69         97
    70        151
    71        122
    72        999
    73         57
    74          8
    76          6
    77          3
    80          6
    81          5
    82         42
    83          8
    84          5
    85         22
    86         18
    87        386
    88         46
    89         20
    90         23
    91          5
    98         24
    99         35
   100         23
   101        169
   102         32
   103          6
   104          9
   113          6
   114         50
   115          5
   116         10
   130          5
   131        258
   132         22
   133          4