##TITLE=Library Entry 97566
##JCAMP-DX=Revision 4.10 
##DATA TYPE=MASS SPECTRUM
##SAMPLE DESCRIPTION=R.MASSOT CENTRE D'ETUDES NUCLEAIRES DE GRENOBLE, FRANCE
##NAMES=HP
##CAS NAME=Edoxudine
##MOLFORM=C11H16N2O5
##CAS REGISTRY NO=15176-29-1
##MP= -300
##BP= -300
##MW= 256
##$RETENTION INDEX=0
##$CONDENSED SPECTRUM=NO
##NPOINTS= 86
##XYDATA=(XY..XY) 1 
    26         10
    27         47
    28         62
    29         47
    30         16
    31         34
    39         47
    40         20
    41         75
    42         31
    43        162
    44         57
    45        199
    46          4
    47          6
    51          6
    52         10
    53         44
    54         47
    55         69
    56          7
    57         44
    59          7
    60          6
    67         16
    68         52
    69        114
    70         27
    71        154
    73        299
    74         12
    75          7
    80         24
    81         40
    82         87
    83        112
    84         12
    85         17
    86          7
    87         30
    94         11
    96         40
    97         40
    98         97
    99        250
   100         12
   108         10
   110         11
   112         14
   113         14
   114          7
   116         22
   117        999
   118         75
   119         10
   122         12
   123          7
   124         69
   125        179
   126        337
   136          8
   138          7
   139         52
   140        525
   141        374
   142         42
   143         14
   145          7
   152         10
   153         12
   164         17
   165         10
   166         24
   167         55
   168        105
   169         30
   170         10
   182          7
   195         20
   196         14
   207          7
   220         20
   225         14
   226         11
   256        175
   257         22