##TITLE=Library Entry 29776
##JCAMP-DX=Revision 4.10 
##DATA TYPE=MASS SPECTRUM
##SAMPLE DESCRIPTION=H. Luftmann, Org. Chem. Inst., Westfalisch Wilhelms Uni
v., Munster, Germany
##NAMES=HP
##CAS NAME=Hexane, 1-(ethoxymethoxy)-
##MOLFORM=C9H20O2
##CAS REGISTRY NO=151705-35-0
##MP= -300
##BP= -300
##MW= 160
##$RETENTION INDEX=0
##$CONDENSED SPECTRUM=NO
##NPOINTS= 45
##XYDATA=(XY..XY) 1 
    39         52
    40         13
    41        281
    42         75
    43        556
    44         12
    45         46
    47         78
    53         13
    54         15
    55        119
    56        171
    57        118
    58         39
    59        999
    60         79
    61         43
    67         33
    68         19
    69         54
    70         37
    71         37
    72         11
    75        134
    81         32
    82        110
    83        114
    84        118
    85        292
    86         30
    89        191
    90         13
    91         13
    95         11
    96         62
    97         16
    98         16
    99         18
   100         42
   101         19
   113        112
   114         16
   115         29
   131         36
   159         33