##TITLE=Library Entry 4661
##JCAMP-DX=Revision 4.10 
##DATA TYPE=MASS SPECTRUM
##SAMPLE DESCRIPTION=A.E.FONTAINE DYESTUFFS DIV., I.C.I., MANCHESTER
##NAMES=HP
##CAS NAME=1,4-Dioxane, 2,5-dimethyl-
##MOLFORM=C6H12O2
##CAS REGISTRY NO=15176-21-3
##MP= -300
##BP= -300
##MW= 116
##$RETENTION INDEX=1095
##$CONDENSED SPECTRUM=NO
##NPOINTS= 71
##XYDATA=(XY..XY) 1 
    12          0
    13          0
    14          2
    15         23
    16          0
    17          0
    18          4
    19          3
    26          0
    27          8
    28         66
    29         26
    30         84
    31          4
    32         56
    33          0
    34          0
    38          0
    39          3
    40         60
    41        239
    42        999
    43        265
    44         18
    45        914
    46         14
    47          1
    50          1
    51          0
    52          0
    53          1
    54          0
    55         13
    56          3
    57         59
    58         28
    59         95
    60          2
    61          1
    67          0
    68          0
    69          4
    70          3
    71         45
    72        213
    73         30
    74          4
    75          4
    76          0
    77          1
    78          7
    79          0
    83          5
    84          0
    85          2
    86          6
    87          4
    91          0
    92          0
    97          3
    98          0
    99          0
   100          2
   101        290
   102         11
   103          0
   114          0
   115          5
   116        606
   117         36
   118          2