##TITLE=Library Entry 80866
##JCAMP-DX=Revision 4.10 
##DATA TYPE=MASS SPECTRUM
##SAMPLE DESCRIPTION=Chemical Concepts
##NAMES=HP
##CAS NAME=Benzenemethanol, 4-methyl-.alpha.-phenyl-
##MOLFORM=C14H14O
##CAS REGISTRY NO=1517-63-1
##MP= -300
##BP= -300
##MW= 198
##$RETENTION INDEX=0
##$CONDENSED SPECTRUM=NO
##NPOINTS= 107
##XYDATA=(XY..XY) 1 
    26          2
    27         29
    28          5
    29         15
    38          8
    39         84
    40          9
    41         29
    42          3
    45          2
    50         39
    51        143
    53         33
    54         25
    55          5
    56          2
    57          4
    61          3
    62         18
    63         61
    64         22
    65        138
    66         11
    67          2
    69          2
    70          3
    73          2
    74         16
    75         24
    76         52
    77        565
    78        133
    79        133
    80         10
    81          3
    82         14
    83         15
    84         12
    85         11
    86          6
    87         10
    88         13
    89         73
    90         42
    91        449
    92        620
    93        488
    94         33
    95          2
    97          4
    98         10
    99          7
   101          5
   102         11
   103          9
   104          6
   105        999
   106         82
   107         90
   108          7
   113          4
   114          3
   115         33
   116          4
   118          9
   119        869
   120        144
   121        259
   122         21
   126          8
   127         13
   128         20
   129          7
   139         18
   140          3
   141         15
   142          3
   151         18
   152         49
   153         30
   154         25
   155         13
   156          2
   162          9
   164         11
   165        138
   166         65
   167         19
   168          5
   169         27
   170          5
   174          2
   175         11
   176         11
   178         45
   179         41
   180         23
   181         81
   182         18
   183        387
   184         51
   185          4
   196         14
   197        217
   198        637
   199         87
   200          8