##TITLE=Library Entry 16833
##JCAMP-DX=Revision 4.10 
##DATA TYPE=MASS SPECTRUM
##SAMPLE DESCRIPTION=Chuck Anderson, Aldrich Chemical Co.
##NAMES=HP
##CAS NAME=2-Butanol, 3-methyl-, (S)-
##MOLFORM=C5H12O
##CAS REGISTRY NO=1517-66-4
##MP= -300
##BP= -300
##MW= 88
##$RETENTION INDEX=0
##$CONDENSED SPECTRUM=NO
##NPOINTS= 36
##XYDATA=(XY..XY) 1 
    15          4
    19          7
    26          4
    27         64
    28         11
    29         43
    30          2
    31         22
    37          2
    38          7
    39         63
    40          9
    41        100
    42         27
    43        157
    44        138
    45        999
    46         25
    47          4
    50          2
    51          2
    52          0
    53          7
    54          3
    55        106
    56          5
    57         11
    58          2
    69          9
    70          4
    71         17
    72          3
    73        114
    74          5
    87          8
    88          5