##TITLE=Library Entry 15508
##JCAMP-DX=Revision 4.10 
##DATA TYPE=MASS SPECTRUM
##SAMPLE DESCRIPTION=LAC, NIDDK, NIH, Bethesda, MD 20892
##NAMES=HP
##CAS NAME=3-Deoxy-d-mannonic acid
##MOLFORM=C6H12O6
##CAS REGISTRY NO=1518-59-8
##MP= -300
##BP= -300
##MW= 180
##$RETENTION INDEX=0
##$CONDENSED SPECTRUM=NO
##NPOINTS= 85
##XYDATA=(XY..XY) 1 
    41        313
    42        156
    43        680
    44        999
    45        632
    47        106
    48          4
    49          1
    50          5
    51          9
    52          2
    53         40
    54        728
    55        286
    56        145
    57        619
    58        323
    59         28
    60         51
    61        242
    62         35
    63          3
    65          0
    66          1
    67          1
    68         21
    69        151
    70         38
    71         63
    72         98
    73        462
    74         90
    75          7
    76        158
    77          7
    78          3
    79          1
    81        137
    82        147
    83         28
    84         87
    85         79
    86         22
    87         52
    88         12
    89          1
    90         12
    91         25
    92          1
    93          1
    96         15
    97          9
    98         13
    99        104
   100         23
   101         46
   102        172
   103         26
   104          2
   105         10
   106          2
   107          0
   109          2
   113          2
   114         29
   115         51
   117        195
   118         11
   119         16
   120          1
   126          2
   127         14
   128          1
   129          0
   131         36
   132          3
   133          4
   134          0
   140          2
   141          1
   145          5
   163        131
   164          7
   165          1
   180          9