##TITLE=Library Entry 32301
##JCAMP-DX=Revision 4.10 
##DATA TYPE=MASS SPECTRUM
##SAMPLE DESCRIPTION=KONINKLIJKE SHELL LABORATORIUM AMSTERDAM
##NAMES=HP
##CAS NAME=Bicyclo[2.2.1]heptane, 2-methyl-
##MOLFORM=C8H14
##CAS REGISTRY NO=15185-11-2
##MP= -300
##BP= -300
##MW= 110
##$RETENTION INDEX=0
##$CONDENSED SPECTRUM=NO
##NPOINTS= 90
##XYDATA=(XY..XY) 1 
    15         22
    24          0
    25          1
    26         19
    27        219
    28        863
    29        129
    30          5
    31          2
    32         45
    33          0
    34          0
    35          0
    36          3
    37          6
    38         22
    39        330
    40         76
    41        540
    42         59
    43         50
    44        104
    45          5
    46          2
    47          0
    48          0
    49          1
    50         21
    51         47
    52         25
    53        155
    54        270
    55        235
    56        122
    57         21
    58          3
    59          0
    60          3
    61          3
    62          5
    63         14
    64          4
    65         53
    66        165
    67        999
    68        800
    69        261
    70         19
    71          5
    72          2
    73          1
    74          2
    75          2
    76          4
    77         42
    78         13
    79         60
    80         44
    81        761
    82        643
    83         42
    84          3
    85          3
    86          0
    87          1
    88          0
    89          1
    90          0
    91         16
    92          3
    93         12
    94          4
    95        535
    96         42
    97          4
    98          1
    99          1
   100          0
   101          0
   102          0
   103          1
   104          3
   105          3
   106          1
   107          1
   108          2
   109         15
   110        227
   111         21
   112          2