##TITLE=Library Entry 36627
##JCAMP-DX=Revision 4.10 
##DATA TYPE=MASS SPECTRUM
##SAMPLE DESCRIPTION=Exported from NIST MS Search
##NAMES=HP
##CAS NAME=Spiro[fluorene-9,2'-oxetan]-4'-imine, N-cyclohexyl-3',3'-dimethyl
-
##MOLFORM=C23H25NO
##CAS REGISTRY NO=15183-47-8
##MP= -300
##BP= -300
##MW= 331
##$RETENTION INDEX=0
##$CONDENSED SPECTRUM=NO
##NPOINTS= 40
##XYDATA=(XY..XY) 1 
    63         45
    67        113
    68         74
    69        999
    70         68
    74         61
    75         61
    76         61
    77         39
    81         97
    82         61
    83        152
   126         64
   138         35
   149         39
   150         68
   151        103
   163         58
   164         35
   165        428
   166         71
   178        129
   179         58
   180        142
   181         58
   189        162
   190         64
   191        483
   192         97
   201          6
   202          9
   203         16
   204         26
   205         42
   206        483
   207        165
   251         29
   252         26
   331         26
   332          6