##TITLE=Library Entry 66052
##JCAMP-DX=Revision 4.10 
##DATA TYPE=MASS SPECTRUM
##SAMPLE DESCRIPTION=Chemical Concepts
##NAMES=HP
##CAS NAME=(E,E,E)-2,4,6-Octatriene
##MOLFORM=C8H12
##CAS REGISTRY NO=15192-80-0
##MP= -300
##BP= -300
##MW= 108
##$RETENTION INDEX=0
##$CONDENSED SPECTRUM=NO
##NPOINTS= 73
##XYDATA=(XY..XY) 1 
    26         20
    27        169
    28         17
    29         61
    30          2
    35          0
    36          0
    37         10
    38         26
    39        281
    40         43
    41        180
    42         12
    43          4
    45          2
    46          0
    48          0
    49          7
    50         52
    51        117
    52         58
    53        119
    54         57
    55         37
    56          2
    57          0
    58          0
    61          6
    62         18
    63         47
    64         11
    65        142
    66         75
    67         68
    68         11
    69          1
    70          0
    71          0
    73          3
    74         13
    75         11
    76          7
    77        671
    78        101
    79        288
    80         44
    81         14
    82          1
    83          0
    84          1
    85          0
    86          2
    87          2
    88          0
    89         14
    90          6
    91        572
    92         73
    93        999
    94         73
    95          2
    97          0
    98          1
   101          1
   102          1
   103         10
   104          2
   105         31
   106          7
   107         48
   108        552
   109         47
   110          2