##TITLE=Library Entry 69292
##JCAMP-DX=Revision 4.10 
##DATA TYPE=MASS SPECTRUM
##SAMPLE DESCRIPTION=Exported from NIST MS Search
##NAMES=HP
##CAS NAME=o-Menth-8-ene
##MOLFORM=C10H18
##CAS REGISTRY NO=15193-25-6
##MP= -300
##BP= -300
##MW= 138
##$RETENTION INDEX=0
##$CONDENSED SPECTRUM=NO
##NPOINTS= 39
##XYDATA=(XY..XY) 1 
    27        157
    29        149
    39        241
    40         51
    41        514
    42         56
    43         63
    51         30
    52         20
    53        167
    54        101
    55        504
    56         56
    57         46
    65         35
    66         53
    67        787
    68        759
    69        243
    70         71
    77         56
    79         89
    80         53
    81        927
    82        446
    83        157
    84         23
    91         20
    93         23
    94         46
    95        481
    96        999
    97         89
   109        185
   110         25
   123        152
   124          8
   138        152
   139         13