##TITLE=Library Entry 65338
##JCAMP-DX=Revision 4.10 
##DATA TYPE=MASS SPECTRUM
##SAMPLE DESCRIPTION=LAC, NIDDK, NIH, Bethesda, MD 20892
##NAMES=HP
##CAS NAME=Pyridine-2-propionic acid
##MOLFORM=C8H9NO2
##CAS REGISTRY NO=15197-75-8
##MP= -300
##BP= -300
##MW= 151
##$RETENTION INDEX=0
##$CONDENSED SPECTRUM=NO
##NPOINTS= 73
##XYDATA=(XY..XY) 1 
    41         11
    42         60
    43         27
    44          8
    45        159
    46          3
    47          6
    49         21
    50        180
    51        355
    52        177
    53        118
    54         22
    55         36
    56          5
    57          7
    60          3
    61         10
    62         28
    63         92
    64         44
    65        378
    66         33
    67         23
    68          6
    69          8
    70          3
    71          4
    73         13
    74         23
    75         21
    76         29
    77        207
    78        215
    79        214
    80         59
    81          9
    82          4
    83          4
    84          6
    85          2
    86          3
    90          3
    92        999
    93         63
    94          5
    95         10
    96          4
    97          4
    99          3
   102          4
   103          1
   104        180
   105        549
   106        538
   107        106
   108         22
   109          3
   111          1
   120          1
   122          6
   123         14
   124          4
   132         25
   133        288
   134         66
   135          8
   136          1
   149          1
   150         22
   151        518
   152         65
   153          6