##TITLE=Library Entry 96501
##JCAMP-DX=Revision 4.10 
##DATA TYPE=MASS SPECTRUM
##SAMPLE DESCRIPTION=J.T. CLERC, ORGANIC CHEM. LAB., ETH, ZURICH, SWITZ.
##NAMES=HP
##CAS NAME=4-Morpholineacetonitrile, .alpha.-phenyl-
##MOLFORM=C12H14N2O
##CAS REGISTRY NO=15190-10-0
##MP= -300
##BP= -300
##MW= 202
##$RETENTION INDEX=0
##$CONDENSED SPECTRUM=NO
##NPOINTS= 74
##XYDATA=(XY..XY) 1 
    27         26
    28        126
    29        282
    30        104
    31         26
    38         26
    39        126
    40         26
    41        104
    42         82
    43         43
    44         26
    45         26
    50         65
    51        104
    52         47
    54        126
    55         86
    56        704
    57         47
    59         47
    62         47
    63        126
    64         47
    65         86
    66         30
    76         43
    77         82
    78         26
    86        956
    87         65
    88         43
    89        286
    90        104
    91        260
    92         21
   103         43
   104        126
   105        104
   106         26
   114         26
   115         43
   116        999
   117        221
   118        143
   119         47
   125        126
   126         30
   129         26
   130         65
   131         43
   132         86
   133         26
   142         26
   143         86
   144         65
   145         47
   146         26
   148         26
   149         65
   150         26
   156         65
   157         43
   171        678
   172        104
   173         26
   174         43
   175         43
   176         65
   177         26
   201        160
   202        678
   203        100
   204         13