##TITLE=Library Entry 87187
##JCAMP-DX=Revision 4.10 
##DATA TYPE=MASS SPECTRUM
##SAMPLE DESCRIPTION=E.SANTORO MONTECATINI EDISON RES. CENTRE, MILAN, ITALY
##NAMES=HP
##CAS NAME=Phosphorothioic acid, O,O,S-trimethyl ester
##MOLFORM=C3H9O3PS
##CAS REGISTRY NO=152-20-5
##MP= -300
##BP= -300
##MW= 156
##$RETENTION INDEX=0
##$CONDENSED SPECTRUM=NO
##NPOINTS= 22
##XYDATA=(XY..XY) 1 
    15        120
    31         42
    44         15
    45        130
    46         80
    47        282
    48         70
    61         19
    62         39
    63         34
    65         20
    77         21
    79        628
    80        170
    93         38
    95        121
   109        627
   110        999
   125        110
   126        161
   141         71
   156        485