##TITLE=Library Entry 100186
##JCAMP-DX=Revision 4.10 
##DATA TYPE=MASS SPECTRUM
##SAMPLE DESCRIPTION=ALPHA Chemicals / NIST MS Data Center.
##NAMES=HP
##CAS NAME=4-Aminostyrene
##MOLFORM=C8H9N
##CAS REGISTRY NO=1520-21-4
##MP= -300
##BP= -300
##MW= 119
##$RETENTION INDEX=0
##$CONDENSED SPECTRUM=NO
##NPOINTS= 79
##XYDATA=(XY..XY) 1 
    12          0
    14          2
    15          4
    16          0
    17          1
    18          4
    26         14
    27         36
    28         48
    29          3
    30          3
    32          1
    36          1
    37         14
    38         34
    39        102
    40         19
    41         37
    42         12
    43          2
    45          4
    46          7
    47         11
    48          0
    49          5
    50         33
    51         57
    52         52
    53         19
    54         18
    55          1
    57          1
    59         76
    60         32
    61         20
    62         36
    63         66
    64         29
    65        120
    66         41
    67          9
    68          1
    73          3
    74         15
    75         16
    76         14
    77         29
    78         30
    79          3
    80         21
    81          1
    84          0
    85          3
    86          5
    87          5
    88          5
    89         48
    90         40
    91        240
    92         49
    93         68
    94          4
    97          0
    98          2
    99          1
   101          8
   102         12
   103          9
   104         42
   105          3
   106          0
   111          0
   114          0
   116         26
   117        155
   118        580
   119        999
   120         82
   121          3