##TITLE=Library Entry 16677
##JCAMP-DX=Revision 4.10 
##DATA TYPE=MASS SPECTRUM
##SAMPLE DESCRIPTION=NIST Mass Spectrometry Data Center, 1994
##NAMES=HP
##CAS NAME=2-Methanesulfonylethanol
##MOLFORM=C3H8O3S
##CAS REGISTRY NO=15205-66-0
##MP= -300
##BP= -300
##MW= 124
##$RETENTION INDEX=0
##$CONDENSED SPECTRUM=NO
##NPOINTS= 58
##XYDATA=(XY..XY) 1 
    12          3
    13          8
    14         42
    15        297
    16          8
    17          4
    18          8
    19        134
    25          3
    26         50
    27        309
    28         42
    29        361
    30         14
    31        141
    32         11
    33         18
    34         10
    35          6
    39          4
    40          2
    41          9
    42         49
    43        219
    44         73
    45        999
    46         52
    47         29
    48         77
    49         23
    50          9
    51          1
    57          3
    58          4
    59          2
    60          2
    61         10
    62          9
    63        168
    64         46
    65        132
    66          8
    67          7
    77         21
    79        197
    80         62
    81        281
    82          7
    83         14
    91          4
    94        191
    95          7
    96         10
    97         13
   107          1
   109         11
   123         10
   125          1