##TITLE=Library Entry 26781
##JCAMP-DX=Revision 4.10 
##DATA TYPE=MASS SPECTRUM
##SAMPLE DESCRIPTION=Chemical Concepts
##NAMES=HP
##CAS NAME=Phosphorous acid, tris(1,1-dimethylethyl) ester
##MOLFORM=C12H27O3P
##CAS REGISTRY NO=15205-62-6
##MP= -300
##BP= -300
##MW= 250
##$RETENTION INDEX=0
##$CONDENSED SPECTRUM=NO
##NPOINTS= 99
##XYDATA=(XY..XY) 1 
    23          1
    24          1
    26          2
    27         13
    28          0
    29        130
    30          2
    31          2
    36          0
    37          1
    38          2
    39         28
    40          5
    41        205
    42          8
    43          6
    44          1
    45          0
    46          0
    47          4
    48          0
    49          0
    50          2
    51          1
    52          1
    53          5
    54          1
    55         24
    56         63
    57        999
    58         90
    59        134
    60          4
    61          0
    62          0
    64          1
    65         14
    68          0
    70          0
    71          1
    72          4
    73          3
    74          0
    79          0
    80          0
    81          0
    82         70
    86          1
    89          0
    90          0
    91          0
    92          0
    94          0
    96          1
    99         25
   100          0
   101          0
   104          1
   105          5
   106          7
   107          0
   108          1
   110          0
   113         19
   114          1
   115          8
   116          0
   118          0
   119          2
   120          3
   121        142
   122         18
   134          1
   136          9
   137         33
   138        827
   139         30
   140          6
   141          0
   148          0
   150          0
   151          1
   155          5
   162          0
   164          0
   165          0
   177         67
   178          7
   193          0
   194         38
   195          7
   196          0
   211          0
   235          5
   236          0
   249          0
   250         26
   251          3
   252          0