##TITLE=Library Entry 78715
##JCAMP-DX=Revision 4.10 
##DATA TYPE=MASS SPECTRUM
##SAMPLE DESCRIPTION=Chemical Concepts
##NAMES=HP
##CAS NAME=Benzeneacetic acid, .alpha.-oxo-, methyl ester
##MOLFORM=C9H8O3
##CAS REGISTRY NO=15206-55-0
##MP= -300
##BP= -300
##MW= 164
##$RETENTION INDEX=1335
##$CONDENSED SPECTRUM=NO
##NPOINTS= 36
##XYDATA=(XY..XY) 1 
    26          3
    27         18
    29         22
    30          6
    37          6
    38         17
    39         27
    41          0
    43          2
    44          0
    49          8
    50        113
    51        286
    52         14
    53          9
    59         15
    61          2
    62          7
    63          6
    64          0
    65          1
    73          5
    74         35
    75         23
    76         35
    77        598
    78         40
    92          1
   104          3
   105        999
   106         78
   107          4
   136         20
   137          0
   164         19
   165          0