##TITLE=Library Entry 80364
##JCAMP-DX=Revision 4.10 
##DATA TYPE=MASS SPECTRUM
##SAMPLE DESCRIPTION=Chemical Concepts
##NAMES=HP
##CAS NAME=Benzene, 1,1'-(1-methyl-1,3-propanediyl)bis-
##MOLFORM=C16H18
##CAS REGISTRY NO=1520-44-1
##MP= -300
##BP= -300
##MW= 210
##$RETENTION INDEX=1664
##$CONDENSED SPECTRUM=NO
##NPOINTS= 121
##XYDATA=(XY..XY) 1 
    27         45
    29          1
    37          1
    38          3
    39         70
    40          5
    41         44
    42          1
    46          0
    47          1
    49          0
    50         20
    51         80
    52         21
    53         14
    54          2
    55          1
    56          0
    57          0
    58          0
    59          1
    60          0
    61          1
    62          5
    63         30
    64          7
    65         95
    66          7
    67          0
    68          0
    69          0
    70          0
    71          0
    73          0
    74          5
    75         10
    76         10
    77        176
    78         71
    79        140
    80          9
    81          0
    82          1
    83          0
    84          0
    85          0
    86          1
    87          2
    88          1
    89         19
    90          8
    91        500
    92        415
    93         30
    94          1
    95          0
    96          0
    97          0
    98          0
    99          0
   100          0
   101          5
   102         14
   103         93
   104         80
   105        999
   106        398
   113          0
   114          1
   115         32
   116          8
   117         48
   118         32
   119        124
   120         12
   121          1
   126          0
   127          2
   128          5
   129          2
   130          1
   131          5
   132         10
   133          0
   139          1
   141          1
   142          0
   150          0
   151          1
   152          4
   153          1
   163          0
   164          1
   165         10
   166          4
   167          6
   168          1
   169          0
   176          1
   177          1
   178          5
   179          3
   180          0
   181          2
   182          0
   188          0
   189          1
   190          0
   191          2
   192          0
   193          2
   194          0
   195          2
   202          0
   203          0
   207          0
   208          0
   209          1
   210        357
   211         63
   212          5