##TITLE=Library Entry 10556
##JCAMP-DX=Revision 4.10 
##DATA TYPE=MASS SPECTRUM
##SAMPLE DESCRIPTION=A.A.Kutin, Moscow, Russia
##NAMES=HP
##CAS NAME=Acetic acid, 1-(2-methyltetrazol-5-yl)ethenyl ester
##MOLFORM=C6H8N4O2
##CAS REGISTRY NO=152028-15-4
##MP= -300
##BP= -300
##MW= 168
##$RETENTION INDEX=0
##$CONDENSED SPECTRUM=NO
##NPOINTS= 48
##XYDATA=(XY..XY) 1 
    33          0
    37         15
    38         22
    39          9
    40         13
    41         35
    42        179
    43        999
    45          3
    50          4
    51         13
    52         19
    53         14
    54         21
    55         95
    56         40
    57          6
    58          5
    60          0
    66          9
    69         36
    70         48
    71          1
    72          0
    77          0
    79          0
    81         12
    83          9
    84          1
    85          2
    91          0
    92          0
    93          0
    98        673
    99         18
   100          1
   103          0
   109          0
   112          3
   113          0
   126        443
   127         18
   128          1
   140          3
   141          0
   168         31
   169          5
   170          0