##TITLE=Library Entry 37268
##JCAMP-DX=Revision 4.10 
##DATA TYPE=MASS SPECTRUM
##SAMPLE DESCRIPTION=Exported from NIST MS Search
##NAMES=HP
##CAS NAME=1.beta.,2.beta.-Epoxy-1.alpha.-methoxymethyl-8.alpha.-pyrrolizidi
ne
##MOLFORM=C9H15NO2
##CAS REGISTRY NO=15211-08-2
##MP= -300
##BP= -300
##MW= 169
##$RETENTION INDEX=1313
##$CONDENSED SPECTRUM=NO
##NPOINTS= 43
##XYDATA=(XY..XY) 1 
    39        111
    40         26
    41        218
    42        139
    43        184
    44        482
    45        218
    53         45
    54         50
    55        429
    56         29
    57          8
    58         32
    59         11
    67         45
    68         50
    69         39
    70        999
    71         74
    79         29
    80         55
    81         39
    82         21
    83         21
    84         32
    93         21
    94         29
    95         18
    96        100
    97         18
   106         29
   108         39
   110         34
   111         21
   120         39
   124        229
   125         16
   138         32
   139         16
   140         24
   154         11
   169        195
   170         16