##TITLE=Library Entry 114508
##JCAMP-DX=Revision 4.10 
##DATA TYPE=MASS SPECTRUM
##SAMPLE DESCRIPTION=James Little,Eastman Chem.Co.,Kingsport,TN
##NAMES=HP
##CAS NAME=5H-Tetrazole-5-thione, 1-ethyl-1,2-dihydro-
##MOLFORM=C3H6N4S
##CAS REGISTRY NO=15217-53-5
##MP= -300
##BP= -300
##MW= 130
##$RETENTION INDEX=0
##$CONDENSED SPECTRUM=NO
##NPOINTS= 29
##XYDATA=(XY..XY) 1 
    27        279
    29        388
    30         39
    41         58
    42        152
    43         92
    44        186
    45         70
    47        106
    55        162
    56         17
    59        300
    60        139
    61         21
    69        196
    70         70
    72         44
    73         10
    74         37
    76         55
    86         15
    87         71
   102         17
   103         26
   129          8
   130        999
   131         84
   132         69
   133          6