##TITLE=Library Entry 79686
##JCAMP-DX=Revision 4.10 
##DATA TYPE=MASS SPECTRUM
##SAMPLE DESCRIPTION=A.A.Kutin, Moscow, Russia
##NAMES=HP
##CAS NAME=Benzamide, N-(5-methyl-2-oxo-4-imidazolin-1-yl)-
##MOLFORM=C11H11N3O2
##CAS REGISTRY NO=152192-84-2
##MP= -300
##BP= -300
##MW= 217
##$RETENTION INDEX=0
##$CONDENSED SPECTRUM=NO
##NPOINTS= 78
##XYDATA=(XY..XY) 1 
    33          0
    34          0
    36          0
    39         39
    40         13
    42         79
    44         31
    45          5
    47          0
    51        130
    53          7
    54         16
    55          6
    56         16
    58          8
    59          1
    60          0
    61          0
    63          1
    64          2
    65          4
    67          0
    68          1
    70         20
    71          1
    72          0
    74          5
    77        444
    81          0
    82          0
    84          1
    85          0
    88          5
    90          0
    91          1
    92          1
    93          0
    97         15
    98         10
    99          0
   101          0
   102          0
   105        999
   106         53
   109          0
   110          0
   112          7
   115          0
   116          0
   117          0
   118          0
   119          0
   121          2
   122          0
   127          0
   130          0
   132          0
   136          0
   144          0
   145          0
   146          0
   147          0
   160          0
   161          0
   162          0
   163          0
   171          0
   172          0
   173          0
   178          0
   186          0
   187          0
   199          0
   200          0
   217        250
   218         23
   219          1
   220          0