##TITLE=Library Entry 84432
##JCAMP-DX=Revision 4.10 
##DATA TYPE=MASS SPECTRUM
##SAMPLE DESCRIPTION=NIST Mass Spectrometry Data Center
##NAMES=HP
##CAS NAME=2,3-Dimethoxybenzoic acid
##MOLFORM=C9H10O4
##CAS REGISTRY NO=1521-38-6
##MP= -300
##BP= -300
##MW= 182
##$RETENTION INDEX=1414
##$CONDENSED SPECTRUM=NO
##NPOINTS= 103
##XYDATA=(XY..XY) 1 
    15         58
    16          2
    26         15
    27         24
    29         35
    30          6
    31         17
    37         26
    38         36
    39        109
    40         23
    41         34
    42         11
    43         14
    44          9
    45         45
    49         16
    50        140
    51        299
    52         92
    53        152
    54         16
    55         76
    56          3
    59         15
    60          5
    61         25
    62         62
    63        121
    64         43
    65        232
    66         34
    67         34
    68         81
    69         13
    70          3
    71          3
    73          5
    74         36
    75         28
    76         83
    77        208
    78         52
    79        221
    80         45
    81         56
    82          5
    83          9
    89          3
    90         25
    91         84
    92         82
    93         54
    94         60
    95         37
    96         49
    97          3
   103          9
   104         33
   105        113
   106         29
   107        999
   108        132
   109        361
   110         30
   111         34
   112          3
   118         69
   119        135
   120         49
   121        148
   122        141
   123         34
   124         12
   125          2
   132         27
   133         29
   134         18
   135        284
   136         72
   137        344
   138         35
   139         32
   145          3
   146          3
   147          8
   149        417
   150         51
   151         39
   152         17
   153        190
   154         27
   155          2
   163         85
   164         22
   165         68
   166          9
   167         47
   168          4
   180         28
   182        655
   183         67
   184          7