##TITLE=Library Entry 50264
##JCAMP-DX=Revision 4.10 
##DATA TYPE=MASS SPECTRUM
##SAMPLE DESCRIPTION=NIST Mass Spectrometry Data Center, 1994
##NAMES=HP
##CAS NAME=Cyclohexene, 3-bromo-
##MOLFORM=C6H9Br
##CAS REGISTRY NO=1521-51-3
##MP= -300
##BP= -300
##MW= 160
##$RETENTION INDEX=981
##$CONDENSED SPECTRUM=NO
##NPOINTS= 66
##XYDATA=(XY..XY) 1 
    11          0
    12          0
    13          1
    14          4
    15         28
    16          0
    26         63
    27        183
    29         21
    30          0
    37         23
    38         62
    39        215
    40         46
    41        175
    42         10
    49         19
    50         89
    51        116
    52         85
    53        236
    54         25
    55         41
    56          1
    59          0
    60          1
    61          4
    62          8
    63         21
    64          0
    65         61
    66         50
    67          5
    73          4
    74         10
    75          5
    76          0
    77        116
    78          0
    79        369
    80          0
    81        999
    82         78
    83          4
    91          0
    92          0
    93          1
    95          1
   104          0
   105          0
   106          0
   107          0
   108          0
   117          0
   119          2
   121          1
   131          0
   132          0
   133          0
   134          0
   145          1
   147          0
   160          9
   161          0
   162          8
   163          0