##TITLE=Library Entry 20393
##JCAMP-DX=Revision 4.10 
##DATA TYPE=MASS SPECTRUM
##SAMPLE DESCRIPTION=Japan AIST/NIMC Database- Spectrum MS-NW-2778
##NAMES=HP
##CAS NAME=2-Acrylamido-2-methyl-1-propanesulfonic acid
##MOLFORM=C7H13NO4S
##CAS REGISTRY NO=15214-89-8
##MP= -300
##BP= -300
##MW= 207
##$RETENTION INDEX=0
##$CONDENSED SPECTRUM=NO
##NPOINTS= 130
##XYDATA=(XY..XY) 1 
    12          1
    14          4
    15         22
    16          3
    17          4
    18         13
    24          1
    25          5
    26         67
    27        246
    28         79
    29         86
    30         19
    31          6
    32         14
    33          1
    34          2
    36          3
    37          5
    38         10
    39        103
    40         24
    41        159
    42         83
    43         36
    44         31
    45          8
    48         44
    49          2
    50          8
    51         24
    52         56
    53         92
    54         84
    55        999
    56        152
    57         53
    58        440
    59         15
    60          4
    63          2
    64         87
    65         12
    66          5
    67          7
    68          6
    69         14
    70         26
    71         36
    72        464
    73         42
    74          5
    76          1
    77          4
    78          3
    79          4
    80          4
    81          8
    82         13
    83         14
    84         29
    85          8
    86          1
    91          4
    92          1
    93          3
    94          3
    95         18
    96          7
    97          9
    98          7
    99          2
   100          1
   104          1
   105          4
   106          2
   107          3
   108          4
   109          4
   110         41
   111          9
   112        130
   113          9
   114          2
   115          1
   117          1
   119          3
   120        156
   121         14
   122          8
   123          2
   124          2
   125          9
   126        462
   127         73
   128          7
   129          2
   133          1
   134          1
   135          1
   136          9
   137         10
   138        134
   139          6
   140          7
   141          1
   144          1
   145          1
   147          1
   149          2
   150          4
   151          1
   152          2
   153          1
   160          1
   164          1
   167          1
   168          1
   174          7
   175          1
   179          1
   189          9
   190          1
   191          1
   192         33
   193          3
   194          2
   207         39
   208          4
   209          3