##TITLE=Library Entry 944
##JCAMP-DX=Revision 4.10 
##DATA TYPE=MASS SPECTRUM
##SAMPLE DESCRIPTION=W.T.RAINEY OAK RIDGE NATIONAL LABORATORY,OAK RIDGE,TN.U
SA
##NAMES=HP
##CAS NAME=Azetidine, 1-nitroso-
##MOLFORM=C3H6N2O
##CAS REGISTRY NO=15216-10-1
##MP= -300
##BP= -300
##MW= 86
##$RETENTION INDEX=0
##$CONDENSED SPECTRUM=NO
##NPOINTS= 27
##XYDATA=(XY..XY) 1 
    30        999
    31         20
    32        122
    37         40
    38         61
    39        224
    40        142
    41        530
    42        387
    43         81
    44        244
    50         20
    51         40
    52         61
    53         40
    54        224
    55        285
    56        142
    57        122
    58         20
    67         20
    68         20
    69        102
    70         20
    71         20
    86        428
    87         20