##TITLE=Library Entry 32239
##JCAMP-DX=Revision 4.10 
##DATA TYPE=MASS SPECTRUM
##SAMPLE DESCRIPTION=Japan AIST/NIMC Database- Spectrum MS-NW-5682
##NAMES=HP
##CAS NAME=2-Propenoic acid, 3-bicyclo[2.2.1]hept-5-en-2-yl-
##MOLFORM=C10H12O2
##CAS REGISTRY NO=15222-64-7
##MP= -300
##BP= -300
##MW= 164
##$RETENTION INDEX=0
##$CONDENSED SPECTRUM=NO
##NPOINTS= 113
##XYDATA=(XY..XY) 1 
    14          1
    15          2
    17          1
    18          3
    26          5
    27         38
    28          8
    29          4
    31          2
    32          1
    36          1
    37          4
    38         11
    39         81
    40         32
    41         52
    42          6
    43          9
    44         11
    45         12
    49          2
    50         14
    51         35
    52         15
    53         31
    54          5
    55          9
    56          2
    57          5
    58          7
    59          1
    60          2
    61          3
    62          7
    63         20
    64          7
    65         65
    66        999
    67         64
    68          4
    69          4
    70          5
    71          3
    72          2
    73          5
    74          3
    75          2
    76          2
    77         52
    78         23
    79         61
    80         13
    81         12
    82          4
    83          1
    84          3
    85          2
    86          3
    87          2
    88          1
    89          8
    90          4
    91        102
    92         25
    93          8
    94          4
    95          6
    96          1
    97         14
    98         10
    99         49
   100          4
   101          1
   102          4
   103         13
   104         14
   105         19
   106          2
   107          2
   108          1
   109          1
   110          7
   111          1
   113          1
   114          1
   115         28
   116         11
   117         56
   118         35
   119        162
   120         17
   121          2
   122          4
   123         14
   124          2
   127          2
   129          1
   130          1
   131          3
   132          1
   135          4
   136          5
   137          1
   144          1
   145          3
   146          9
   147          2
   149          2
   162          1
   163          2
   164         60
   165          8
   166          1