##TITLE=Library Entry 19610
##JCAMP-DX=Revision 4.10 
##DATA TYPE=MASS SPECTRUM
##SAMPLE DESCRIPTION=D. LUKE UNILEVER RESEARCH LAB., PORT SUNLIGHT
##NAMES=HP
##CAS NAME=1,2-Oxathiane, 6-dodecyl-, 2,2-dioxide
##MOLFORM=C16H32O3S
##CAS REGISTRY NO=15224-88-1
##MP= -300
##BP= -300
##MW= 304
##$RETENTION INDEX=0
##$CONDENSED SPECTRUM=NO
##NPOINTS= 100
##XYDATA=(XY..XY) 1 
    15         11
    17         27
    18        141
    26         14
    27        173
    28        290
    29        401
    30         11
    31         15
    39        118
    40         37
    41        866
    42        401
    43        952
    44         86
    45         23
    48         12
    53         56
    54        173
    55        999
    56        630
    57        684
    58         41
    64         25
    65         21
    66         27
    67        360
    68        324
    69        864
    70        738
    71        459
    72         37
    73         99
    79         48
    80         27
    81        351
    82        414
    83        765
    84        729
    85        162
    95        252
    96        324
    97        630
    98        432
    99         55
   100         23
   107         55
   108         16
   109        177
   110        189
   111        333
   112        297
   113         34
   121         23
   123        135
   124        126
   125        106
   126        198
   127         25
   135         36
   137         88
   138         66
   139         66
   140        126
   141         14
   151         57
   152         36
   153         37
   154         77
   155         10
   165         34
   166         16
   167         23
   168         21
   174         12
   177         12
   178         14
   179         25
   180         14
   181         30
   191         30
   192         27
   193         16
   194         27
   205         45
   206         34
   207         10
   219         32
   220         39
   222         18
   227         21
   233         27
   234         37
   247         21
   248         32
   261         16
   262         27
   275         10
   276         32
   304         64