##TITLE=Library Entry 3189
##JCAMP-DX=Revision 4.10 
##DATA TYPE=MASS SPECTRUM
##SAMPLE DESCRIPTION=CAR 0020
##NAMES=HP
##CAS NAME=3-Azabicyclo[3.2.2]nonane, 3-nitroso-
##MOLFORM=C8H14N2O
##CAS REGISTRY NO=1522-09-4
##MP= -300
##BP= -300
##MW= 154
##$RETENTION INDEX=0
##$CONDENSED SPECTRUM=NO
##NPOINTS= 89
##XYDATA=(XY..XY) 1 
    14         26
    15         73
    16         45
    26         40
    27        366
    29        239
    30        758
    31         11
    37         14
    38         38
    39        553
    40        111
    41        999
    42        716
    43        390
    45         51
    46          6
    49          4
    50         45
    51         84
    52         64
    53        264
    54        540
    55        822
    56        178
    57         86
    58         16
    61          6
    62         10
    63         28
    64         13
    65         80
    66         98
    67        823
    68        467
    69        106
    70         79
    71         11
    74          8
    75         13
    76         15
    77        143
    78         85
    79        314
    80        806
    81        565
    82        197
    83         47
    84          8
    86          6
    89          7
    91        103
    92         43
    93        169
    94        166
    95        651
    96        120
    97         19
    98          5
   101          3
   102          4
   103         27
   104          9
   105         17
   106         25
   107         21
   108        171
   109         31
   110         28
   111          8
   116          3
   117          7
   118          7
   119         11
   120         20
   121         44
   122        557
   123        403
   124        234
   125         62
   126         11
   127          1
   137         85
   138          9
   139          3
   153          2
   154        583
   155         63
   156          6