##TITLE=Library Entry 32380
##JCAMP-DX=Revision 4.10 
##DATA TYPE=MASS SPECTRUM
##SAMPLE DESCRIPTION=Japan AIST/NIMC Database- Spectrum MS-NW-2858
##NAMES=HP
##CAS NAME=Pentaerythrityl tetraiodide
##MOLFORM=C5H8I4
##CAS REGISTRY NO=1522-88-9
##MP= -300
##BP= -300
##MW= 576
##$RETENTION INDEX=0
##$CONDENSED SPECTRUM=NO
##NPOINTS= 91
##XYDATA=(XY..XY) 1 
    14          2
    15          4
    26         11
    27        116
    28         21
    29          6
    36          1
    37         11
    38         31
    39        310
    40        102
    41        334
    42         21
    43          3
    49          3
    50         16
    51         27
    52         16
    53        134
    54         85
    55          6
    56          1
    57          2
    61          2
    62          4
    63          7
    64          3
    65         89
    66        103
    67        999
    68        182
    69         10
    71          1
    78          2
    80          2
    81          1
    82          2
    83          1
    85          1
    93          1
    95          1
    97          1
   101          2
   107          1
   119          5
   121          5
   127         90
   128        111
   133          2
   134          1
   135          2
   139          2
   140          2
   141         45
   145         11
   146          3
   147         22
   148          4
   149         12
   152          1
   153          4
   154          3
   155         33
   161          9
   165          3
   166          2
   167         40
   168          2
   179          1
   180          3
   181         20
   193         49
   194         14
   195        238
   196         12
   229          1
   245          1
   247          1
   254         22
   273         11
   275         11
   281          1
   295          1
   321         36
   322          2
   355          1
   357          2
   449        187
   450          9
   576         28
   577          1