##TITLE=Library Entry 44071
##JCAMP-DX=Revision 4.10 
##DATA TYPE=MASS SPECTRUM
##SAMPLE DESCRIPTION=Chemical Concepts
##NAMES=HP
##CAS NAME=Stannacyclopentadiene, 1,1-bis[bis(trimethylsilyl)methyl]-
##MOLFORM=C18H42Si4Sn
##CAS REGISTRY NO=152387-41-2
##MP= -300
##BP= -300
##MW= 490
##$RETENTION INDEX=0
##$CONDENSED SPECTRUM=NO
##NPOINTS= 322
##XYDATA=(XY..XY) 1 
    25          0
    26          3
    27          0
    28          3
    29          2
    31          6
    39          0
    43         21
    44          4
    45         76
    46          4
    47          2
    51          1
    52          0
    53          1
    55          5
    56          0
    57          3
    58          5
    59        129
    60          9
    61          4
    64          0
    65          0
    67          0
    69         11
    70          0
    71          5
    72          2
    73        999
    74         83
    75         35
    76          0
    78          0
    81          3
    83         23
    84          2
    85         51
    86          5
    87          6
    88          1
    89          0
    91          0
    93         44
    94          5
    95         14
    96          1
    97          8
    98          0
    99         10
   100          2
   101         10
   102          2
   103          9
   105          1
   107          4
   108          2
   109          7
   110          0
   111          3
   113         25
   114          2
   115         11
   116          3
   117          5
   118          4
   119          0
   120          7
   121          5
   122          0
   123          4
   124          1
   125          7
   126          0
   127          8
   128          1
   129        465
   130         74
   131         45
   132         27
   133         75
   134         26
   135         98
   136          0
   137         13
   139         18
   140          0
   141          9
   142          2
   143          3
   144          2
   145         12
   146          3
   147          3
   148          2
   149          3
   150          2
   151         18
   152          2
   153          1
   154          1
   155          4
   156          0
   157          2
   158          1
   159          5
   160          2
   161         31
   162         16
   163         47
   164         19
   165         67
   166          3
   167         11
   168          0
   169         11
   170          3
   171          2
   172          2
   173          3
   174          3
   175          3
   176          3
   177          5
   178          3
   179          3
   180          1
   181        278
   182         56
   183         30
   184          9
   185         31
   186          5
   187         17
   188          6
   189         23
   190         10
   191         27
   192          6
   193         15
   194          2
   195          8
   196          2
   197          8
   198          2
   199          4
   200          1
   201          6
   202          2
   203          4
   204          3
   205          4
   206          2
   207          8
   208          1
   209          3
   211          3
   212          1
   213          6
   214          2
   215          7
   216          1
   217          7
   218          2
   219         10
   220          4
   221         18
   222          5
   223         15
   224          2
   225          5
   226          1
   227          5
   228          4
   229          6
   230          6
   231          6
   232          2
   233          4
   234          0
   235          2
   236          0
   237          6
   238          2
   239         14
   240          9
   241         17
   242         11
   243         27
   244          3
   245          6
   246          1
   247          6
   248          1
   249          2
   250          0
   251          2
   252          0
   253          8
   254          4
   255         12
   256          3
   257         14
   258          2
   259          5
   260          1
   261          6
   262          3
   263          3
   264          0
   265          1
   266          0
   267          4
   268          2
   269          2
   270          0
   271          3
   272          0
   273         25
   274          8
   275         19
   276         12
   277         33
   278         17
   279         44
   280          8
   281         10
   282          2
   283          8
   284          2
   285          2
   286          0
   287          1
   288          0
   289          0
   291          0
   293          2
   294          0
   295         90
   296         33
   297         15
   298          3
   299          3
   300          1
   301          3
   303          1
   304          0
   305          2
   306          0
   307          2
   308          0
   309          6
   310          2
   311          2
   312          0
   313          3
   314          1
   315          3
   316          0
   317          1
   319          0
   323         17
   324          4
   325         14
   326          8
   327        270
   328        206
   329        503
   330        275
   331        709
   332        159
   333        147
   334         25
   335        118
   336         23
   337          7
   338          1
   339          0
   348          0
   349          0
   351          0
   363          0
   364          0
   365          0
   373          0
   383          0
   384          0
   385          1
   386          1
   387          2
   389          0
   401          0
   415          0
   437          0
   438          0
   467          0
   468          0
   469          0
   470          0
   471         16
   472         14
   473         34
   474         19
   475         43
   476         16
   477         13
   478          4
   479          7
   480          2
   481          1
   482          0
   485          0
   486          6
   487          6
   488         17
   489          8
   490         19
   491          8
   492          6
   493          1
   494          3
   495          1