##TITLE=Library Entry 97932
##JCAMP-DX=Revision 4.10 
##DATA TYPE=MASS SPECTRUM
##SAMPLE DESCRIPTION=Japan AIST/NIMC Database- Spectrum MS-IW- 864
##NAMES=HP
##CAS NAME=2,2-Dimethyl-5-phenyl-1,3-dioxane-4,6-dione
##MOLFORM=C12H12O4
##CAS REGISTRY NO=15231-78-4
##MP= -300
##BP= -300
##MW= 220
##$RETENTION INDEX=0
##$CONDENSED SPECTRUM=NO
##NPOINTS= 75
##XYDATA=(XY..XY) 1 
    14          3
    15         34
    16          5
    17          1
    26          5
    27         12
    28         22
    29          9
    31          2
    37          5
    38         15
    39         53
    40         11
    41          6
    42         14
    43        497
    44        210
    45         19
    49          1
    50         15
    51         33
    52          5
    53          2
    55          2
    57          7
    58        125
    59         25
    60          1
    61          7
    62         29
    63         96
    64         38
    65         22
    66          2
    69          1
    74          4
    75          4
    76          2
    77         21
    78          5
    79          5
    85          2
    86          5
    87          6
    88          3
    89        329
    90        530
    91        187
    92         30
    93          2
    94          2
   105         39
   106          9
   107         10
   108          1
   117          2
   118        999
   119         89
   120          6
   133         16
   134          8
   135          6
   136         56
   137          5
   145         76
   146          8
   149          5
   162         58
   163          7
   176          2
   205         18
   206          2
   220         71
   221          9
   222          1