##TITLE=Library Entry 50541
##JCAMP-DX=Revision 4.10 
##DATA TYPE=MASS SPECTRUM
##SAMPLE DESCRIPTION=S.A. Rang et al., IR & MS of Unsatd. Hydrocarbons, 1977
##NAMES=HP
##CAS NAME=Cyclohexene, 3-heptyl-
##MOLFORM=C13H24
##CAS REGISTRY NO=15232-93-6
##MP= -300
##BP= -300
##MW= 180
##$RETENTION INDEX=1342
##$CONDENSED SPECTRUM=NO
##NPOINTS= 89
##XYDATA=(XY..XY) 1 
    25          1
    26          8
    27         83
    28         17
    29        120
    30          2
    31          0
    37          0
    38          0
    39         69
    40         12
    41        286
    42         31
    43        114
    45          0
    50          2
    51          8
    52          7
    53         81
    54         85
    55        154
    56         23
    57         45
    58          2
    63          1
    64          0
    65         26
    66         32
    67        347
    68        108
    69         39
    70          9
    71          6
    72          0
    73          0
    74          0
    75          1
    76          0
    77         52
    78         13
    79        160
    80         74
    81        999
    82        297
    83         43
    84          6
    85          3
    91         16
    92          4
    93         18
    94         15
    95        137
    96        500
    97        108
    98          8
    99          1
   103          0
   104          0
   105          1
   106          0
   107          3
   108          4
   109         62
   110         15
   111          2
   112          0
   113          0
   115          0
   116          0
   117          0
   121          1
   122          0
   123          8
   124          6
   125          0
   126          0
   127          0
   137          5
   138          5
   139          0
   150          2
   151          7
   152          0
   165          0
   176          0
   178          0
   180         74
   181          9
   182          0