##TITLE=Library Entry 50537
##JCAMP-DX=Revision 4.10 
##DATA TYPE=MASS SPECTRUM
##SAMPLE DESCRIPTION=S.A. Rang et al., IR & MS of Unsatd. Hydrocarbons, 1977
##NAMES=HP
##CAS NAME=1-Heptylcyclohexene
##MOLFORM=C13H24
##CAS REGISTRY NO=15232-86-7
##MP= -300
##BP= -300
##MW= 180
##$RETENTION INDEX=1343
##$CONDENSED SPECTRUM=NO
##NPOINTS= 100
##XYDATA=(XY..XY) 1 
    15          2
    16          0
    24          0
    25          1
    26         11
    27        102
    28         15
    29        146
    37          1
    38          2
    39         91
    40         19
    41        383
    42         35
    43        138
    44          7
    45          2
    50          2
    51         12
    52         12
    53        106
    54        106
    55        278
    56         32
    57         39
    58          2
    59          1
    63          2
    64          1
    65         41
    66         47
    67        457
    68        186
    69         59
    70         10
    71          5
    72          0
    73          2
    75          2
    76          1
    77         67
    78         19
    79        174
    80         75
    81        999
    82        278
    83         55
    84          9
    85          3
    86          0
    89          0
    90          0
    91         40
    92          7
    93         55
    94         26
    95        263
    96        600
    97        162
    98         15
    99          2
   102          0
   103          1
   104          1
   105          4
   106          1
   107          8
   108         13
   109        150
   110         31
   111          4
   112          1
   113          0
   115          1
   116          0
   117          1
   119          0
   120          0
   121          2
   122          1
   123         14
   124         11
   125          2
   127          0
   128          0
   129          0
   135          1
   136          0
   137         10
   138          8
   139          1
   151          4
   152         10
   153          1
   154          0
   164          1
   165          0
   178          1
   180        154
   181         19