##TITLE=Library Entry 50154
##JCAMP-DX=Revision 4.10 
##DATA TYPE=MASS SPECTRUM
##SAMPLE DESCRIPTION=S.A. Rang et al., IR & MS of Unsatd. Hydrocarbons, 1977
##NAMES=HP
##CAS NAME=Cyclohexene, 1-octyl-
##MOLFORM=C14H26
##CAS REGISTRY NO=15232-87-8
##MP= -300
##BP= -300
##MW= 194
##$RETENTION INDEX=1592
##$CONDENSED SPECTRUM=NO
##NPOINTS= 122
##XYDATA=(XY..XY) 1 
    15          4
    16          1
    24          0
    25          2
    26         13
    27        167
    28         36
    29        289
    30          6
    31          0
    37          1
    38          2
    39        122
    40         26
    41        579
    42         61
    43        240
    44          6
    45          1
    50          2
    51         13
    52         14
    53        140
    54        137
    55        394
    56         50
    57        100
    58          4
    59          0
    62          0
    63          2
    64          1
    65         50
    66         57
    67        736
    68        219
    69         86
    70         19
    71         28
    72          1
    73          1
    74          0
    75          1
    76          0
    77         75
    78         20
    79        198
    80         82
    81        999
    82        282
    83         64
    84          7
    85         10
    86          0
    88          0
    89          0
    90          0
    91         39
    92          7
    93         61
    94         28
    95        240
    96        736
    97        177
    98         19
    99          3
   100          0
   103          1
   104          1
   105          4
   106          1
   107          9
   108         19
   109        135
   110         27
   111          6
   112          4
   113          2
   114          0
   115          1
   116          0
   117          1
   119          0
   120          0
   121          2
   122          2
   123         13
   124         12
   125          2
   126          0
   127          1
   128          0
   129          0
   131          0
   133          0
   135          1
   136          0
   137          8
   138          7
   139          1
   140          0
   141          0
   144          0
   149          0
   150          0
   151          5
   152          4
   153          0
   154          0
   155          0
   162          0
   165          0
   166          7
   167          1
   168          0
   169          0
   179          0
   183          0
   192          0
   194         82
   195         13
   196          1