##TITLE=Library Entry 32794
##JCAMP-DX=Revision 4.10 
##DATA TYPE=MASS SPECTRUM
##SAMPLE DESCRIPTION=Japan AIST/NIMC Database- Spectrum MS-NW-3534
##NAMES=HP
##CAS NAME=3-Octyne
##MOLFORM=C8H14
##CAS REGISTRY NO=15232-76-5
##MP= -300
##BP= -300
##MW= 110
##$RETENTION INDEX=818
##$CONDENSED SPECTRUM=NO
##NPOINTS= 63
##XYDATA=(XY..XY) 1 
    14          2
    15         16
    26         14
    27        219
    28          6
    29         96
    30          2
    37          7
    38         18
    39        243
    40        105
    41        564
    42         84
    43        163
    44          6
    45          1
    49          3
    50         26
    51         60
    52         42
    53        359
    54         69
    55        204
    56         45
    57          9
    60          1
    61          4
    62          9
    63         21
    64          5
    65         90
    66         66
    67        999
    68        550
    69         81
    70          8
    71          1
    73          1
    74          3
    75          2
    76          1
    77         54
    78         10
    79        138
    80         33
    81        681
    82        171
    83         15
    84          2
    85          1
    91         16
    92          2
    93         26
    94          5
    95        393
    96         31
    97          6
   105          1
   107          1
   108          1
   109         19
   110        110
   111         11