##TITLE=Library Entry 50619
##JCAMP-DX=Revision 4.10 
##DATA TYPE=MASS SPECTRUM
##SAMPLE DESCRIPTION=S.A. Rang et al., IR & MS of Unsatd. Hydrocarbons, 1977
##NAMES=HP
##CAS NAME=Cyclohexene,3-(1-methylpropyl)-
##MOLFORM=C10H18
##CAS REGISTRY NO=15232-91-4
##MP= -300
##BP= -300
##MW= 138
##$RETENTION INDEX=1029
##$CONDENSED SPECTRUM=NO
##NPOINTS= 83
##XYDATA=(XY..XY) 1 
    25          1
    26          9
    27        138
    28          9
    29        194
    30          9
    37          2
    38          5
    39        159
    40         25
    41        389
    42         25
    43         37
    45          1
    50          7
    51         31
    52         23
    53        148
    54         77
    55        143
    56         50
    57        123
    58          6
    59          0
    60          0
    61          0
    62          1
    63          6
    64          2
    65         49
    66         36
    67        360
    68         38
    69         18
    70         12
    71          8
    72          0
    73          1
    74          0
    75          4
    76          1
    77        102
    78         28
    79        251
    80        184
    81        999
    82        277
    83         27
    84          4
    85          0
    86          0
    89          0
    90          0
    91         36
    92          5
    93         18
    94          6
    95         24
    96         36
    97          5
    98          0
    99          0
   102          0
   103          3
   104          1
   105          6
   106          1
   107         15
   108         10
   109        438
   110         49
   111          3
   112          0
   121          2
   122          0
   123         16
   124          2
   134          0
   136          4
   137          2
   138        143
   139         15
   140          0