##TITLE=Library Entry 31804
##JCAMP-DX=Revision 4.10 
##DATA TYPE=MASS SPECTRUM
##SAMPLE DESCRIPTION=A.A.Kutin, Moscow, Russia
##NAMES=HP
##CAS NAME=Cyclobutene, 1-cyano-2,3,3-trifluoro-
##MOLFORM=C5H2F3N
##CAS REGISTRY NO=152380-34-2
##MP= -300
##BP= -300
##MW= 133
##$RETENTION INDEX=0
##$CONDENSED SPECTRUM=NO
##NPOINTS= 70
##XYDATA=(XY..XY) 1 
    33         24
    35          8
    36         22
    37         78
    38         49
    39          4
    40          9
    41          4
    42          3
    43          7
    44         34
    45         39
    46          3
    47         11
    48         10
    49         81
    50         43
    51        127
    52         96
    53         17
    55         26
    56        113
    57        141
    58          5
    59          2
    60          0
    62         29
    63         87
    64        999
    65         33
    66          4
    69        691
    70         24
    71          2
    74         11
    75         77
    76         14
    77          0
    78          0
    79          1
    81         32
    82        323
    83        114
    84         47
    85          3
    86         32
    87         17
    88         29
    89         21
    90          0
    93         75
    94         24
    95          4
   100         77
   101          5
   102         24
   103          1
   104          0
   106        112
   107         47
   108          2
   109          0
   113        116
   114        120
   115          6
   121          0
   130          0
   133        861
   134         47
   135          1