##TITLE=Library Entry 50534
##JCAMP-DX=Revision 4.10 
##DATA TYPE=MASS SPECTRUM
##SAMPLE DESCRIPTION=S.A. Rang et al., IR & MS of Unsatd. Hydrocarbons, 1977
##NAMES=HP
##CAS NAME=Cyclohexene,3-hexyl-
##MOLFORM=C12H22
##CAS REGISTRY NO=15232-78-7
##MP= -300
##BP= -300
##MW= 166
##$RETENTION INDEX=1243
##$CONDENSED SPECTRUM=NO
##NPOINTS= 98
##XYDATA=(XY..XY) 1 
    15          0
    16          0
    25          0
    26          3
    27         53
    28         47
    29         64
    30          1
    37          0
    38          1
    39         63
    40          8
    41        278
    42         21
    43         83
    44          7
    45          0
    50          1
    51          7
    52          6
    53         77
    54         78
    55        139
    56         15
    57         12
    58          0
    62          0
    63          1
    64          0
    65         21
    66         26
    67        343
    68         93
    69         34
    70          5
    71          3
    72          0
    73          0
    75          1
    76          4
    77         48
    78         12
    79        176
    80         78
    81        999
    82        265
    83         32
    84          5
    85          3
    86          0
    89          0
    90          0
    91         35
    92         25
    93         11
    94         18
    95        139
    96        483
    97         93
    98          4
    99          0
   102          0
   103          0
   104          1
   105          2
   106          1
   107          3
   108          3
   109         69
   110         14
   111          1
   112          0
   113          0
   115          0
   116          0
   117          1
   118          0
   119          0
   120          0
   121          0
   122          0
   123          6
   124          6
   125          0
   135          1
   136          0
   137          3
   138          7
   139          0
   151          0
   152          0
   162          2
   163          0
   164          1
   165          1
   166         91
   167         14
   168          0