##TITLE=Library Entry 50498
##JCAMP-DX=Revision 4.10 
##DATA TYPE=MASS SPECTRUM
##SAMPLE DESCRIPTION=S.A. Rang et al., IR & MS of Unsatd. Hydrocarbons, 1977
##NAMES=HP
##CAS NAME=Cyclohexene, 3-nonyl-
##MOLFORM=C15H28
##CAS REGISTRY NO=15232-79-8
##MP= -300
##BP= -300
##MW= 208
##$RETENTION INDEX=1700
##$CONDENSED SPECTRUM=NO
##NPOINTS= 127
##XYDATA=(XY..XY) 1 
    15          3
    16          0
    24          0
    25          2
    26         12
    27        128
    28         32
    29        233
    30          5
    31          0
    36          0
    37          1
    38          2
    39         96
    40         19
    41        470
    42         59
    43        245
    44          6
    45          1
    49          0
    50          2
    51         10
    52         10
    53        120
    54        112
    55        245
    56         45
    57         72
    58          3
    59          0
    62          0
    63          2
    64          0
    65         34
    66         43
    67        441
    68        128
    69         72
    70         18
    71         22
    72          1
    73          1
    74          0
    75          1
    76          0
    77         56
    78         15
    79        193
    80         84
    81        999
    82        327
    83         68
    84          9
    85          8
    86          0
    87          0
    89          0
    90          0
    91         25
    92          6
    93         32
    94         22
    95        153
    96        588
    97        149
    98         12
    99          1
   102          0
   103          0
   104          1
   105          3
   106          1
   107          6
   108         11
   109         76
   110         18
   111          4
   112          5
   113          0
   115          0
   116          0
   117          1
   118          0
   119          0
   120          0
   121          2
   122          1
   123          9
   124          3
   125          2
   126          3
   127          1
   128          0
   129          0
   130          0
   131          0
   133          0
   135          1
   136          0
   137          7
   138          9
   139          1
   140          0
   141          0
   145          0
   147          0
   149          0
   150          0
   151          4
   152          4
   153          0
   154          0
   160          0
   165          2
   166          1
   167          0
   179          0
   180          6
   181          0
   193          0
   204          0
   206          0
   207          0
   208         46
   209          8
   210          0