##TITLE=Library Entry 39913
##JCAMP-DX=Revision 4.10 
##DATA TYPE=MASS SPECTRUM
##SAMPLE DESCRIPTION=Chemical Concepts
##NAMES=HP
##CAS NAME=2,2,5,5-Tetramethyl-cyclopentanol
##MOLFORM=C9H18O
##CAS REGISTRY NO=15231-50-2
##MP= -300
##BP= -300
##MW= 142
##$RETENTION INDEX=0
##$CONDENSED SPECTRUM=NO
##NPOINTS= 82
##XYDATA=(XY..XY) 1 
    26         17
    27        233
    28         33
    29        216
    30         15
    31         61
    37          6
    38         17
    39        279
    40         58
    41        549
    42        104
    43        392
    44         41
    45        105
    46          3
    50         14
    51         44
    52         19
    53        158
    54         53
    55        397
    56        222
    57        346
    58         47
    59        111
    60          5
    62          4
    63         10
    64          3
    65         28
    66         12
    67        110
    68        142
    69        287
    70        751
    71        621
    72        999
    73        244
    74         23
    75          4
    77         36
    78          8
    79         29
    80          8
    81         69
    82         51
    83         39
    84         18
    85         90
    86        106
    87         24
    88          2
    91         17
    92          2
    93         10
    94          7
    95         80
    96         23
    97          9
    98          4
    99         23
   100          2
   103          2
   105          3
   107          6
   109        358
   110         48
   111        122
   112         20
   113         12
   114          3
   115          2
   123          7
   124        297
   125         52
   126          3
   127         19
   128          2
   142        243
   143         43
   144          2