##TITLE=Library Entry 50538
##JCAMP-DX=Revision 4.10 
##DATA TYPE=MASS SPECTRUM
##SAMPLE DESCRIPTION=S.A. Rang et al., IR & MS of Unsatd. Hydrocarbons, 1977
##NAMES=HP
##CAS NAME=Cyclohexene, 1-nonyl-
##MOLFORM=C15H28
##CAS REGISTRY NO=15232-88-9
##MP= -300
##BP= -300
##MW= 208
##$RETENTION INDEX=1694
##$CONDENSED SPECTRUM=NO
##NPOINTS= 120
##XYDATA=(XY..XY) 1 
    15          1
    16          0
    24          0
    25          2
    26         14
    27        140
    28         35
    29        275
    30          6
    31          5
    37          1
    38          2
    39        105
    40         22
    41        564
    42         59
    43        254
    44          7
    45          5
    50          2
    51         10
    52         11
    53        126
    54        130
    55        410
    56         49
    57         70
    58          4
    59          1
    60          0
    62          0
    63          2
    64          0
    65         43
    66         54
    67        718
    68        213
    69        101
    70         20
    71         19
    72          1
    73          2
    74          0
    75          1
    76          0
    77         66
    78         19
    79        203
    80         84
    81        999
    82        295
    83         77
    84          9
    85          4
    86          0
    87          0
    88          1
    89          0
    90          0
    91         40
    92          7
    93         63
    94         29
    95        254
    96        820
    97        203
    98         16
    99          1
   103          1
   104          1
   105          4
   106          1
   107         10
   108         20
   109        142
   110         29
   111          5
   112          6
   113          0
   115          1
   116          0
   117          1
   118          0
   119          0
   120          0
   121          2
   122          3
   123         13
   124         12
   125          3
   126          3
   127          1
   128          0
   129          0
   131          0
   133          0
   135          1
   136          1
   137          9
   138         11
   139          1
   144          0
   149          0
   150          0
   151          6
   152          5
   153          0
   165          2
   166          2
   167          0
   179          0
   180          8
   181          1
   192          0
   193          0
   206          0
   207          0
   208         80
   209         13
   210          1