##TITLE=Library Entry 50501
##JCAMP-DX=Revision 4.10 
##DATA TYPE=MASS SPECTRUM
##SAMPLE DESCRIPTION=S.A. Rang et al., IR & MS of Unsatd. Hydrocarbons, 1977
##NAMES=HP
##CAS NAME=Cyclohexene, 3-octyl-
##MOLFORM=C14H26
##CAS REGISTRY NO=15232-94-7
##MP= -300
##BP= -300
##MW= 194
##$RETENTION INDEX=1598
##$CONDENSED SPECTRUM=NO
##NPOINTS= 130
##XYDATA=(XY..XY) 1 
    15          3
    16          0
    24          0
    25          1
    26         11
    27        127
    28         34
    29        198
    30          4
    31          1
    37          1
    38          2
    39         99
    40         19
    41        428
    42         51
    43        198
    44          4
    45          2
    49          0
    50          3
    51         13
    52         12
    53        127
    54        106
    55        214
    56         39
    57         85
    58          4
    59          0
    62          0
    63          2
    64          0
    65         39
    66         46
    67        357
    68        113
    69         53
    70         16
    71         29
    72          1
    73          1
    74          0
    75          1
    76          0
    77         63
    78         17
    79        214
    80        134
    81        999
    82        285
    83         46
    84          6
    85         11
    86          0
    87          0
    89          0
    90          0
    91         26
    92          5
    93         26
    94         19
    95        127
    96        446
    97        106
    98         11
    99          3
   100          0
   102          0
   103          1
   104          1
   105          3
   106          1
   107          4
   108          8
   109         56
   110         14
   111          3
   112          3
   113          2
   114          0
   115          1
   116          0
   117          1
   118          0
   119          1
   120          0
   121          1
   122          0
   123          8
   124          7
   125          1
   126          0
   127          1
   128          0
   129          0
   131          0
   132          0
   133          0
   134          0
   135          0
   136          0
   137          5
   138          5
   139          0
   140          0
   141          0
   142          0
   147          0
   149          0
   150          0
   151          3
   152          3
   153          0
   154          0
   155          0
   161          0
   162          0
   164          0
   165          0
   166          5
   167          0
   168          0
   169          0
   179          0
   192          0
   193          0
   194         44
   195          6
   196          0