##TITLE=Library Entry 50539
##JCAMP-DX=Revision 4.10 
##DATA TYPE=MASS SPECTRUM
##SAMPLE DESCRIPTION=S.A. Rang et al., IR & MS of Unsatd. Hydrocarbons, 1977
##NAMES=HP
##CAS NAME=Cyclohexene, 3-pentyl-
##MOLFORM=C11H20
##CAS REGISTRY NO=15232-92-5
##MP= -300
##BP= -300
##MW= 152
##$RETENTION INDEX=1144
##$CONDENSED SPECTRUM=NO
##NPOINTS= 79
##XYDATA=(XY..XY) 1 
    15          2
    16          0
    25          1
    26          7
    27        100
    28         44
    29        112
    37          0
    38          2
    39        112
    40         16
    41        291
    42         23
    43         67
    44          5
    45          0
    50          3
    51         13
    52         11
    53        106
    54        100
    55        140
    56         12
    57          9
    58          3
    63          2
    64          0
    65         37
    66         35
    67        361
    68        106
    69         39
    70          6
    71          2
    72          0
    73          0
    74          0
    75          2
    76          0
    77         67
    78         14
    79        190
    80         72
    81        999
    82        268
    83         20
    84          2
    85          1
    89          0
    90          0
    91         23
    92          4
    93         16
    94         11
    95        151
    96        383
    97         61
    98          3
   103          1
   104          0
   105          2
   106          0
   107          3
   108          2
   109         56
   110         13
   111          2
   112          0
   121          0
   122          0
   123          4
   124          8
   125          1
   137          1
   148          0
   150          1
   152        100
   153          9
   154          0