##TITLE=Library Entry 16355
##JCAMP-DX=Revision 4.10 
##DATA TYPE=MASS SPECTRUM
##SAMPLE DESCRIPTION=Dr. Jiri Zamecnik, DCIEM, North York, Canada, GP Librar
y
##NAMES=HP
##CAS NAME=4-(2-Hydroxypropoxy)amphetamine
##MOLFORM=C12H19NO2
##CAS REGISTRY NO=152383-89-6
##MP= -300
##BP= -300
##MW= 209
##$RETENTION INDEX=0
##$CONDENSED SPECTRUM=NO
##NPOINTS= 29
##XYDATA=(XY..XY) 1 
    41         12
    42         22
    43         23
    44        999
    45         56
    59          7
    65          6
    77         28
    78          9
    79          5
    89         10
    90         17
    91         22
   107         75
   108         54
   109          4
   120          2
   121          5
   133          2
   134          3
   135          3
   148          2
   149          2
   165          2
   166         98
   167          9
   177          3
   191          0
   194          1