##TITLE=Library Entry 50151
##JCAMP-DX=Revision 4.10 
##DATA TYPE=MASS SPECTRUM
##SAMPLE DESCRIPTION=S.A. Rang et al., IR & MS of Unsatd. Hydrocarbons, 1977
##NAMES=HP
##CAS NAME=Cyclohexene, 1-pentyl-
##MOLFORM=C11H20
##CAS REGISTRY NO=15232-85-6
##MP= -300
##BP= -300
##MW= 152
##$RETENTION INDEX=1159
##$CONDENSED SPECTRUM=NO
##NPOINTS= 103
##XYDATA=(XY..XY) 1 
    15          4
    16          0
    24          0
    25          1
    26         11
    27        135
    28         15
    29        158
    30          5
    31          1
    37          0
    38          3
    39        142
    40         26
    41        371
    42         28
    43         63
    44          4
    45          1
    49          0
    50          4
    51         25
    52         21
    53        123
    54        119
    55        241
    56         21
    57         14
    58          1
    59          0
    60          0
    61          4
    62          0
    63          4
    64          1
    65         55
    66         47
    67        657
    68        190
    69         55
    70         11
    71          4
    72          0
    73          0
    74          4
    75          1
    76          0
    77         83
    78         21
    79        166
    80         75
    81        999
    82        263
    83         31
    84          3
    85          1
    86          0
    88          0
    89          1
    90          0
    91         71
    92         24
    93         47
    94         21
    95        263
    96        543
    97         91
    98          7
    99          1
   102          0
   103          1
   104          1
   105          3
   106          0
   107          6
   108          5
   109        146
   110         26
   111          3
   112          1
   113          0
   115          1
   116          0
   117          1
   119          0
   120          0
   121          1
   122          0
   123          7
   124         10
   125          1
   126          0
   135          0
   137          1
   138          0
   139          0
   148          0
   149          0
   150          1
   151          0
   152        202
   153         30
   154          1