##TITLE=Library Entry 80604
##JCAMP-DX=Revision 4.10 
##DATA TYPE=MASS SPECTRUM
##SAMPLE DESCRIPTION=NIST Mass Spectrometry Data Center, 2010
##NAMES=HP
##CAS NAME=1-Phenylethyl 2,2,2-trifluoroacetate
##MOLFORM=C10H9F3O2
##CAS REGISTRY NO=1524-12-5
##MP= -300
##BP= -300
##MW= 218
##$RETENTION INDEX=0
##$CONDENSED SPECTRUM=NO
##NPOINTS= 82
##XYDATA=(XY..XY) 1 
    15          2
    27         22
    28          2
    29          3
    31          2
    37          2
    38          6
    39         30
    40          2
    41          2
    43         47
    44          2
    45          2
    47          2
    50         46
    51        113
    52         29
    54          1
    61          3
    62         10
    63         28
    64          6
    65         17
    66          2
    69        160
    70          2
    73          2
    74         18
    75         14
    77        263
    78        133
    79        115
    80          7
    83          1
    85          1
    86          2
    87          2
    89         15
    90          7
    91         20
    92          3
    93          2
    95          1
    97         11
    98          2
    99          1
   101          3
   102         19
   103        191
   104        792
   105        999
   106         85
   107          5
   109         50
   110          4
   113          1
   119          1
   121         52
   122          4
   123          2
   127         79
   128          6
   129          1
   133          2
   141          1
   145          1
   147          1
   149          4
   150          1
   151          1
   155          3
   156          1
   171          1
   175         52
   176          4
   199          1
   203        107
   204         11
   205          1
   218        703
   219         77
   220          7