##TITLE=Library Entry 60108
##JCAMP-DX=Revision 4.10 
##DATA TYPE=MASS SPECTRUM
##SAMPLE DESCRIPTION=K. Kirk, LC, NIDDK, NIH, Bethesda, MD 20892
##NAMES=HP
##CAS NAME=1,3-Difluorobenzene, 4-benzyloxy-2-trimethylsilyl-
##MOLFORM=C16H18F2OSi
##CAS REGISTRY NO=152434-95-2
##MP= -300
##BP= -300
##MW= 292
##$RETENTION INDEX=0
##$CONDENSED SPECTRUM=NO
##NPOINTS= 226
##XYDATA=(XY..XY) 1 
    41         71
    42          6
    43         72
    44         10
    45         58
    47        109
    48         42
    49         45
    50         33
    51         64
    52         14
    53         17
    54          3
    55         34
    56         12
    57         72
    58          3
    59         72
    60          5
    61          7
    62         22
    63         60
    64          9
    65        151
    66         11
    67         14
    68          4
    69         19
    70         12
    71         16
    72          3
    73        268
    74         30
    75         33
    76         12
    77        161
    78         21
    79         19
    80          5
    81         55
    82         21
    83         41
    84          5
    85         10
    86          1
    87         31
    88          2
    89         43
    90         30
    91        999
    92        113
    93         15
    94          3
    95         13
    96          6
    97         10
    98          3
    99          5
   100          1
   101         29
   102          7
   103         17
   104         10
   105        138
   106         14
   107         12
   108          4
   109         18
   110          5
   111          8
   112          4
   113          6
   114          1
   115         21
   116          6
   117         23
   118          8
   119         42
   120         22
   121         32
   122          6
   123          7
   124          3
   125          8
   126          4
   127          8
   128         19
   129         20
   130          5
   131         15
   132          5
   133         19
   134         18
   135        205
   136         28
   137         14
   138          2
   139         20
   140          4
   141         12
   142          7
   143         16
   144          3
   145         22
   146          5
   147         15
   148         12
   149          9
   150          5
   151         17
   152         17
   153         11
   154          3
   155         10
   156          3
   157          4
   158          1
   159          4
   160          1
   161          8
   162          2
   163        131
   164         21
   165         25
   166          6
   167         10
   168          3
   169          4
   170         12
   171         13
   172          2
   173          3
   174          1
   175          3
   176          2
   177         14
   178         20
   179         67
   180         12
   181          9
   182          2
   183         13
   184          2
   185          3
   186          3
   187          3
   188          1
   189         11
   190          2
   191          3
   192          1
   193          5
   194         11
   195         10
   196          3
   197          6
   198          2
   199         10
   200          2
   201         16
   202          6
   203          7
   204          2
   205        137
   206         21
   207          4
   208          1
   209          2
   210          1
   211          1
   213          2
   214          1
   215          5
   216          1
   217          2
   218          1
   219         13
   220         71
   221         21
   222          3
   223          2
   224          0
   225          1
   227          2
   229          4
   230          0
   231          1
   233          2
   234          3
   235          2
   236          1
   237          4
   238          1
   239          1
   241          3
   242          2
   243          1
   245          1
   246          0
   247          1
   249          2
   250          1
   253          1
   255         10
   256          1
   257         11
   258          3
   259          4
   260          1
   261          3
   262          1
   263          1
   271         10
   272          3
   273          1
   274          3
   275          7
   276          2
   277         61
   278         14
   279          3
   291         10
   292        186
   293         41
   294         10
   295          1