##TITLE=Library Entry 52489
##JCAMP-DX=Revision 4.10 
##DATA TYPE=MASS SPECTRUM
##SAMPLE DESCRIPTION=B. Derendyaev, Novosibirsk Institute of Organic Chemist
ry
##NAMES=HP
##CAS NAME=1-Isopropenyl-3,3-dimethyl-5-(3-methyl-1-oxo-2-butenyl)cyclopenta
ne
##MOLFORM=C15H24O
##CAS REGISTRY NO=152481-77-1
##MP= -300
##BP= -300
##MW= 220
##$RETENTION INDEX=0
##$CONDENSED SPECTRUM=NO
##NPOINTS= 42
##XYDATA=(XY..XY) 1 
    41         72
    43         37
    53         30
    55        120
    56          8
    57         19
    65          8
    67         24
    69         43
    73         13
    77         17
    79         20
    81         38
    82         21
    83        999
    84         52
    85         16
    91         20
    93         17
    95         65
    96         10
    98          5
   105          9
   107         20
   109         25
   111          8
   121         26
   122         10
   123         27
   135          8
   136         22
   137         76
   138          9
   149         15
   151         12
   152         20
   164         14
   165          5
   167          5
   177          9
   205          8
   220         19