##TITLE=Library Entry 59744
##JCAMP-DX=Revision 4.10 
##DATA TYPE=MASS SPECTRUM
##SAMPLE DESCRIPTION=K. Kirk, LC, NIDDK, NIH, Bethesda, MD 20892
##NAMES=HP
##CAS NAME=Benzaldehyde, 3-benzyloxy-2,6-difluoro-
##MOLFORM=C14H10F2O2
##CAS REGISTRY NO=152434-87-2
##MP= -300
##BP= -300
##MW= 248
##$RETENTION INDEX=0
##$CONDENSED SPECTRUM=NO
##NPOINTS= 104
##XYDATA=(XY..XY) 1 
    41         14
    42          1
    43          1
    44          4
    45          1
    47          0
    49          1
    50         20
    51         41
    52          8
    53          2
    55          3
    56          3
    57         10
    58          1
    61          5
    62         13
    63         45
    64         11
    65        156
    66          8
    68          3
    69          2
    70          1
    71          1
    73          2
    74          8
    75         19
    76          3
    77         13
    78          3
    79          2
    80          4
    81         15
    82          3
    83          4
    85          2
    86          2
    87          2
    88          0
    89         36
    90          9
    91        999
    92         99
    93          6
    94          1
    95          0
    98          0
    99         14
   100         17
   101         62
   102          3
   104          0
   105          5
   106          1
   107          0
   108          0
   109          1
   110          0
   111          1
   112          5
   113          3
   115          0
   121          0
   122          0
   123          0
   125          0
   127          0
   128         12
   129          7
   130          0
   133          0
   135          0
   138          0
   139          0
   140          1
   141          0
   143          0
   149          0
   150          0
   151          2
   152          0
   156          4
   157         27
   158          5
   164          0
   166          0
   168          1
   169          1
   170          5
   171          3
   178          0
   179          0
   181          0
   182          0
   188          1
   189          0
   199          1
   217          0
   227          0
   247          1
   248         31
   249          5
   250          0