##TITLE=Library Entry 15951
##JCAMP-DX=Revision 4.10 
##DATA TYPE=MASS SPECTRUM
##SAMPLE DESCRIPTION=K. Kirk, LC, NIDDK, NIH, Bethesda, MD 20892
##NAMES=HP
##CAS NAME=Benzeneethanamine, 3,4-benzyloxy-2,5-difluoro-.beta.-hydroxy-N-me
thyl-
##MOLFORM=C23H23F2NO3
##CAS REGISTRY NO=152434-85-0
##MP= -300
##BP= -300
##MW= 399
##$RETENTION INDEX=0
##$CONDENSED SPECTRUM=NO
##NPOINTS= 193
##XYDATA=(XY..XY) 1 
    41         13
    42         21
    43         18
    44        999
    45         20
    46          4
    47          1
    48          0
    49          1
    50          4
    51         10
    52          3
    53          1
    54          0
    55          5
    56          3
    57         31
    58         12
    59          1
    60          1
    61          1
    62          3
    63         13
    64          4
    65         82
    66          4
    67          1
    68          1
    69          4
    70          2
    71          4
    72          1
    73          4
    74          1
    75          2
    76          1
    77          6
    78          3
    79          2
    80          0
    81          2
    82          2
    83          6
    84          1
    85          3
    86          1
    87          3
    88          1
    89         16
    90          8
    91        571
    92         59
    93          3
    94          0
    95          2
    96          1
    97          2
    98          1
    99          1
   100          3
   101          5
   102          1
   103          1
   104          1
   105          4
   106          1
   107          2
   108          1
   109          1
   110          1
   111          1
   112          1
   113          1
   114          1
   115          2
   116          1
   117          1
   118          1
   119          1
   120          1
   121          1
   122          1
   123          1
   124          1
   125          1
   126          0
   127          1
   128          1
   129          2
   130          1
   131          0
   132          1
   133          1
   134          4
   135          1
   136          0
   137          0
   138          0
   139          1
   140          1
   141          1
   142          1
   143          1
   144          0
   145          1
   146          0
   147          0
   148          0
   149          1
   150          0
   151          0
   152          1
   153          0
   154          0
   155          1
   156          0
   157          1
   158          1
   159          1
   161          0
   163          0
   164          0
   165          2
   166          1
   167          1
   168          1
   169          1
   170          1
   171          1
   172          0
   173          1
   174          3
   175          2
   176          0
   177          0
   178          1
   179          1
   180          1
   181         17
   182          3
   183          1
   184          0
   185          0
   186          0
   187          1
   188          0
   189          0
   196          0
   197          0
   198          2
   199          4
   200          1
   201          1
   210          0
   213          0
   215          0
   216          1
   217          0
   218          1
   219          0
   228          0
   230          0
   233          0
   236          0
   240          0
   245          1
   246          0
   247          1
   248          0
   260          0
   261          0
   262          0
   263          2
   264          1
   265         20
   266          3
   267          0
   270          0
   287          0
   288          5
   289          1
   290          1
   291          0
   308         16
   309          3
   310          0
   334          1
   356          0
   362          0
   368          0
   381          0
   399          1
   400          0