##TITLE=Library Entry 59738
##JCAMP-DX=Revision 4.10 
##DATA TYPE=MASS SPECTRUM
##SAMPLE DESCRIPTION=K. Kirk, LC, NIDDK, NIH, Bethesda, MD 20892
##NAMES=HP
##CAS NAME=Benzeneethanamine, 3,4-dibenzyloxy-2,5-difluoro-N-formyl-.beta.-h
ydroxy-
##MOLFORM=C23H21F2NO4
##CAS REGISTRY NO=152434-84-9
##MP= -300
##BP= -300
##MW= 413
##$RETENTION INDEX=0
##$CONDENSED SPECTRUM=NO
##NPOINTS= 97
##XYDATA=(XY..XY) 1 
    41          8
    42          1
    43          5
    44          1
    45          1
    50          5
    51         11
    52          4
    53          0
    55          1
    57          1
    58         46
    59         22
    60          1
    61          1
    62          3
    63         16
    64          5
    65         91
    66          5
    69          2
    70          1
    72          1
    73          4
    75          1
    76          1
    77          6
    78          2
    79          2
    81          0
    82          0
    83          4
    85          2
    87          1
    88          1
    89         23
    90         11
    91        999
    92         74
    93          3
    97          0
    98          0
   101          6
   104          5
   105          3
   106          0
   107          3
   115          0
   119          0
   121          1
   129          2
   133          0
   136          0
   149          0
   150          0
   157          1
   158          2
   159          1
   165          2
   167          1
   170          1
   174          1
   175          9
   178          0
   179          2
   180          3
   181         54
   182          8
   183          1
   187          1
   188          4
   189          0
   199          1
   201          0
   215          3
   216          2
   228          0
   260          3
   261          0
   262          0
   263          6
   264          3
   265          3
   276          3
   277          3
   278          0
   291          0
   304          1
   305          4
   306          0
   322         12
   323          3
   355         20
   356          4
   368          7
   369          1
   413          4