##TITLE=Library Entry 47780
##JCAMP-DX=Revision 4.10 
##DATA TYPE=MASS SPECTRUM
##SAMPLE DESCRIPTION=K. Kirk, LC, NIDDK, NIH, Bethesda, MD 20892
##NAMES=HP
##CAS NAME=Benzaldehyde, 3,5-difluoro-2-methoxy-4-trimethylsilicyl-
##MOLFORM=C11H14F2O2Si
##CAS REGISTRY NO=152434-92-9
##MP= -300
##BP= -300
##MW= 244
##$RETENTION INDEX=0
##$CONDENSED SPECTRUM=NO
##NPOINTS= 170
##XYDATA=(XY..XY) 1 
    41         21
    42         14
    43         88
    44         16
    45         71
    47        315
    48         79
    49        204
    50         95
    51        129
    52         23
    53         73
    54          8
    55         34
    56          9
    57         27
    58         10
    59         13
    61         54
    62        115
    63        230
    64         27
    65         68
    66         15
    67         23
    68         13
    69         23
    70         22
    71         12
    72         10
    73        154
    74        129
    75        295
    76        111
    77        999
    78        104
    79        133
    80         46
    81        468
    82         56
    83        420
    84         22
    85        265
    86         29
    87        101
    88         25
    89        170
    90         56
    91        262
    92         56
    93        128
    94         51
    95         46
    96         37
    97         19
    98          7
    99         22
   100         12
   101         45
   102         41
   103        173
   104         60
   105        468
   106         55
   107         49
   108         31
   109         73
   110         10
   111         37
   112          8
   113         13
   114          3
   115         74
   116         13
   117         53
   118         20
   119         39
   120         67
   121         63
   122         47
   123         80
   124         26
   125         25
   126          6
   127         15
   128         17
   129         16
   130          9
   131         26
   132         11
   133        133
   134         23
   135         39
   136         14
   137         93
   138         13
   139        121
   140         15
   141         20
   142          7
   143        148
   144         19
   145         21
   146          3
   147          9
   148         13
   149         23
   150          7
   151         99
   152         40
   153         16
   154          5
   155         37
   156         11
   157         22
   158         35
   159         12
   160          2
   161          5
   163         10
   165         15
   166          8
   167         85
   168         21
   169         22
   170          8
   171        135
   172         21
   173         16
   174          2
   179          8
   181         19
   182          2
   183         18
   184         15
   185        182
   186        185
   187         33
   188         12
   191          2
   194          5
   195          6
   197          6
   198         27
   199        172
   200         26
   201         20
   202          5
   209          6
   210          9
   211         16
   212          7
   213         83
   214        154
   215         87
   216         17
   217          7
   226        142
   227         45
   228         14
   229        379
   230         66
   231         21
   232          5
   239          9
   243         11
   244        701
   245        129
   246         39
   247          6