##TITLE=Library Entry 22183
##JCAMP-DX=Revision 4.10 
##DATA TYPE=MASS SPECTRUM
##SAMPLE DESCRIPTION=Exported from NIST MS Search
##NAMES=HP
##CAS NAME=1-Octanol, 2,7-dimethyl-
##MOLFORM=C10H22O
##CAS REGISTRY NO=15250-22-3
##MP= -300
##BP= -300
##MW= 158
##$RETENTION INDEX=1625
##$CONDENSED SPECTRUM=NO
##NPOINTS= 82
##XYDATA=(XY..XY) 1 
    15          7
    17          6
    18         25
    19          8
    26          3
    27        147
    28         35
    29        207
    30          5
    31         77
    32          4
    38          2
    39        109
    40         23
    41        567
    42        157
    43        851
    44         40
    45         36
    46          7
    50          2
    51          8
    52          3
    53         41
    54         24
    55        833
    56        999
    57        754
    58         34
    59          8
    65          7
    66          3
    67         63
    68         59
    69        701
    70        826
    71        351
    72         23
    73         12
    74          1
    75          2
    76          1
    77          7
    78          1
    79          8
    80          3
    81         62
    82         79
    83        284
    84        272
    85         67
    86          7
    87          6
    91          3
    93          4
    94          2
    95         30
    96         89
    97        254
    98         44
    99          6
   105          3
   107          2
   109         12
   110          7
   111        105
   112        242
   113         26
   114          1
   115          2
   121          2
   123         14
   124          2
   125         45
   126          5
   137          2
   138          7
   139          2
   140         27
   141          7
   156          6
   157          2