##TITLE=Library Entry 13929
##JCAMP-DX=Revision 4.10 
##DATA TYPE=MASS SPECTRUM
##SAMPLE DESCRIPTION=V.A.Korolev, Moscow, Russia
##NAMES=HP
##CAS NAME=4,10-Diacetyl-3,11,13-trihydroxy-2,12-dimethyl-8-oxatricyclo[7.4.
0.0(2,7)]trideca-1(13),3,6,9,11-pentaen-5-one
##MOLFORM=C18H16O7
##CAS REGISTRY NO=15257-11-1
##MP= -300
##BP= -300
##MW= 344
##$RETENTION INDEX=0
##$CONDENSED SPECTRUM=NO
##NPOINTS= 202
##XYDATA=(XY..XY) 1 
    35          3
    36          2
    37          9
    38         30
    39        173
    40         37
    41         82
    43        999
    44         51
    45         21
    47          5
    49          5
    50         41
    51        120
    52         42
    53        148
    54         27
    55        226
    56         17
    57         18
    61         10
    62         41
    63        121
    64         41
    65        133
    66         50
    67        142
    69        322
    70         17
    71         11
    72          2
    73          6
    74         34
    75         56
    76         44
    77        228
    78         61
    79         82
    80         12
    81         14
    83        208
    84         26
    85         46
    86         20
    87         34
    88         17
    89         66
    90         32
    91        141
    92         30
    93         73
    94         21
    95         16
    96          2
    97          9
    98         11
    99         12
   100          6
   101         31
   102         45
   103         85
   104         31
   105         70
   106         15
   107         22
   108          6
   109          9
   110          3
   111         12
   112          2
   113         14
   114         15
   115        143
   116         34
   117         35
   118         18
   119         41
   120         19
   121         33
   122          7
   123          5
   125          4
   126          9
   127         51
   128         86
   129         53
   130         16
   131         43
   132         29
   133         37
   134         11
   135         18
   137          4
   138          1
   139         12
   140          5
   141         17
   142          8
   143         20
   144         12
   145         26
   146         11
   147         28
   148         10
   149         40
   150         11
   151          5
   152         13
   153          7
   154          3
   155         12
   156          5
   157         21
   158         13
   159         21
   160         12
   161         72
   162          9
   163          6
   164          2
   165          5
   166          2
   167          4
   168          3
   169          7
   170          3
   171         20
   172          5
   173         13
   174          5
   175         14
   176          3
   177          5
   178          7
   179         10
   180          1
   181          4
   183          2
   184          8
   185         31
   186         18
   187         22
   188         10
   189         41
   190         11
   191         11
   192          2
   193          1
   195          9
   197          3
   199          8
   200          3
   201          9
   202          3
   203         23
   204         22
   205          6
   211          2
   212          3
   213         27
   214         60
   215        133
   216         23
   217        270
   218         35
   219          5
   223          3
   227          8
   228          2
   229          6
   230          2
   231         23
   232        201
   233        999
   234        179
   235         20
   237          1
   241         18
   242          6
   243          6
   244          2
   245          7
   253          1
   255          7
   257          5
   258          2
   259         31
   260        679
   261        101
   262         11
   265          1
   268          1
   273          5
   283          3
   299          1
   301         15
   302          3
   329         10
   330          1
   344        390
   345         74
   346          9