##TITLE=Library Entry 47185
##JCAMP-DX=Revision 4.10 
##DATA TYPE=MASS SPECTRUM
##SAMPLE DESCRIPTION=NIST Mass Spectrometry Data Center, 1994
##NAMES=HP
##CAS NAME=2,6-Dichlorobenzyl alcohol
##MOLFORM=C7H6Cl2O
##CAS REGISTRY NO=15258-73-8
##MP= -300
##BP= -300
##MW= 176
##$RETENTION INDEX=0
##$CONDENSED SPECTRUM=NO
##NPOINTS= 114
##XYDATA=(XY..XY) 1 
    12          3
    14          0
    16          3
    17          1
    18          0
    19          0
    25          8
    26         23
    27          1
    28         13
    29        202
    30         31
    31         68
    32          3
    35         25
    36         27
    37        112
    38        119
    39         81
    40          4
    42          1
    43         25
    44         15
    47         22
    48         12
    49         75
    50        278
    51        285
    52        104
    53         21
    55         17
    56         17
    57          5
    60         29
    61         94
    62        103
    63        113
    64          7
    65          6
    66          4
    67          2
    70         15
    71          9
    72         31
    73        125
    74        245
    75        498
    76        109
    77        999
    78         84
    79         10
    80          2
    84         75
    85         77
    86         65
    87         58
    88          2
    89         65
    90          6
    95          3
    96          8
    97         25
    98          4
    99         18
   101          5
   103          3
   104          5
   105         16
   106          5
   107          5
   108         13
   109         76
   110         52
   111        390
   112         90
   113        564
   114         54
   115        148
   116          9
   119          4
   120          2
   121          4
   123         86
   124         22
   125         29
   126          7
   133         11
   135          8
   137          3
   139        338
   140        187
   141        486
   142         94
   143        136
   144         10
   145         33
   146         33
   147         45
   148         24
   149         19
   150          4
   151          3
   159         73
   160         10
   161         47
   162          5
   163          9
   173         31
   175        102
   176        284
   177         75
   178        184
   179         25
   180         29