##TITLE=Library Entry 59395
##JCAMP-DX=Revision 4.10 
##DATA TYPE=MASS SPECTRUM
##SAMPLE DESCRIPTION=Japan AIST/NIMC Database- Spectrum MS-IW-5816
##NAMES=HP
##CAS NAME=Boc-O-benzyl-L-threonine
##MOLFORM=C16H23NO5
##CAS REGISTRY NO=15260-10-3
##MP= -300
##BP= -300
##MW= 309
##$RETENTION INDEX=0
##$CONDENSED SPECTRUM=NO
##NPOINTS= 117
##XYDATA=(XY..XY) 1 
    15          2
    16          2
    17          3
    18          9
    26          3
    27         13
    28         31
    29         27
    30          4
    31         18
    37          2
    38          4
    39         41
    40          7
    41        117
    42          6
    43         18
    44         76
    45          4
    46          2
    49          1
    50          7
    51         13
    52          5
    53          6
    54          5
    55         24
    56         66
    57        440
    58         20
    59         74
    60          2
    62          4
    63          7
    64          2
    65         56
    66          3
    68          2
    69          1
    71          1
    72          2
    73          1
    74        108
    75          4
    76          1
    77         17
    78          5
    79         20
    80          1
    82          1
    83          3
    84          2
    85          1
    86          8
    87          5
    88          1
    89         13
    90         11
    91        999
    92        133
    93          7
    97          1
    98          1
   100          3
   101         42
   102         13
   103         24
   104          2
   105          8
   106          3
   107         46
   108         14
   109          1
   117          1
   118          6
   119          3
   120         17
   121          3
   122          2
   127          1
   128          1
   129          2
   130          4
   133          2
   134          1
   135        100
   136          9
   137          1
   143          1
   144          8
   145          2
   146         14
   147         28
   148        191
   149         20
   150          2
   157          5
   162          4
   163          1
   164         19
   165          5
   174          9
   175          2
   189          2
   191          3
   203          1
   208          7
   209         55
   210          7
   211          1
   235          7
   236          9
   237          1
   252          7
   253          6
   254          2
   265          4