##TITLE=Library Entry 13738
##JCAMP-DX=Revision 4.10 
##DATA TYPE=MASS SPECTRUM
##SAMPLE DESCRIPTION=Chemical Concepts
##NAMES=HP
##CAS NAME=Tetrahydropyran, 5-acetoxy-6-acetoxymethyl-2-[[4-(4-pentyl)cycloh
exyl]cyclohexyloxy]-
##MOLFORM=C27H46O6
##CAS REGISTRY NO=152619-76-6
##MP= -300
##BP= -300
##MW= 466
##$RETENTION INDEX=0
##$CONDENSED SPECTRUM=NO
##NPOINTS= 224
##XYDATA=(XY..XY) 1 
    28          0
    29         72
    30          1
    31          7
    39         20
    40         34
    41        190
    42         23
    43        999
    44         27
    45          7
    47          1
    50          1
    51          1
    52          1
    53         19
    54         39
    55        392
    56         39
    57        150
    58          7
    59          2
    60          4
    61         24
    65          9
    66         15
    67        351
    68         58
    69        254
    70         64
    71         86
    72          7
    73          9
    74          3
    75          0
    77         11
    78          7
    79         64
    80         37
    81        305
    82         88
    83        516
    84        159
    85         35
    86         13
    87         48
    88          2
    89          4
    91         18
    92          3
    93         31
    94         44
    95        392
    96         81
    97        413
    98         42
    99         54
   100          7
   101         20
   102          5
   103         40
   104          2
   105          7
   106          3
   107         20
   108         20
   109        143
   110         21
   111        168
   112        185
   113        197
   114         36
   115         16
   116         11
   117          3
   118          1
   119          3
   120          2
   121         25
   122         14
   123        124
   124         22
   125        109
   126         40
   127         20
   128         10
   129         36
   130         48
   131         20
   132          4
   133          7
   134          3
   135         15
   136          4
   137        161
   138         26
   139        280
   140         34
   141          2
   142          4
   143         19
   144         48
   145          6
   146          1
   147          3
   148          1
   149         11
   150          7
   151        105
   152         25
   153        141
   154         20
   155        388
   156         89
   157         23
   158          6
   159         64
   160          6
   161          3
   162          3
   163         26
   164          9
   165         52
   166         10
   167          8
   168          1
   169          1
   170          1
   171         21
   172        137
   173         50
   174          5
   175          2
   176          1
   177          4
   178          6
   179         35
   180          6
   181          1
   184          1
   186         35
   187          3
   188          1
   189          6
   190          1
   191          2
   192          2
   193          8
   194          4
   195          1
   203          1
   204          4
   205          5
   206          2
   207          1
   208          1
   213          1
   214          1
   215        602
   216         78
   217         80
   218          8
   219          2
   221          1
   222          1
   231         82
   232         39
   233         19
   234        284
   235        568
   236        110
   237         11
   238          1
   249          1
   250         28
   251         13
   252          1
   253          1
   260          5
   261          1
   263          2
   264          1
   276          2
   278        378
   279         94
   280         12
   281          1
   286          9
   287          2
   295          2
   296          0
   297          0
   300          1
   304         43
   305         11
   306          1
   315          1
   321          2
   323          2
   324          2
   325         19
   326          5
   328          1
   329          1
   333          1
   336          1
   346         12
   347          5
   363          1
   364         79
   365         22
   366          3
   375          1
   378          0
   388          0
   393         14
   394          4
   406         15
   407          5
   408          1
   409          9
   410          2
   423          1
   466          2