##TITLE=Library Entry 96204
##JCAMP-DX=Revision 4.10 
##DATA TYPE=MASS SPECTRUM
##SAMPLE DESCRIPTION=Div. of Experiment Therapeutics WRAIR, WRAMC, Washingto
n DC 20307
##NAMES=HP
##CAS NAME=2-[n-Decylamino]-2-thiazoline
##MOLFORM=C13H26N2S
##CAS REGISTRY NO=15267-11-5
##MP= -300
##BP= -300
##MW= 242
##$RETENTION INDEX=0
##$CONDENSED SPECTRUM=NO
##NPOINTS= 94
##XYDATA=(XY..XY) 1 
    41        595
    42        117
    43        490
    44        190
    45         64
    46         18
    47         12
    49          4
    51          2
    53         33
    54         34
    55        450
    56        126
    57        124
    58         31
    59        131
    60        363
    61         98
    62         21
    63          2
    65          4
    67         31
    68         20
    69        120
    70         48
    71         29
    72         34
    73         23
    74         23
    75         13
    77         12
    79          5
    81         14
    82         15
    83         35
    84         25
    85         31
    86         41
    87         57
    88        107
    89         13
    90          5
    95          9
    96          5
    97         23
    98         17
    99         12
   100         11
   101        142
   102        468
   103        295
   104         30
   105         17
   111         18
   112         10
   113         12
   114         12
   115        403
   116        999
   117         74
   118         48
   125         18
   127         15
   129        417
   130        257
   131         36
   132         12
   139          5
   141          5
   143        403
   144        132
   145         26
   146          5
   157        403
   158         95
   159         23
   168         19
   171        237
   172         43
   173         13
   185        123
   186         21
   187          8
   199        106
   200         18
   201          4
   209         11
   213         93
   214         12
   227         24
   241         40
   242        198
   243         86
   244         19