##TITLE=Library Entry 53355
##JCAMP-DX=Revision 4.10 
##DATA TYPE=MASS SPECTRUM
##SAMPLE DESCRIPTION=Japan AIST/NIMC Database- Spectrum MS-IW-6795
##NAMES=HP
##CAS NAME=Hexanal, (2,4-dinitrophenyl)hydrazone
##MOLFORM=C12H16N4O4
##CAS REGISTRY NO=1527-97-5
##MP= -300
##BP= -300
##MW= 280
##$RETENTION INDEX=2568
##$CONDENSED SPECTRUM=NO
##NPOINTS= 233
##XYDATA=(XY..XY) 1 
    14          1
    15          5
    16          1
    17         20
    18        112
    25          1
    26         15
    27        208
    28        155
    29        175
    30        147
    31          3
    36          1
    37          6
    38         23
    39        113
    40         23
    41        349
    42         63
    43        212
    44         38
    45          7
    46          2
    49          1
    50         28
    51         80
    52         62
    53         40
    54         45
    55        589
    56         72
    57         44
    58          7
    59          3
    60          1
    61          6
    62         37
    63        106
    64         81
    65         63
    66         24
    67         45
    68         35
    69         52
    70         16
    71         12
    72          7
    73          2
    74         16
    75        112
    76         78
    77        200
    78        118
    79        124
    80         38
    81         53
    82         43
    83        999
    84         67
    85          5
    86          1
    87          3
    88         10
    89         31
    90         56
    91         93
    92        123
    93         37
    94         11
    95          9
    96         14
    97          8
    98         14
    99          5
   100          2
   101          6
   102         41
   103        205
   104        156
   105         52
   106         26
   107         26
   108         10
   109          3
   110          1
   111          2
   113          1
   114          2
   115         18
   116         19
   117         29
   118         31
   119         42
   120         24
   121         11
   122        171
   123         16
   124          1
   125          1
   126          1
   127          3
   128          9
   129         20
   130         43
   131         46
   132         31
   133         12
   134          9
   135         19
   136         11
   137         19
   138         21
   139          3
   140          2
   141          3
   142          6
   143         12
   144         18
   145         16
   146          9
   147         19
   148         13
   149        272
   150         40
   151         15
   152        103
   153         41
   154          7
   155          5
   156          8
   157         20
   158          9
   159         10
   160         16
   161          8
   162          8
   163         10
   164         36
   165         24
   166         16
   167         31
   168         11
   169          9
   170          7
   171          9
   172          7
   173          5
   174          3
   175         16
   176         27
   177         63
   178         13
   179         11
   180         55
   181         81
   182         13
   183        111
   184         20
   185          7
   186          4
   187          6
   188          5
   189         13
   190         32
   191         15
   192          9
   193         39
   194          6
   195          3
   196         47
   197          9
   198          4
   199         14
   200          4
   201          5
   202          8
   203         33
   204         11
   205          9
   206        593
   207         71
   208          9
   209          4
   210          3
   211          2
   212          1
   214          6
   215         10
   216         10
   217         31
   218         11
   219          4
   220          6
   221          1
   223         31
   224        146
   225         14
   226          2
   228          1
   229          2
   230          3
   231          9
   232          3
   233          4
   234         10
   235          8
   236          2
   237          5
   238          1
   243          1
   244          1
   245         15
   246          9
   247          3
   248          1
   249          1
   250          6
   251         12
   252          3
   261         14
   262          3
   263          4
   264         12
   265          4
   266          1
   276          6
   277          1
   278          4
   279          6
   280        375
   281         73
   282          9
   283          1