##TITLE=Library Entry 47632
##JCAMP-DX=Revision 4.10 
##DATA TYPE=MASS SPECTRUM
##SAMPLE DESCRIPTION=NIST Mass Spectrometry Data Center
##NAMES=HP
##CAS NAME=N-Phenylbenzamidine
##MOLFORM=C13H12N2
##CAS REGISTRY NO=1527-91-9
##MP= -300
##BP= -300
##MW= 196
##$RETENTION INDEX=0
##$CONDENSED SPECTRUM=NO
##NPOINTS= 99
##XYDATA=(XY..XY) 1 
    26          4
    27         25
    37          9
    38         27
    39         88
    40         11
    41         12
    42          4
    43          9
    46          1
    49          4
    50         98
    51        439
    52         65
    53         18
    54          8
    61          5
    62         15
    63         47
    64         44
    65         99
    66         84
    67          9
    69          1
    70          3
    71          2
    73          3
    74         27
    75         35
    76         98
    77        999
    78         86
    79          7
    83         30
    85         10
    86          2
    87          3
    88          4
    89         14
    90         13
    91         30
    92         67
    93        874
    94         59
    95          1
    98         69
   100          2
   101          3
   102         11
   103         77
   104        478
   105         45
   106          2
   113          2
   114          2
   115          8
   116          3
   117          3
   118         15
   119        127
   120         10
   125          2
   126          4
   127          9
   128          6
   129          2
   131          1
   139          7
   140          9
   141          3
   142          1
   143          1
   150          5
   151         39
   152         50
   153         18
   154          7
   155          1
   164          1
   165          1
   166          9
   167         15
   168          8
   169         13
   170          1
   176          2
   177         17
   178        150
   179         29
   180        466
   181         68
   182          4
   192          2
   193          6
   194         13
   195        568
   196        940
   197        136
   198          9