##TITLE=Library Entry 27705
##JCAMP-DX=Revision 4.10 
##DATA TYPE=MASS SPECTRUM
##SAMPLE DESCRIPTION=S.I.M. SKINNER & R. GREENHALGH, CHEMISTRY & BIOLOGY RES
EARCH INST., AGRICULTURE, CANADA
##NAMES=HP
##CAS NAME=Tranid
##MOLFORM=C10H12ClN3O2
##CAS REGISTRY NO=15271-41-7
##MP= -300
##BP= -300
##MW= 241
##$RETENTION INDEX=0
##$CONDENSED SPECTRUM=NO
##NPOINTS= 111
##XYDATA=(XY..XY) 1 
    35         13
    36         57
    37         30
    38        107
    39        476
    40         97
    41        154
    42         33
    43         20
    44         77
    45         13
    48         10
    49         57
    50         57
    51        201
    52        181
    53        151
    54        251
    55         30
    56         36
    57        100
    58        999
    59         26
    60          3
    61         10
    62         16
    63         53
    64         73
    65        238
    66        181
    67        134
    68         20
    69          6
    70          6
    73         13
    74         16
    75         70
    76         50
    77        164
    78        147
    79        100
    80         40
    81         16
    82         10
    83          3
    86          3
    87         13
    88         13
    89         23
    90         43
    91        191
    92         97
    93         33
    94         23
    95        157
    96        187
    97         10
    99          6
   100         33
   101         10
   102         26
   103         26
   104        144
   105         36
   106         20
   107         16
   108         40
   109         13
   110          6
   112          6
   113         26
   114         33
   115         20
   116         53
   117         33
   118        191
   119         30
   120          6
   121         10
   122         20
   125          3
   126          3
   127         10
   128          3
   129          6
   130         40
   131         93
   132         33
   133         20
   140         10
   141          3
   142          3
   143          3
   144          6
   146          3
   147         10
   148        191
   149         80
   150         10
   152          3
   153          3
   154         93
   155         10
   156         30
   157         10
   167          6
   183          6
   184        268
   185         33
   186        104
   187         10