##TITLE=Library Entry 1713
##JCAMP-DX=Revision 4.10 
##DATA TYPE=MASS SPECTRUM
##SAMPLE DESCRIPTION=Exported from NIST MS Search
##NAMES=HP
##CAS NAME=2-Butenal, (2,4-dinitrophenyl)hydrazone
##MOLFORM=C10H10N4O4
##CAS REGISTRY NO=1527-96-4
##MP= -300
##BP= -300
##MW= 250
##$RETENTION INDEX=0
##$CONDENSED SPECTRUM=NO
##NPOINTS= 172
##XYDATA=(XY..XY) 1 
    26         50
    27        390
    28        530
    29        190
    30        400
    31         30
    32        500
    37         40
    38        120
    39        999
    41        840
    42        200
    43        250
    44         30
    45         20
    46         10
    50        120
    51        320
    52        250
    53        470
    54        200
    55        180
    56         50
    57         50
    58         20
    60         10
    61         50
    62        150
    63        570
    64        300
    65        130
    66         50
    67        180
    68        320
    69        260
    70         50
    71        130
    72         10
    73         20
    74        100
    75        250
    76        150
    77        350
    78        230
    79        220
    80        100
    81        130
    82         30
    83         30
    84         20
    85         20
    86         10
    87         20
    88         50
    89        130
    90        180
    91        220
    92        120
    93         50
    94         20
    95         40
    96         20
    97         10
    98         20
   101         30
   102        120
   103        250
   104        120
   105         60
   106         50
   107         40
   108         10
   109         10
   111         10
   112         10
   113         20
   114         30
   115         70
   116        140
   117        130
   118        120
   119         50
   120         30
   121         20
   122         70
   123         20
   125         10
   126         20
   127         90
   128        240
   129        250
   130        230
   131        150
   132         40
   133         20
   134         20
   135         20
   136         10
   137         10
   138         10
   140         30
   141         30
   142         80
   143        200
   144         70
   145         70
   146         50
   147         30
   148         20
   149         20
   150         10
   151         10
   152         50
   153         30
   154         10
   155        170
   156        530
   157        360
   158        130
   159        200
   160         40
   161         10
   162         10
   163         10
   164         10
   165         10
   166         10
   167         10
   168         20
   169        550
   170         90
   171         50
   172         20
   173         70
   174         20
   175         40
   176         30
   177         20
   178         10
   180         10
   181         20
   183         10
   185         80
   186        100
   187         30
   188         40
   189        350
   190         50
   191         30
   193         10
   201         40
   202        840
   203        780
   204        110
   205         30
   206         10
   215        190
   216         50
   217         20
   218         20
   219         10
   220         10
   231         70
   232         20
   233        330
   234         70
   235        430
   236         50
   249         20
   250        630
   251         80
   252         10