##TITLE=Library Entry 5154
##JCAMP-DX=Revision 4.10 
##DATA TYPE=MASS SPECTRUM
##SAMPLE DESCRIPTION=V.A.Korolev, Moscow, Russia
##NAMES=HP
##CAS NAME=1H-1,2,4-Triazole, 3-chloro-5-methyl-
##MOLFORM=C3H4ClN3
##CAS REGISTRY NO=15285-15-1
##MP= -300
##BP= -300
##MW= 117
##$RETENTION INDEX=0
##$CONDENSED SPECTRUM=NO
##NPOINTS= 62
##XYDATA=(XY..XY) 1 
    33          1
    34          9
    35        100
    36         49
    37         39
    38        111
    39        136
    40        264
    41        278
    42        999
    43        148
    44         97
    45          7
    47        215
    48        187
    49         75
    50         78
    51        154
    52        147
    53         56
    54        456
    55        188
    56        795
    57        127
    58          5
    59          2
    60         13
    61         42
    62        300
    63         20
    64         93
    65          6
    66          2
    67         32
    68         10
    69         42
    70         47
    71         48
    72          5
    73         12
    74          2
    76        562
    77         19
    78        185
    79         10
    80          7
    81         14
    82         30
    83         20
    84          4
    88         24
    89         49
    90          9
    91         16
    93          2
   102         22
   104          7
   116         10
   117        970
   118         45
   119        318
   120         15