##TITLE=Library Entry 71562
##JCAMP-DX=Revision 4.10 
##DATA TYPE=MASS SPECTRUM
##SAMPLE DESCRIPTION=A.A.Kutin, Moscow, Russia
##NAMES=HP
##CAS NAME=1H-Tetrazole-1-ethanol, 5-amino-
##MOLFORM=C3H7N5O
##CAS REGISTRY NO=15284-29-4
##MP= -300
##BP= -300
##MW= 129
##$RETENTION INDEX=0
##$CONDENSED SPECTRUM=NO
##NPOINTS= 21
##XYDATA=(XY..XY) 1 
    53         39
    54         82
    55         93
    56        288
    57        444
    58         36
    69         12
    70        298
    71         53
    73         52
    74          9
    84         29
    85        692
    86         33
    98        999
    99         89
   100         19
   101         11
   112         28
   129        722
   130         88