##TITLE=Library Entry 69908
##JCAMP-DX=Revision 4.10 
##DATA TYPE=MASS SPECTRUM
##SAMPLE DESCRIPTION=Exported from NIST MS Search
##NAMES=HP
##CAS NAME=Carbonic acid, dithio-, S-methyl O-(2-methylcyclohexyl) ester, ci
s-
##MOLFORM=C9H16OS2
##CAS REGISTRY NO=15288-12-7
##MP= -300
##BP= -300
##MW= 204
##$RETENTION INDEX=0
##$CONDENSED SPECTRUM=NO
##NPOINTS= 33
##XYDATA=(XY..XY) 1 
    41        275
    42         20
    43         79
    45         41
    47         37
    51         10
    53         72
    54         41
    55        662
    56         62
    57         10
    59         14
    65         14
    67         83
    68         52
    69         93
    75         20
    76         10
    77         10
    79         14
    81        125
    91        135
    92         10
    93         12
    95         37
    96        391
    97        999
    98         83
   109         20
   113         10
   204         83
   205         10
   206         12