##TITLE=Library Entry 26129
##JCAMP-DX=Revision 4.10 
##DATA TYPE=MASS SPECTRUM
##SAMPLE DESCRIPTION=CARL DJERASSI DEPT OF CHEM STANFORD UNIV STANFORD CALIF
 94305
##NAMES=HP
##CAS NAME=Cyclohexanol, 2-methyl-, propionate, trans-
##MOLFORM=C10H18O2
##CAS REGISTRY NO=15287-79-3
##MP= -300
##BP= -300
##MW= 170
##$RETENTION INDEX=0
##$CONDENSED SPECTRUM=NO
##NPOINTS= 31
##XYDATA=(XY..XY) 1 
    27        120
    28         60
    29        380
    39         60
    40         10
    41        140
    42         20
    43         50
    44         20
    45         10
    53         20
    54         30
    55        280
    56         40
    57        999
    58         30
    66         10
    67        130
    68        150
    69         40
    71         10
    75         10
    79         10
    81        400
    82         10
    86         50
    95         70
    96        540
    97        150
   113         20
   114         10