##TITLE=Library Entry 22900
##JCAMP-DX=Revision 4.10 
##DATA TYPE=MASS SPECTRUM
##SAMPLE DESCRIPTION=CARL DJERASSI DEPT OF CHEM STANFORD UNIV STANFORD CALIF
 94305
##NAMES=HP
##CAS NAME=1,2,4-Benzenetricarboxylic acid, cyclic 1,2-anhydride, butyl este
r
##MOLFORM=C13H12O5
##CAS REGISTRY NO=1528-45-6
##MP= -300
##BP= -300
##MW= 248
##$RETENTION INDEX=0
##$CONDENSED SPECTRUM=NO
##NPOINTS= 15
##XYDATA=(XY..XY) 1 
    41        266
    55        123
    56        999
    57         86
    74        111
    75        311
    76         24
   103        233
   104         24
   148        135
   175        599
   176         61
   193        799
   194         73
   204         61