##TITLE=Library Entry 69909
##JCAMP-DX=Revision 4.10 
##DATA TYPE=MASS SPECTRUM
##SAMPLE DESCRIPTION=CARL DJERASSI DEPT OF CHEM STANFORD UNIV STANFORD CALIF
 94305
##NAMES=HP
##CAS NAME=Carbonic acid, dithio-, S-methyl O-(2-methylcyclohexyl) ester, tr
ans-
##MOLFORM=C9H16OS2
##CAS REGISTRY NO=15288-13-8
##MP= -300
##BP= -300
##MW= 204
##$RETENTION INDEX=0
##$CONDENSED SPECTRUM=NO
##NPOINTS= 22
##XYDATA=(XY..XY) 1 
    40         20
    41        323
    42         20
    43         80
    45         40
    47         40
    53         80
    54         20
    55        919
    56         50
    67         90
    68         30
    69        111
    81        121
    91        161
    95         30
    96        565
    97        999
    98         60
   204         90
   205         10
   206         10