##TITLE=Library Entry 32945
##JCAMP-DX=Revision 4.10 
##DATA TYPE=MASS SPECTRUM
##SAMPLE DESCRIPTION=Japan AIST/NIMC Database- Spectrum MS-NW-6766
##NAMES=HP
##CAS NAME=Cyclopentane, methylene-
##MOLFORM=C6H10
##CAS REGISTRY NO=1528-30-9
##MP= -300
##BP= -300
##MW= 82
##$RETENTION INDEX=650
##$CONDENSED SPECTRUM=NO
##NPOINTS= 40
##XYDATA=(XY..XY) 1 
    14          1
    15          6
    26         17
    27        108
    28         25
    29         17
    31          1
    37         11
    38         23
    39        232
    40         59
    41        215
    42         34
    43          8
    44          1
    49          6
    50         34
    51         51
    52         28
    53         99
    54        283
    55         28
    56          5
    61          3
    62          5
    63          9
    64          1
    65         35
    66         18
    67        999
    68         57
    69          1
    75          1
    77         25
    78          7
    79         53
    80          9
    81        142
    82        310
    83         21