##TITLE=Library Entry 38322
##JCAMP-DX=Revision 4.10 
##DATA TYPE=MASS SPECTRUM
##SAMPLE DESCRIPTION=NIST Mass Spectrometry Data Center, 1990.
##NAMES=HP
##CAS NAME=4-Heptanone, 3-ethyl-
##MOLFORM=C9H18O
##CAS REGISTRY NO=1528-25-2
##MP= -300
##BP= -300
##MW= 142
##$RETENTION INDEX=0
##$CONDENSED SPECTRUM=NO
##NPOINTS= 28
##XYDATA=(XY..XY) 1 
    27        105
    28         37
    29         66
    32          6
    39         98
    40         21
    41        185
    42         62
    43        564
    44         22
    51          7
    53         21
    55        143
    56          9
    57         15
    65          4
    67          9
    69         20
    71        999
    72         51
    83          6
    86         16
    99        102
   100         10
   113         14
   114         47
   142         66
   143          7