##TITLE=Library Entry 107629
##JCAMP-DX=Revision 4.10 
##DATA TYPE=MASS SPECTRUM
##SAMPLE DESCRIPTION=Tony Mujsce
##NAMES=HP
##CAS NAME=3,5-Bis(4-fluorobenzoyl)phenol
##MOLFORM=C20H12F2O3
##CAS REGISTRY NO=152993-92-5
##MP= -300
##BP= -300
##MW= 338
##$RETENTION INDEX=0
##$CONDENSED SPECTRUM=NO
##NPOINTS= 98
##XYDATA=(XY..XY) 1 
    28          1
    29          1
    38          3
    39          5
    41          2
    43          2
    44          2
    45          2
    50          8
    51          7
    53          8
    55          2
    56          2
    57          3
    61          2
    62          5
    63         17
    64          7
    65          2
    66          2
    68          4
    69         11
    70          2
    73          2
    74          9
    75         79
    76          7
    77          2
    81          2
    83          2
    86          2
    87          2
    91          3
    92         22
    93          5
    94         15
    95        356
    96         23
    97          2
    98          2
    99          2
   101          2
   104          2
   105          2
   106          2
   107          6
   109          2
   119          2
   120          5
   121         11
   123        999
   124         66
   125          5
   131          4
   132          2
   133          9
   134          2
   137          1
   138          2
   139          3
   144          2
   147          2
   149          1
   155          1
   156          1
   157         13
   158          3
   159         10
   160          1
   167          1
   168          1
   169          2
   170          2
   171          1
   185          1
   186          3
   187          3
   213          1
   214          2
   215         81
   216         11
   243        122
   244         19
   262          1
   289          1
   290          1
   291          3
   292          3
   293          3
   294          1
   309          8
   310          3
   318          6
   319          5
   321          3
   338        433
   339         94
   340         12