##TITLE=Library Entry 15395
##JCAMP-DX=Revision 4.10 
##DATA TYPE=MASS SPECTRUM
##SAMPLE DESCRIPTION=K. Jacobson, LBC, NIDDK, NIH, Bethesda, MD 20892
##NAMES=HP
##CAS NAME=Adenosine, N(6)-[3-bromobenzyl]-4'-[N-ethylcarbamoyl]-4'-dehydrox
ymethyl-
##MOLFORM=C19H21BrN6O4
##CAS REGISTRY NO=152918-35-9
##MP= -300
##BP= -300
##MW= 476
##$RETENTION INDEX=0
##$CONDENSED SPECTRUM=NO
##NPOINTS= 147
##XYDATA=(XY..XY) 1 
    41        356
    42        308
    43        755
    44        999
    45        358
    46        199
    47         15
    50         97
    51        139
    52         47
    53        151
    54         97
    55        361
    56        267
    57        259
    58         97
    59         61
    60        126
    61         44
    62         22
    63        128
    64         44
    65        101
    66        106
    67        128
    68        103
    69        169
    70        140
    71        282
    72        404
    73        165
    74         84
    75         64
    76         51
    77        212
    78        108
    79         71
    80         43
    81         83
    82         76
    83        137
    84        103
    85        307
    86         37
    87         67
    88         16
    89        263
    90        302
    91        273
    92         83
    93        171
    94         97
    95        440
    96        118
    97        287
    98        142
    99         81
   100         34
   101         34
   102         48
   103         47
   104         60
   105        207
   106        149
   107         38
   108         18
   109         34
   110         50
   111        147
   112         17
   113         50
   114         17
   115         53
   116         56
   117         19
   119        166
   120        161
   121        107
   122         33
   123         14
   124         37
   125         15
   126         11
   127         39
   129         44
   131         13
   134         13
   135         12
   139         96
   140         14
   141         15
   145         51
   148         72
   149         41
   153         11
   155         65
   157         30
   159         17
   163         12
   164         11
   169        211
   170         21
   171        202
   172         16
   174         16
   184        213
   185         30
   186        212
   192         12
   195         14
   196         26
   197         12
   198         19
   200         15
   222         14
   223         13
   224         85
   225         19
   250         11
   254         13
   255         26
   268         13
   276         11
   302        117
   303        306
   304        224
   305        299
   306        126
   332        150
   333         18
   334        125
   335         17
   346        144
   347         27
   348        134
   349         19
   362         18
   386         12
   388         19
   405         15
   407         11
   428         12
   433         12
   476        115
   477         34
   478        103
   479         26