##TITLE=Library Entry 96734
##JCAMP-DX=Revision 4.10 
##DATA TYPE=MASS SPECTRUM
##SAMPLE DESCRIPTION=Japan AIST/NIMC Database- Spectrum MS-NW-6076
##NAMES=HP
##CAS NAME=Benzeneacetonitrile, 3-chloro-
##MOLFORM=C8H6ClN
##CAS REGISTRY NO=1529-41-5
##MP= -300
##BP= -300
##MW= 151
##$RETENTION INDEX=0
##$CONDENSED SPECTRUM=NO
##NPOINTS= 88
##XYDATA=(XY..XY) 1 
    13          8
    14        119
    15          9
    25          3
    26         19
    27         14
    28          4
    29          9
    32         10
    33         12
    35          1
    36          5
    37         15
    38         20
    39         34
    40          5
    41          3
    42         13
    43          9
    44         17
    45          3
    46          2
    47          5
    48          1
    49         12
    50         52
    51         25
    52          6
    55          2
    56          5
    57         25
    58          8
    59          3
    60          6
    61         19
    62         30
    63         50
    64         13
    65          9
    66          1
    68          1
    72          6
    73         18
    74         18
    75         50
    76         15
    77          8
    79          2
    83          1
    84          4
    85          9
    86         14
    87         21
    88         29
    89        152
    90         30
    91          2
    96          1
    97          5
    98          2
    99         13
   100          3
   101          5
   102          2
   105          2
   106          1
   107          1
   108          1
   110          3
   111         17
   112          4
   113          6
   114         23
   115         27
   116        999
   117         98
   118          5
   123         25
   124         11
   125         28
   126          7
   127          8
   128          1
   150         34
   151        317
   152         44
   153        107
   154         12