##TITLE=Library Entry 61065
##JCAMP-DX=Revision 4.10 
##DATA TYPE=MASS SPECTRUM
##SAMPLE DESCRIPTION=K. Jacobson, LBC, NIDDK, NIH, Bethesda, MD 20892
##NAMES=HP
##CAS NAME=Adenosine, N(6)-[3-nitrobenzyl]-4'-[N-ethylcarbamoyl]-4'-dehydrox
ymethyl-
##MOLFORM=C19H21N7O6
##CAS REGISTRY NO=152918-38-2
##MP= -300
##BP= -300
##MW= 443
##$RETENTION INDEX=0
##$CONDENSED SPECTRUM=NO
##NPOINTS= 104
##XYDATA=(XY..XY) 1 
    41        286
    42        161
    43        573
    44        559
    45        406
    46         64
    50         68
    51        123
    52         43
    53         61
    54         78
    55        268
    56        133
    57        309
    58         53
    59        110
    60        135
    61         72
    63         56
    64         17
    65        216
    66         62
    67         89
    68         56
    69        154
    70        142
    71        209
    72         58
    73        139
    74         56
    75         39
    76         34
    77        197
    78        150
    79        146
    81        111
    82         43
    83        122
    84         59
    85        153
    86         20
    87         53
    88         30
    89         62
    91        999
    92        113
    93        143
    94         53
    95         77
    97         68
    98         20
    99         21
   101         26
   103         17
   104         51
   105        299
   106        867
   107        104
   108         69
   109         20
   111         94
   112         60
   113         48
   115         22
   116         22
   117         21
   118         22
   119        127
   120        264
   121        148
   122         30
   124         25
   127         30
   128         18
   129         36
   133         20
   134         24
   135         73
   136         97
   139         17
   142         17
   143         20
   145         27
   148         96
   149        230
   150         19
   163         23
   164         56
   167        113
   169         16
   177         18
   178         20
   197         15
   209         18
   224        315
   225        522
   226        133
   254        102
   255         56
   268         47
   279         22
   280         20
   370         86
   371         19