##TITLE=Library Entry 40187
##JCAMP-DX=Revision 4.10 
##DATA TYPE=MASS SPECTRUM
##SAMPLE DESCRIPTION=MASS SPECTROMETRY CENTER, UNIV. OF UTAH EPA-PTSEL 2010
##NAMES=HP
##CAS NAME=Napropamide
##MOLFORM=C17H21NO2
##CAS REGISTRY NO=15299-99-7
##MP= -300
##BP= -300
##MW= 271
##$RETENTION INDEX=2145
##$CONDENSED SPECTRUM=NO
##NPOINTS= 75
##XYDATA=(XY..XY) 1 
    15         24
    16          1
    26         13
    27         93
    29        266
    30         28
    38          1
    39         30
    40          2
    41         23
    42         75
    43         58
    44        235
    45          8
    50         11
    51         18
    52          2
    54         16
    55         81
    56         66
    57        146
    58         43
    62         11
    63         33
    64          3
    65         14
    70         20
    71         11
    72        999
    73         82
    74         46
    75         23
    76         13
    77         41
    78          1
    82          1
    84          7
    85          2
    86          2
    87         10
    88         10
    89         27
    99          5
   100        395
   101         49
   102          2
   112          4
   113          9
   114         14
   115        173
   116         40
   126         42
   127        194
   128        631
   129         55
   135         18
   136          1
   141         11
   143         37
   144         91
   145         11
   152          9
   153         20
   155          9
   169          8
   170          9
   171        151
   172         22
   198          8
   213          7
   238         18
   253         12
   271        260
   272         49
   273          3