##TITLE=Library Entry 29450
##JCAMP-DX=Revision 4.10 
##DATA TYPE=MASS SPECTRUM
##SAMPLE DESCRIPTION=K. Jacobson, LBC, NIDDK, NIH, Bethesda, MD 20892
##NAMES=HP
##CAS NAME=Adenosine, N(6)-[4-bromobenzyl]-4'-[N-methylcarbamoyl]-4'-dehydro
xymethyl-
##MOLFORM=C18H19BrN6O4
##CAS REGISTRY NO=152918-25-7
##MP= -300
##BP= -300
##MW= 462
##$RETENTION INDEX=0
##$CONDENSED SPECTRUM=NO
##NPOINTS= 191
##XYDATA=(XY..XY) 1 
    42        262
    43        325
    44        172
    45        166
    46         12
    47          2
    50         43
    51         72
    52         49
    53         70
    54         61
    55        149
    56         76
    57         94
    58        999
    59         46
    60        122
    61         16
    62         22
    63        103
    64         50
    65         71
    66        104
    67         82
    68         45
    69         64
    70         54
    71        205
    72         45
    73        109
    74         22
    75         26
    76         35
    77        130
    78         59
    79         72
    80         37
    81         37
    82         31
    83         45
    84         94
    85        607
    86         41
    87         11
    88         32
    89        351
    90        416
    91        163
    92         63
    93        196
    94         65
    95         76
    96         15
    97         17
    98         10
    99         18
   100         47
   101         65
   102        105
   103         39
   104         54
   105        142
   106         91
   107         32
   108         45
   109         18
   111         41
   112         15
   113         12
   114         18
   115         18
   116         23
   117         21
   118         22
   119        184
   120        465
   121        119
   122         17
   125         45
   126          6
   127         16
   128         16
   129         16
   130          6
   131         47
   132         27
   133         90
   134         35
   135         26
   136         38
   137          3
   139         11
   140         15
   141         25
   142         30
   143         22
   145         51
   146         24
   147         16
   148        109
   149         25
   150         10
   151          3
   153         12
   154         62
   155         19
   157         36
   158          7
   159         21
   160         69
   161         20
   162         35
   163         14
   167         12
   169        646
   171        649
   172         51
   173          6
   174         18
   175          4
   176          9
   177          6
   178          6
   180          8
   181         10
   182         19
   184        478
   186        484
   187         34
   189         33
   190         17
   194         10
   195         21
   196         19
   197         23
   204         14
   206          3
   207          9
   208          9
   209         12
   211          3
   219         19
   220          2
   221          5
   222         55
   223         66
   224        255
   225         82
   226         11
   248          2
   253         11
   259         17
   260          5
   261          8
   266         17
   267         18
   275         13
   276          2
   277         16
   278          5
   287         15
   288         10
   289         14
   302        362
   303        892
   304        654
   305        899
   306        312
   307         33
   316         10
   318          9
   332        220
   333         38
   334        209
   335         33
   344         14
   345         18
   346        185
   347         46
   348        171
   349         29
   358         13
   360         14
   386          6
   388         13
   390          4
   427          3
   462        116
   463         28
   464        117
   465         24