##TITLE=Library Entry 42379
##JCAMP-DX=Revision 4.10 
##DATA TYPE=MASS SPECTRUM
##SAMPLE DESCRIPTION=Chemical Concepts
##NAMES=HP
##CAS NAME=1-(D-Mannopyranos-1-yl)-1,7-dicarba-closo-dodecaborane(12)
##MOLFORM=C8H22B10O6
##CAS REGISTRY NO=152976-90-4
##MP= -300
##BP= -300
##MW= 324
##$RETENTION INDEX=0
##$CONDENSED SPECTRUM=NO
##NPOINTS= 255
##XYDATA=(XY..XY) 1 
    26          2
    27         18
    29         31
    30          5
    31         71
    33          0
    36          0
    37          2
    38          0
    39          8
    41         27
    42         11
    43        154
    44         63
    45         45
    46          1
    47          5
    48          0
    49          2
    51          1
    52          1
    53          4
    54          3
    55         26
    56        148
    57         81
    58          8
    59          6
    60         71
    61        129
    62         11
    63          1
    64          0
    65          0
    66          0
    67          1
    68          6
    69         65
    70         46
    71         68
    72         14
    73        999
    74         60
    75          7
    76          1
    77          4
    78          0
    79          2
    80          2
    81          3
    82          1
    83          3
    84          3
    85         51
    86         42
    87         72
    88          4
    89          6
    90          3
    91         52
    92          3
    93          2
    94          1
    95          2
    96          0
    97         15
    98         38
    99          5
   100          2
   101          4
   102          3
   103        130
   104          8
   105          8
   106          1
   107          1
   109          0
   110          1
   111          2
   112          3
   113          2
   114          4
   115         18
   116         25
   117          3
   118          1
   119          1
   120          2
   121          1
   122          2
   123          3
   124          5
   125          6
   126          7
   127          8
   128          8
   129          7
   130          6
   131          4
   132          2
   133        201
   134         14
   135          6
   136          8
   137         12
   138         16
   139         22
   140         28
   141         33
   142         36
   143         31
   144         23
   145         10
   146          1
   147          5
   148          0
   149          1
   150          1
   151          3
   152          4
   153          5
   154          6
   155          8
   156          8
   157          6
   158          6
   159          3
   160          0
   161          1
   162          1
   163          0
   164          0
   165          2
   166          3
   167          7
   168         18
   169         50
   170        112
   171        167
   172        147
   173         63
   174          5
   175          6
   176          0
   177          0
   178          0
   179          2
   180          1
   181          2
   182          3
   183          4
   184          6
   185         10
   186         14
   187         22
   188         38
   189         49
   190         41
   191         19
   192          0
   193          0
   194          0
   195          2
   196          4
   197          6
   198          8
   199         13
   200         18
   201         29
   202         41
   203         42
   204         20
   205          4
   206          0
   207          0
   208          0
   209          1
   210          2
   211          6
   212         15
   213         24
   214         26
   215         20
   216         10
   217          4
   218          0
   219          0
   221          1
   222          0
   223          1
   224          3
   225          5
   226          6
   227          6
   228          4
   229          2
   230          1
   231          0
   232          0
   233          0
   234          0
   237          0
   238          0
   239          2
   240          5
   241         13
   242         31
   243         54
   244         56
   245         39
   246         12
   247          0
   249          0
   251          0
   253          0
   254          0
   255          0
   256          1
   257          0
   258          1
   259          2
   260          4
   261          6
   262          6
   263          1
   264          0
   266          0
   267          1
   268          2
   269          2
   270          1
   271          1
   272          4
   273          6
   274          6
   275          3
   276          0
   277          0
   278          0
   281          0
   284          0
   285          0
   286          0
   287          0
   288          0
   295          0
   296          0
   298          0
   303          0
   304          0
   305          0
   306          0
   315          0
   316          0
   317          0