##TITLE=Library Entry 109037
##JCAMP-DX=Revision 4.10 
##DATA TYPE=MASS SPECTRUM
##SAMPLE DESCRIPTION=K. Jacobson, LBC, NIDDK, NIH, Bethesda, MD 20892
##NAMES=HP
##CAS NAME=Adenosine, 4'-dehydroxymethyl-4'-[N-ethylaminoformyl]-N-[3-chloro
benzyl]-
##MOLFORM=C19H21ClN6O4
##CAS REGISTRY NO=152918-34-8
##MP= -300
##BP= -300
##MW= 432
##$RETENTION INDEX=0
##$CONDENSED SPECTRUM=NO
##NPOINTS= 232
##XYDATA=(XY..XY) 1 
    41         90
    42        153
    43        154
    44        773
    45        378
    46        109
    47          5
    49         10
    50         40
    51         43
    52         20
    53         80
    54         71
    55         84
    56         64
    57         69
    58        188
    59         12
    60         18
    61         22
    62         56
    63        154
    64         30
    65         39
    66         45
    67         33
    68         44
    69         29
    70         47
    71         53
    72         97
    73        180
    74         97
    75         45
    76         11
    77         43
    78          3
    79         93
    80        170
    81        100
    82        153
    83         20
    84         69
    85        107
    86         25
    87         22
    89        304
    90         82
    91         27
    92         13
    93         26
    94         32
    95         40
    96         15
    97         16
    98         47
    99         94
   100         13
   101         37
   102         23
   103         21
   104          7
   105          8
   106         28
   107         23
   108        103
   109         23
   110         31
   111        135
   112         26
   113         15
   114         13
   115         22
   116         48
   117          8
   118          6
   119         27
   120         30
   121         21
   122         10
   123         13
   125        999
   126         55
   127        424
   128         38
   129          6
   130          6
   131         10
   132         13
   133          4
   135        466
   136        145
   137         20
   138         18
   139         30
   140         98
   141         19
   142         51
   143          8
   144         12
   145         19
   146          6
   148         49
   149         12
   150          7
   151          9
   152          9
   153         11
   154         23
   155        198
   156         70
   157         12
   158          4
   160          4
   161          4
   162         11
   163          9
   164         50
   165         10
   166          6
   167         11
   168         21
   169         32
   170         19
   171         19
   172          9
   173         10
   174         45
   175          6
   176          6
   177          4
   178         78
   179         10
   180          6
   181          7
   182         27
   183          6
   185          4
   188          3
   189          6
   190          8
   191          5
   192          7
   193          3
   194          6
   195          9
   196          7
   197          5
   198          5
   200          3
   202          7
   204         71
   205          3
   206         82
   207         13
   208         19
   209          5
   210          3
   214          4
   215          5
   216         29
   217         10
   218         11
   219          6
   220          8
   221          4
   222         11
   223         16
   224         20
   225          4
   227          4
   229          4
   231         16
   232          8
   233          7
   234          5
   235          3
   236          4
   237         19
   238          3
   241          5
   242          5
   243         21
   244          8
   245          8
   246          4
   247          3
   248          4
   249          3
   256          5
   258        624
   259        363
   260        271
   261        115
   262         34
   263          8
   264          5
   270          3
   271          3
   272         11
   273          6
   274          6
   275          3
   276          4
   277          4
   278          7
   279          6
   280          4
   286          3
   287          4
   288          7
   289          3
   290          4
   291          3
   292          4
   302          5
   303         26
   304         10
   308          5
   309         12
   324          3
   382         41
   383         48
   384         41
   385         33
   386         15
   387          8
   396          3
   431          5
   432          8
   433          5
   434          3