##TITLE=Library Entry 17712
##JCAMP-DX=Revision 4.10 
##DATA TYPE=MASS SPECTRUM
##SAMPLE DESCRIPTION=A. SAEED, DEP. CHEM., COLL. SCI., BASRAH UNIV., BASRAH,
 IRAQ
##NAMES=HP
##CAS NAME=Ethyl N-(p-tolyl)formimidate
##MOLFORM=C10H13NO
##CAS REGISTRY NO=15296-47-6
##MP= -300
##BP= -300
##MW= 163
##$RETENTION INDEX=0
##$CONDENSED SPECTRUM=NO
##NPOINTS= 36
##XYDATA=(XY..XY) 1 
    39        130
    41         70
    42         50
    43        200
    44         70
    45        999
    46        550
    47         50
    51         50
    52         70
    53         50
    59         50
    63         70
    65        190
    77        260
    78         70
    79        140
    80         70
    90         60
    91        380
    92         80
   106        830
   107        500
   108        160
   118        520
   119        190
   120        170
   121         70
   132         50
   134         90
   135        450
   136         60
   146         50
   148        150
   163        870
   164        100