##TITLE=Library Entry 56874
##JCAMP-DX=Revision 4.10 
##DATA TYPE=MASS SPECTRUM
##SAMPLE DESCRIPTION=Patti Price, Georgia Bureau of Investigation, Decatur,
 Georgia
##NAMES=HP
##CAS NAME=Ethanamine, 2,2',2''-[1,2,3-benzenetriyltris(oxy)]tris[N,N-diethy
l-
##MOLFORM=C24H45N3O3
##CAS REGISTRY NO=153-76-4
##MP= -300
##BP= -300
##MW= 423
##$RETENTION INDEX=0
##$CONDENSED SPECTRUM=NO
##NPOINTS= 112
##XYDATA=(XY..XY) 1 
    42         11
    44         32
    54          1
    55          1
    56         20
    57          8
    58         32
    59          1
    67          1
    68          2
    69          1
    70         10
    71         20
    72         41
    73          4
    79          1
    81          1
    82          1
    83          1
    84         19
    85          3
    86        999
    87         63
    88          1
    91          1
    92          1
    95          1
    96          1
    97          1
    98         15
    99         52
   100        278
   101         21
   102          1
   105          1
   111          1
   112          1
   116          1
   118          1
   119          1
   120          1
   121          1
   123          1
   125          1
   126          1
   127          1
   135          1
   136          1
   137          2
   138          1
   139          1
   146          1
   147          1
   150          1
   151          1
   152          3
   153          1
   165          1
   176          1
   178          1
   180          1
   185          1
   189          1
   190          1
   192          1
   193          1
   194          1
   195          1
   196          1
   197          2
   198          1
   206          2
   207          1
   208          1
   209          1
   211          1
   212          1
   221          1
   222          1
   223         10
   224          5
   225        397
   226         59
   227          5
   235          1
   237          1
   238          1
   249          1
   250          1
   251          2
   252          2
   277          1
   280          1
   293          1
   295          7
   296          1
   297          1
   307          2
   322          1
   323          4
   324          5
   325          1
   335          1
   337          1
   351          1
   378          1
   392          1
   394          3
   395          1
   408          1
   422          1
   423          1