##TITLE=Library Entry 71469
##JCAMP-DX=Revision 4.10 
##DATA TYPE=MASS SPECTRUM
##SAMPLE DESCRIPTION=Japan AIST/NIMC Database- Spectrum MS-IW-3766
##NAMES=HP
##CAS NAME=Flavoxate
##MOLFORM=C24H25NO4
##CAS REGISTRY NO=15301-69-6
##MP= -300
##BP= -300
##MW= 391
##$RETENTION INDEX=3184
##$CONDENSED SPECTRUM=NO
##NPOINTS= 133
##XYDATA=(XY..XY) 1 
    26          1
    27          4
    28          9
    29          4
    30          6
    39          6
    41         28
    42         27
    43          5
    44         19
    50          2
    51          5
    52          2
    53          3
    54          7
    55         41
    56         11
    57          5
    58          1
    62          2
    63         12
    64          4
    65          4
    67          4
    68          6
    69         18
    70         12
    71          2
    74          1
    75          4
    76          5
    77          9
    78          2
    79          3
    80          2
    81          2
    82          7
    83          9
    84          8
    85          2
    87          1
    88          1
    89          7
    90          1
    91         15
    92          8
    93          2
    94          2
    95          1
    96         50
    97          7
    98        999
    99         72
   100          2
   101          1
   102          1
   103          2
   104          4
   105          5
   106          2
   107          1
   108          4
   109         10
   110         15
   111        209
   112         20
   113          2
   114          1
   115         33
   116          8
   117          3
   118          1
   119         20
   120          5
   121          3
   122          1
   124          1
   126          2
   127          1
   128          1
   129          1
   130          1
   131          8
   133          1
   135          1
   139          1
   142          1
   147         69
   148          6
   149          2
   150          1
   151          2
   152          3
   153          1
   163          1
   165          1
   176          3
   177          3
   178          8
   179          4
   181          1
   189          2
   190          1
   191          2
   194          3
   195          1
   205          4
   206          1
   207          2
   218          1
   233          1
   234         14
   235         95
   236         43
   237          6
   249          1
   261          4
   262          1
   263         16
   264          4
   278          1
   279         38
   280         16
   281          3
   304          9
   305          5
   306          1
   307          9
   308          2
   389          5
   390          5
   391          9
   392          2