##TITLE=Library Entry 8106
##JCAMP-DX=Revision 4.10 
##DATA TYPE=MASS SPECTRUM
##SAMPLE DESCRIPTION=Philip Morris R&D
##NAMES=HP
##CAS NAME=2-Isopropyl-5-oxohexanal
##MOLFORM=C9H16O2
##CAS REGISTRY NO=15303-46-5
##MP= -300
##BP= -300
##MW= 156
##$RETENTION INDEX=0
##$CONDENSED SPECTRUM=NO
##NPOINTS= 48
##XYDATA=(XY..XY) 1 
    36         30
    39         89
    40          7
    41        178
    42         31
    43        999
    44         26
    45          7
    51         10
    53         13
    54          7
    55         84
    56         17
    57         34
    58        777
    59         92
    60          2
    67         10
    68         48
    69        192
    70        113
    71        269
    79          7
    80          1
    81         68
    82          6
    83         49
    84         11
    85         76
    86         46
    87          2
    93          6
    95        110
    96         36
    97          3
    98          5
    99         58
   109          0
   110        105
   111          6
   112          7
   113         13
   114          0
   120         20
   123         62
   128         18
   138         24
   141         17