##TITLE=Library Entry 13313
##JCAMP-DX=Revision 4.10 
##DATA TYPE=MASS SPECTRUM
##SAMPLE DESCRIPTION=Div. of Experiment Therapeutics WRAIR, WRAMC, Washingto
n DC 20307
##NAMES=HP
##CAS NAME=4-Chloro-2-nitro-toluene-.alpha.,.alpha.-diol diacetate
##MOLFORM=C11H10ClNO6
##CAS REGISTRY NO=1530-56-9
##MP= -300
##BP= -300
##MW= 287
##$RETENTION INDEX=0
##$CONDENSED SPECTRUM=NO
##NPOINTS= 119
##XYDATA=(XY..XY) 1 
    41          1
    43        999
    45          4
    46          0
    47          1
    48          0
    49          8
    50         14
    51         13
    53          3
    57          1
    61          4
    62          3
    63         14
    64          2
    65          2
    66          0
    67          0
    72          0
    73          9
    74         15
    75         59
    76         15
    77          3
    78          6
    79          0
    80          0
    84          7
    85          8
    86          4
    87          2
    88          0
    89          1
    90          3
    91          1
    92          1
    93          0
    94          0
    97          0
    98          1
    99         21
   101          9
   103         60
   104          1
   105          1
   106          0
   109          0
   110         19
   111          6
   112         12
   113          8
   114          0
   115          2
   120          1
   122          0
   123          1
   124          0
   125          2
   126          2
   127         16
   129          7
   130          0
   131          0
   132          1
   134          0
   135          1
   136          0
   138         21
   139          7
   140          7
   141          6
   142          0
   143          3
   145        113
   146          5
   147          1
   149          0
   150          0
   153          0
   155         82
   157         67
   159         13
   160          0
   166          0
   168          8
   169          6
   170          3
   171          2
   172          0
   173          0
   175          0
   181          1
   184         15
   185        172
   186         35
   187         60
   188          9
   189          1
   197          1
   199         32
   200          3
   201         10
   202          1
   205          1
   227          3
   228        133
   229          6
   230         44
   231          1
   232          0
   241         29
   242          1
   243          9
   244          1
   247          0
   259          0
   287          2
   288          0
   289          0