##TITLE=Library Entry 24102
##JCAMP-DX=Revision 4.10 
##DATA TYPE=MASS SPECTRUM
##SAMPLE DESCRIPTION=NIST Mass Spectrometry Data Center
##NAMES=HP
##CAS NAME=Heptacos-1-ene
##MOLFORM=C27H54
##CAS REGISTRY NO=15306-27-1
##MP= -300
##BP= -300
##MW= 378
##$RETENTION INDEX=2693
##$CONDENSED SPECTRUM=NO
##NPOINTS= 68
##XYDATA=(XY..XY) 1 
    27         30
    29        128
    30          4
    39         53
    40         11
    41        570
    42        131
    43        998
    44         32
    53         43
    54        195
    55        992
    56        417
    57        999
    58         41
    65         13
    66         21
    67        275
    68        182
    69        964
    70        448
    71        606
    72         31
    79         47
    80         23
    81        173
    82        277
    83        880
    84        263
    85        336
    86         20
    95         92
    96        173
    97        782
    98        153
    99         80
   109         43
   110         79
   111        484
   112        114
   113         48
   123         26
   124         52
   125        226
   126         71
   127         27
   137         14
   138         32
   139         82
   140         43
   152         18
   153         41
   154         26
   155         10
   166         15
   167         26
   168         20
   169          8
   180         11
   181         15
   182         14
   183          5
   195         10
   197          4
   222          6
   350          6
   378         67
   379         19