##TITLE=Library Entry 13421
##JCAMP-DX=Revision 4.10 
##DATA TYPE=MASS SPECTRUM
##SAMPLE DESCRIPTION=Institute of Organic Chemistry, USSR, 1990
##NAMES=HP
##CAS NAME=5-Acetamido-6-morpholino-4,7-dioxo-4,7-dihydrobenzofurazan
##MOLFORM=C12H12N4O5
##CAS REGISTRY NO=153136-29-9
##MP= -300
##BP= -300
##MW= 292
##$RETENTION INDEX=0
##$CONDENSED SPECTRUM=NO
##NPOINTS= 144
##XYDATA=(XY..XY) 1 
    40         44
    41        118
    42        135
    43        999
    44         98
    45        125
    46          9
    47         25
    48          8
    49         12
    52         33
    53         26
    54        126
    55        126
    56         75
    57         67
    58         33
    59         31
    65         14
    66         48
    67         56
    68        111
    69         68
    70         90
    71         37
    72         26
    77         24
    78         24
    79         35
    80         44
    81         38
    82         26
    83         97
    84         62
    85        366
    86         50
    87         24
    90          6
    91         14
    92         15
    93         54
    94         61
    95         62
    96         37
    97         28
    98          9
   104          6
   105         16
   106         22
   107         30
   108         17
   109         24
   110         36
   111         12
   114          8
   117         10
   118          8
   119         11
   120         38
   121         56
   122         25
   123         20
   124         18
   125         28
   126         46
   127          6
   130         10
   131         11
   132          6
   133         20
   134         26
   135         48
   136         29
   137         19
   138         16
   139          9
   145          7
   146         12
   147         27
   148         61
   149         74
   150         24
   151         34
   152         12
   159          9
   160         17
   161         22
   162         42
   163         23
   164         19
   165         47
   166         37
   167         14
   168         12
   174          9
   175        180
   176         49
   177         26
   178         28
   179         74
   180         10
   181          5
   187          5
   188         19
   189         19
   190         23
   191         51
   192        546
   193        124
   194         12
   195         16
   202          8
   203        127
   204         29
   205         47
   206         38
   207          8
   215          7
   216          8
   217         23
   218          8
   219         43
   220        113
   221         54
   222          9
   231          7
   232          6
   233        243
   234         25
   235         23
   248         13
   249         88
   250        428
   251         45
   252         11
   261          6
   264          7
   265          9
   272          5
   274          9
   277          5
   292        513
   293         85
   294         10