##TITLE=Library Entry 47877
##JCAMP-DX=Revision 4.10 
##DATA TYPE=MASS SPECTRUM
##SAMPLE DESCRIPTION=A.A.Kutin, Moscow, Russia
##NAMES=HP
##CAS NAME=4H-Imidazo[4,5-f]-2,1,3-benzoxadiazole-4,8(5H)-dione, 6-methyl-5-
phenyl-
##MOLFORM=C14H8N4O3
##CAS REGISTRY NO=153136-35-7
##MP= -300
##BP= -300
##MW= 280
##$RETENTION INDEX=0
##$CONDENSED SPECTRUM=NO
##NPOINTS= 99
##XYDATA=(XY..XY) 1 
    30        428
    37          8
    38         53
    39         77
    40         29
    41         16
    43          8
    44         14
    50        120
    51        491
    52         88
    53         34
    54         41
    61          8
    62         35
    63         45
    64         39
    65         52
    66         23
    67          9
    68          9
    69          7
    70         82
    74         29
    75         44
    76        111
    77        999
    78        113
    79         57
    80         10
    81         22
    87         11
    88         37
    89         17
    90         12
    91         32
    92          9
    93         27
    94         16
    95          8
    99          7
   100          8
   101         11
   102         18
   103        120
   104        188
   105         52
   107         73
   108         10
   114         48
   115         61
   116         12
   117          9
   118        163
   119         30
   126         22
   127         17
   128         12
   129         45
   130         32
   131         51
   140          7
   141         21
   142         11
   143        248
   144        107
   145         14
   152         11
   153         34
   154         15
   155         19
   156         14
   158         16
   159        104
   160         11
   168          7
   169          9
   172         10
   181         14
   182         14
   183         10
   184         15
   197         12
   199         16
   200         82
   201         10
   209          9
   210        117
   211         19
   222          9
   225         27
   226         12
   235          8
   250         49
   251        214
   252         46
   280        993
   281        158
   282         19