##TITLE=Library Entry 62646
##JCAMP-DX=Revision 4.10 
##DATA TYPE=MASS SPECTRUM
##SAMPLE DESCRIPTION=A.A.Kutin, Moscow, Russia
##NAMES=HP
##CAS NAME=Ethanol, 2-(4-methylphenylsylfonyl)phenylamino-
##MOLFORM=C15H17NO3S
##CAS REGISTRY NO=15314-61-1
##MP= -300
##BP= -300
##MW= 291
##$RETENTION INDEX=0
##$CONDENSED SPECTRUM=NO
##NPOINTS= 122
##XYDATA=(XY..XY) 1 
    33          0
    34          1
    36          1
    37          1
    38         12
    39         75
    40         18
    41         23
    42          3
    43          6
    44          4
    45         12
    48          1
    49          0
    50         22
    51         96
    52         17
    53          7
    54          1
    55          2
    57          1
    58          0
    61          0
    62          7
    63         34
    64         27
    65        162
    66         12
    67          5
    68          0
    69          3
    70          0
    71          1
    73          0
    74          3
    75          4
    77        329
    78         60
    79         73
    80          6
    81          0
    83          1
    84          0
    85          0
    87          1
    89         44
    91        999
    92         93
    93         12
    94          1
    95          0
    97          1
   102          3
   104        212
   105        197
   106        251
   107         25
   108          4
   109          0
   111          2
   115          2
   116          0
   117          5
   118          7
   119          2
   120          2
   121          1
   122          1
   123          1
   124          1
   126          0
   128          1
   134          1
   135          3
   136          2
   137          7
   139         15
   140          5
   141          2
   142          0
   150          1
   152         10
   155        872
   156         74
   157         41
   158          3
   165          3
   166          2
   167          7
   168          4
   169          0
   178          0
   179          1
   180          5
   181          2
   182          4
   183          1
   193          1
   194          3
   195          1
   196          4
   197          0
   210          2
   211          0
   225          0
   226          3
   227          6
   228          0
   247          0
   255          0
   256          2
   257          9
   260        614
   261         83
   262         33
   263          3
   288          1
   289          3
   291        129
   292         21
   293          8
   294          0