##TITLE=Library Entry 19761
##JCAMP-DX=Revision 4.10 
##DATA TYPE=MASS SPECTRUM
##SAMPLE DESCRIPTION=Humboldt-Universitat zu Berlin, Department of Chemistry
, Analytical Group
##NAMES=HP
##CAS NAME=Dicyclohexylphosphinodithioic acid, 2,4-dioxopentan-3-yl ester
##MOLFORM=C17H29O2PS2
##CAS REGISTRY NO=153139-66-3
##MP= -300
##BP= -300
##MW= 360
##$RETENTION INDEX=0
##$CONDENSED SPECTRUM=NO
##NPOINTS= 194
##XYDATA=(XY..XY) 1 
    14          4
    15         44
    16          5
    17         31
    18        127
    26          7
    27         85
    28         35
    29        148
    30          5
    31          6
    32          3
    34          3
    35          4
    39        122
    40         13
    41        668
    42         39
    43        893
    44         43
    45         59
    46          5
    47         12
    50          2
    51          9
    52          4
    53         95
    54         32
    55        999
    56         51
    57         31
    58         12
    59         34
    60          9
    61         13
    63         80
    64          5
    65         43
    66          9
    67         64
    68          6
    69         16
    70          6
    71         22
    72          5
    73         19
    74          3
    75          2
    76          1
    77         22
    78          5
    79        109
    80         34
    81        397
    82         55
    83        446
    84         36
    85        115
    86          7
    87         12
    88         14
    89          9
    90          6
    91          8
    92          2
    93          4
    95          9
    96          3
    97         23
    98          6
    99         20
   100         41
   101         36
   102          5
   103          7
   104          2
   105          4
   107          2
   109          7
   110          2
   111         17
   112          7
   113        545
   114         47
   115         35
   116         22
   117         18
   118          4
   119         61
   120         14
   121         17
   122          3
   123          3
   125          2
   127          3
   129          5
   130          5
   131         34
   132         26
   133          9
   134          3
   135         15
   136          2
   137          3
   139          1
   141          1
   143          2
   144          2
   145         34
   146         14
   147        205
   148         63
   149         83
   150          7
   151          6
   152          2
   153         10
   154         39
   155         12
   156          4
   157          2
   161         39
   162          7
   163         72
   164         15
   165          8
   166          2
   167          2
   171          1
   177         15
   178         23
   179         30
   180          8
   181          7
   182          1
   183          1
   185          0
   194          2
   195          7
   196          6
   197          3
   198          1
   203          4
   213          6
   214          6
   215         11
   216          1
   219          4
   220          2
   221          0
   227          4
   229        861
   230        125
   231         68
   232          9
   233          1
   235         14
   236         13
   237          3
   238          1
   245        508
   246         68
   247         35
   248          4
   249          0
   259          0
   260          0
   261         12
   262          2
   263          1
   277          6
   278          4
   279          1
   280          0
   285         18
   286          3
   287          1
   296          9
   297          1
   317          2
   318          1
   319          0
   327        284
   328         57
   329         18
   330          2
   331          0
   342          0
   345          0
   360         84
   361         18
   362          9
   363          1
   364          0