##TITLE=Library Entry 23754
##JCAMP-DX=Revision 4.10 
##DATA TYPE=MASS SPECTRUM
##SAMPLE DESCRIPTION=P.A. Leclercq, Lab. Instrum. Anal., Eindhoven Univ. Tec
hnol., Netherlands
##NAMES=HP
##CAS NAME=Nickel, bis[bis(2-methylpropyl)carbamodithioato-S,S']-, (SP-4-1)-
##MOLFORM=C18H36N2NiS4
##CAS REGISTRY NO=15317-78-9
##MP= -300
##BP= -300
##MW= 466
##$RETENTION INDEX=3332
##$CONDENSED SPECTRUM=NO
##NPOINTS= 217
##XYDATA=(XY..XY) 1 
    41        832
    42        149
    43        196
    44         16
    45         69
    46         16
    47         26
    48          7
    49          4
    50          6
    51          7
    52          4
    53         26
    54         17
    55        265
    56        151
    57        999
    58         95
    59         14
    60        107
    61          4
    62         25
    63          1
    64          4
    67          5
    68         16
    69          7
    70         25
    71          6
    72         62
    73         64
    74         83
    75         46
    76         35
    77          9
    78          4
    80          5
    81          5
    82         22
    83          3
    84        121
    85         20
    86         47
    87          6
    88         31
    89         23
    90         10
    91          8
    92          4
    93          2
    94         10
    95          3
    96         11
    98         12
    99         12
   100         20
   101         13
   102          7
   103          8
   104          7
   105          7
   106          6
   110          5
   111          2
   112          7
   113         61
   114         48
   115        102
   116        432
   117         37
   118         27
   119         13
   120          6
   121          3
   122          9
   123          3
   124          4
   125          4
   126         10
   127          7
   128        136
   129         11
   130         14
   131          7
   132         16
   133          5
   134         13
   135          5
   136          6
   137          3
   138          9
   139          5
   140         38
   141         13
   142         16
   143         14
   144          8
   145          9
   146         25
   147         21
   148          8
   149         27
   150         33
   151         11
   152         14
   153          4
   154         16
   155          2
   156         16
   157          4
   158          7
   159          3
   160          4
   161          3
   162          4
   163          3
   164          3
   168          3
   169          5
   170         13
   171         10
   172        173
   173         90
   174         33
   175         18
   176          7
   177          4
   178          5
   180          7
   181          8
   182          9
   183          4
   184          7
   185          9
   186         22
   187         78
   188         33
   189         42
   190         12
   191          6
   192          4
   194         13
   196          7
   197          3
   198          5
   199          5
   200          6
   201          3
   202          6
   203         28
   204         36
   205         72
   206         10
   207          7
   208          3
   212         10
   213         49
   214          9
   215         22
   216          6
   217          5
   219          9
   221          5
   224          3
   226         21
   227          9
   228         54
   229         94
   230         84
   231         48
   232         30
   233          8
   234          5
   245          4
   260          4
   261          3
   262        106
   263         29
   264         52
   265         12
   266          5
   267          3
   271          4
   287          7
   295          6
   297          3
   311          3
   313         46
   314          8
   315         17
   316          4
   317          5
   345          4
   347         11
   349          5
   356          3
   357          3
   402          7
   403          6
   404          6
   405          3
   432          6
   433         21
   434        110
   435         34
   436         56
   437         12
   438          7
   439          3
   466        426
   467        111
   468        263
   469         91
   470         84
   471         11
   472         11
   473          3