##TITLE=Library Entry 12923
##JCAMP-DX=Revision 4.10 
##DATA TYPE=MASS SPECTRUM
##SAMPLE DESCRIPTION=Institute of Organic Chemistry, USSR, 1990
##NAMES=HP
##CAS NAME=5-Acetamido-4,7-dihydroxybenzofurazan
##MOLFORM=C8H7N3O4
##CAS REGISTRY NO=153136-26-6
##MP= -300
##BP= -300
##MW= 209
##$RETENTION INDEX=0
##$CONDENSED SPECTRUM=NO
##NPOINTS= 54
##XYDATA=(XY..XY) 1 
    40         45
    41         63
    42         70
    43        999
    44         43
    51          7
    52         30
    53         49
    54         21
    55         12
    63         10
    64         16
    65          6
    66         12
    67         20
    68        178
    69         65
    70         28
    71          5
    77          7
    79         10
    80         26
    82          6
    83          7
    91          7
    92         27
    93          5
    94         14
    95         75
    96         23
   107         11
   108         12
   109         11
   122         45
   123         68
   124         17
   125         17
   136         54
   137         25
   148          8
   150        317
   151         21
   153         26
   165         21
   166         44
   167        825
   168         63
   169          8
   179         34
   191         10
   195         23
   207         30
   209        238
   210         27