##TITLE=Library Entry 83142
##JCAMP-DX=Revision 4.10 
##DATA TYPE=MASS SPECTRUM
##SAMPLE DESCRIPTION=Pu Leung, NIH, Bethesda, MD
##NAMES=HP
##CAS NAME=N-Benzylmaleamic acid
##MOLFORM=C11H11NO3
##CAS REGISTRY NO=15329-69-8
##MP= -300
##BP= -300
##MW= 205
##$RETENTION INDEX=0
##$CONDENSED SPECTRUM=NO
##NPOINTS= 111
##XYDATA=(XY..XY) 1 
    41         24
    42         13
    43         35
    44         36
    45         76
    47         23
    49         10
    50         33
    51        114
    52         29
    53         34
    54         43
    55         90
    56         11
    57          7
    58          6
    59          3
    60          1
    61          2
    62         10
    63         34
    64          2
    65        111
    66          7
    67          4
    68          3
    69          7
    70          1
    71         39
    72         72
    73          5
    74          7
    75          6
    76          8
    77        130
    78         52
    79        236
    80         22
    81          2
    82         57
    83         14
    88         14
    89         41
    91        359
    92         30
    93          5
    95          2
    96          1
    97          3
    99         90
   100         55
   101          3
   102          3
   103          1
   104         73
   106        999
   107         98
   108          5
   109          1
   110          1
   111          3
   112          0
   113          1
   115         17
   116          9
   117         36
   118          9
   119          1
   120          0
   123          0
   124          1
   125          2
   127          3
   128          1
   130         18
   131          7
   132          9
   133          3
   134          1
   135          0
   139          0
   140          1
   141          2
   142          2
   143          1
   144          8
   145          1
   146          4
   147          5
   148         13
   149          2
   151          0
   155          2
   158          5
   159          2
   160         52
   161         42
   162          4
   164          0
   169          3
   177          4
   185          1
   187        408
   188         44
   189          5
   190          4
   192          0
   203          1
   205         39
   206          6
   207          0