##TITLE=Library Entry 78579
##JCAMP-DX=Revision 4.10 
##DATA TYPE=MASS SPECTRUM
##SAMPLE DESCRIPTION=NIST Mass Spectrometry Data Center, 1994
##NAMES=HP
##CAS NAME=3-Phenylbutyrophenone
##MOLFORM=C16H16O
##CAS REGISTRY NO=1533-20-6
##MP= -300
##BP= -300
##MW= 224
##$RETENTION INDEX=0
##$CONDENSED SPECTRUM=NO
##NPOINTS= 106
##XYDATA=(XY..XY) 1 
    15          2
    17          1
    18          5
    26          0
    27         50
    28          6
    32          0
    37          1
    38         12
    39        105
    40          8
    41         70
    42          6
    43          1
    50         77
    51        297
    52         33
    53         15
    54          1
    55          3
    57          0
    58          1
    61          1
    62          9
    63         34
    64          7
    65         48
    66          5
    67          1
    69          9
    73          1
    74         10
    75         19
    76          1
    77        730
    78        128
    79         90
    80          5
    81          0
    86          1
    87          3
    89         18
    91        157
    92         14
    93          1
    94          1
    98          1
   101          3
   102         18
   103         94
   104          1
   105        999
   106         85
   107         11
   112          3
   115         27
   116          5
   117         18
   118         34
   119         34
   120        190
   121         18
   122          1
   126          1
   127          2
   128          5
   129          5
   130          1
   131         66
   132          8
   133          3
   139          1
   145          6
   146          5
   147          6
   151          1
   152          4
   153          2
   165          6
   166          3
   167          2
   176          1
   178          3
   179          2
   181          9
   182          2
   189          1
   191         13
   192          2
   194          2
   195          2
   196          0
   203          1
   204          1
   205          2
   206          7
   207          3
   208          0
   209        213
   210         36
   211          3
   221          1
   222          1
   224        137
   225         23
   226          2