##TITLE=Library Entry 19498
##JCAMP-DX=Revision 4.10 
##DATA TYPE=MASS SPECTRUM
##SAMPLE DESCRIPTION=J.R. Aldrich, Agricultural Research Center, USDA, Belts
ville, MD 20
##NAMES=HP
##CAS NAME=E-2-Hexenyl E-2-octenoate
##MOLFORM=C14H24O2
##CAS REGISTRY NO=153367-22-7
##MP= -300
##BP= -300
##MW= 224
##$RETENTION INDEX=0
##$CONDENSED SPECTRUM=NO
##NPOINTS= 108
##XYDATA=(XY..XY) 1 
    41        565
    42         89
    43        226
    44         26
    45         22
    47         17
    48          7
    52         11
    53        102
    54         98
    55        999
    56         77
    57        204
    58         13
    59          7
    60          8
    61          4
    63          3
    65         18
    66         12
    67        175
    68        121
    69         98
    70         31
    71         44
    72          7
    73         56
    74          5
    76          1
    77         12
    78          4
    79         34
    80         12
    81        108
    82        126
    83        145
    84         58
    85         74
    86         29
    87          9
    88          5
    91          7
    92          1
    93         15
    94         11
    95         60
    96         21
    97         99
    98         34
    99         57
   100         10
   101          8
   103          2
   105          3
   107         17
   108          6
   109         20
   110          6
   111         25
   112          8
   113         11
   114          5
   115          7
   116          4
   117          2
   119          3
   121          6
   122          3
   123         14
   124         19
   125        514
   126         45
   127          9
   129          5
   135          8
   136          2
   137          4
   138          3
   139         14
   140         21
   141         20
   142         11
   143         47
   144          4
   149          3
   151          1
   152          0
   153         10
   154          6
   155          4
   157          8
   164          3
   165          3
   167         11
   168          3
   169          1
   179          3
   181         10
   182          2
   183          0
   185          5
   195         11
   196          2
   197          3
   222          0
   223          9
   224         11
   225          1