##TITLE=Library Entry 39834
##JCAMP-DX=Revision 4.10 
##DATA TYPE=MASS SPECTRUM
##SAMPLE DESCRIPTION=Japan AIST/NIMC Database- Spectrum MS-NW-3413
##NAMES=HP
##CAS NAME=3-Dodecanone
##MOLFORM=C12H24O
##CAS REGISTRY NO=1534-27-6
##MP= -300
##BP= -300
##MW= 184
##$RETENTION INDEX=1387
##$CONDENSED SPECTRUM=NO
##NPOINTS= 80
##XYDATA=(XY..XY) 1 
    14          1
    15          4
    18          3
    26          9
    27        123
    28         21
    29        390
    30          9
    31          5
    32          6
    38          2
    39         73
    40         14
    41        255
    42         63
    43        408
    44         15
    45          4
    50          2
    51          5
    52          3
    53         24
    54         17
    55        140
    56         40
    57        679
    58         30
    59          9
    63          1
    65          4
    66          2
    67         36
    68         14
    69         62
    70         19
    71        284
    72        999
    73        239
    74         10
    75          1
    77          3
    79          5
    80          1
    81         49
    82         13
    83         21
    84         11
    85        278
    86         22
    87          3
    91          1
    93          1
    95         58
    96         14
    97          9
    98          7
    99         25
   100          5
   109          7
   110         31
   111          6
   112         14
   113          8
   114         12
   121          1
   123          2
   124          2
   127         22
   128          8
   137         15
   138          3
   141         11
   142          5
   155        356
   156         42
   157          4
   166          5
   183          4
   184         43
   185          6