##TITLE=Library Entry 66020
##JCAMP-DX=Revision 4.10 
##DATA TYPE=MASS SPECTRUM
##SAMPLE DESCRIPTION=A.S.Moskovkin,I.M.Karnaukh, Russian Center on Disaster
 Medicine
##NAMES=HP
##CAS NAME=1-(2-Hydroxyethyl)-9-(3-phenylthioureido)-3,6-diazahomoadamantane
##MOLFORM=C18H26N4OS
##CAS REGISTRY NO=153464-76-7
##MP= -300
##BP= -300
##MW= 346
##$RETENTION INDEX=0
##$CONDENSED SPECTRUM=NO
##NPOINTS= 149
##XYDATA=(XY..XY) 1 
    38         23
    39         64
    40         21
    41         17
    42         66
    43          3
    44          6
    46         36
    47          1
    49          4
    50         33
    51         54
    52         28
    53         44
    54         23
    55          9
    56         17
    57         10
    58         49
    59         18
    60         25
    61          8
    62         16
    63         28
    64         23
    65        103
    66        201
    67         27
    68         35
    69          4
    70         14
    71          8
    72        432
    73         21
    74         13
    75          8
    76         16
    77        136
    78         28
    79         27
    80         15
    81         19
    82         34
    83         13
    84         27
    85         10
    87          1
    88          3
    89          2
    90          5
    91         38
    92        108
    93        999
    94         94
    95          7
    96         13
    97          6
    98         18
    99          3
   103          9
   104         32
   105         24
   106         20
   107         20
   108         33
   109         16
   110          3
   111          6
   115          2
   117          4
   118         12
   119         30
   120         28
   121         17
   122         25
   123         28
   124         13
   125          4
   126          9
   127          3
   128          2
   130          4
   131          2
   132          6
   133          6
   134         21
   135        213
   136         39
   137         29
   138        104
   139         11
   140          5
   144         14
   145         12
   146          4
   147          5
   150         23
   151         44
   152         30
   153          3
   154          3
   161          3
   162          3
   163         21
   164          6
   165          8
   166          8
   168          3
   175          3
   176          4
   177          4
   179         18
   180          3
   181          8
   182          4
   190          2
   192          3
   193         20
   194         36
   195         95
   196         13
   197          2
   206          2
   207          1
   208          4
   209          4
   210          2
   211          5
   212         21
   213          2
   220          3
   221         10
   222          4
   223          7
   237         19
   238          3
   239          3
   245          4
   251          6
   252          2
   253        297
   254         47
   255         16
   256          2
   263          3
   312          7
   328          2
   346          4
   347          1