##TITLE=Library Entry 18470
##JCAMP-DX=Revision 4.10 
##DATA TYPE=MASS SPECTRUM
##SAMPLE DESCRIPTION=NIST Mass Spectrometry Data Center
##NAMES=HP
##CAS NAME=6-Nitropiperonyl alcohol
##MOLFORM=C8H7NO5
##CAS REGISTRY NO=15341-08-9
##MP= -300
##BP= -300
##MW= 197
##$RETENTION INDEX=0
##$CONDENSED SPECTRUM=NO
##NPOINTS= 94
##XYDATA=(XY..XY) 1 
    13          7
    14         39
    15         16
    16          2
    17         27
    18         15
    19         15
    26         43
    27         89
    28          6
    29        461
    30        437
    31        215
    37         94
    38        180
    39        704
    40         82
    41         77
    42         99
    43         34
    44         20
    45         22
    46         45
    47         26
    49         57
    50        355
    51        316
    52        414
    53        999
    54        110
    55        265
    56         16
    57         15
    61        194
    62        534
    63        710
    64        303
    65        817
    66        249
    67        115
    68        163
    69        316
    70         29
    71         13
    73         25
    74        110
    75         98
    76        134
    77        272
    78        222
    79        475
    80        243
    81        157
    82         24
    83         12
    89         13
    91        144
    92         76
    93        207
    94        120
    95         35
    96         10
    98         10
    99         29
   105        244
   106        172
   107         94
   108         38
   109         90
   110         11
   119        170
   120        142
   121        463
   122        483
   123        379
   124         66
   133         26
   134        147
   135        455
   136        136
   137         32
   149        696
   150        106
   151         87
   152        219
   153         24
   163         28
   164         21
   165         67
   166         21
   178         22
   180         16
   197        404
   198         37