##TITLE=Library Entry 6425
##JCAMP-DX=Revision 4.10 
##DATA TYPE=MASS SPECTRUM
##SAMPLE DESCRIPTION=R.M. Teeter, 203 Del Valle Circle, El Sobrante, CA 9480
3-3373, USA
##NAMES=HP
##CAS NAME=Decanethiol, acetate
##MOLFORM=C12H24OS
##CAS REGISTRY NO=1534-09-4
##MP= -300
##BP= -300
##MW= 216
##$RETENTION INDEX=0
##$CONDENSED SPECTRUM=NO
##NPOINTS= 124
##XYDATA=(XY..XY) 1 
    26          8
    27         62
    28         41
    29        118
    30          4
    31         20
    32         75
    33          2
    34          5
    35          6
    36          8
    37          2
    38          5
    39         41
    40         12
    41        173
    42        118
    43        999
    44         64
    45         21
    46          8
    53         18
    54         15
    55        148
    56         62
    57         75
    58         23
    59         19
    60         13
    61         20
    62          1
    63          2
    64          2
    65          4
    66          3
    67         27
    68         18
    69         86
    70         56
    71         34
    72          9
    73          5
    74          3
    75          3
    76         23
    77         23
    78          3
    79          9
    80          3
    81         23
    82         19
    83         73
    84         23
    85         22
    86          8
    87         23
    88          6
    89         10
    90          2
    91          6
    92          2
    93          9
    94          7
    95         17
    96         17
    97         34
    98         17
    99          6
   100          7
   101         10
   102          2
   103          4
   104          1
   105          5
   106          1
   107          9
   108         10
   109         15
   110          6
   111         18
   112         13
   113          7
   114          8
   115          5
   116          1
   117          3
   118          8
   119          2
   120          2
   124          2
   125          2
   127          6
   128          6
   129          6
   130          1
   132          2
   138          3
   140         75
   141         12
   142          4
   143          2
   145          4
   146          1
   152          1
   155          1
   156         62
   157          6
   159          3
   164          1
   165          3
   168          1
   169          3
   171          4
   172         10
   173        161
   174         26
   175         11
   176          3
   177         11
   183          2
   198          3
   201          1
   216         13
   217          1