##TITLE=Library Entry 25589
##JCAMP-DX=Revision 4.10 
##DATA TYPE=MASS SPECTRUM
##SAMPLE DESCRIPTION=NIST Mass Spectrometry Data Center, 1994
##NAMES=HP
##CAS NAME=3-Tridecanone
##MOLFORM=C13H26O
##CAS REGISTRY NO=1534-26-5
##MP= -300
##BP= -300
##MW= 198
##$RETENTION INDEX=1498
##$CONDENSED SPECTRUM=NO
##NPOINTS= 87
##XYDATA=(XY..XY) 1 
    15         10
    17          0
    18          1
    27        242
    28         68
    29        640
    30         14
    31         10
    39        111
    41        451
    42        150
    43        672
    44         21
    45          5
    48          0
    50          1
    51          5
    52          6
    53         37
    54          0
    55        249
    56          0
    57        999
    58         39
    59          7
    63          0
    65          6
    67         53
    68         23
    69         77
    70         41
    71        245
    72        907
    73        276
    74         12
    77          4
    78          1
    79          7
    80          0
    81         64
    82         29
    83         57
    84          1
    85        339
    86         30
    87          4
    91          1
    93          2
    95        152
    96         32
    97         23
    98         20
    99         55
   100         11
   101          2
   107          1
   109         53
   110         17
   111          5
   113         13
   114         25
   115          2
   124         33
   125          4
   126         11
   127         15
   128         11
   129          0
   137          1
   138          1
   139          0
   141         14
   142          4
   151         13
   152          1
   155          9
   156          4
   169        461
   170         54
   171          3
   179          1
   180          3
   181          0
   183          0
   198         25
   199          5
   200          0