##TITLE=Library Entry 2312
##JCAMP-DX=Revision 4.10 
##DATA TYPE=MASS SPECTRUM
##SAMPLE DESCRIPTION=A.A.Kutin, Moscow, Russia
##NAMES=HP
##CAS NAME=1-[1,2-Dihydroxy-2-(2-oxopyrrolidin-1-yl)ethyl]-2-pyrrolidinone
##MOLFORM=C10H16N2O4
##CAS REGISTRY NO=1534-24-3
##MP= -300
##BP= -300
##MW= 228
##$RETENTION INDEX=0
##$CONDENSED SPECTRUM=NO
##NPOINTS= 103
##XYDATA=(XY..XY) 1 
    35          2
    36          3
    37         29
    38         52
    39        313
    40        177
    41        999
    42        675
    43        172
    44        164
    45         25
    46         28
    47          2
    50          3
    51         13
    52         25
    53         16
    54         38
    55         66
    56        227
    57         91
    58        132
    59         48
    60          8
    63          5
    64          3
    65          2
    66          4
    67          4
    68         38
    69        168
    70         36
    71         33
    72         17
    75          2
    80          2
    82          5
    83          5
    84        140
    85        497
    86        458
    87        294
    88         14
    95          4
    96         10
    97         46
    98         14
    99          2
   112         20
   113         42
   114        321
   115        422
   116         29
   117          3
   118          0
   119          1
   120          1
   121          0
   122          0
   123          6
   124          1
   125          3
   126         28
   127         18
   128         15
   129          0
   131          0
   133          1
   134          0
   135          1
   138          0
   139          0
   140          0
   141          0
   142          0
   143          2
   144          1
   146          0
   147          0
   149          0
   152          0
   153          1
   154          0
   155          1
   156          0
   161          0
   163          0
   166          0
   167          0
   169          0
   170          0
   171          0
   181          1
   182          0
   183          0
   185          0
   187          0
   189          0
   194          0
   200          0
   209          0
   210          0
   211          0