##TITLE=Library Entry 85125
##JCAMP-DX=Revision 4.10 
##DATA TYPE=MASS SPECTRUM
##SAMPLE DESCRIPTION=Exported from NIST MS Search
##NAMES=HP
##CAS NAME=Benzene, 1-(1,1-dimethylethoxy)-3-methyl-
##MOLFORM=C11H16O
##CAS REGISTRY NO=15359-97-4
##MP= -300
##BP= -300
##MW= 164
##$RETENTION INDEX=0
##$CONDENSED SPECTRUM=NO
##NPOINTS= 24
##XYDATA=(XY..XY) 1 
    41        138
    43         63
    51         75
    52         50
    53         50
    55         50
    56         50
    57        138
    58         63
    65         88
    77        125
    78         63
    79        113
    80        100
    85         63
    89         50
    90        113
    91        113
   106         75
   107        275
   108        999
   109        150
   149         75
   164        100