##TITLE=Library Entry 85124
##JCAMP-DX=Revision 4.10 
##DATA TYPE=MASS SPECTRUM
##SAMPLE DESCRIPTION=Exported from NIST MS Search
##NAMES=HP
##CAS NAME=Benzene, 1-(1,1-dimethylethoxy)-2-methyl-
##MOLFORM=C11H16O
##CAS REGISTRY NO=15359-96-3
##MP= -300
##BP= -300
##MW= 164
##$RETENTION INDEX=0
##$CONDENSED SPECTRUM=NO
##NPOINTS= 20
##XYDATA=(XY..XY) 1 
    41        100
    42         25
    50         50
    51         50
    52         50
    53         50
    57        125
    65         63
    77        125
    78         63
    79        113
    80         75
    89         63
    90        125
    91        125
   107        250
   108        999
   109        138
   149        100
   164         50