##TITLE=Library Entry 38982
##JCAMP-DX=Revision 4.10 
##DATA TYPE=MASS SPECTRUM
##SAMPLE DESCRIPTION=RADIAN CORP
##NAMES=HP
##CAS NAME=Cyclohexanol, 5-methyl-2-(1-methylethyl)-, (1.alpha.,2.beta.,5.al
pha.)-(.+/-.)-
##MOLFORM=C10H20O
##CAS REGISTRY NO=15356-70-4
##MP= -300
##BP= -300
##MW= 156
##$RETENTION INDEX=0
##$CONDENSED SPECTRUM=NO
##NPOINTS= 58
##XYDATA=(XY..XY) 1 
    14          2
    27         88
    28         34
    29        102
    31         25
    32         10
    39        126
    40         26
    41        358
    42         55
    43        269
    44         41
    45         19
    51         15
    52          2
    53         89
    54         41
    55        388
    56        147
    57        265
    58         23
    59         11
    65         28
    66          9
    67        405
    68        126
    69        325
    70        129
    71        999
    72         53
    73         10
    77         39
    78          2
    79         75
    80        120
    81        894
    82        383
    83        139
    84         34
    85        102
    86         34
    91         22
    93         61
    94         73
    95        798
    96        278
    97         57
    99         38
   109        137
   110         73
   111         17
   112          9
   113          7
   123        356
   124         34
   137          2
   138        133
   139         17