##TITLE=Library Entry 49677
##JCAMP-DX=Revision 4.10 
##DATA TYPE=MASS SPECTRUM
##SAMPLE DESCRIPTION=NIST Mass Spectrometry Data Center, 1994
##NAMES=HP
##CAS NAME=Benzenamine, 2-(trifluoromethoxy)-
##MOLFORM=C7H6F3NO
##CAS REGISTRY NO=1535-75-7
##MP= -300
##BP= -300
##MW= 177
##$RETENTION INDEX=0
##$CONDENSED SPECTRUM=NO
##NPOINTS= 69
##XYDATA=(XY..XY) 1 
    15          2
    17          2
    18          5
    25          7
    26         49
    27        103
    28        186
    29          5
    30         14
    37         42
    38         97
    39        151
    40         31
    41         66
    42         13
    44          4
    45          5
    46         18
    47         19
    48          3
    49         22
    50        119
    51        165
    52        293
    53        320
    54         76
    55          6
    57         12
    61         20
    62         33
    63         96
    64         97
    65         96
    66         17
    67          6
    68          6
    69        294
    70          6
    75         13
    76         17
    77          8
    78         45
    79         63
    80        999
    81         65
    82          8
    83         47
    84          5
    89          9
    90         37
    91         26
    92        141
    93          9
   101         19
   102          5
   106          5
   108        597
   109        108
   110         13
   128         29
   137        233
   138         30
   148         15
   149         12
   156          8
   157         42
   158          4
   177        736
   178         60