##TITLE=Library Entry 51558
##JCAMP-DX=Revision 4.10 
##DATA TYPE=MASS SPECTRUM
##SAMPLE DESCRIPTION=NIST Mass Spectrometry Data Center, 2010
##NAMES=HP
##CAS NAME=3-Cyclohexen-1-ol, 1-(1,5-dimethyl-4-hexenyl)-4-methyl-
##MOLFORM=C15H26O
##CAS REGISTRY NO=15352-77-9
##MP= -300
##BP= -300
##MW= 222
##$RETENTION INDEX=1671
##$CONDENSED SPECTRUM=NO
##NPOINTS= 127
##XYDATA=(XY..XY) 1 
    26          1
    27         27
    28          5
    29         39
    30          1
    31          7
    37          1
    38          2
    39         81
    40         25
    41        409
    42         40
    43        205
    44          5
    45         10
    50          3
    51         18
    52         10
    53        129
    54         29
    55        313
    56         90
    57        169
    58          8
    59         34
    60          1
    62          1
    63          5
    64          1
    65         45
    66         17
    67        315
    68        107
    69        430
    70         73
    71         31
    72        290
    73         17
    74          1
    75          1
    76          1
    77        116
    78         18
    79        107
    80         20
    81        134
    82        999
    83        319
    84         78
    85         36
    86          4
    89          1
    90          1
    91        124
    92         46
    93        598
    94         98
    95        116
    96         22
    97         61
    98         48
    99          3
   100          1
   102          1
   103          6
   104          2
   105         74
   106         13
   107        148
   108         32
   109         92
   110         90
   111        443
   112         56
   113          5
   115          4
   116          2
   117          6
   118          4
   119        315
   120         50
   121        404
   122        287
   123         44
   124          8
   125         33
   126         15
   127          2
   128          2
   129          1
   132          2
   133         25
   134         38
   135         51
   136          7
   137          9
   138          3
   139         42
   140         76
   141         10
   142          1
   145          2
   146          1
   147         21
   148         17
   149          8
   151         17
   152          3
   153         15
   154         26
   155          3
   157          1
   160          1
   161         78
   162         15
   166          1
   175          3
   176          1
   189         18
   190          3
   193          1
   203          1
   204        153
   205         26
   206          2
   222          5
   223          1