##TITLE=Library Entry 39983
##JCAMP-DX=Revision 4.10 
##DATA TYPE=MASS SPECTRUM
##SAMPLE DESCRIPTION=Drug Lab
##NAMES=HP
##CAS NAME=Metamfepramone
##MOLFORM=C11H15NO
##CAS REGISTRY NO=15351-09-4
##MP= -300
##BP= -300
##MW= 177
##$RETENTION INDEX=1372
##$CONDENSED SPECTRUM=NO
##NPOINTS= 47
##XYDATA=(XY..XY) 1 
    40          2
    41          6
    42         59
    43          7
    44         52
    45          2
    50         15
    51         48
    52          4
    53          1
    54          5
    55         12
    56         53
    57         23
    58          2
    62          1
    63          3
    65          2
    70         38
    72        999
    73         46
    74          5
    75          3
    76          6
    77         76
    78          7
    79          2
    89          2
    91          6
   102          1
   103          3
   105         28
   106          2
   115          2
   116          1
   117          1
   118          1
   131          2
   132          2
   133          4
   134          3
   146          3
   147          1
   148          1
   160          3
   162          2
   177          1