##TITLE=Library Entry 87954
##JCAMP-DX=Revision 4.10 
##DATA TYPE=MASS SPECTRUM
##SAMPLE DESCRIPTION=Exported from NIST MS Search
##NAMES=HP
##CAS NAME=2(4H)-Benzofuranone, 5,6,7,7a-tetrahydro-4,4,7a-trimethyl-
##MOLFORM=C11H16O2
##CAS REGISTRY NO=15356-74-8
##MP= -300
##BP= -300
##MW= 180
##$RETENTION INDEX=1538
##$CONDENSED SPECTRUM=NO
##NPOINTS= 41
##XYDATA=(XY..XY) 1 
    26        160
    27        190
    29        110
    39        200
    40         80
    41        350
    42         50
    43        730
    44         40
    50        100
    51        100
    53        100
    55        180
    56         10
    57         60
    65         80
    67        300
    69        190
    70         10
    77        100
    79        110
    81        110
    83         80
    91         80
    93         80
    95        140
    96         50
   109        430
   110        210
   111        999
   112         90
   123         40
   124        110
   125         10
   137        390
   138         40
   152        100
   153         10
   165         50
   180        190
   181         20