##TITLE=Library Entry 79953
##JCAMP-DX=Revision 4.10 
##DATA TYPE=MASS SPECTRUM
##SAMPLE DESCRIPTION=Japan AIST/NIMC Database- Spectrum MS-IW-2367
##NAMES=HP
##CAS NAME=Methanone, (pentafluorophenyl)phenyl-
##MOLFORM=C13H5F5O
##CAS REGISTRY NO=1536-23-8
##MP= -300
##BP= -300
##MW= 272
##$RETENTION INDEX=0
##$CONDENSED SPECTRUM=NO
##NPOINTS= 100
##XYDATA=(XY..XY) 1 
    27          7
    28          5
    31          5
    37          1
    38          3
    39          6
    49          2
    50         47
    51        160
    52          7
    53          3
    61          2
    62          2
    63          2
    69          1
    73          3
    74         21
    75         14
    76         20
    77        546
    78         36
    79          6
    80          2
    81          1
    85          2
    86          3
    87          1
    92          1
    93         16
    96          1
    97          1
    98         10
    99          5
   102          1
   103          2
   104          5
   105        999
   106         81
   107          5
   109          2
   110          2
   111          1
   112          5
   116          1
   117         57
   118          3
   121          1
   122         27
   123          4
   124          1
   126          1
   128          1
   129          2
   135          1
   136          2
   141          1
   142          1
   143          1
   147          3
   148          7
   149          1
   155          1
   161          1
   167         89
   168          7
   173          1
   174          1
   175          2
   179          1
   185          2
   186          1
   187          1
   192          2
   193          5
   194          1
   195        108
   196          8
   197          1
   198          2
   204          2
   205          5
   206          3
   216          2
   217          1
   222          1
   223          3
   224         12
   225          6
   237          1
   242          5
   243          3
   244          4
   252          8
   253          8
   254          1
   255          2
   271          4
   272        480
   273         67
   274          5