##TITLE=Library Entry 36240
##JCAMP-DX=Revision 4.10 
##DATA TYPE=MASS SPECTRUM
##SAMPLE DESCRIPTION=NIST Mass Spectrometry Data Center, 2010
##NAMES=HP
##CAS NAME=2,2,2-Trichloroethyl 2,2,2-trifluoroacetate
##MOLFORM=C4H2Cl3F3O2
##CAS REGISTRY NO=153654-71-8
##MP= -300
##BP= -300
##MW= 244
##$RETENTION INDEX=823
##$CONDENSED SPECTRUM=NO
##NPOINTS= 99
##XYDATA=(XY..XY) 1 
    14          1
    24          1
    25          7
    26         30
    27          1
    28          5
    29         26
    30          7
    31         10
    33          7
    35         14
    36          5
    37          5
    38          2
    40          1
    41          1
    42          9
    44         10
    45          5
    47         38
    48         27
    49         66
    50         56
    51         22
    59          4
    60         60
    61        129
    62         22
    63         47
    64          1
    65          2
    66          1
    67          1
    68          2
    69        999
    70         20
    71          6
    72          1
    76          3
    77        198
    78         24
    79         65
    80          3
    81          8
    82         60
    83         30
    84         36
    85        114
    86          7
    87         34
    94          3
    95        320
    96         82
    97        318
    98         52
    99        365
   100         15
   101          2
   103          1
   110          1
   111         11
   112          2
   113          8
   114          1
   115         43
   116          2
   117        409
   118          5
   119        371
   120          4
   121        114
   122          1
   123         12
   126          1
   127        773
   128         25
   129          4
   130          2
   131        247
   132          7
   133        240
   134          6
   135         77
   136          2
   137          8
   147          1
   149          3
   151          2
   153          1
   161          1
   163          1
   180          4
   182          3
   209        393
   210         18
   211        252
   212         11
   213         41
   214          2