##TITLE=Library Entry 83457
##JCAMP-DX=Revision 4.10 
##DATA TYPE=MASS SPECTRUM
##SAMPLE DESCRIPTION=Dennis Rohrbaugh, CBDCOM/ERDEC, Edgewood, MD
##NAMES=HP
##CAS NAME=Ethyl Bis(trifluoromethylthio)arsine
##MOLFORM=C4H5AsF6S2
##CAS REGISTRY NO=153650-84-1
##MP= -300
##BP= -300
##MW= 306
##$RETENTION INDEX=0
##$CONDENSED SPECTRUM=NO
##NPOINTS= 40
##XYDATA=(XY..XY) 1 
    45         85
    63        636
    65         31
    69        259
    75         46
    76         25
    82         44
    83         69
    89         43
    95         68
   101        122
   102         72
   103         58
   107        999
   108        103
   109         54
   111        145
   113         63
   121         31
   122         12
   123        608
   124         14
   127         40
   139         27
   145         26
   176        129
   177         47
   195         47
   204         31
   205        630
   206         27
   207         29
   249         29
   277         10
   278          8
   287         61
   306        232
   307         15
   308         21
   309          1