##TITLE=Library Entry 68625
##JCAMP-DX=Revision 4.10 
##DATA TYPE=MASS SPECTRUM
##SAMPLE DESCRIPTION=Asinex Ltd, Moscow, Russia
##NAMES=HP
##CAS NAME=3-Methoxycarbonylpyrazole
##MOLFORM=C5H6N2O2
##CAS REGISTRY NO=15366-34-4
##MP= -300
##BP= -300
##MW= 126
##$RETENTION INDEX=0
##$CONDENSED SPECTRUM=NO
##NPOINTS= 37
##XYDATA=(XY..XY) 1 
    33          2
    34          4
    36          7
    37         18
    38         80
    39        119
    40         23
    41         25
    42          5
    44         46
    51          1
    52          2
    53         11
    54          6
    55         11
    57          2
    59          8
    64          2
    65          1
    66         50
    67         26
    68         16
    69          3
    71         11
    81         13
    83          4
    91          2
    95        999
    96        122
    97          9
    99          5
   108          3
   112          4
   125         63
   126        945
   127         58
   128          4