##TITLE=Library Entry 62634
##JCAMP-DX=Revision 4.10 
##DATA TYPE=MASS SPECTRUM
##SAMPLE DESCRIPTION=LAC, NIDDK, NIH, Bethesda, MD 20892
##NAMES=HP
##CAS NAME=Di(2-aminoethyl)amino, 2-benzyl-N,N',N''-tris(p-toluenesulfonyl)-
##MOLFORM=C32H37N3O6S3
##CAS REGISTRY NO=153777-58-3
##MP= -300
##BP= -300
##MW= 655
##$RETENTION INDEX=0
##$CONDENSED SPECTRUM=NO
##NPOINTS= 159
##XYDATA=(XY..XY) 1 
    42        137
    43         30
    44         33
    45         22
    47         16
    48         69
    49         65
    50         54
    51         82
    52         21
    53         16
    54         10
    55         12
    56         28
    57         17
    58          8
    60          3
    61         13
    62         36
    63        106
    64         46
    65        248
    66          5
    67         20
    69         31
    70         10
    71         17
    72          7
    73          7
    74         11
    75          8
    76          3
    77         51
    78         15
    79         15
    80          3
    81          6
    82          8
    83         18
    84         35
    85          9
    86         29
    87          7
    88          3
    89         92
    91        999
    92         82
    93          6
    95          4
    97          3
    98          7
    99         10
   101          2
   103          4
   104          2
   105         13
   106         34
   107         38
   108          9
   109          2
   111          7
   115          3
   117         17
   118         14
   119         11
   120         21
   121          9
   122          2
   123          8
   124          1
   125          8
   126          2
   127          3
   129          1
   130          1
   132         17
   133          7
   134          2
   137          1
   139         59
   140          5
   141          2
   144          1
   148         13
   149          9
   155        587
   156         44
   157         33
   159          4
   160          1
   161          5
   162          2
   164          4
   165          4
   171          8
   172          1
   173          5
   179          1
   181          1
   184         45
   185          5
   186          1
   189          4
   190        232
   192         67
   193          4
   194          1
   197          1
   198         15
   199          8
   205          5
   209         44
   210          5
   212        145
   213         21
   214         10
   223          1
   225         10
   226          3
   227        268
   228         31
   229         15
   237          4
   238         67
   239         18
   240          6
   241          2
   252          4
   253          7
   254         32
   255         50
   256          7
   265          1
   266          1
   274         81
   275         13
   276          4
   277          1
   278         13
   280          6
   281         13
   282          2
   283          1
   299          1
   300          7
   315          1
   317         11
   329          2
   345          8
   381         50
   382         10
   383          5
   393         36
   394         10
   395          5
   408          3
   471          9
   472          1
   500          3