##TITLE=Library Entry 100502
##JCAMP-DX=Revision 4.10 
##DATA TYPE=MASS SPECTRUM
##SAMPLE DESCRIPTION=LAC, NIDDK, NIH, Bethesda, MD 20892
##NAMES=HP
##CAS NAME=2-(2-Phenylisopropy)l-5-methylcyclohexanol, 4-(2-fluoroethyl)benz
oylformate(ester)
##MOLFORM=C26H31FO3
##CAS REGISTRY NO=153993-92-1
##MP= -300
##BP= -300
##MW= 410
##$RETENTION INDEX=0
##$CONDENSED SPECTRUM=NO
##NPOINTS= 185
##XYDATA=(XY..XY) 1 
    41        123
    43        111
    45          7
    47          3
    49          8
    50          9
    51         27
    52          2
    53         27
    54         29
    55        149
    57         96
    59          1
    62          4
    63         15
    65         24
    67         53
    69         76
    71         64
    72          1
    74          3
    75         12
    77        110
    79         85
    81         86
    83         74
    84         15
    85         37
    89         34
    90         16
    91        320
    93         13
    94          9
    95         49
    96         26
    97         47
    99         20
   101         14
   103        112
   105        477
   106         12
   107         11
   108          2
   109         25
   110          3
   111         26
   112          8
   113          8
   115         64
   117        187
   118        145
   119        999
   121          7
   123         51
   125         10
   127         16
   128         22
   129         36
   131         49
   133         52
   135         24
   137         10
   138          2
   139          6
   141         17
   143         44
   145         23
   146          1
   147          5
   149         11
   151        506
   153         12
   154          1
   155          9
   156          2
   157         14
   159         21
   161          4
   163          5
   165          7
   167         10
   168          2
   169          7
   171          9
   173          6
   175          2
   177          3
   178          3
   179          5
   181          3
   183          5
   185          5
   187          3
   189          3
   191          6
   192          1
   193          1
   194          2
   195          4
   197         13
   198          5
   199         26
   200          2
   202          5
   203          5
   204          1
   205          6
   207          5
   208          1
   209          2
   211          4
   213          8
   214        129
   215         45
   216          4
   217          8
   219          9
   220          3
   221          5
   222          2
   223          2
   224          1
   225          3
   226          1
   227          2
   228          3
   229          6
   230         14
   231         27
   232          5
   233         23
   234          6
   235          6
   236          3
   237          2
   238          1
   239          4
   241          5
   243          3
   245          5
   246          5
   247         14
   248          2
   249          5
   250          1
   252          2
   253          3
   255          2
   257          1
   258          1
   261          2
   265          2
   267          1
   273          1
   278          1
   279          2
   281          1
   283          3
   285          2
   289          3
   291          5
   292          2
   301          4
   309          1
   310          1
   313          1
   315          1
   317          1
   323          1
   332          1
   334          1
   335          1
   337          3
   346          1
   347          2
   348          2
   349          3
   350          2
   351          2
   362          2
   363          1
   365          5
   407          1
   410          6
   411          1