##TITLE=Library Entry 5010
##JCAMP-DX=Revision 4.10 
##DATA TYPE=MASS SPECTRUM
##SAMPLE DESCRIPTION=A.A.Kutin, Moscow, Russia
##NAMES=HP
##CAS NAME=Imidazolidin-4-one, 2-imino-1-[4,6-bis(dimethylamino)-1,3,5-triaz
ine-2-yl]-
##MOLFORM=C10H16N8O
##CAS REGISTRY NO=153967-55-6
##MP= -300
##BP= -300
##MW= 264
##$RETENTION INDEX=0
##$CONDENSED SPECTRUM=NO
##NPOINTS= 152
##XYDATA=(XY..XY) 1 
    33          6
    34          5
    36          1
    37          2
    38          4
    40        133
    42        999
    43        250
    44        223
    45         15
    46          2
    47          0
    49          0
    50          2
    51          2
    53         94
    55        372
    56         79
    57         50
    58         22
    59          5
    60          2
    61          3
    62          3
    63          3
    64          2
    65          4
    67         80
    69        619
    70        191
    71        510
    72         18
    74          1
    75          2
    77          4
    78         15
    80        143
    81         81
    82        151
    83         30
    84         19
    85          6
    86          1
    87          0
    89          9
    90          6
    91          3
    93         12
    94         10
    96        763
    97         69
    98         29
    99          6
   100          0
   101          0
   103          0
   104          1
   105          2
   107         65
   108         11
   109         11
   110          8
   111          9
   112          9
   113          2
   115          0
   117          0
   118          0
   119          0
   120          0
   121          5
   122         15
   123         48
   124         15
   125         11
   126          1
   127          1
   128          0
   131          0
   132          1
   133          1
   134          2
   135          5
   136         18
   137         12
   138         24
   139          7
   140          2
   141          0
   145          0
   147          0
   148          3
   150         41
   151         76
   152         80
   153         36
   154          3
   157          0
   163         12
   164          9
   165         43
   166         91
   167        144
   168         12
   169          0
   171          3
   175          0
   176          2
   177          8
   179        181
   181         60
   182          4
   183          0
   187          0
   189          0
   190          1
   192         19
   193         72
   194         76
   195        591
   196         86
   197          4
   204          0
   205          2
   206         20
   207          6
   208         10
   209          2
   210          0
   218          0
   219          1
   220          6
   221         32
   222         34
   223          2
   233          0
   235         24
   236          4
   237          0
   246          0
   247          2
   249         64
   250          7
   251          0
   257          0
   259          1
   260          2
   262         10
   263         16
   264        327
   265         41
   266          3