##TITLE=Library Entry 58244
##JCAMP-DX=Revision 4.10 
##DATA TYPE=MASS SPECTRUM
##SAMPLE DESCRIPTION=B. Decosta, LMC, NIDDK, NIH, Bethesda, MD 20892
##NAMES=HP
##CAS NAME=Aminoacetic acid, N-[(3,4-dichlorophenyl)acetyl]-, methyl ester
##MOLFORM=C11H11Cl2NO3
##CAS REGISTRY NO=153906-07-1
##MP= -300
##BP= -300
##MW= 275
##$RETENTION INDEX=0
##$CONDENSED SPECTRUM=NO
##NPOINTS= 176
##XYDATA=(XY..XY) 1 
    42         75
    43         32
    44        143
    45         42
    46          4
    49          5
    50         15
    51         15
    52          3
    53          2
    54          3
    55         12
    56        200
    57         26
    58        449
    59        144
    60          9
    61         13
    62         41
    63         76
    64          5
    65          3
    66          2
    67          2
    68          2
    69          4
    70         25
    71         14
    72         44
    73         46
    74         15
    75         23
    76          3
    77         10
    78         16
    79          9
    81          3
    82          4
    83          7
    84         35
    85         26
    86         22
    87         32
    88        999
    89        203
    90         34
    91          5
    95          2
    96          4
    97         28
    98          4
    99         41
   100          4
   101         13
   102          4
   103          2
   105          2
   106          7
   107          7
   108          3
   109         14
   110          3
   111         10
   112          3
   113          4
   114          2
   115          3
   116        179
   117         14
   118          2
   121          3
   122          2
   123        223
   124         82
   125        139
   126         34
   127         38
   128          5
   129         20
   130          3
   131          2
   133         44
   134          2
   135         30
   136          2
   137          6
   138          3
   139          4
   140          2
   141          4
   145          3
   146          2
   147          2
   148          2
   149          3
   150          3
   151          7
   152         17
   153          5
   154          6
   155          4
   156          3
   157          6
   158         43
   159        643
   160        215
   161        428
   162        131
   163         78
   164         21
   165          2
   167          3
   168          2
   169          2
   170          2
   171          3
   172          4
   173         22
   174          7
   175          4
   176          2
   177          2
   179          2
   180          8
   181          3
   182          5
   183          2
   184          3
   185          3
   186        421
   187         42
   188        276
   189         26
   190         48
   191          5
   198          2
   199         18
   200         34
   202          5
   204          7
   206          5
   208          2
   210          2
   212          3
   213          2
   214         27
   215          4
   216         57
   217          8
   218         40
   219          5
   220          7
   221          2
   228          2
   230          2
   233          2
   240         13
   241         11
   242          6
   243         18
   244         60
   245         14
   246         38
   247          5
   248          7
   254          2
   258          2
   270          2
   271          2
   275        762
   276        114
   277        407
   278         77
   279         86
   280         11
   281          2