##TITLE=Library Entry 13676
##JCAMP-DX=Revision 4.10 
##DATA TYPE=MASS SPECTRUM
##SAMPLE DESCRIPTION=A.A.Kutin, Moscow, Russia
##NAMES=HP
##CAS NAME=Isoxazole-4-carboxamide, 3-(2,6-dichlorophenyl)-5-methyl-N-cycloh
eptyl-
##MOLFORM=C18H20Cl2N2O2
##CAS REGISTRY NO=153948-17-5
##MP= -300
##BP= -300
##MW= 366
##$RETENTION INDEX=0
##$CONDENSED SPECTRUM=NO
##NPOINTS= 230
##XYDATA=(XY..XY) 1 
    35          4
    36          6
    37         10
    38         19
    39        111
    40         29
    41        256
    42        117
    43        999
    45         71
    47          3
    49          9
    50         27
    51         23
    52         14
    53         43
    54         64
    55        176
    56         59
    57         17
    58          2
    60          3
    61         15
    62         18
    63         26
    64          7
    65         11
    66         11
    67         64
    68         36
    69         32
    70         12
    71          3
    72          5
    73         35
    74         64
    75         82
    76         16
    77         13
    78          6
    79          9
    80         10
    81         31
    82         15
    83          9
    84         32
    85         22
    86         19
    87         27
    88         13
    89          5
    90          4
    91          4
    93          4
    94          6
    95         14
    96         24
    97         20
    98         20
    99         24
   100         30
   101          9
   102          7
   103          2
   107          4
   108          6
   109         63
   110         25
   111         37
   112         41
   113         12
   114         22
   115          4
   117          2
   118          4
   119          3
   120          2
   121          8
   122         13
   123         18
   124         18
   125         16
   126         23
   127         11
   128          5
   129          3
   133          9
   134          3
   135          9
   136         24
   137         11
   138         13
   139          5
   140          3
   141          5
   144          3
   145         23
   146          7
   147         16
   148         63
   149         22
   150         29
   151         10
   152          5
   153          4
   154          4
   155          4
   156          2
   157         30
   158          6
   159         22
   160         10
   161         47
   162         10
   163         30
   164         12
   165          9
   166         10
   167          4
   168          5
   169          2
   170          3
   171         14
   172         14
   173         16
   174          9
   175          7
   176          3
   177          5
   178         15
   179          5
   180          9
   181          3
   182          2
   183          6
   184         63
   185         20
   186         40
   187         13
   188          9
   189          4
   190          3
   191          2
   192          4
   193          7
   194         11
   195          4
   196          6
   197          5
   198          3
   199          3
   200          4
   201          4
   202          2
   203          2
   204          3
   206          2
   207          4
   208          4
   209          2
   210          6
   211         44
   212        443
   213         75
   214        295
   215         36
   216         57
   217          7
   218          4
   219          3
   220          8
   221          3
   222          4
   227          4
   229          5
   231          3
   234          4
   235         71
   236        253
   237         56
   238         83
   239         11
   247          4
   249          6
   250          2
   253          2
   254         79
   255         12
   256        100
   257         14
   258         41
   259          5
   260          6
   261          8
   263          5
   265          2
   271        142
   272         20
   273         96
   274         13
   275         21
   276          2
   277          3
   283          4
   285          3
   289          2
   295          8
   296          4
   297          6
   298          2
   309         36
   310          6
   311         24
   312          4
   313          6
   315          2
   323          9
   324          4
   325         12
   326          2
   330          6
   331        243
   332         52
   333         81
   334         16
   351          2
   366         18
   367          4
   368         12
   369          2