##TITLE=Library Entry 57031
##JCAMP-DX=Revision 4.10 
##DATA TYPE=MASS SPECTRUM
##SAMPLE DESCRIPTION=D.HENNEBERG, MAX-PLANCK INSTITUTE, MULHEIM, WEST GERMAN
Y
##NAMES=HP
##CAS NAME=Undecanone, 2-methyl oxime
##MOLFORM=C12H25NO
##CAS REGISTRY NO=153953-62-9
##MP= -300
##BP= -300
##MW= 199
##$RETENTION INDEX=2163
##$CONDENSED SPECTRUM=NO
##NPOINTS= 100
##XYDATA=(XY..XY) 1 
    24          1
    25          2
    26          6
    27         75
    28         38
    29        147
    30         48
    31         51
    32         33
    33          4
    34          0
    36          0
    38          8
    39         63
    40         48
    41        315
    42        489
    43        193
    44          4
    45         18
    47          4
    48          4
    49          0
    50          1
    51          1
    52          1
    53         17
    54         29
    55        160
    56         53
    57        159
    58         14
    59          6
    60          2
    63          0
    65          3
    66          2
    67         19
    68         27
    69         69
    70         39
    71         27
    72         12
    74         13
    75          0
    77          9
    78          1
    79          4
    80          5
    81         20
    82         32
    83         59
    84         16
    85         10
    86          8
    87        999
    88         50
    89          3
    91          2
    92          1
    93          1
    94          4
    95         12
    96         26
    97         47
    98          4
   100        226
   101         23
   102          0
   107          2
   108          1
   109          2
   110         11
   111         12
   112          1
   114         30
   115          4
   119          0
   121          1
   122          0
   124          4
   125          0
   126          2
   128         12
   129          1
   138          1
   142          8
   143          1
   144          0
   152         21
   153          5
   156          7
   157          1
   168          4
   169          0
   170          4
   184          4
   198          2
   199          9
   200          1