##TITLE=Library Entry 12056
##JCAMP-DX=Revision 4.10 
##DATA TYPE=MASS SPECTRUM
##SAMPLE DESCRIPTION=D.HENNEBERG, MAX-PLANCK INSTITUTE, MULHEIM, WEST GERMAN
Y
##NAMES=HP
##CAS NAME=Boron, difluoro(2,4-pentanedionato-O,O')-, (T-4)-
##MOLFORM=C5H7BF2O2
##CAS REGISTRY NO=15390-25-7
##MP= -300
##BP= -300
##MW= 148
##$RETENTION INDEX=0
##$CONDENSED SPECTRUM=NO
##NPOINTS= 49
##XYDATA=(XY..XY) 1 
    27         32
    28         10
    29         18
    37          6
    38         20
    39         54
    40         17
    41         15
    42         41
    43        999
    44         27
    45          5
    48         10
    49         46
    50          8
    51         10
    53         20
    54          5
    55         16
    56          5
    57         10
    63         10
    69          7
    73          6
    76          6
    77         10
    78          8
    79         35
    81          5
    82          6
    83          4
    88          7
    89          4
    93          5
    94          4
    99          5
   101         10
   105         10
   126          6
   127         20
   128         77
   129        144
   130         12
   132         83
   133        374
   134         14
   147         43
   148        173
   149         37