##TITLE=Library Entry 31379
##JCAMP-DX=Revision 4.10 
##DATA TYPE=MASS SPECTRUM
##SAMPLE DESCRIPTION=Exported from NIST MS Search
##NAMES=HP
##CAS NAME=Butane, 1,4-bis(methylthio)-
##MOLFORM=C6H14S2
##CAS REGISTRY NO=15394-33-9
##MP= -300
##BP= -300
##MW= 150
##$RETENTION INDEX=1235
##$CONDENSED SPECTRUM=NO
##NPOINTS= 60
##XYDATA=(XY..XY) 1 
    15         16
    26          9
    29         59
    31          9
    32          8
    33          9
    34         21
    35         74
    39         57
    41        138
    42          9
    43         25
    44          6
    45        166
    46         70
    47        118
    48         47
    49         39
    50          6
    51          8
    53         44
    54         78
    55        209
    56         21
    57         19
    58         24
    59         62
    60         31
    61        999
    62         36
    63         47
    67          8
    69         11
    71         14
    73         11
    74        203
    75         43
    76         15
    79          9
    81          7
    83          8
    85         26
    87        186
    88         19
    89         16
    93         41
    94          6
    95          8
    97          6
   101          7
   102        124
   103         91
   104         12
   105          8
   135        252
   136         19
   137         25
   150        342
   151         30
   152         33