##TITLE=Library Entry 84771
##JCAMP-DX=Revision 4.10 
##DATA TYPE=MASS SPECTRUM
##SAMPLE DESCRIPTION=Patti Price, Georgia Bureau of Investigation, Decatur,
 Georgia
##NAMES=HP
##CAS NAME=Carmustine
##MOLFORM=C5H9Cl2N3O2
##CAS REGISTRY NO=154-93-8
##MP= -300
##BP= -300
##MW= 213
##$RETENTION INDEX=0
##$CONDENSED SPECTRUM=NO
##NPOINTS= 88
##XYDATA=(XY..XY) 1 
    30        280
    35         13
    36          5
    37          5
    38          8
    39         14
    40         68
    41         69
    42        123
    43         27
    44         52
    45          3
    47         13
    48         23
    49        252
    50         13
    51         86
    52          4
    53          3
    54          5
    55         19
    56        183
    57         11
    58          3
    59        100
    60          7
    61         23
    62         69
    63        557
    64         42
    65        177
    66          4
    67          2
    68          7
    69         14
    70         33
    71          7
    73        230
    74         10
    75          6
    76         24
    77          9
    78         58
    79         13
    80         18
    81          4
    83          1
    84          1
    85          9
    86          3
    90          5
    91          1
    92          6
    93          1
    94          1
    95          1
    97          1
    99         15
   101          1
   103          1
   104          9
   105          6
   106        448
   107         27
   108        999
   109         41
   110        237
   111         12
   119          5
   121          1
   133          1
   135          6
   136          1
   137          1
   138          1
   147         10
   148          2
   149          5
   150          1
   153          1
   155          1
   164          3
   173          1
   211          1
   213         10
   214          3
   215          7
   216          1