##TITLE=Library Entry 49872
##JCAMP-DX=Revision 4.10 
##DATA TYPE=MASS SPECTRUM
##SAMPLE DESCRIPTION=H.STRICKLER FIRMENICH & CIE, GENEVA, SWITZERLAND
##NAMES=HP
##CAS NAME=2-Oxabicyclo[2.2.1]heptane, 1,3,3,7-tetramethyl-, (1R,4S,7S)-(+)-
##MOLFORM=C10H18O
##CAS REGISTRY NO=15404-57-6
##MP= -300
##BP= -300
##MW= 154
##$RETENTION INDEX=0
##$CONDENSED SPECTRUM=NO
##NPOINTS= 59
##XYDATA=(XY..XY) 1 
    27        120
    28         35
    29        100
    31         10
    39        140
    40         24
    41        270
    42         25
    43        700
    44         20
    45         10
    51         20
    52         10
    53         80
    54         30
    55        370
    56         29
    57         32
    58         23
    59         60
    65         22
    66         10
    67        110
    68         35
    69        160
    70         28
    71         35
    72         32
    77         35
    78          5
    79         70
    80         20
    81        999
    82        100
    83        600
    84         85
    85         14
    91         25
    93         43
    94         20
    95        110
    96        500
    97         80
    98         14
   105         20
   107         50
   108          6
   109         10
   110          5
   111         65
   112          5
   121         80
   122          8
   125        630
   126         60
   136         25
   139         33
   154        130
   155         14