##TITLE=Library Entry 99189
##JCAMP-DX=Revision 4.10 
##DATA TYPE=MASS SPECTRUM
##SAMPLE DESCRIPTION=Chemical Concepts
##NAMES=HP
##CAS NAME=N'-Cinnamylidene-4-methylbenzohydrazide
##MOLFORM=C17H16N2O
##CAS REGISTRY NO=154032-65-2
##MP= -300
##BP= -300
##MW= 264
##$RETENTION INDEX=0
##$CONDENSED SPECTRUM=NO
##NPOINTS= 72
##XYDATA=(XY..XY) 1 
    36          3
    38        108
    39        145
    40         29
    41         31
    42         22
    43         11
    44          8
    45          4
    49         32
    50        104
    51        100
    52         23
    53          8
    54          1
    57          5
    59          1
    60          5
    62        226
    65        377
    66         11
    67          2
    68          2
    69          2
    73         12
    74         24
    75         31
    77        163
    78         22
    79          3
    84          1
    86         11
    87         14
    89        170
    91        689
    92         26
    93          2
    98          1
    99          1
   102         41
   103         24
   104         20
   105          4
   106          2
   107          1
   111          1
   113          3
   115        250
   116         38
   117         38
   119        999
   120         47
   121          3
   129        117
   130        168
   131         16
   132          4
   133          1
   135         69
   136          6
   139          1
   143          1
   144          9
   145         31
   146          4
   147          1
   148          1
   161          1
   187          3
   263          3
   264          9
   265          1