##TITLE=Library Entry 12
##JCAMP-DX=Revision 4.10 
##DATA TYPE=MASS SPECTRUM
##SAMPLE DESCRIPTION=A.Pleshkova, Nesmeyanov Inst.Org.Elem.Cpds, Moscow
##NAMES=HP
##CAS NAME=1,2-Bis(difluoroamino)ethane
##MOLFORM=C2H4F4N2
##CAS REGISTRY NO=15403-23-3
##MP= -300
##BP= -300
##MW= 132
##$RETENTION INDEX=0
##$CONDENSED SPECTRUM=NO
##NPOINTS= 17
##XYDATA=(XY..XY) 1 
    15        999
    16         12
    27        257
    28        646
    29         15
    33        341
    34          4
    42        179
    43          5
    46        289
    47          4
    66        422
    67          6
    80        174
    81          4
   132         23
   133          1