##TITLE=Library Entry 38570
##JCAMP-DX=Revision 4.10 
##DATA TYPE=MASS SPECTRUM
##SAMPLE DESCRIPTION=DC-3-5
##NAMES=HP
##CAS NAME=2,4-Pentanedione, 3-butyl-
##MOLFORM=C9H16O2
##CAS REGISTRY NO=1540-36-9
##MP= -300
##BP= -300
##MW= 156
##$RETENTION INDEX=0
##$CONDENSED SPECTRUM=NO
##NPOINTS= 49
##XYDATA=(XY..XY) 1 
    39         60
    40         10
    41         80
    42         30
    43        800
    44         40
    45         30
    51         10
    53         40
    54         10
    55         70
    56         10
    57        160
    58        240
    59        100
    60         70
    67         10
    69         30
    70         20
    71        999
    72        150
    73         30
    74         10
    81         30
    82         10
    83         30
    84         40
    85        320
    86         40
    87         40
    88         40
    89         20
    95         30
    96         20
    97         10
    98         10
    99         50
   100        390
   101        150
   102         20
   113        260
   114        200
   115         30
   116         10
   123         10
   138         10
   141         20
   144         10
   156         80