##TITLE=Library Entry 28319
##JCAMP-DX=Revision 4.10 
##DATA TYPE=MASS SPECTRUM
##SAMPLE DESCRIPTION=Exported from NIST MS Search
##NAMES=HP
##CAS NAME=Cyclohexanone, 2-[(dimethylamino)methyl]-
##MOLFORM=C9H17NO
##CAS REGISTRY NO=15409-60-6
##MP= -300
##BP= -300
##MW= 155
##$RETENTION INDEX=0
##$CONDENSED SPECTRUM=NO
##NPOINTS= 117
##XYDATA=(XY..XY) 1 
    13          1
    14          6
    15         38
    16          2
    17          1
    18          7
    26         23
    27        132
    28         75
    29         39
    30         36
    31          5
    32          9
    36          2
    37          8
    38         25
    39        256
    40        126
    41        258
    42        175
    43         86
    44        359
    45        194
    46          8
    49          3
    50         26
    51         41
    52         25
    53        113
    54        321
    55        141
    56         19
    57         26
    58        999
    59         44
    60          3
    61          3
    62          6
    63         10
    64          2
    65         29
    66         29
    67        649
    68         88
    69         37
    70         21
    71          7
    72          6
    73          4
    74          3
    75          1
    77         39
    78         10
    79        109
    80         14
    81        109
    82        212
    83         30
    84         10
    85          4
    87          2
    91         22
    92          7
    93         15
    94         38
    95         23
    96          7
    97         14
    98         70
    99          6
   100          1
   103          1
   104          2
   105          2
   107          3
   108          3
   109         20
   110        384
   111         52
   112         13
   113          3
   114          2
   115          1
   117          2
   118          1
   119          1
   120          1
   121          3
   122         44
   123         16
   124          7
   125          3
   126          4
   127          1
   129          1
   130          1
   131          1
   132          1
   133          2
   134          2
   135          4
   136          3
   137          4
   138          4
   139          3
   140          2
   141          1
   142          1
   143          1
   144          1
   145          1
   146          1
   147          2
   148          1
   149          2
   150          1
   151          3