##TITLE=Library Entry 59009
##JCAMP-DX=Revision 4.10 
##DATA TYPE=MASS SPECTRUM
##SAMPLE DESCRIPTION=Chemical Concepts
##NAMES=HP
##CAS NAME=1,8-Cyclotetradecadiyne
##MOLFORM=C14H20
##CAS REGISTRY NO=1540-80-3
##MP= -300
##BP= -300
##MW= 188
##$RETENTION INDEX=0
##$CONDENSED SPECTRUM=NO
##NPOINTS= 86
##XYDATA=(XY..XY) 1 
    27        393
    29        274
    30          2
    37          4
    38         27
    39        600
    40          1
    41        957
    42         41
    43         59
    50         67
    51        239
    52        248
    53        326
    54         55
    55        155
    56          7
    58          4
    62         11
    63         70
    64         20
    65        386
    66         92
    67        597
    68         27
    69         40
    71          2
    74          9
    75          7
    76          3
    77        418
    78        234
    79        699
    80         84
    81        124
    82          6
    87          2
    89         17
    90          6
    91        999
    92        143
    93        150
    94         26
    95         28
   102          6
   103         72
   104        252
   105        627
   106        197
   107         42
   108          5
   109          1
   115        128
   116         72
   117        666
   118        307
   119        276
   120         48
   121          6
   127         12
   128         45
   129        119
   130        110
   131        713
   132        148
   133         65
   134         75
   135          9
   141         12
   142          8
   143         26
   144         23
   145        857
   146        161
   147         61
   148         10
   157          3
   158          0
   159        160
   160        104
   161         10
   173         26
   174          4
   187         27
   188         38
   189          4