##TITLE=Library Entry 10747
##JCAMP-DX=Revision 4.10 
##DATA TYPE=MASS SPECTRUM
##SAMPLE DESCRIPTION=Japan AIST/NIMC Database- Spectrum MS-NW-3829
##NAMES=HP
##CAS NAME=Hexanoic acid, 2-acetyl-, ethyl ester
##MOLFORM=C10H18O3
##CAS REGISTRY NO=1540-29-0
##MP= -300
##BP= -300
##MW= 186
##$RETENTION INDEX=0
##$CONDENSED SPECTRUM=NO
##NPOINTS= 120
##XYDATA=(XY..XY) 1 
    14          4
    15         55
    16          1
    17          1
    18          4
    25          1
    26         16
    27        164
    28         40
    29        237
    30          5
    31         54
    32          5
    37          1
    38          5
    39         63
    40         12
    41        132
    42         35
    43        999
    44         27
    45         53
    46          8
    47          1
    50          3
    51          6
    52          2
    53         16
    54          7
    55        193
    56         25
    57         31
    58         44
    59         12
    60         17
    61         15
    62          1
    63          1
    65          3
    66          2
    67          9
    68          7
    69         76
    70         40
    71         52
    72          7
    73        450
    74         27
    75          5
    77          2
    79          4
    80         12
    81          7
    82          3
    83         19
    84         80
    85         69
    86         16
    87         48
    88         39
    89          9
    91          2
    92          2
    93          2
    94          1
    95          5
    96          2
    97         79
    98         43
    99         65
   100          6
   101        748
   102        110
   103         16
   104          2
   105          3
   107          2
   109          2
   110          1
   111         15
   112          6
   113          8
   114          5
   115        141
   116         14
   117          6
   119          1
   122          2
   123          1
   125         20
   126          2
   127          2
   128          1
   129         45
   130        247
   131         29
   132          3
   133          1
   134          1
   137          1
   139          4
   140         13
   141         90
   142          9
   143         70
   144        243
   145         21
   146          3
   153          3
   154          1
   155          1
   157         95
   158          9
   159          1
   169          9
   170          2
   171          6
   172          1
   186         11
   187          2