##TITLE=Library Entry 66132
##JCAMP-DX=Revision 4.10 
##DATA TYPE=MASS SPECTRUM
##SAMPLE DESCRIPTION=H.STRICKLER FIRMENICH & CIE, GENEVA, SWITZERLAND
##NAMES=HP
##CAS NAME=Cycloheptene, 5-ethylidene-1-methyl-
##MOLFORM=C10H16
##CAS REGISTRY NO=15402-94-5
##MP= -300
##BP= -300
##MW= 136
##$RETENTION INDEX=0
##$CONDENSED SPECTRUM=NO
##NPOINTS= 58
##XYDATA=(XY..XY) 1 
    26         12
    27        220
    28         45
    29        160
    38         14
    39        310
    40        120
    41        420
    42         50
    43         75
    50         24
    51         80
    52         45
    53        300
    54         43
    55        180
    56         12
    57          2
    58         10
    59          1
    62          2
    63         25
    64          2
    65         90
    66         56
    67        430
    68        270
    69        110
    70          2
    77        200
    78         45
    79        750
    80        150
    81        190
    82         70
    83          1
    91        300
    92         80
    93        999
    94        250
    95         90
    96          2
   103         18
   104          5
   105        130
   106         30
   107        500
   108        120
   109         18
   115         10
   117          8
   119         22
   120          2
   121        400
   122         40
   135          8
   136        670
   137         70