##TITLE=Library Entry 13911
##JCAMP-DX=Revision 4.10 
##DATA TYPE=MASS SPECTRUM
##SAMPLE DESCRIPTION=T. CLERC
##NAMES=HP
##CAS NAME=Naphtho[2,3-b]furan-9(4H)-one, 4a,5,6,7,8,8a-hexahydro-3,4a,5-tri
methyl-, [4aR-(4a.alpha.,5.alpha.,8a.alpha.)]-
##MOLFORM=C15H20O2
##CAS REGISTRY NO=15404-32-7
##MP= -300
##BP= -300
##MW= 232
##$RETENTION INDEX=0
##$CONDENSED SPECTRUM=NO
##NPOINTS= 59
##XYDATA=(XY..XY) 1 
    31        137
    39        120
    40         51
    41        241
    42         94
    43        999
    44         60
    45        241
    51         43
    53         69
    55        137
    58        620
    59        129
    65         86
    66         17
    67        181
    69        189
    71         43
    77        129
    78         43
    79        137
    80         43
    81        129
    82         77
    91        224
    92         34
    93        137
    94        103
    95        155
   105        120
   106         43
   107        103
   108        163
   109        422
   110         86
   119        155
   121         86
   122        689
   123        344
   133         60
   135         69
   137         51
   138         86
   145         43
   147         69
   149        129
   150        155
   159         51
   161        379
   162        137
   163        172
   175        258
   176         86
   177         86
   189        103
   203         43
   204         86
   217        646
   232        775