##TITLE=Library Entry 8978
##JCAMP-DX=Revision 4.10 
##DATA TYPE=MASS SPECTRUM
##SAMPLE DESCRIPTION=Japan AIST/NIMC Database- Spectrum MS-IW-3476
##NAMES=HP
##CAS NAME=2,4-Pentanedione, 3-ethyl-
##MOLFORM=C7H12O2
##CAS REGISTRY NO=1540-34-7
##MP= -300
##BP= -300
##MW= 128
##$RETENTION INDEX=0
##$CONDENSED SPECTRUM=NO
##NPOINTS= 68
##XYDATA=(XY..XY) 1 
    14          6
    15         70
    16          1
    26         10
    27         68
    28         16
    29         38
    30          1
    31          9
    37          4
    38         11
    39         79
    40         13
    41         93
    42         41
    43        999
    44         43
    45         29
    49          1
    50          6
    51          8
    52          2
    53         28
    54          3
    55         35
    56          2
    57         14
    58         73
    59          7
    60          4
    61          5
    62          2
    63          3
    65         10
    66          3
    67        104
    68         11
    69         42
    70          7
    71        970
    72         48
    73          4
    74          2
    82          1
    83          4
    84          5
    85        174
    86        599
    87         51
    88          5
    95         16
    96          1
    97          1
    98          1
   100         88
   101          9
   102         24
   103          1
   109          1
   111          4
   112          1
   113        287
   114         18
   115          2
   127          1
   128        132
   129         11
   130          1