##TITLE=Library Entry 16285
##JCAMP-DX=Revision 4.10 
##DATA TYPE=MASS SPECTRUM
##SAMPLE DESCRIPTION=Dr. Jiri Zamecnik, DCIEM, North York, Canada, GP Librar
y
##NAMES=HP
##CAS NAME=2,3-Dimethoxyamphetamine
##MOLFORM=C11H17NO2
##CAS REGISTRY NO=15402-81-0
##MP= -300
##BP= -300
##MW= 195
##$RETENTION INDEX=0
##$CONDENSED SPECTRUM=NO
##NPOINTS= 27
##XYDATA=(XY..XY) 1 
    42         22
    44        999
    45         38
    65         41
    77         33
    78         19
    79         14
    91         67
    93          9
    94          8
   105         17
   106         19
   107         13
   121         10
   122          9
   135         14
   136         37
   137         30
   148          9
   152        113
   153         11
   163         15
   164         79
   165         11
   176         10
   180          5
   195          8