##TITLE=Library Entry 982
##JCAMP-DX=Revision 4.10 
##DATA TYPE=MASS SPECTRUM
##SAMPLE DESCRIPTION=J.A.GILPIN DOW CHEM. CO., MIDLAND, MICHIGAN, USA
##NAMES=HP
##CAS NAME=Acetamide, N-(2-methylpropyl)-
##MOLFORM=C6H13NO
##CAS REGISTRY NO=1540-94-9
##MP= -300
##BP= -300
##MW= 115
##$RETENTION INDEX=998
##$CONDENSED SPECTRUM=NO
##NPOINTS= 28
##XYDATA=(XY..XY) 1 
    15         40
    27         30
    28         40
    29         40
    30        999
    31         40
    41         70
    42         30
    43        310
    44         30
    45         10
    55         20
    56         40
    57         20
    58        130
    59          6
    60        180
    71          3
    72        310
    73         60
    74         10
    86          6
    87          1
   100        120
   101          8
   114          1
   115        110
   116         20