##TITLE=Library Entry 20490
##JCAMP-DX=Revision 4.10 
##DATA TYPE=MASS SPECTRUM
##SAMPLE DESCRIPTION=Japan AIST/NIMC Database- Spectrum MS-NW-3159
##NAMES=HP
##CAS NAME=1,5-Heptadiene
##MOLFORM=C7H12
##CAS REGISTRY NO=1541-23-7
##MP= -300
##BP= -300
##MW= 96
##$RETENTION INDEX=696
##$CONDENSED SPECTRUM=NO
##NPOINTS= 43
##XYDATA=(XY..XY) 1 
    15          4
    26          9
    27        100
    28          8
    29        165
    30          3
    37          4
    38         11
    39        180
    40         19
    41         95
    42          9
    43          2
    49          1
    50         10
    51         19
    52          9
    53         80
    54        104
    55        999
    56         44
    57          3
    61          1
    62          3
    63          6
    64          1
    65         11
    66         17
    67        145
    68         58
    69          4
    74          1
    77         11
    78          3
    79         17
    80          4
    81        288
    82         19
    91          4
    93          2
    95          9
    96         35
    97          3