##TITLE=Library Entry 73649
##JCAMP-DX=Revision 4.10 
##DATA TYPE=MASS SPECTRUM
##SAMPLE DESCRIPTION=B. Derendyaev, Novosibirsk Institute of Organic Chemist
ry
##NAMES=HP
##CAS NAME=Ethanol, 2,2'-(dodecylimino)bis-
##MOLFORM=C16H35NO2
##CAS REGISTRY NO=1541-67-9
##MP= -300
##BP= -300
##MW= 273
##$RETENTION INDEX=0
##$CONDENSED SPECTRUM=NO
##NPOINTS= 77
##XYDATA=(XY..XY) 1 
    17         74
    18        620
    27         23
    28         77
    29         38
    30        133
    31         12
    32         17
    36         11
    40         13
    41         65
    42         79
    43        106
    44        143
    45         71
    55         85
    56        280
    57        154
    58         83
    60         11
    61         14
    67         18
    68         11
    69         86
    70         91
    71         68
    72         19
    74        464
    75         13
    81         36
    82         31
    83         67
    84         33
    85         34
    86         28
    87         43
    88        437
    89         15
    91         60
    93         16
    94         12
    95         41
    96         25
    97         76
    98         37
    99         25
   100        999
   101         58
   105         40
   109         23
   110         16
   111         44
   112         12
   113         21
   116         46
   118        177
   119         23
   123         23
   124         11
   125         30
   126         15
   135         10
   137         16
   140          9
   143         37
   156         10
   165         10
   179         10
   198         94
   199         13
   210         15
   212         18
   240         10
   242        747
   243        127
   244         12
   255         30