##TITLE=Library Entry 50294
##JCAMP-DX=Revision 4.10 
##DATA TYPE=MASS SPECTRUM
##SAMPLE DESCRIPTION=D.HENNEBERG, MAX-PLANCK INSTITUTE, MULHEIM, WEST GERMAN
Y
##NAMES=HP
##CAS NAME=Bi-2-cyclohexen-1-yl
##MOLFORM=C12H18
##CAS REGISTRY NO=1541-20-4
##MP= -300
##BP= -300
##MW= 162
##$RETENTION INDEX=0
##$CONDENSED SPECTRUM=NO
##NPOINTS= 70
##XYDATA=(XY..XY) 1 
    26          7
    27        115
    28          6
    29         45
    30          0
    33          0
    34          0
    35          2
    36          0
    38          6
    39        129
    40         16
    41        224
    42          8
    43          1
    47          0
    48          0
    49          1
    50         12
    51         38
    52         26
    53        153
    54         18
    55         32
    56          1
    58          5
    62          1
    63          6
    64          3
    65         34
    66         20
    67         25
    68          1
    69          0
    73          1
    74          4
    75          8
    76          4
    77         80
    78         40
    79        223
    80        561
    81        999
    82         58
    83          1
    89          0
    91         19
    92          4
    93          3
    94          2
    95          0
   103          1
   104          3
   105          3
   106          0
   107          1
   108          0
   115          2
   116          0
   117          2
   119          0
   128          0
   129          1
   130          0
   131          0
   133          0
   145          0
   152          0
   154          1
   160          0