##TITLE=Library Entry 100508
##JCAMP-DX=Revision 4.10 
##DATA TYPE=MASS SPECTRUM
##SAMPLE DESCRIPTION=Chemical Concepts
##NAMES=HP
##CAS NAME=2,4,6-Trimethylbenzenethiol
##MOLFORM=C9H12S
##CAS REGISTRY NO=1541-10-2
##MP= -300
##BP= -300
##MW= 152
##$RETENTION INDEX=0
##$CONDENSED SPECTRUM=NO
##NPOINTS= 126
##XYDATA=(XY..XY) 1 
    26          1
    27         28
    29          5
    30          0
    33          0
    34          1
    35          0
    36          0
    37          2
    38          8
    39         84
    40          9
    41         61
    42          3
    43          3
    44          3
    45        112
    46          3
    47          8
    48          0
    49          1
    50         21
    51         60
    52         18
    53         35
    54          3
    55          5
    56          1
    57          6
    58         13
    59         47
    60          4
    61          9
    62         15
    63         37
    64          7
    65         65
    66         10
    67         13
    68          5
    69         26
    70          8
    71         13
    72          2
    73          6
    74         18
    75         27
    76         26
    77        107
    78         34
    79         59
    80          5
    81          2
    82          5
    83          6
    84          3
    85          7
    86          3
    87          4
    88          2
    89         18
    90          7
    91        236
    92         30
    93         39
    94          5
    95          5
    96          1
    97         18
    98          4
    99          2
   100          0
   101          3
   102         16
   103         72
   104         30
   105         87
   106         12
   107         53
   108         11
   109          8
   110          3
   111         14
   112         11
   113          2
   114          1
   115         71
   116         19
   117        106
   118         35
   119        999
   120        122
   121         17
   122          4
   123          8
   124          6
   125          3
   126          0
   127          0
   128          0
   129          1
   130          0
   131          2
   132          0
   133          3
   134         29
   135         41
   136         18
   137         95
   138          9
   139          4
   140          0
   141          1
   143          0
   144          0
   145          0
   146          0
   147          6
   148          1
   149          5
   150         10
   151        109
   152        857
   153         99
   154         44
   155          4