##TITLE=Library Entry 76798
##JCAMP-DX=Revision 4.10 
##DATA TYPE=MASS SPECTRUM
##SAMPLE DESCRIPTION=Humboldt-Universitat zu Berlin, Department of Chemistry
, Analytical Group
##NAMES=HP
##CAS NAME=3-(3-Pyridyl)-5-phenylisoxazoline
##MOLFORM=C14H12N2O
##CAS REGISTRY NO=154131-65-4
##MP= -300
##BP= -300
##MW= 224
##$RETENTION INDEX=0
##$CONDENSED SPECTRUM=NO
##NPOINTS= 140
##XYDATA=(XY..XY) 1 
    12          1
    13          2
    14          8
    15         33
    16          2
    17          2
    18          8
    19          0
    24          1
    26         75
    27        137
    28        128
    29         28
    30         59
    37         34
    38         99
    39        267
    40         37
    41         46
    42         92
    43         12
    44          1
    50        293
    51        613
    52        135
    53         23
    54          6
    55          2
    56          1
    57         10
    61         17
    62         68
    63        168
    64         58
    65        155
    66         32
    67         15
    68          4
    69         10
    70          6
    74         40
    75         52
    76         95
    77        339
    78        468
    79         40
    80          2
    82         22
    83         10
    85          3
    86         11
    87         17
    88         10
    89         64
    90         20
    91        161
    92         47
    93         11
    94          7
    95          4
    96          5
    98          4
    99          4
   100          3
   101          8
   102         40
   103        215
   104        999
   105        173
   106         13
   107          2
   108          0
   109          1
   110          2
   111          3
   112          2
   113          9
   115         54
   116         35
   118        210
   119         27
   120         15
   121         13
   122          1
   123          0
   126          5
   127          7
   128         25
   129          6
   130          6
   131          1
   137          2
   139         23
   140          7
   141          3
   142          1
   143          0
   146         51
   147         11
   148          1
   150          1
   151          5
   152         13
   153          4
   154          2
   155          1
   163          8
   164         10
   165         30
   166         12
   167         19
   168          4
   169          1
   171          0
   176          1
   177          4
   178          4
   179         11
   180          9
   181          2
   182          0
   188          0
   190          3
   191          8
   192         16
   193         31
   194         85
   195         16
   196          1
   197          1
   198          0
   205          5
   206          5
   207         25
   208          4
   209          0
   224        198
   225         41
   226          4
   227          0