##TITLE=Library Entry 82788
##JCAMP-DX=Revision 4.10 
##DATA TYPE=MASS SPECTRUM
##SAMPLE DESCRIPTION=V.G. Zaikin, TIPS RAS, Moscow, Russia
##NAMES=HP
##CAS NAME=2,2,5-Trichloro-5-methyl-2,5-disilahexane
##MOLFORM=C5H13Cl3Si2
##CAS REGISTRY NO=15411-17-3
##MP= -300
##BP= -300
##MW= 234
##$RETENTION INDEX=0
##$CONDENSED SPECTRUM=NO
##NPOINTS= 92
##XYDATA=(XY..XY) 1 
    27          9
    29          9
    31          7
    36         21
    41          6
    42          9
    43         68
    44          7
    45         15
    53          7
    55          9
    58         39
    59        108
    60          5
    61          3
    63         95
    64         11
    65         88
    66          5
    67         21
    69          6
    70          5
    71         44
    72         15
    73         18
    75          3
    77          8
    78        201
    79         95
    80         79
    81         38
    85         26
    86          9
    89          3
    91          6
    92         29
    93        849
    94         68
    95        299
    96         22
    97          9
    98          5
    99          7
   100          7
   101          5
   103          9
   105        178
   106        999
   107        141
   108        362
   109         27
   110          8
   112          5
   113        111
   114          9
   115         84
   116          5
   117         15
   121          7
   123          5
   125          5
   126          5
   127          7
   128          5
   131          5
   133          5
   137          5
   155          5
   157          5
   165          5
   170          5
   171          5
   172          5
   190          5
   191          5
   199         28
   200          7
   201         19
   202          5
   203          5
   206          5
   208          5
   219         82
   220          8
   221         73
   222          9
   223         28
   224          5
   225          3
   234          5
   236          8
   238          5