##TITLE=Library Entry 36265
##JCAMP-DX=Revision 4.10 
##DATA TYPE=MASS SPECTRUM
##SAMPLE DESCRIPTION=J A MCCLOSKEY & M F SCOTT, UNIV OF UTAH, SALT LAKE CITY
, UT, USA
##NAMES=HP
##CAS NAME=3,6-Epoxy-2H,8H-pyrimido[6,1-b][1,3]oxazocine-8,10(9H)-dione, 3,4
,5,6-tetrahydro-4,5-dihydroxy-, [3R-(3.alpha.,4.alpha.,5.alpha.,6.alpha.)]-
##MOLFORM=C9H10N2O6
##CAS REGISTRY NO=15425-10-2
##MP= -300
##BP= -300
##MW= 242
##$RETENTION INDEX=0
##$CONDENSED SPECTRUM=NO
##NPOINTS= 103
##XYDATA=(XY..XY) 1 
    40        100
    41        388
    42        265
    43        470
    44        254
    45        100
    46         63
    47          7
    50          5
    51         13
    52         46
    53         39
    54         62
    55        212
    56         76
    57        468
    58         87
    59         69
    60        114
    61        102
    62          4
    65          5
    66          9
    67         80
    68        450
    69        999
    70        140
    71        109
    72         51
    73        105
    74          8
    78          7
    79          5
    80          7
    81         38
    82        120
    83        105
    84         38
    85        228
    86        192
    87         72
    88         14
    89         24
    94         10
    95         10
    96         37
    97         83
    98         41
    99         20
   100        130
   101         22
   108          5
   109         18
   110        669
   111         76
   112         75
   113         39
   114        116
   115         27
   122         20
   123         10
   124         19
   125          9
   126        164
   127         19
   128        420
   129        861
   130         52
   131          7
   137          6
   138          8
   139         11
   140         53
   141         22
   142         18
   152         15
   153         80
   154        349
   155         54
   156         23
   157         17
   168        135
   169        120
   170         12
   171         20
   172          5
   179          5
   181          8
   182          5
   183        170
   184         20
   195         69
   196        140
   197         26
   198          8
   213        332
   214         34
   215          6
   224          6
   225          4
   242        390
   243         95
   244         13