##TITLE=Library Entry 8058
##JCAMP-DX=Revision 4.10 
##DATA TYPE=MASS SPECTRUM
##SAMPLE DESCRIPTION=H. Luftmann, Org. Chem. Inst., Westfalisch Wilhelms Uni
v., Munster, Germany
##NAMES=HP
##CAS NAME=2-Heptanone, 7,7,7-trichloro-
##MOLFORM=C7H11Cl3O
##CAS REGISTRY NO=154264-40-1
##MP= -300
##BP= -300
##MW= 216
##$RETENTION INDEX=0
##$CONDENSED SPECTRUM=NO
##NPOINTS= 38
##XYDATA=(XY..XY) 1 
    36         20
    38         10
    39         40
    41         50
    42         40
    43        999
    44         30
    49         10
    51         10
    53         10
    55         20
    58        500
    59         20
    63         10
    65         30
    67         30
    68         20
    71         20
    75         20
    77         20
    79         10
    81         40
    82         10
    83         10
    85         10
    87         10
    91         10
    95         10
    96         10
   101         20
   103         10
   109         30
   110         10
   111         20
   122         10
   165         20
   167         10
   180         10