##TITLE=Library Entry 30423
##JCAMP-DX=Revision 4.10 
##DATA TYPE=MASS SPECTRUM
##SAMPLE DESCRIPTION=A.A.Kutin, Moscow, Russia
##NAMES=HP
##CAS NAME=Lactic acid, 2-methyl-, 2-phenylhydrazide
##MOLFORM=C10H14N2O2
##CAS REGISTRY NO=15421-39-3
##MP= -300
##BP= -300
##MW= 194
##$RETENTION INDEX=0
##$CONDENSED SPECTRUM=NO
##NPOINTS= 52
##XYDATA=(XY..XY) 1 
    38         11
    39        220
    40         49
    41        190
    42         44
    43        393
    44         19
    50         34
    51        202
    52         89
    53         34
    55         17
    57         15
    58          6
    59        999
    60         12
    62          6
    63         79
    64         54
    65        359
    66         49
    69         25
    70          7
    73         12
    74          8
    75          3
    76         12
    77        518
    78        141
    79         54
    80         31
    81          8
    91         94
    92        277
    93        124
    94          3
   105         23
   106         18
   107        268
   108        617
   109         33
   133         22
   147         25
   148        438
   149         72
   158         15
   168          4
   169          3
   175         36
   176        415
   177         57
   194        208