##TITLE=Library Entry 88190
##JCAMP-DX=Revision 4.10 
##DATA TYPE=MASS SPECTRUM
##SAMPLE DESCRIPTION=B.Worobey ET AL.J.Agric.Food Chem.,35,325(1987)
##NAMES=HP
##CAS NAME=Bis-(3-chlorophenyl)-diazene
##MOLFORM=C12H8Cl2N2
##CAS REGISTRY NO=15426-14-9
##MP= -300
##BP= -300
##MW= 250
##$RETENTION INDEX=0
##$CONDENSED SPECTRUM=NO
##NPOINTS= 33
##XYDATA=(XY..XY) 1 
    37         13
    38         24
    39         34
    50        118
    51         78
    52          8
    61         20
    62         22
    63         60
    64         22
    73         10
    74         48
    75        390
    76        133
    77         11
    85         33
    87         12
    89          7
    90         19
   111        999
   112         80
   113        310
   114         25
   139        219
   141         69
   142          7
   151         12
   152         70
   250        153
   251         30
   252        101
   253         16
   254         18