##TITLE=Library Entry 66835
##JCAMP-DX=Revision 4.10 
##DATA TYPE=MASS SPECTRUM
##SAMPLE DESCRIPTION=Chemical Concepts
##NAMES=HP
##CAS NAME=9H-Fluorene, 9-(chlorodimethylsilyl)-
##MOLFORM=C15H15ClSi
##CAS REGISTRY NO=154283-78-0
##MP= -300
##BP= -300
##MW= 258
##$RETENTION INDEX=0
##$CONDENSED SPECTRUM=NO
##NPOINTS= 163
##XYDATA=(XY..XY) 1 
    26          0
    28          4
    29          3
    31          0
    36          0
    38          0
    39          7
    44          0
    45          0
    50          3
    51          5
    52          1
    53          4
    54          0
    55          0
    57          2
    58          1
    59          0
    61          1
    62          6
    63         25
    64          3
    65         77
    66          3
    67         26
    68          1
    69          0
    70          0
    71          0
    74          5
    75          7
    76          3
    77          2
    78          3
    79          8
    80          1
    81          3
    82          0
    83          0
    85          0
    86          6
    87         12
    88          5
    89         14
    90          1
    91          1
    92          2
    93        999
    94         81
    95        440
    96         27
    97         12
    98          2
    99          2
   100          1
   101          1
   102          1
   103          1
   105          0
   109          0
   110          1
   111          2
   112          1
   113         10
   114          2
   115         30
   116          3
   117          0
   121          0
   122          0
   123          0
   124          0
   125          0
   126          3
   127          1
   128          0
   129          0
   134          0
   135          0
   137          8
   138          5
   139         44
   140          6
   141          0
   149          0
   150          3
   151          6
   152          9
   153          2
   154          0
   155          0
   158          0
   161          3
   162         12
   163         90
   164         77
   165        409
   166         54
   167          5
   168          0
   169          0
   174          0
   175          1
   176          9
   177          6
   178         30
   179         21
   180          3
   181          1
   182          0
   189          1
   190          1
   191          4
   192          2
   193          4
   194          1
   195          6
   196          1
   197          0
   199          0
   200          0
   201          0
   202          0
   203          1
   204          1
   205          4
   206          2
   207          3
   208          1
   209          0
   215          5
   216          1
   217          3
   218          0
   219          3
   220          0
   221          5
   222         12
   223          8
   224          2
   225          0
   226          3
   227          6
   228          2
   229          2
   230          0
   231          0
   239          1
   240          0
   241          1
   242          4
   243         14
   244          4
   245          4
   246          1
   247          0
   257          3
   258        530
   259        102
   260        182
   261         35
   262          9
   263          1