##TITLE=Library Entry 64435
##JCAMP-DX=Revision 4.10 
##DATA TYPE=MASS SPECTRUM
##SAMPLE DESCRIPTION=Chemical Concepts
##NAMES=HP
##CAS NAME=Tribenzylamine, .alpha.-methyl-
##MOLFORM=C22H23N
##CAS REGISTRY NO=15429-14-8
##MP= -300
##BP= -300
##MW= 301
##$RETENTION INDEX=0
##$CONDENSED SPECTRUM=NO
##NPOINTS= 64
##XYDATA=(XY..XY) 1 
    27         15
    28          9
    39         25
    40          2
    41         12
    42          2
    50          4
    51         26
    52          6
    53          3
    56          7
    63         14
    64          5
    65         93
    66          5
    75          2
    76          2
    77         67
    78         17
    79         55
    80          3
    89         21
    90         17
    91        999
    92        114
    93          5
   102          2
   103         29
   104         17
   105        274
   106         56
   107          3
   115          2
   116          4
   117          6
   118         23
   119          2
   120         38
   121          3
   132          7
   141          1
   149          2
   152          3
   165          8
   166          4
   167          4
   181         43
   182          7
   193          2
   194         28
   195          9
   196         29
   197          5
   208          4
   210         18
   211          2
   224         92
   225         17
   286        436
   287        109
   288         13
   299          3
   301         59
   302         14