##TITLE=Library Entry 866
##JCAMP-DX=Revision 4.10 
##DATA TYPE=MASS SPECTRUM
##SAMPLE DESCRIPTION=Exported from NIST MS Search
##NAMES=HP
##CAS NAME=Urea, N,N'-bis(2-hydroxyethyl)-
##MOLFORM=C5H12N2O3
##CAS REGISTRY NO=15438-70-7
##MP= -300
##BP= -300
##MW= 148
##$RETENTION INDEX=0
##$CONDENSED SPECTRUM=NO
##NPOINTS= 107
##XYDATA=(XY..XY) 1 
    15         14
    16         10
    17         66
    18        291
    19          3
    20          1
    26          5
    27         25
    28         20
    29         45
    30        999
    31         64
    32          5
    36          2
    38          3
    39          9
    40         13
    41         23
    42         88
    43         41
    44         24
    45          9
    47          5
    48          1
    49          2
    50          4
    51          9
    52          3
    53          3
    54          2
    55          6
    56         28
    57          8
    58          4
    59         16
    60         12
    61         71
    62          5
    63          5
    64          3
    65          6
    66          3
    67          2
    68          1
    69          2
    70          2
    71          3
    72          8
    73          6
    74          2
    75          2
    76          2
    77         15
    78         12
    79         18
    80          7
    81         40
    82          3
    83          2
    84          1
    85          3
    86          2
    87         26
    88          2
    89          3
    90          1
    91         24
    92          4
    93          2
    94         12
    95          2
    96          9
    97          2
    98          1
    99          2
   101          1
   102          2
   103         10
   104         12
   105         14
   106          9
   107          4
   108          1
   109          1
   115         18
   116         12
   117         31
   118         11
   119          7
   120          1
   121          3
   122          1
   128          1
   129          3
   130          6
   131          4
   132         45
   133         32
   134          5
   135          2
   136          1
   137          1
   143          2
   144          5
   145          1
   146          6
   147          1