##TITLE=Library Entry 72826
##JCAMP-DX=Revision 4.10 
##DATA TYPE=MASS SPECTRUM
##SAMPLE DESCRIPTION=V.A.Korolev, Moscow, Russia
##NAMES=HP
##CAS NAME=N-[2-(Morpholin-4-yl)-1-phenylethylidene]hydroxylamine
##MOLFORM=C12H16N2O2
##CAS REGISTRY NO=15437-08-8
##MP= -300
##BP= -300
##MW= 220
##$RETENTION INDEX=0
##$CONDENSED SPECTRUM=NO
##NPOINTS= 55
##XYDATA=(XY..XY) 1 
    38          7
    39         33
    40         15
    41        104
    42        239
    43         59
    44         27
    45         26
    50         36
    51         69
    52         13
    53          2
    54         15
    56        201
    57         32
    58          5
    60          2
    61          3
    62          4
    63         15
    64          4
    65         10
    70         46
    71          5
    72         20
    73          4
    74          9
    75         11
    76         33
    77        102
    78         10
    84         19
    85          8
    86         36
    89          7
    91         19
    98         14
   100        999
   101         52
   102         10
   103        104
   104         17
   106          2
   114          3
   119          9
   120          5
   133          2
   134          6
   135          2
   185         12
   186          2
   203         44
   204          4
   220         19
   221          2