##TITLE=Library Entry 55679
##JCAMP-DX=Revision 4.10 
##DATA TYPE=MASS SPECTRUM
##SAMPLE DESCRIPTION=Chemical Concepts
##NAMES=HP
##CAS NAME=3-Buten-1-amine, N,N-diethyl-
##MOLFORM=C8H17N
##CAS REGISTRY NO=15431-05-7
##MP= -300
##BP= -300
##MW= 127
##$RETENTION INDEX=0
##$CONDENSED SPECTRUM=NO
##NPOINTS= 65
##XYDATA=(XY..XY) 1 
    24          0
    26         10
    27         97
    28         61
    29        138
    30        263
    31          4
    37          0
    38          3
    39         35
    40          5
    41         38
    42         78
    43         16
    44         23
    45          0
    48          0
    50          2
    51          4
    52          3
    53         14
    54         10
    55         68
    56         46
    57         13
    58        198
    59          8
    63          0
    64          0
    65          0
    66          0
    67          2
    68          4
    69          7
    70          7
    71          5
    72          5
    73          0
    74          0
    78          0
    79          0
    80          1
    81          1
    82          3
    83          0
    84         10
    85          2
    86        999
    87         48
    88          1
    94          0
    95          0
    96          4
    97          1
    98          1
   100          0
   108          0
   110          4
   111          0
   112         18
   113          1
   124          1
   126          4
   127          3
   128          0