##TITLE=Library Entry 73176
##JCAMP-DX=Revision 4.10 
##DATA TYPE=MASS SPECTRUM
##SAMPLE DESCRIPTION=M.A.BALDWIN UNIVERSITY COLLEGE, LONDON, UK
##NAMES=HP
##CAS NAME=Urea, 3-(4-chloro-o-tolyl)-1,1-diethyl-
##MOLFORM=C12H17ClN2O
##CAS REGISTRY NO=15441-97-1
##MP= -300
##BP= -300
##MW= 240
##$RETENTION INDEX=0
##$CONDENSED SPECTRUM=NO
##NPOINTS= 39
##XYDATA=(XY..XY) 1 
    28        287
    39         18
    41         12
    42         47
    43         13
    44        153
    50         16
    51         38
    52         16
    57         26
    58        105
    63         18
    70         14
    72        564
    73         26
    75         13
    76         13
    77         68
    78         20
    89         20
   100        999
   101         63
   102         13
   104         21
   106         13
   112         13
   125         14
   132         33
   138         23
   140         43
   141         19
   142         14
   167         65
   168         15
   169         22
   240        242
   241         39
   242         83
   243         12