##TITLE=Library Entry 71094
##JCAMP-DX=Revision 4.10 
##DATA TYPE=MASS SPECTRUM
##SAMPLE DESCRIPTION=Chemical Concepts
##NAMES=HP
##CAS NAME=2,2-Dimethyl-1-oxa-spiro[2.5]octane
##MOLFORM=C9H16O
##CAS REGISTRY NO=15446-32-9
##MP= -300
##BP= -300
##MW= 140
##$RETENTION INDEX=0
##$CONDENSED SPECTRUM=NO
##NPOINTS= 98
##XYDATA=(XY..XY) 1 
    26          9
    27        109
    28         31
    29         47
    30          1
    31         33
    33          0
    34          0
    37          2
    38          9
    39        210
    40         45
    41        367
    42        113
    43        172
    44          7
    45          3
    46          0
    47          0
    48          2
    49          0
    50          9
    51         26
    52         18
    53         80
    54        416
    55        197
    56         26
    57         21
    58         60
    59        640
    60         25
    61          2
    62          1
    63          5
    64          0
    65         22
    66         16
    67        776
    68         49
    69         53
    70        199
    71         16
    72          1
    73          0
    74          0
    75          1
    76          0
    77         25
    78          5
    79         62
    80         26
    81        223
    82         71
    83        170
    84         12
    85          3
    86          0
    89          0
    90          0
    91          4
    92          0
    93          2
    94          0
    95          3
    96          5
    97        108
    98        999
    99        113
   100          6
   101          0
   102          0
   103          0
   104          0
   105          0
   106          0
   107          3
   108          0
   109          1
   110          0
   111          1
   112          0
   115          0
   116          0
   117          1
   119          1
   120          0
   121          0
   122          1
   123          3
   124          0
   125          3
   126          0
   132          0
   139          0
   140         13
   141          8
   142          0