##TITLE=Library Entry 17511
##JCAMP-DX=Revision 4.10 
##DATA TYPE=MASS SPECTRUM
##SAMPLE DESCRIPTION=A.A.Kutin, Moscow, Russia
##NAMES=HP
##CAS NAME=Sulfamide, N1-(2,5-dichlorophenyl)-N2,N2-dimethyl-
##MOLFORM=C8H10Cl2N2O2S
##CAS REGISTRY NO=15442-19-0
##MP= -300
##BP= -300
##MW= 268
##$RETENTION INDEX=0
##$CONDENSED SPECTRUM=NO
##NPOINTS= 161
##XYDATA=(XY..XY) 1 
    33          1
    34          1
    35          3
    36         16
    37         11
    38         24
    39         15
    40         17
    42        171
    43         62
    44        260
    45        999
    46         24
    48         12
    49         10
    50          6
    51          7
    52         16
    53          0
    55          1
    56          0
    57          0
    59          4
    60          3
    61         15
    62         37
    63         81
    64         26
    65         12
    66          1
    67          0
    68          0
    69          0
    70          0
    71          1
    72          6
    73         49
    74          9
    75         18
    76          5
    77          1
    78          2
    79          1
    81          1
    83         15
    84          2
    85         10
    86          3
    87          4
    88         11
    89         10
    90         34
    91          6
    92         45
    93          2
    94          2
    95          0
    96          2
    97         20
    98         14
    99         19
   100          5
   101          4
   102          0
   103          0
   104          0
   105          0
   108        501
   109         21
   110         24
   111          2
   112          2
   113          0
   114          0
   115          0
   116          0
   117          0
   118          0
   119          0
   120          0
   121          0
   122          0
   124         45
   125         35
   126         25
   127         19
   128          7
   129          2
   130          1
   131          1
   133        275
   135        175
   136          9
   137         24
   138          1
   139          0
   140          1
   141          0
   142          5
   144          2
   145          1
   146          1
   147          0
   148          0
   149          0
   150          0
   152          0
   153          4
   154          2
   155          1
   156          0
   158          1
   160        135
   161         87
   162         84
   163         53
   164         16
   165          8
   166          0
   167          3
   169         25
   171          9
   172          1
   173          0
   174          1
   175          0
   176          0
   177          0
   178          0
   179          0
   187          0
   189         12
   191          8
   192          0
   193          1
   195          0
   203          0
   204          0
   205          0
   206          0
   207          0
   208          0
   215          0
   225          0
   233          3
   234          0
   235          1
   236          0
   249          0
   250          0
   251          0
   252          0
   254          0
   256          0
   268        172
   269         18
   270        112
   271         11
   272         21
   273          2
   274          0