##TITLE=Library Entry 81486
##JCAMP-DX=Revision 4.10 
##DATA TYPE=MASS SPECTRUM
##SAMPLE DESCRIPTION=A.A.Kutin, Moscow, Russia
##NAMES=HP
##CAS NAME=Naphth[2,3-b]oxirene-2,7-dione, 1a,7a-dihydro-
##MOLFORM=C10H6O3
##CAS REGISTRY NO=15448-58-5
##MP= -300
##BP= -300
##MW= 174
##$RETENTION INDEX=0
##$CONDENSED SPECTRUM=NO
##NPOINTS= 66
##XYDATA=(XY..XY) 1 
    37         27
    38         37
    39         82
    40          9
    41         12
    42         19
    43          5
    44          1
    49         20
    50        278
    51         82
    52         27
    53         21
    54          7
    55          1
    57          1
    58          0
    59         13
    60          6
    61         25
    62         71
    63        126
    64         29
    65          4
    66         20
    69         74
    70          4
    71          4
    73         28
    74        127
    75        101
    76        433
    77        340
    80          0
    84          1
    85         10
    86         18
    87         20
    89        477
    90        135
    91         12
    92         16
    97          5
    98          9
    99          4
   101         51
   102         22
   104        118
   105        999
   106         82
   107          6
   117         18
   118         66
   119          7
   120          6
   129         20
   130          7
   133          8
   146        295
   147         32
   148          4
   158         11
   173        255
   174        884
   175         99
   176         10