##TITLE=Library Entry 9167
##JCAMP-DX=Revision 4.10 
##DATA TYPE=MASS SPECTRUM
##SAMPLE DESCRIPTION=M.A.BALDWIN UNIVERSITY COLLEGE, LONDON, UK
##NAMES=HP
##CAS NAME=Urea, 3-(m-chlorophenyl)-1,1-dipropyl-
##MOLFORM=C13H19ClN2O
##CAS REGISTRY NO=15441-99-3
##MP= -300
##BP= -300
##MW= 254
##$RETENTION INDEX=0
##$CONDENSED SPECTRUM=NO
##NPOINTS= 57
##XYDATA=(XY..XY) 1 
    28        124
    29         30
    30        422
    32         18
    36         26
    37         24
    38         32
    39         78
    40         13
    41        200
    42         89
    43        999
    44         59
    50         27
    51         17
    52         12
    54         10
    56         26
    58         62
    61         14
    62         28
    63         73
    64         33
    65         15
    70         44
    72        689
    73         36
    74         12
    75         32
    76         11
    86        260
    87         14
    89         24
    90        110
    91         20
    98         13
    99         24
   100         29
   101         34
   111         46
   113         12
   115         16
   125         94
   126         26
   127         71
   128        489
   129         43
   153        389
   154         48
   155        124
   156         16
   225         29
   227          9
   254        186
   255         32
   256         63
   257         10