##TITLE=Library Entry 97846
##JCAMP-DX=Revision 4.10 
##DATA TYPE=MASS SPECTRUM
##SAMPLE DESCRIPTION=Japan AIST/NIMC Database- Spectrum MS-IW-7541
##NAMES=HP
##CAS NAME=Propanoic acid, 3,3'-dithiobis-, dimethyl ester
##MOLFORM=C8H14O4S2
##CAS REGISTRY NO=15441-06-2
##MP= -300
##BP= -300
##MW= 238
##$RETENTION INDEX=0
##$CONDENSED SPECTRUM=NO
##NPOINTS= 127
##XYDATA=(XY..XY) 1 
    15        234
    16          3
    25          3
    26         28
    27        169
    28        129
    29         31
    30          7
    31         41
    32         14
    33          5
    34          8
    35          9
    37          1
    38          1
    39          9
    40          1
    41         63
    42         27
    43         64
    44         15
    45        301
    46         54
    47         48
    48          9
    49          9
    51          1
    53          8
    54          5
    55        895
    56         44
    57         32
    58        276
    59        870
    60        117
    61         71
    62          6
    63          6
    64         85
    65          9
    66          9
    67          1
    68          4
    69          3
    70          1
    71          4
    72         10
    73          5
    74         43
    75          8
    76         21
    77        113
    78          9
    79         29
    80          8
    81          3
    85         33
    86         26
    87        643
    88        224
    89         89
    90         23
    91         46
    92         35
    93         19
    94          3
    95         21
    97          2
   101         21
   102          4
   103          3
   104          1
   105          4
   106          1
   107          3
   108          1
   109         47
   110          2
   111          4
   113          1
   114          1
   117         26
   118        999
   119        469
   120        323
   121         85
   122         17
   123          4
   124          1
   133          2
   134          4
   135          7
   139          1
   141          1
   143          2
   146          5
   147          4
   148          1
   150          1
   151         64
   152          5
   153          6
   161          1
   165         11
   166          7
   167          1
   172          1
   173         43
   174          6
   175        159
   176         12
   177         14
   178          6
   179         20
   180          2
   181          2
   205          5
   206          3
   207        224
   208         21
   209         21
   210          1
   238        755
   239         79
   240         76
   241          7
   242          2