##TITLE=Library Entry 6269
##JCAMP-DX=Revision 4.10 
##DATA TYPE=MASS SPECTRUM
##SAMPLE DESCRIPTION=Japan AIST/NIMC Database- Spectrum MS-NW-5197
##NAMES=HP
##CAS NAME=p-Hexyloxy nitrobenzene
##MOLFORM=C12H17NO3
##CAS REGISTRY NO=15440-98-9
##MP= -300
##BP= -300
##MW= 223
##$RETENTION INDEX=0
##$CONDENSED SPECTRUM=NO
##NPOINTS= 92
##XYDATA=(XY..XY) 1 
    15          2
    18          1
    26          5
    27         90
    28         11
    29        136
    30         18
    37          2
    38         11
    39         70
    40          9
    41        242
    42        100
    43        999
    44         33
    50         26
    51         10
    52          6
    53         16
    54          9
    55        185
    56        163
    57        122
    58          6
    61          1
    62          6
    63         30
    64         30
    65         53
    66          6
    67          5
    68          2
    69         92
    70          6
    71          2
    74          5
    75         30
    76         42
    77          9
    78          9
    79          5
    80          4
    81         10
    82          2
    83        103
    84        217
    85        127
    86          8
    91          6
    92         16
    93         41
    94          9
    95          1
   103          1
   105          3
   106         10
   107          9
   108          4
   109         66
   110          5
   119          3
   120          2
   122         18
   123         81
   124         48
   125          4
   129          1
   131          1
   133          3
   134          1
   135          1
   136          1
   137          1
   139        155
   140         97
   141         31
   142          3
   148          1
   149          1
   152         20
   153          2
   166          1
   167          1
   177          1
   180          1
   193          5
   194          1
   195          1
   207          6
   223        127
   224         19
   225          2