##TITLE=Library Entry 40383
##JCAMP-DX=Revision 4.10 
##DATA TYPE=MASS SPECTRUM
##SAMPLE DESCRIPTION=M.A.BALDWIN UNIVERSITY COLLEGE, LONDON, UK
##NAMES=HP
##CAS NAME=Urea, 3-(3-chloro-o-tolyl)-1,1-dimethyl-
##MOLFORM=C10H13ClN2O
##CAS REGISTRY NO=15441-91-5
##MP= -300
##BP= -300
##MW= 212
##$RETENTION INDEX=0
##$CONDENSED SPECTRUM=NO
##NPOINTS= 34
##XYDATA=(XY..XY) 1 
    28         46
    30         17
    39         14
    42         31
    43         18
    44        119
    45         72
    46         41
    50         15
    51         30
    52         14
    56         13
    62         14
    72        999
    73         41
    76         13
    77         40
    78         13
    89         14
   104         18
   112         12
   132         36
   138         25
   139         19
   140         23
   141         12
   167         77
   168         17
   169         28
   177         16
   197         10
   212        188
   213         24
   214         63