##TITLE=Library Entry 11913
##JCAMP-DX=Revision 4.10 
##DATA TYPE=MASS SPECTRUM
##SAMPLE DESCRIPTION=M.A.BALDWIN UNIVERSITY COLLEGE, LONDON, UK
##NAMES=HP
##CAS NAME=Urea, 3-(2,5-dichlorophenyl)-1,1-dipropyl-
##MOLFORM=C13H18Cl2N2O
##CAS REGISTRY NO=15442-00-9
##MP= -300
##BP= -300
##MW= 288
##$RETENTION INDEX=0
##$CONDENSED SPECTRUM=NO
##NPOINTS= 56
##XYDATA=(XY..XY) 1 
    28         55
    29         19
    30        254
    36         29
    37         13
    38         15
    39         36
    41        169
    42         77
    43        999
    44         55
    50         12
    56         29
    58         45
    61         11
    62         17
    63         22
    70         36
    72        506
    73         26
    74         12
    75         13
    86        281
    87         16
    88         15
    90         10
    98         12
   100         10
   101         21
   102         23
   124         95
   125         14
   126         34
   128        598
   129         50
   133         23
   135         15
   159         19
   160         16
   161         39
   162         12
   163         20
   181         10
   187        206
   188         25
   189        133
   190         17
   191         23
   253        186
   254         31
   255         63
   256         10
   259         14
   288         55
   289         11
   290         36