##TITLE=Library Entry 98912
##JCAMP-DX=Revision 4.10 
##DATA TYPE=MASS SPECTRUM
##SAMPLE DESCRIPTION=Zaikin V.G., TIPS RAS, Moscow, Russia
##NAMES=HP
##CAS NAME=p-Toluic acid, 3-methylbut-2-enyl ester
##MOLFORM=C13H16O2
##CAS REGISTRY NO=154559-35-0
##MP= -300
##BP= -300
##MW= 204
##$RETENTION INDEX=1623
##$CONDENSED SPECTRUM=NO
##NPOINTS= 51
##XYDATA=(XY..XY) 1 
    27         14
    28          3
    29          8
    36          5
    38          3
    39         36
    40         11
    41        128
    42          9
    43          4
    44          3
    50          5
    51         10
    52          4
    53         33
    54          4
    55          3
    62          3
    63         14
    64          4
    65         63
    66          6
    67         85
    68        322
    69        241
    70         12
    77          6
    85         32
    89         18
    90         13
    91        195
    92         27
    93         12
   105          5
   107          4
   118          3
   119        999
   120         72
   121          6
   135          7
   136         50
   137         53
   138          4
   145         14
   148          5
   159          8
   161          4
   171          3
   175          4
   204         47
   205          6