##TITLE=Library Entry 107381
##JCAMP-DX=Revision 4.10 
##DATA TYPE=MASS SPECTRUM
##SAMPLE DESCRIPTION=B.R. PETTIT, QUEEN CHARLOTTE'S MAT. HOSP., LONDON, U.K.
##NAMES=HP
##CAS NAME=(3,4-Dihydroxyphenyl)heptylamine
##MOLFORM=C13H21NO2
##CAS REGISTRY NO=154585-11-2
##MP= -300
##BP= -300
##MW= 223
##$RETENTION INDEX=0
##$CONDENSED SPECTRUM=NO
##NPOINTS= 168
##XYDATA=(XY..XY) 1 
    41        195
    42         60
    43         91
    44        142
    45        277
    46          8
    50         17
    51        136
    52         28
    53         47
    54         17
    55        194
    56        204
    57         31
    58         26
    59         68
    60          5
    61          2
    62          6
    63         23
    64         16
    65         71
    66         33
    67         39
    68         12
    69         52
    70         55
    71         38
    72         64
    73         34
    74          4
    75          9
    76         14
    77        258
    78         44
    79         39
    80         10
    81         31
    82         14
    83         46
    84         37
    85         15
    86         99
    87        140
    88         10
    89         25
    90         13
    91         89
    92         13
    93         15
    94         71
    95         37
    96         20
    97         10
    98         22
    99          4
   100        440
   101         42
   102          7
   103         33
   104         18
   105         49
   106         18
   107         57
   108         15
   109         17
   110         44
   111         10
   112         10
   113          2
   114          2
   115         12
   116          5
   117         12
   118          6
   119         24
   120         44
   121         22
   122        140
   123        999
   124        164
   125         16
   126         10
   127          4
   128          3
   129          5
   130          5
   131         56
   132         13
   133         15
   134          6
   135         27
   136        198
   137         42
   138          7
   139          2
   140         13
   141          3
   143          3
   144          3
   145         11
   146          7
   147         14
   148          6
   149        123
   150         29
   151          6
   152          2
   157          3
   158          3
   159          6
   160         17
   161          9
   162         13
   163         32
   164         11
   165          4
   170          2
   173          2
   174          2
   175          4
   176          4
   177          9
   178          6
   179         10
   180          4
   181          2
   182          1
   183          1
   184          1
   185          2
   186          2
   187          6
   188          7
   189          4
   191          6
   193          2
   194          3
   195          1
   196          1
   197          1
   198          1
   199          1
   200          2
   201          1
   202          2
   203          2
   204         14
   205          4
   206         76
   207         14
   208          2
   210          1
   211          1
   212          1
   213          2
   214          3
   215          6
   216          4
   217          8
   218          4
   219          6
   220          2
   221          4
   223        559
   224         94
   225          9
   226          1