##TITLE=Library Entry 48795
##JCAMP-DX=Revision 4.10 
##DATA TYPE=MASS SPECTRUM
##SAMPLE DESCRIPTION=NIST Mass Spectrometry Data Center, 1994
##NAMES=HP
##CAS NAME=N-(2-Hydroxyethyl)-4-cyclohexene-1,2-dicarboximide
##MOLFORM=C10H13NO3
##CAS REGISTRY NO=15458-48-7
##MP= -300
##BP= -300
##MW= 195
##$RETENTION INDEX=0
##$CONDENSED SPECTRUM=NO
##NPOINTS= 113
##XYDATA=(XY..XY) 1 
    12          4
    13          0
    14          3
    15         59
    16          2
    17          1
    18          8
    19         10
    26         40
    27        225
    28        181
    29         71
    30        220
    31        241
    32          2
    37          6
    38         27
    39        245
    40         41
    41         80
    42         70
    43         43
    44         47
    45         14
    46         28
    47          1
    50         59
    51        161
    52         96
    53        135
    54         84
    55         60
    56        129
    57         19
    58        100
    60         13
    61         57
    62          7
    63         18
    64          7
    65         50
    66         25
    67         36
    68         23
    69          9
    70         59
    71         17
    72         17
    75          5
    77        436
    78        190
    79        999
    80        404
    81        323
    82         67
    83         26
    84          3
    85          3
    86          3
    88         25
    89         18
    91         41
    92          9
    93         37
    94         15
    95         10
    96         39
    97          8
    98         33
    99          2
   105         39
   106         34
   107         63
   108         36
   109         20
   110         18
   111         36
   112          2
   117          1
   118          5
   119          2
   120         10
   121          4
   122         21
   123          6
   124          5
   125          5
   132          2
   133          2
   134         13
   135          8
   136         22
   137          5
   140          2
   148        160
   149         64
   150         10
   151          2
   152        423
   153         38
   154          3
   160          2
   162          8
   164         20
   165         39
   166         14
   167          5
   176         17
   177        108
   178         14
   195        184
   196         21
   197          1