##TITLE=Library Entry 27751
##JCAMP-DX=Revision 4.10 
##DATA TYPE=MASS SPECTRUM
##SAMPLE DESCRIPTION=NIST Mass Spectrometry Data Center, 1994
##NAMES=HP
##CAS NAME=3-Dimethylamino-2,2-dimethylpropionaldehyde
##MOLFORM=C7H15NO
##CAS REGISTRY NO=15451-14-6
##MP= -300
##BP= -300
##MW= 129
##$RETENTION INDEX=0
##$CONDENSED SPECTRUM=NO
##NPOINTS= 63
##XYDATA=(XY..XY) 1 
    12          0
    13          1
    15         86
    16          1
    18         12
    19          0
    26          6
    27         55
    28         40
    29        104
    30        104
    31          6
    32          1
    36          0
    37          2
    39         59
    40         13
    41         64
    42        175
    43         41
    44         72
    45         18
    46          2
    49          0
    50          2
    51          3
    52          1
    53          5
    54          2
    55         13
    56         18
    57          0
    58        999
    59         36
    60          0
    61          1
    64          0
    65          0
    66          0
    67          1
    68          4
    69          2
    70         14
    71          4
    72          2
    73          1
    74          3
    80          0
    81          0
    82          3
    84         12
    85         11
    86          2
    89          1
    94          0
    96          0
    98          3
    99          1
   100          3
   101          2
   112          1
   128          0
   129          0