##TITLE=Library Entry 114703
##JCAMP-DX=Revision 4.10 
##DATA TYPE=MASS SPECTRUM
##SAMPLE DESCRIPTION=Chemical Concepts
##NAMES=HP
##CAS NAME=1H-Phosphole, 2,5-dihydro-1,3-dimethyl-, 1-oxide
##MOLFORM=C6H11OP
##CAS REGISTRY NO=15450-79-0
##MP= -300
##BP= -300
##MW= 130
##$RETENTION INDEX=0
##$CONDENSED SPECTRUM=NO
##NPOINTS= 90
##XYDATA=(XY..XY) 1 
    27        172
    29         21
    30          0
    31          6
    33          8
    34          0
    35          0
    36          0
    37          9
    38         27
    39        283
    40        112
    41        190
    42         48
    43         19
    44          8
    45         49
    46         16
    47        259
    48         19
    49         26
    50         25
    51         49
    52         22
    53        228
    54         12
    55         15
    56          8
    57         33
    58          7
    59          9
    60          3
    61          7
    62         47
    63        112
    64         15
    65         45
    66         52
    67        668
    68        703
    69         38
    70          5
    71         19
    72         10
    73          9
    74          3
    75         36
    76          5
    77         10
    78         21
    79          7
    80          2
    81         10
    82          3
    83         12
    84          4
    85          8
    86          2
    87         32
    88          2
    89         11
    90         87
    91          3
    92          0
    93          0
    95         15
    96          3
    97        140
    98          7
    99         16
   100          3
   101          5
   102         32
   103          2
   104          6
   105          0
   109          3
   111         10
   112          1
   113         15
   114          5
   115        400
   116         21
   117          1
   127          0
   128          8
   129        560
   130        999
   131         83
   132          4