##TITLE=Library Entry 18575
##JCAMP-DX=Revision 4.10 
##DATA TYPE=MASS SPECTRUM
##SAMPLE DESCRIPTION=A.A.Kutin, Moscow, Russia
##NAMES=HP
##CAS NAME=Pyridazine-3,6-diol, 4-bromo-
##MOLFORM=C4H3BrN2O2
##CAS REGISTRY NO=15456-86-7
##MP= -300
##BP= -300
##MW= 190
##$RETENTION INDEX=0
##$CONDENSED SPECTRUM=NO
##NPOINTS= 100
##XYDATA=(XY..XY) 1 
    33          3
    34          0
    36         71
    37        107
    38         68
    39         54
    40        110
    41         30
    42         41
    43         79
    44         38
    45          2
    46          0
    48          1
    50         37
    51         93
    52        230
    53        999
    54        230
    55        188
    56         54
    58         67
    59          3
    60          0
    62          0
    64          3
    65          6
    66         29
    67         20
    68         43
    69          5
    70          2
    71          0
    72          0
    73          3
    74          0
    76          2
    77          4
    79         95
    80         30
    81         89
    82         50
    83         73
    84          3
    85          2
    91         15
    92          6
    93         14
    94          5
    95          2
    96          0
    97          0
   103         23
   104        106
   105         82
   106        108
   107         63
   108          4
   109          5
   110          5
   111         38
   112          6
   113          0
   114          0
   115          4
   116          8
   117          6
   118         11
   119         12
   120         10
   121         10
   122          5
   129          2
   130          5
   131         34
   132         90
   133        139
   134         90
   135        100
   136          6
   137          0
   144          0
   145          1
   146          1
   147          0
   148          1
   149          0
   159         29
   160        169
   161         43
   162        188
   163         16
   164         35
   165          1
   189         77
   190        338
   191        100
   192        333
   193         18
   194          1