##TITLE=Library Entry 98400
##JCAMP-DX=Revision 4.10 
##DATA TYPE=MASS SPECTRUM
##SAMPLE DESCRIPTION=Exported from NIST MS Search
##NAMES=HP
##CAS NAME=Azetidine, 1,3,3-trimethyl-2-phenyl-
##MOLFORM=C12H17N
##CAS REGISTRY NO=15451-12-4
##MP= -300
##BP= -300
##MW= 175
##$RETENTION INDEX=0
##$CONDENSED SPECTRUM=NO
##NPOINTS= 18
##XYDATA=(XY..XY) 1 
    39         60
    41         90
    42        230
    43         20
    51         60
    65         50
    77        100
    78         80
    91        150
    92         20
   117        160
   118        999
   119        290
   120         80
   132        110
   133         10
   175        200
   176         20