##TITLE=Library Entry 94059
##JCAMP-DX=Revision 4.10 
##DATA TYPE=MASS SPECTRUM
##SAMPLE DESCRIPTION=Chemical Concepts
##NAMES=HP
##CAS NAME=1H-Phosphole, 2,3-dihydro-1,4-dimethyl-, 1-oxide
##MOLFORM=C6H11OP
##CAS REGISTRY NO=15450-68-7
##MP= -300
##BP= -300
##MW= 130
##$RETENTION INDEX=0
##$CONDENSED SPECTRUM=NO
##NPOINTS= 88
##XYDATA=(XY..XY) 1 
    27         79
    29         13
    30          0
    31          2
    32          0
    33          4
    34          0
    37          5
    38         15
    39        127
    40         22
    41         68
    42          7
    43         28
    44          5
    45         32
    46          8
    47        222
    48         11
    49         15
    50         12
    51         23
    52          8
    53         48
    54          3
    55         10
    56          6
    57         26
    58          6
    59         10
    60          2
    61          5
    62         33
    63         48
    64          5
    65         17
    66         11
    67         95
    68         44
    69         10
    70          3
    71         17
    72          7
    73          8
    74          2
    75         40
    76          2
    77          4
    78          2
    79          4
    80          1
    81          6
    82          4
    83         10
    84          3
    85          8
    86          2
    87         67
    88          2
    89          7
    90         30
    91          1
    92          0
    93          0
    95         12
    96          2
    97        157
    98          9
    99         12
   100          5
   101          3
   102          7
   103          1
   104          1
   109          1
   111          3
   112          0
   113         13
   114          4
   115        999
   116         53
   117          3
   128          1
   129         55
   130        401
   131         30
   132          1
   133          0