##TITLE=Library Entry 10264
##JCAMP-DX=Revision 4.10 
##DATA TYPE=MASS SPECTRUM
##SAMPLE DESCRIPTION=Div. of Experiment Therapeutics WRAIR, WRAMC, Washingto
n DC 20307
##NAMES=HP
##CAS NAME=9-Norartemisinin, 9-[2-phenylethyl]-
##MOLFORM=C22H28O5
##CAS REGISTRY NO=154698-14-3
##MP= -300
##BP= -300
##MW= 372
##$RETENTION INDEX=0
##$CONDENSED SPECTRUM=NO
##NPOINTS= 110
##XYDATA=(XY..XY) 1 
    41         80
    43        999
    45         29
    53         27
    55        268
    57         25
    58        195
    65         64
    67        115
    68         40
    69         96
    71        127
    77         70
    79        132
    81        172
    83         63
    91        992
    93        182
    95        169
    97         22
   103         24
   104        809
   105        210
   107        143
   109        141
   110         49
   111         50
   113         28
   115        103
   117        470
   118         66
   119         53
   121        102
   122         42
   123         84
   124        114
   125         64
   129        101
   131        126
   133        162
   135         64
   136         41
   137         85
   138         95
   139         19
   141         22
   143        135
   144         84
   145         52
   146        208
   147        113
   149        113
   151        187
   152         20
   153         46
   157         71
   158         19
   159         55
   161         95
   162         40
   163        128
   164        227
   165        105
   166         41
   169         20
   171         19
   175         26
   177         86
   178        105
   179         50
   180         81
   181        102
   182         82
   183         40
   193         82
   194         44
   195         59
   203         22
   207         70
   209         30
   218         38
   221        189
   222         45
   227         75
   236         22
   239        429
   240         56
   241         73
   242         42
   249         42
   255        141
   256         80
   261         18
   267         89
   268        134
   279        218
   282        110
   285         80
   297        814
   298        212
   299         43
   300         68
   307        147
   312         31
   322         77
   325        304
   326        159
   327         19
   339         49
   372         10