##TITLE=Library Entry 54292
##JCAMP-DX=Revision 4.10 
##DATA TYPE=MASS SPECTRUM
##SAMPLE DESCRIPTION=Chemical Concepts
##NAMES=HP
##CAS NAME=2-Cyclohexen-1-one, 5,5-dimethyl-3-(2-methylpropoxy)-
##MOLFORM=C12H20O2
##CAS REGISTRY NO=15466-96-3
##MP= -300
##BP= -300
##MW= 196
##$RETENTION INDEX=0
##$CONDENSED SPECTRUM=NO
##NPOINTS= 101
##XYDATA=(XY..XY) 1 
    26         14
    27        230
    28         32
    29        339
    30          9
    31         13
    33          2
    37          7
    38         26
    39        363
    40         66
    41        608
    42         57
    43        103
    44          4
    45          3
    47          3
    50         18
    51         42
    52         22
    53        105
    54         23
    55        181
    56        263
    57        511
    58         30
    59          4
    61          2
    62          5
    63         18
    64          5
    65         30
    66         17
    67        187
    68         27
    69        431
    70         19
    71         10
    72          2
    73          3
    74          3
    75          2
    76          2
    77         44
    78         12
    79         53
    80         11
    81         31
    82         14
    83        114
    84        999
    85        446
    86         25
    87          3
    89          2
    90          2
    91         32
    92         18
    93          7
    94          3
    95         19
    96         13
    97         39
    98         21
    99         14
   100          1
   105          2
   107          6
   108          3
   109          6
   110          4
   111         11
   112         77
   113         17
   114          2
   115          1
   121          2
   122          2
   123         44
   124          7
   125         77
   126          7
   137          3
   139          9
   140         58
   141        661
   142         63
   143          6
   149          2
   153          2
   154          1
   155          4
   167          2
   168          2
   181         32
   182          5
   183          1
   195          1
   196         59
   197         19
   198          2