##TITLE=Library Entry 68802
##JCAMP-DX=Revision 4.10 
##DATA TYPE=MASS SPECTRUM
##SAMPLE DESCRIPTION=NIST Mass Spectrometry Data Center
##NAMES=HP
##CAS NAME=4-Hydroxy-2-trifluoromethylpyrimidine
##MOLFORM=C5H3F3N2O
##CAS REGISTRY NO=1546-80-1
##MP= -300
##BP= -300
##MW= 164
##$RETENTION INDEX=0
##$CONDENSED SPECTRUM=NO
##NPOINTS= 88
##XYDATA=(XY..XY) 1 
    12         27
    13         39
    14         93
    15         25
    16          4
    17          2
    19         30
    20         11
    24         17
    25         67
    26        356
    27         89
    28        265
    29         86
    31        167
    32          7
    34          6
    36          8
    37         18
    38        115
    39        194
    40        772
    41        290
    42        368
    43         68
    44         19
    45          3
    46         13
    47         28
    50        153
    51        125
    52        127
    53        308
    54         41
    55          6
    57         12
    58         11
    59          7
    62          7
    63          3
    64          5
    65         23
    67        421
    68        199
    69        729
    70         31
    71          5
    72          3
    73          8
    74          1
    76         80
    77         41
    78          9
    79         20
    80         13
    81          8
    82          3
    85          2
    86         19
    87          2
    89         57
    90         27
    91         17
    92         16
    93         12
    95        999
    96        182
    97          6
   100          2
   101          4
   108         20
   109          3
   116         78
   118        105
   119          5
   120         15
   121          5
   127          2
   136        525
   137         35
   138          2
   145        152
   146          8
   147          2
   162          3
   164        999
   165         67
   166          4