##TITLE=Library Entry 54723
##JCAMP-DX=Revision 4.10 
##DATA TYPE=MASS SPECTRUM
##SAMPLE DESCRIPTION=Chemical Concepts
##NAMES=HP
##CAS NAME=Cyclohexanol, 1,3-dimethyl-, cis-
##MOLFORM=C8H16O
##CAS REGISTRY NO=15466-94-1
##MP= -300
##BP= -300
##MW= 128
##$RETENTION INDEX=0
##$CONDENSED SPECTRUM=NO
##NPOINTS= 95
##XYDATA=(XY..XY) 1 
    25          0
    26          7
    27        141
    28         27
    29        101
    30          3
    31         29
    32          0
    37          0
    38          4
    39        126
    40         25
    41        239
    42         59
    43        612
    44         13
    45         50
    46          1
    47          0
    48          2
    49          1
    50          2
    51         10
    52          5
    53         40
    54         11
    55        109
    56         23
    57         44
    58        253
    59         44
    60          2
    62          0
    63          2
    64          0
    65         10
    66          3
    67        127
    68         43
    69         93
    70         40
    71        555
    72         42
    73          3
    74          0
    75          0
    76          0
    77         10
    78          2
    79          9
    80          2
    81         21
    82         12
    83          7
    84          9
    85        999
    86         60
    87          4
    88          0
    89          0
    91          5
    92          0
    93          7
    94          2
    95        288
    96         21
    97          5
    98          1
    99          2
   100          1
   101          0
   103          0
   104          0
   105          0
   106          0
   107          0
   108          0
   109          8
   110        118
   111         23
   112          2
   113        263
   114         20
   115          1
   117          0
   119          0
   120          0
   121          0
   123          0
   124          0
   125          0
   126          0
   127          0
   128         46
   129          3