##TITLE=Library Entry 28441
##JCAMP-DX=Revision 4.10 
##DATA TYPE=MASS SPECTRUM
##SAMPLE DESCRIPTION=Exported from NIST MS Search
##NAMES=HP
##CAS NAME=Azacyclohexacosan-14-one, 1-(28,29-dihydroxybicyclo[25.3.1]hentri
aconta-1(31),27,29-trien-31-yl)-, diacetate (ester)
##MOLFORM=C60H105NO5
##CAS REGISTRY NO=15462-29-0
##MP= -300
##BP= -300
##MW= 919
##$RETENTION INDEX=0
##$CONDENSED SPECTRUM=NO
##NPOINTS= 531
##XYDATA=(XY..XY) 1 
    51         61
    52         30
    53        200
    54        307
    55        969
    56        846
    57        969
    58        999
    59        246
    60         15
    61          6
    62          6
    63         30
    64          6
    65         30
    66         30
    67        590
    68        292
    69        959
    70        498
    71        999
    72        246
    73         15
    74          6
    77         46
    78         15
    79        153
    80        107
    81        547
    82        246
    83        855
    84        307
    85        344
    86         30
    91         61
    92         15
    93        107
    94         61
    95        400
    96        147
    97        400
    98        292
    99         46
   100         15
   103         15
   104         15
   105         30
   106         15
   107         86
   108         46
   109        153
   110         61
   111        153
   112         61
   113         30
   114          6
   115         15
   116          6
   117         15
   118         15
   119         24
   120         24
   121         86
   122         67
   123        107
   124         46
   125         61
   126         15
   127         15
   128          6
   129         15
   130         15
   131         30
   132         46
   133         36
   134         46
   135         55
   136         76
   137        184
   138        123
   139         46
   140         24
   141          6
   142          6
   143          6
   144         15
   145         24
   146        153
   147         61
   148         76
   149         76
   150        107
   151         61
   152        178
   153         24
   154          6
   155          6
   156          6
   157          6
   158         15
   159         30
   160        169
   161         55
   162        215
   163        123
   164        184
   165         61
   166         61
   167         24
   168          6
   170          6
   171          6
   172         30
   173         30
   174         67
   175         55
   176        215
   177         92
   178        138
   179         24
   180         15
   181          6
   182         15
   183         15
   184          6
   185          6
   186         24
   187         24
   188         61
   189         46
   190        107
   191         46
   192         46
   193          6
   194          6
   195          6
   196         15
   197          6
   198          6
   199          6
   200         15
   201          6
   202         36
   203         24
   204         61
   205         24
   206         24
   207          6
   208          6
   209          6
   210          6
   211         15
   212          6
   214         15
   215          6
   216         36
   217         15
   218         61
   219         24
   220         24
   221          6
   222          6
   224          6
   228         15
   230         24
   231          6
   232         36
   233         15
   234         30
   235          6
   237          6
   239         15
   241          6
   243         15
   244          6
   245         36
   246         15
   247         15
   256          6
   258         15
   259          6
   260         36
   261         15
   262         15
   266          6
   272         15
   273          6
   274         30
   275         15
   276         15
   284          6
   286         15
   287          6
   288         36
   289         15
   290         15
   293          6
   300          6
   301          6
   302         36
   303         15
   304         15
   312          6
   314         15
   315          6
   316         30
   317         15
   318         21
   326         15
   328         15
   329          6
   330         36
   331         15
   332         15
   338          6
   340          6
   342         15
   343          6
   344         30
   345         15
   346          6
   349          6
   353          6
   355         30
   356          6
   357         36
   358         15
   359          6
   367         15
   368         15
   369         30
   370          6
   371         46
   372         15
   373         15
   375          6
   377         55
   378         24
   379         24
   381          6
   383         24
   385         46
   386         15
   387          6
   396          6
   398         24
   399         15
   400         30
   401         15
   402          6
   410          6
   412         24
   413         15
   414         46
   415         15
   416          6
   418          6
   424          6
   426         36
   427         15
   428         36
   429         15
   430          6
   437          6
   439         36
   440         15
   441         55
   442         15
   443          6
   452         15
   453          6
   454         46
   455         15
   456         67
   457         24
   458         55
   459         15
   460          6
   465         24
   466         15
   467         61
   468         46
   469        116
   470        107
   471         55
   472         24
   473          6
   477          6
   479         61
   480         24
   481         98
   482         86
   483        221
   484        252
   485        129
   486         30
   487          6
   494         15
   495          6
   496         92
   497         46
   498        369
   499        169
   500         61
   501         15
   502          6
   508          6
   509          6
   510         46
   511         15
   512         67
   513         24
   514         15
   522         15
   523          6
   524         46
   525         24
   526         86
   527        123
   528         76
   529         15
   537          6
   539         61
   540         24
   541        363
   542        153
   543        107
   544         30
   545          6
   552          6
   554         30
   555          6
   556         61
   557         24
   558         15
   565          6
   566          6
   567         30
   568          6
   569         76
   570         30
   571         24
   572          6
   578          6
   579          6
   580         55
   581         30
   582        815
   583        353
   584        507
   585        190
   586         30
   587          6
   592          6
   594         46
   595         24
   596         92
   597         36
   598         15
   599          6
   606         15
   607          6
   608         46
   609         30
   610        116
   611         55
   612         15
   613          6
   620         24
   621         15
   622         61
   623         30
   624        107
   625         61
   626         24
   627          6
   633         24
   634          6
   635         86
   636         30
   637        153
   638         86
   639         30
   648          6
   649          6
   650         61
   651         30
   652        221
   653        123
   654         36
   655         24
   656          6
   660          6
   662         24
   663          6
   664         36
   665         30
   666        169
   667         92
   668         30
   669          6
   676         15
   677          6
   678         86
   679         30
   680        261
   681        138
   682         30
   683          6
   690         15
   691          6
   692         55
   693         30
   694        292
   695        178
   696         61
   697         15
   698         15
   704          6
   705          6
   706         30
   707         15
   708         98
   709         46
   710         15
   711          6
   718         15
   719          6
   720         61
   721         30
   722        661
   723        344
   724         92
   725         15
   732         15
   733          6
   734         24
   735         15
   736        169
   737        129
   738         76
   739         30
   747         24
   748          6
   749         30
   750         15
   751         61
   752         30
   753          6
   761         15
   762         30
   763         15
   764         46
   765         24
   766          6
   770         15
   774          6
   775          6
   776         36
   777         24
   778         46
   779         30
   780        107
   781         30
   782          6
   788         15
   789         15
   790         30
   791         15
   792        184
   793         92
   794         30
   795         15
   796          6
   804         15
   805         15
   806         92
   807         61
   808         15
   816          6
   817         92
   818        123
   819         61
   820         30
   821         61
   822         36
   823          6
   831          6
   832         55
   833         55
   834        999
   835        676
   836        270
   837         98
   838         61
   839         30
   840         15
   846          6
   847          6
   848         76
   849         46
   850         15
   851         24
   852         61
   853         30
   854          6
   858         15
   859         15
   860         46
   861         24
   862         61
   863         30
   864          6
   874         15
   875         15
   876        270
   877        261
   878        138
   879         30
   880          6
   890         36
   891         24
   892          6
   916          6
   917         15
   918        240
   919        892
   920        559
   921        190
   922         46
   923          6