##TITLE=Library Entry 7157
##JCAMP-DX=Revision 4.10 
##DATA TYPE=MASS SPECTRUM
##SAMPLE DESCRIPTION=Japan AIST/NIMC Database- Spectrum MS-IW-2573
##NAMES=HP
##CAS NAME=3-Decenoic acid
##MOLFORM=C10H18O2
##CAS REGISTRY NO=15469-77-9
##MP= -300
##BP= -300
##MW= 170
##$RETENTION INDEX=0
##$CONDENSED SPECTRUM=NO
##NPOINTS= 113
##XYDATA=(XY..XY) 1 
    14          1
    15          7
    17          6
    18         26
    26         11
    27        278
    28         63
    29        409
    30          9
    31         11
    32          4
    37          2
    38          9
    39        262
    40         46
    41        707
    42        312
    43        999
    44         40
    45         92
    46          3
    47          2
    50          9
    51         26
    52         16
    53        132
    54        291
    55        765
    56        421
    57        228
    58         65
    59         25
    60        137
    61         16
    62          2
    63          5
    64          1
    65         24
    66         20
    67        216
    68        261
    69        439
    70        222
    71        157
    72         15
    73        209
    74         17
    75          2
    77         17
    78          6
    79         35
    80         16
    81        224
    82        132
    83        146
    84        266
    85         53
    86         65
    87         99
    88         13
    89          1
    91          6
    92          3
    93          8
    94         13
    95         92
    96        121
    97         82
    98         69
    99         96
   100        142
   101         84
   102         13
   103          1
   105          5
   106          2
   107          3
   108         53
   109         48
   110        252
   111         76
   112          8
   113         34
   114         72
   115         16
   116          3
   119          5
   120          1
   121          2
   122          1
   123         79
   124         28
   125          7
   126          2
   127         27
   128          8
   129          3
   133          1
   134         18
   135          3
   137          8
   138          1
   139          4
   140          1
   141          9
   142          1
   151          2
   152        114
   153         14
   154          1
   155          1
   170         14
   171          2