##TITLE=Library Entry 23310
##JCAMP-DX=Revision 4.10 
##DATA TYPE=MASS SPECTRUM
##SAMPLE DESCRIPTION=Chemical Concepts
##NAMES=HP
##CAS NAME=Sulfone, 2-hydroxypropyl t-butyl
##MOLFORM=C7H16O3S
##CAS REGISTRY NO=154619-05-3
##MP= -300
##BP= -300
##MW= 180
##$RETENTION INDEX=0
##$CONDENSED SPECTRUM=NO
##NPOINTS= 100
##XYDATA=(XY..XY) 1 
    25          0
    26          3
    27         48
    28          4
    29        263
    30          4
    31         50
    33          0
    34          0
    35          0
    37          1
    38          2
    39         54
    41        358
    42         65
    43         27
    44         11
    45         28
    46          1
    47          1
    48          1
    49          0
    50          0
    51          1
    52          0
    53          4
    54          1
    55         21
    56        212
    57        999
    58         60
    59         42
    60         10
    61          5
    62          0
    63          8
    64          2
    65          4
    66          0
    68          0
    69          1
    70         17
    71         15
    72          0
    73          0
    74          1
    75         28
    76          1
    77          0
    79          0
    80         10
    81          4
    82          0
    83          1
    84          0
    85          0
    86          0
    87          0
    88          0
    89          0
    90          0
    91          1
    94          0
    95          0
    97          0
    98          8
    99          0
   101          1
   102          0
   104          0
   105          1
   106          0
   107          7
   108          0
   109         10
   110          0
   111          0
   115          0
   116         14
   117          1
   119          0
   120          0
   121          1
   123          6
   124          1
   125          4
   126          0
   127          0
   129          0
   136          4
   137          0
   138          0
   147          0
   148          0
   149          0
   150          0
   163          0
   165          1
   166          0
   181          1