##TITLE=Library Entry 12867
##JCAMP-DX=Revision 4.10 
##DATA TYPE=MASS SPECTRUM
##SAMPLE DESCRIPTION=Div. of Experiment Therapeutics WRAIR, WRAMC, Washingto
n DC 20307
##NAMES=HP
##CAS NAME=9-Nor-10-deoxydihydroartemisinin
##MOLFORM=C14H22O4
##CAS REGISTRY NO=154698-38-1
##MP= -300
##BP= -300
##MW= 254
##$RETENTION INDEX=0
##$CONDENSED SPECTRUM=NO
##NPOINTS= 139
##XYDATA=(XY..XY) 1 
    41        312
    43        999
    44         25
    45         18
    47         10
    48          3
    49          4
    50          2
    51          2
    52          2
    53         85
    54         23
    55        328
    56         24
    57         32
    58         66
    59          9
    60          1
    61          1
    63          2
    65         22
    66         10
    67        128
    68         77
    69        120
    70         14
    71         62
    72          4
    73          3
    74          0
    75          2
    77         34
    78          2
    79         74
    81        121
    82         21
    83         63
    84         54
    85         12
    86         22
    87          0
    88          5
    89          3
    91         35
    93         72
    94         28
    95         82
    96         25
    97         35
    98          3
    99         23
   100          1
   101          0
   102          0
   103          3
   105         26
   106          4
   107         49
   108         15
   109         48
   110         31
   111         49
   112         16
   113          3
   115          2
   117          6
   119         18
   120          9
   121         26
   123        158
   124         56
   125          9
   126          2
   127          1
   128          0
   129          1
   131          5
   132          7
   133         15
   135         47
   136         14
   137         51
   138         22
   139         13
   140          2
   141          1
   143          1
   144          0
   145          3
   146          2
   147          7
   149         34
   151        270
   152         23
   153          3
   154          1
   157          0
   159          3
   160          1
   161          3
   162          5
   164        675
   165         88
   166          8
   167          4
   168          1
   169          2
   173          0
   175          4
   177          5
   178          5
   179          1
   180          7
   181          2
   182          4
   183          0
   184          0
   189          1
   190          1
   191          0
   193         24
   194          5
   195          1
   196          0
   197          1
   204          8
   205          1
   207          3
   208          2
   209          1
   211          0
   221          2
   222        182
   223         25
   224          2
   236          2
   237          0
   239          0
   254          2