##TITLE=Library Entry 40211
##JCAMP-DX=Revision 4.10 
##DATA TYPE=MASS SPECTRUM
##SAMPLE DESCRIPTION=NIST Mass Spectrometry Data Center, 1990.
##NAMES=HP
##CAS NAME=N,N-Dimethyltrifluoroacetamide
##MOLFORM=C4H6F3NO
##CAS REGISTRY NO=1547-87-1
##MP= -300
##BP= -300
##MW= 141
##$RETENTION INDEX=0
##$CONDENSED SPECTRUM=NO
##NPOINTS= 50
##XYDATA=(XY..XY) 1 
    14         28
    15        161
    16          5
    17          5
    18        100
    26          4
    27         30
    28         97
    29         19
    30          4
    31         24
    32          6
    33         19
    38          7
    39         12
    40         40
    41         44
    42        321
    43         69
    44         33
    45          4
    46          4
    50         53
    51          9
    55          7
    56        114
    57          9
    60         74
    64         17
    69        323
    70          8
    72        999
    73         38
    74          4
    76          7
    78        129
    79          6
    80          5
    90         33
    96          5
    97         16
    98          3
   106         12
   110         22
   112         18
   126         26
   133          2
   140         72
   141        433
   142         22