##TITLE=Library Entry 31799
##JCAMP-DX=Revision 4.10 
##DATA TYPE=MASS SPECTRUM
##SAMPLE DESCRIPTION=J. E. CALIN
##NAMES=HP
##CAS NAME=1,3-Dioxepane, 5,5,6,6-tetrafluoro-
##MOLFORM=C5H6F4O2
##CAS REGISTRY NO=1547-52-0
##MP= -300
##BP= -300
##MW= 174
##$RETENTION INDEX=0
##$CONDENSED SPECTRUM=NO
##NPOINTS= 35
##XYDATA=(XY..XY) 1 
    15         30
    26         20
    27         70
    29        190
    30         60
    31        220
    33        180
    42         50
    43         30
    45        100
    46         30
    51        240
    59         20
    61         80
    63         60
    64        999
    65        120
    69        130
    75         50
    76         30
    77        150
    79         30
    80         70
    83         40
    95        260
    96        190
   113        530
   114        250
   115         40
   124        670
   125        170
   143         50
   144         80
   173         50
   174        100