##TITLE=Library Entry 12802
##JCAMP-DX=Revision 4.10 
##DATA TYPE=MASS SPECTRUM
##SAMPLE DESCRIPTION=Chemical Concepts
##NAMES=HP
##CAS NAME=Aluminum, dichloro(2,4-pentanedionato-O,O')-, (t-4)-
##MOLFORM=C5H7AlCl2O2
##CAS REGISTRY NO=15488-12-7
##MP= -300
##BP= -300
##MW= 196
##$RETENTION INDEX=0
##$CONDENSED SPECTRUM=NO
##NPOINTS= 145
##XYDATA=(XY..XY) 1 
    27         68
    29          8
    30          0
    31          1
    35          6
    37          1
    38          0
    39         40
    41          6
    42         43
    43        999
    44         16
    45          1
    49          1
    50          6
    51          6
    52          2
    53         11
    54          3
    55         43
    56          6
    57          2
    58          0
    59          1
    60          0
    61          2
    62         33
    63         14
    64         13
    65          4
    66          3
    67          6
    68          2
    69         14
    70          1
    71          0
    72          0
    73          1
    74          0
    75          3
    76          7
    77         27
    78          7
    79         74
    80          4
    81         20
    82          3
    83          5
    84          5
    85          5
    86          0
    87         13
    88          2
    89         12
    90          5
    91          4
    92          4
    93          0
    94          1
    95          0
    96          0
    97        159
    98          1
    99        105
   100          2
   101         15
   102          1
   103         20
   104          2
   105          6
   106          2
   107          2
   108          1
   109          0
   110          0
   111          5
   112          0
   113          1
   114          0
   115          5
   116          1
   117         18
   118         22
   119         70
   120         10
   121         32
   122          1
   123          3
   124          1
   125          7
   126         11
   127          4
   128          0
   129          3
   131         29
   132         13
   133         12
   134          4
   135          1
   136          1
   137          4
   138          9
   139          7
   140          4
   142          1
   143         13
   144          0
   145         19
   146          2
   149          0
   151          0
   152          0
   153          1
   154          0
   155          2
   156          0
   159          1
   160        244
   161        653
   162        116
   163        178
   164         11
   165          1
   166          1
   167          6
   168          1
   169          2
   171          0
   173          0
   174          1
   180          0
   181        109
   182          6
   183         65
   184          3
   185         10
   186          1
   187          1
   195          5
   196        184
   197          9
   198        106
   199          5
   200         18
   201          1