##TITLE=Library Entry 34851
##JCAMP-DX=Revision 4.10 
##DATA TYPE=MASS SPECTRUM
##SAMPLE DESCRIPTION=A.Pleshkova, Nesmeyanov Inst.Org.Elem.Cpds, Moscow
##NAMES=HP
##CAS NAME=Bis(ditrifluoromethylamino)carbonate
##MOLFORM=C5F12N2O3
##CAS REGISTRY NO=15495-99-5
##MP= -300
##BP= -300
##MW= 364
##$RETENTION INDEX=0
##$CONDENSED SPECTRUM=NO
##NPOINTS= 16
##XYDATA=(XY..XY) 1 
    31        135
    32          2
    44         98
    45          1
    50        145
    51          2
    69        999
    70         11
   108         35
   109          1
   152         11
   168          7
   196         85
   197          3
   364          8
   365          1