##TITLE=Library Entry 48747
##JCAMP-DX=Revision 4.10 
##DATA TYPE=MASS SPECTRUM
##SAMPLE DESCRIPTION=Chemical Concepts
##NAMES=HP
##CAS NAME=Cyclohexa-2,4-dienylmethanol
##MOLFORM=C7H10O
##CAS REGISTRY NO=154916-94-6
##MP= -300
##BP= -300
##MW= 110
##$RETENTION INDEX=0
##$CONDENSED SPECTRUM=NO
##NPOINTS= 74
##XYDATA=(XY..XY) 1 
    25          1
    26         20
    27        117
    28         40
    29         47
    30          4
    31         83
    32          5
    37          9
    38         26
    39        154
    40         21
    41         57
    42          7
    43         17
    44          2
    45          7
    46          0
    49          5
    50         66
    51        155
    52         65
    53         74
    54         20
    55         31
    56          3
    57          4
    58          1
    59          5
    60          0
    61          4
    62         12
    63         31
    64          7
    65         45
    66         20
    67         31
    68          6
    69          5
    70          0
    73          6
    74         14
    75         30
    76         11
    77        509
    78        252
    79        999
    80         94
    81         28
    82          9
    83         20
    84          6
    85          2
    86          1
    87          1
    88          0
    89         11
    90         12
    91        120
    92        121
    93         14
    94          5
    95         11
    96          1
   103          2
   104          2
   105          5
   106          2
   107         52
   108         72
   109         10
   110        113
   111         10
   112          0