##TITLE=Library Entry 51319
##JCAMP-DX=Revision 4.10 
##DATA TYPE=MASS SPECTRUM
##SAMPLE DESCRIPTION=NIST Mass Spectrometry Data Center, 2010
##NAMES=HP
##CAS NAME=Acetic acid, trifluoro-, cyclohexyl ester
##MOLFORM=C8H11F3O2
##CAS REGISTRY NO=1549-45-7
##MP= -300
##BP= -300
##MW= 196
##$RETENTION INDEX=0
##$CONDENSED SPECTRUM=NO
##NPOINTS= 65
##XYDATA=(XY..XY) 1 
    15          3
    26          6
    27         58
    28         21
    29         46
    31          4
    37          2
    38          8
    39        129
    40         26
    41        254
    42         46
    43         53
    44          8
    46          2
    47          3
    50         26
    51         21
    52         11
    53         68
    54        301
    55        365
    56         65
    57         11
    59         34
    60          3
    61          1
    62          1
    63          4
    64          1
    65         21
    67        990
    68         61
    69        348
    71          4
    72          1
    73          2
    74          1
    75          1
    77         24
    78         12
    79         66
    80         12
    81        133
    82        999
    83        604
    84         37
    85          4
    91          1
    97         31
    98          2
    99         18
   106          1
   112         21
   113          2
   115          2
   125         35
   126          2
   127          2
   140         16
   141          2
   153         45
   154          3
   166          1
   167          1