##TITLE=Library Entry 36144
##JCAMP-DX=Revision 4.10 
##DATA TYPE=MASS SPECTRUM
##SAMPLE DESCRIPTION=NIST Mass Spectrometry Data Center
##NAMES=HP
##CAS NAME=Estra-1,3,5(10)-triene-3,17-diol (17.beta.)-, bis(trifluoroacetat
e)
##MOLFORM=C22H22F6O4
##CAS REGISTRY NO=1549-15-1
##MP= -300
##BP= -300
##MW= 464
##$RETENTION INDEX=2355
##$CONDENSED SPECTRUM=NO
##NPOINTS= 315
##XYDATA=(XY..XY) 1 
    15          1
    20          2
    25          1
    26          3
    27         30
    28         21
    29         62
    30          2
    31          8
    33          1
    37          1
    38          1
    39         59
    40         20
    41        251
    42         20
    43         79
    44         19
    45         14
    46          1
    47          6
    49          1
    50         26
    51         36
    52         12
    53        111
    54         17
    55        302
    56         19
    57         29
    58          2
    59         18
    60          2
    61          1
    62          2
    63         19
    64          7
    65         72
    66         19
    67        186
    68         52
    69        999
    70         16
    71         13
    73          6
    74          2
    75          5
    76         10
    77        224
    78         79
    79        277
    80         42
    81        206
    82         28
    83         94
    84         10
    85          8
    86          1
    87          2
    88          3
    89         33
    90         15
    91        391
    92         64
    93        373
    94         98
    95        215
    96         26
    97        230
    98          7
    99          8
   101         11
   102         38
   103        100
   104         51
   105        172
   106         40
   107        250
   108         45
   109         86
   110         11
   111          8
   112         14
   113          6
   114         29
   115        942
   116        234
   117        426
   118         51
   119         80
   120         30
   121         62
   122          7
   123          5
   124          1
   125         20
   126         15
   127        383
   128        489
   129        378
   130         83
   131        123
   132         40
   133        134
   134         41
   135         35
   136          4
   137          7
   138          1
   139         37
   140         80
   141        700
   142        233
   143        573
   144        111
   145        136
   146         40
   147        191
   148         24
   149          4
   150          2
   151         21
   152        104
   153        171
   154         80
   155        163
   156         52
   157         88
   158         50
   159         96
   160         22
   161         12
   162         11
   163          3
   164          9
   165        141
   166         54
   167         93
   168         33
   169         55
   170         22
   171         41
   172         11
   173          9
   174          2
   175         13
   176          7
   177         13
   178         61
   179         81
   180         31
   181         70
   182         26
   183         40
   184         16
   185         23
   186          3
   187         10
   188          4
   189         10
   190          7
   191         18
   192         13
   193         35
   194         16
   195         40
   196         17
   197         27
   198         16
   199         21
   200          4
   201          5
   202          5
   203         48
   204         12
   205          6
   206          5
   207         20
   208          9
   209         23
   210          8
   211         18
   212         16
   213         12
   214          6
   215          4
   216         44
   217         25
   218          3
   219          5
   220          3
   221         15
   222          5
   223          5
   224          2
   225         12
   226          6
   227         25
   228         18
   229        166
   230         38
   231          6
   232          1
   233          2
   234          1
   235         10
   236         62
   237        289
   238         56
   239         10
   240         42
   241        113
   242        129
   243         43
   244          5
   245          1
   247          5
   248          2
   249          3
   250          1
   251          5
   252          5
   253        163
   254        126
   255        278
   256        373
   257         54
   258          5
   259          1
   261          3
   262          1
   263          2
   264          1
   265          2
   266         20
   267         48
   268        205
   269         56
   270          7
   271          1
   273          1
   275         10
   276          2
   277          3
   278          2
   279         13
   280         15
   281         65
   282         50
   283         10
   284          2
   289          2
   290          1
   291          3
   292          5
   293         43
   294         22
   295         56
   296         16
   297          3
   303          1
   304          1
   305          4
   306          3
   307         57
   308         28
   309        396
   310         75
   311          9
   312          1
   315          1
   319          3
   320          4
   321         51
   322         51
   323         16
   324         15
   325          2
   331         39
   332         10
   333          5
   334          1
   335         36
   336          6
   337          2
   338          1
   339          1
   341          1
   345          1
   348          4
   349         20
   350         76
   351        251
   352         59
   353          7
   354          1
   355          1
   367          1
   368          1
   379          1
   380          1
   395          1
   422          3
   423          1
   435          2
   436          9
   437          2
   449          3
   450          1
   462          9
   463          5
   464        621
   465        136
   466         23
   467          3