##TITLE=Library Entry 27597
##JCAMP-DX=Revision 4.10 
##DATA TYPE=MASS SPECTRUM
##SAMPLE DESCRIPTION=RADIAN CORP
##NAMES=HP
##CAS NAME=Ytterbium, tris(2,2,6,6-tetramethyl-3,5-heptanedionato-O,O')-, (O
C-6-11)-
##MOLFORM=C33H57O6Yb
##CAS REGISTRY NO=15492-52-1
##MP= -300
##BP= -300
##MW= 723
##$RETENTION INDEX=0
##$CONDENSED SPECTRUM=NO
##NPOINTS= 113
##XYDATA=(XY..XY) 1 
    27         16
    29        119
    39         64
    40         13
    41        268
    42         19
    43        204
    53         15
    55         80
    56         36
    57        999
    58         10
    67         14
    69         76
    70          4
    71          3
    79         27
    81        146
    82          8
    83         70
    85         54
    97          4
    99         14
   109        144
   111         16
   127        421
   128         35
   184         55
   189         66
   191         44
   241          6
   247          3
   255         14
   263          6
   270          9
   271         21
   272          6
   282          6
   283         26
   284         23
   285          6
   294          5
   295         20
   296         25
   297         73
   298         61
   299         83
   300         28
   301         37
   302          6
   309          5
   310         11
   311         22
   312         21
   313         24
   314          6
   315        120
   316         19
   317         58
   323         16
   324         12
   327         15
   334         25
   335         15
   337         26
   338         92
   339        156
   340        146
   341        216
   342         99
   343         90
   344         18
   353         54
   354        377
   355        608
   356        487
   357        672
   358         58
   359        321
   360         36
   361          9
   372         75
   373         21
   374         49
   376          3
   465          6
   466          6
   468          6
   480         21
   481         22
   482         89
   483         15
   484         16
   485         17
   507         16
   508         24
   509          6
   510         23
   511          6
   521          7
   522         15
   523         10
   526         13
   538         26
   540         54
   542         46
   543          6
   664          6
   665          8
   667         11
   668          4
   669          7
   708          4