##TITLE=Library Entry 90141
##JCAMP-DX=Revision 4.10 
##DATA TYPE=MASS SPECTRUM
##SAMPLE DESCRIPTION=Finnigan MAT: Toxicological Library (LIBR-TX)
##NAMES=HP
##CAS NAME=Trifluperazine sulfoxide
##MOLFORM=C21H24F3N3OS
##CAS REGISTRY NO=1549-88-8
##MP= -300
##BP= -300
##MW= 423
##$RETENTION INDEX=0
##$CONDENSED SPECTRUM=NO
##NPOINTS= 30
##XYDATA=(XY..XY) 1 
    56         74
    58         66
    69         78
    70        536
    71        172
    84         79
    85         94
    97         80
    98        105
    99         76
   111         88
   113        999
   114         83
   127        171
   141        347
   196         67
   247         58
   248        255
   249         56
   266        233
   267         65
   280        154
   281         66
   292         54
   293         66
   294         90
   306        194
   307        120
   350         75
   407          0