##TITLE=Library Entry 34838
##JCAMP-DX=Revision 4.10 
##DATA TYPE=MASS SPECTRUM
##SAMPLE DESCRIPTION=A.Pleshkova, Nesmeyanov Inst.Org.Elem.Cpds, Moscow
##NAMES=HP
##CAS NAME=Ditrifluoromethyl(fluorocarbonyloxy)amine
##MOLFORM=C3F7NO2
##CAS REGISTRY NO=15496-00-1
##MP= -300
##BP= -300
##MW= 215
##$RETENTION INDEX=0
##$CONDENSED SPECTRUM=NO
##NPOINTS= 19
##XYDATA=(XY..XY) 1 
    31        123
    32          2
    47        275
    48          3
    50        132
    51          2
    63          3
    69        999
    70         11
    99          3
   108         72
   109          2
   114         16
   133          7
   149          6
   152          1
   168          2
   196          5
   215          4