##TITLE=Library Entry 3464
##JCAMP-DX=Revision 4.10 
##DATA TYPE=MASS SPECTRUM
##SAMPLE DESCRIPTION=Scientific Instruments & Applications
##NAMES=HP
##CAS NAME=N-(6-hydroxyhexyl)-2-methyl-2-propenamide
##MOLFORM=C10H19NO2
##CAS REGISTRY NO=155041-71-7
##MP= -300
##BP= -300
##MW= 185
##$RETENTION INDEX=0
##$CONDENSED SPECTRUM=NO
##NPOINTS= 70
##XYDATA=(XY..XY) 1 
    39        263
    40         71
    41        999
    42         87
    43         42
    44         19
    45          7
    52          4
    53         21
    54         23
    55        123
    56         23
    57          9
    58         25
    59          6
    65          2
    66          4
    67         24
    69        877
    70         69
    71          4
    72          3
    73          2
    79          6
    80          4
    81         18
    82         30
    83         20
    84         48
    86        123
    87         29
    88          3
    93          2
    94          4
    95         10
    96         12
    98        329
    99        189
   100         20
   101          2
   107          1
   108          3
   109          4
   110         18
   111          6
   112         52
   113         18
   114          2
   121          3
   122          5
   124         25
   126         67
   127          6
   132          3
   134          1
   138         10
   139         11
   140         22
   141          3
   150          3
   152         11
   154         16
   155          1
   164          2
   166         10
   167         16
   168         45
   169          4
   184         32
   185          2