##TITLE=Library Entry 99737
##JCAMP-DX=Revision 4.10 
##DATA TYPE=MASS SPECTRUM
##SAMPLE DESCRIPTION=Japan AIST/NIMC Database- Spectrum MS-IW-2547
##NAMES=HP
##CAS NAME=3,5-Diphenyl-1,3-oxazolidine
##MOLFORM=C15H15NO
##CAS REGISTRY NO=155086-08-1
##MP= -300
##BP= -300
##MW= 225
##$RETENTION INDEX=0
##$CONDENSED SPECTRUM=NO
##NPOINTS= 73
##XYDATA=(XY..XY) 1 
    15          2
    27          5
    28          5
    29          1
    38          3
    39         18
    40          2
    41         13
    42         21
    43          1
    50          9
    51         46
    52          9
    53          2
    62          2
    63         13
    64          8
    65         32
    66          5
    70          1
    74          3
    75          3
    76          6
    77        174
    78         31
    79          5
    83          1
    89         19
    90         24
    91        870
    92         87
    93          9
    94          1
    96          1
   102          3
   103         16
   104        133
   105         29
   106         10
   107          1
   112         23
   113          4
   115          1
   116          6
   117          9
   118         48
   119        999
   120        100
   121          8
   128          1
   134          1
   146          1
   152          3
   153          1
   165          6
   166          2
   167          4
   168          1
   177          1
   178          1
   179          1
   180          1
   192          1
   193          5
   194         35
   195          7
   196         12
   197          2
   223          2
   224          5
   225        273
   226         46
   227          4