##TITLE=Library Entry 7209
##JCAMP-DX=Revision 4.10 
##DATA TYPE=MASS SPECTRUM
##SAMPLE DESCRIPTION=Japan AIST/NIMC Database- Spectrum MS-IW-6056
##NAMES=HP
##CAS NAME=Cholestane, 3,5-dichloro-6-nitro-, (3.beta.,5.alpha.,6.beta.)-
##MOLFORM=C27H45Cl2NO2
##CAS REGISTRY NO=15505-92-7
##MP= -300
##BP= -300
##MW= 485
##$RETENTION INDEX=0
##$CONDENSED SPECTRUM=NO
##NPOINTS= 425
##XYDATA=(XY..XY) 1 
    14          2
    15          7
    16          2
    25          1
    26          8
    27         91
    28         43
    29        264
    30         90
    31          2
    35         76
    36        631
    37         25
    38        211
    39         85
    40         18
    41        796
    42         91
    43        999
    44         49
    45          4
    46          9
    47          4
    49          2
    50          4
    51         15
    52          9
    53        147
    54         36
    55        989
    56        229
    57        952
    58         52
    59          5
    60          2
    61          1
    62          3
    63         12
    64          4
    65         83
    66         33
    67        573
    68        211
    69        904
    70        198
    71        601
    72         36
    73          2
    74          2
    75         23
    76          5
    77        236
    78         60
    79        554
    80         97
    81        948
    82        172
    83        595
    84         85
    85        131
    86         10
    87          5
    88          3
    89         26
    90          9
    91        617
    92        124
    93        638
    94        184
    95        928
    96        121
    97        356
    98         45
    99         49
   100          7
   101         25
   102          9
   103         69
   104         47
   105        544
   106        147
   107        605
   108        244
   109        471
   110         84
   111        228
   112         34
   113         81
   114         11
   115        115
   116         59
   117        241
   118        112
   119        401
   120        159
   121        349
   122         98
   123        221
   124         39
   125         84
   126         64
   127         78
   128        107
   129        205
   130         92
   131        297
   132         92
   133        351
   134        116
   135        319
   136        111
   137        113
   138         33
   139         43
   140         47
   141        128
   142        114
   143        279
   144        126
   145        377
   146        113
   147        264
   148         89
   149        165
   150         54
   151        109
   152         91
   153         56
   154         35
   155        153
   156        126
   157        277
   158        138
   159        261
   160         90
   161        146
   162         52
   163         96
   164         27
   165         72
   166         39
   167         79
   168         49
   169        184
   170         68
   171        149
   172        121
   173        123
   174         70
   175         67
   176         37
   177         52
   178         32
   179        145
   180         48
   181        172
   182         82
   183        153
   184         59
   185        124
   186         61
   187         78
   188         39
   189         41
   190         34
   191         45
   192         30
   193        530
   194        150
   195        310
   196        120
   197        152
   198         70
   199        103
   200         48
   201         51
   202         33
   203         43
   204         27
   205         78
   206         47
   207         96
   208         40
   209        111
   210         52
   211        229
   212         79
   213        208
   214         69
   215         48
   216         32
   217         28
   218         21
   219        113
   220         38
   221         98
   222         38
   223         63
   224         44
   225        250
   226         82
   227         88
   228         41
   229         59
   230         32
   231         30
   232         28
   233        137
   234         41
   235        138
   236         45
   237         85
   238         37
   239         55
   240         30
   241         37
   242         58
   243         37
   244         28
   245         47
   246         45
   247        406
   248        143
   249        527
   250        163
   251        200
   252         81
   253         84
   254         35
   255         59
   256         33
   257         30
   258         43
   259         60
   260         61
   261        252
   262        143
   263        290
   264        125
   265        165
   266         74
   267         48
   268         24
   269         22
   270         16
   271         42
   272         28
   273         69
   274         42
   275        130
   276         51
   277         85
   278        148
   279         65
   280         81
   281         40
   282         35
   283        401
   284        143
   285        333
   286        102
   287        114
   288         50
   289        181
   290         85
   291        370
   292        127
   293        126
   294         86
   295         49
   296         35
   297         59
   298         37
   299         47
   300         39
   301         60
   302         24
   303         21
   304         16
   305         17
   306         25
   307         19
   308         43
   309         29
   310         23
   311         37
   312         17
   313         25
   314         18
   315         11
   316         25
   317         73
   318         38
   319         54
   320         46
   321         31
   322         31
   323         24
   324         20
   325         63
   326         38
   327         44
   328         27
   329         38
   330         24
   331         44
   332         20
   333         27
   334         20
   335         14
   336         53
   337         17
   338         25
   339         14
   340         12
   341         13
   342         15
   343          8
   344         13
   345         14
   346         13
   347         12
   348         17
   349         10
   350         24
   351         40
   352         27
   353         55
   354         35
   355         34
   356         52
   357         16
   358          8
   359          9
   360         10
   361         10
   362         15
   363         10
   364         24
   365         93
   366         91
   367         93
   368        166
   369         65
   370         50
   371         30
   372         22
   373         16
   374          8
   375          9
   376         13
   377         16
   378         30
   379         19
   380         19
   381         22
   382         24
   383         86
   384         45
   385         23
   386         29
   387        156
   388         56
   389        130
   390         49
   391         35
   392         18
   394          5
   395          8
   396         93
   397         36
   398         30
   399          3
   401        466
   402        496
   403        937
   404        556
   405        340
   406        162
   407         37
   408         13
   413         44
   414        133
   415         43
   416         62
   417         18
   418         17
   419        142
   420         47
   421         54
   422         17
   423         22
   425         12
   432        258
   433         83
   434        167
   435         49
   436         24
   437        463
   438        317
   439        370
   440        213
   441         97
   442         38
   443          9
   449        191
   450         61
   451         71
   452         21
   453          3
   454          1
   455         10
   456          4
   457          7
   458          2
   459          2
   468          2
   470          2
   471          1
   472          1
   485          6
   486          2
   487          4
   488          1
   489          1