##TITLE=Library Entry 8543
##JCAMP-DX=Revision 4.10 
##DATA TYPE=MASS SPECTRUM
##SAMPLE DESCRIPTION=NIST Mass Spectrometry Data Center
##NAMES=HP
##CAS NAME=1-Heptafluorobutyryloxy-2-methylpentane
##MOLFORM=C10H13F7O2
##CAS REGISTRY NO=155089-98-8
##MP= -300
##BP= -300
##MW= 298
##$RETENTION INDEX=877
##$CONDENSED SPECTRUM=NO
##NPOINTS= 75
##XYDATA=(XY..XY) 1 
    15          4
    20          1
    26          6
    27        110
    28         23
    29        137
    30          5
    31         13
    33          2
    37          1
    38          4
    39        110
    40         24
    41        405
    42        166
    43        999
    44         40
    45          7
    47          4
    50          8
    51          7
    52          2
    53         26
    54         15
    55        255
    56        390
    57         80
    58          5
    59          4
    61          7
    62          2
    63          1
    64          1
    65          4
    66          1
    67         18
    69        533
    70         33
    71        504
    72         29
    73          1
    77          1
    78          4
    79          2
    80          1
    81          7
    82          3
    83         16
    84        237
    85        168
    86         11
    93          3
   100         68
   101          2
   109         18
   110          1
   111          1
   112          1
   113          1
   119         46
   120          1
   129          6
   131          7
   147          1
   150         11
   151          1
   159          1
   169        210
   170          7
   197         11
   199          1
   213          1
   225          1
   255          3
   269          2