##TITLE=Library Entry 8541
##JCAMP-DX=Revision 4.10 
##DATA TYPE=MASS SPECTRUM
##SAMPLE DESCRIPTION=NIST Mass Spectrometry Data Center
##NAMES=HP
##CAS NAME=1-Trifluoroacetoxy-2-methylpentane
##MOLFORM=C8H13F3O2
##CAS REGISTRY NO=155089-96-6
##MP= -300
##BP= -300
##MW= 198
##$RETENTION INDEX=817
##$CONDENSED SPECTRUM=NO
##NPOINTS= 72
##XYDATA=(XY..XY) 1 
    15          6
    20          1
    26          8
    27        137
    28         25
    29        158
    30          6
    31          7
    33          4
    37          2
    38          7
    39        141
    40         30
    41        457
    42        187
    43        999
    44         41
    45          5
    47          7
    50         17
    51         10
    52          3
    53         30
    54         15
    55        259
    56        426
    57         55
    58          3
    59          8
    60          2
    61          7
    62          1
    63          2
    65          5
    66          2
    67         17
    69        614
    70         36
    71        612
    72         35
    73          1
    77          2
    78          9
    79          1
    80          1
    81          1
    82          1
    83         16
    84        171
    85        125
    86          8
    95          1
    97         33
    98          1
    99         41
   100          2
   111          1
   113          4
   115          1
   119          1
   125          4
   126          1
   127          3
   128          1
   129          9
   130          1
   141          1
   150          1
   153          1
   154          1
   155          7
   169          4