##TITLE=Library Entry 38668
##JCAMP-DX=Revision 4.10 
##DATA TYPE=MASS SPECTRUM
##SAMPLE DESCRIPTION=NIST Mass Spectrometry Data Center
##NAMES=HP
##CAS NAME=Heptafluorobutyric acid, 2-pentyl ester
##MOLFORM=C9H11F7O2
##CAS REGISTRY NO=155090-64-5
##MP= -300
##BP= -300
##MW= 284
##$RETENTION INDEX=787
##$CONDENSED SPECTRUM=NO
##NPOINTS= 89
##XYDATA=(XY..XY) 1 
    14          1
    15         13
    19          1
    20          1
    25          1
    26         13
    27        182
    28         41
    29        216
    30          5
    31         19
    32          1
    33          3
    37          2
    38          9
    39        156
    40         31
    41        378
    42        248
    43        908
    44         52
    45         33
    46          1
    47         65
    48          1
    50         16
    51         13
    52          3
    53         32
    54         16
    55        766
    56         38
    57          5
    58          2
    59          3
    61          3
    62          3
    63          2
    65          4
    66          1
    67         13
    69        664
    70        688
    71        999
    72         57
    73          2
    74          1
    75          1
    77          1
    78          9
    81         12
    82          1
    85          2
    86          3
    90          1
    93         20
    94          2
    95          1
    97          1
   100        156
   101          4
   109         41
   110          1
   112          2
   113          2
   119        105
   120          2
   131         17
   132          1
   147          3
   150         23
   151          1
   159          2
   169        814
   170         29
   178          5
   195          1
   197        111
   198          5
   199          1
   213        197
   214         12
   215          9
   240         35
   241        358
   242         27
   243          3
   255          1
   269          5